# vtk DataFile Version 2.0
Calculation C:\Users\NickSteudtner\Documents\GitHub\TOCHNOG\standsicherheit_phiC at time 4.000000000000e+00 
ASCII
DATASET UNSTRUCTURED_GRID
Field FieldData 1
Time 1 1 double
4.000000000000e+00

POINTS 1191 float
0.0 0.0 0.0 
5.000000000000e+01 -1.000000000000e+01 0.0 
0.0 -2.000000000000e+01 0.0 
5.000000000000e+01 -2.000000000000e+01 0.0 
0.0 -9.999999999991e-01 0.0 
0.0 -1.999999999998e+00 0.0 
0.0 -2.999999999997e+00 0.0 
0.0 -3.999999999994e+00 0.0 
0.0 -4.999999999991e+00 0.0 
0.0 -5.999999999988e+00 0.0 
0.0 -6.999999999985e+00 0.0 
0.0 -7.999999999982e+00 0.0 
0.0 -8.999999999983e+00 0.0 
0.0 -9.999999999985e+00 0.0 
0.0 -1.099999999999e+01 0.0 
0.0 -1.199999999999e+01 0.0 
0.0 -1.299999999999e+01 0.0 
0.0 -1.399999999999e+01 0.0 
0.0 -1.499999999999e+01 0.0 
0.0 -1.599999999999e+01 0.0 
0.0 -1.700000000000e+01 0.0 
0.0 -1.800000000000e+01 0.0 
0.0 -1.900000000000e+01 0.0 
4.900000000001e+01 -2.000000000000e+01 0.0 
4.800000000001e+01 -2.000000000000e+01 0.0 
4.700000000002e+01 -2.000000000000e+01 0.0 
4.600000000003e+01 -2.000000000000e+01 0.0 
4.500000000004e+01 -2.000000000000e+01 0.0 
4.400000000004e+01 -2.000000000000e+01 0.0 
4.300000000005e+01 -2.000000000000e+01 0.0 
4.200000000006e+01 -2.000000000000e+01 0.0 
4.100000000006e+01 -2.000000000000e+01 0.0 
4.000000000007e+01 -2.000000000000e+01 0.0 
3.900000000008e+01 -2.000000000000e+01 0.0 
3.800000000009e+01 -2.000000000000e+01 0.0 
3.700000000009e+01 -2.000000000000e+01 0.0 
3.600000000010e+01 -2.000000000000e+01 0.0 
3.500000000011e+01 -2.000000000000e+01 0.0 
3.400000000011e+01 -2.000000000000e+01 0.0 
3.300000000012e+01 -2.000000000000e+01 0.0 
3.200000000013e+01 -2.000000000000e+01 0.0 
3.100000000013e+01 -2.000000000000e+01 0.0 
3.000000000013e+01 -2.000000000000e+01 0.0 
2.900000000013e+01 -2.000000000000e+01 0.0 
2.800000000013e+01 -2.000000000000e+01 0.0 
2.700000000013e+01 -2.000000000000e+01 0.0 
2.600000000013e+01 -2.000000000000e+01 0.0 
2.500000000013e+01 -2.000000000000e+01 0.0 
2.400000000013e+01 -2.000000000000e+01 0.0 
2.300000000013e+01 -2.000000000000e+01 0.0 
2.200000000013e+01 -2.000000000000e+01 0.0 
2.100000000013e+01 -2.000000000000e+01 0.0 
2.000000000013e+01 -2.000000000000e+01 0.0 
1.900000000013e+01 -2.000000000000e+01 0.0 
1.800000000013e+01 -2.000000000000e+01 0.0 
1.700000000012e+01 -2.000000000000e+01 0.0 
1.600000000011e+01 -2.000000000000e+01 0.0 
1.500000000011e+01 -2.000000000000e+01 0.0 
1.400000000010e+01 -2.000000000000e+01 0.0 
1.300000000009e+01 -2.000000000000e+01 0.0 
1.200000000009e+01 -2.000000000000e+01 0.0 
1.100000000008e+01 -2.000000000000e+01 0.0 
1.000000000007e+01 -2.000000000000e+01 0.0 
9.000000000064e+00 -2.000000000000e+01 0.0 
8.000000000057e+00 -2.000000000000e+01 0.0 
7.000000000050e+00 -2.000000000000e+01 0.0 
6.000000000043e+00 -2.000000000000e+01 0.0 
5.000000000036e+00 -2.000000000000e+01 0.0 
4.000000000028e+00 -2.000000000000e+01 0.0 
3.000000000021e+00 -2.000000000000e+01 0.0 
2.000000000014e+00 -2.000000000000e+01 0.0 
1.000000000007e+00 -2.000000000000e+01 0.0 
5.000000000000e+01 -1.100000000000e+01 0.0 
5.000000000000e+01 -1.200000000000e+01 0.0 
5.000000000000e+01 -1.300000000000e+01 0.0 
5.000000000000e+01 -1.400000000000e+01 0.0 
5.000000000000e+01 -1.500000000000e+01 0.0 
5.000000000000e+01 -1.600000000000e+01 0.0 
5.000000000000e+01 -1.700000000000e+01 0.0 
5.000000000000e+01 -1.800000000000e+01 0.0 
5.000000000000e+01 -1.900000000000e+01 0.0 
2.000000000000e+01 0.0 0.0 
3.500000000000e+01 -1.000000000000e+01 0.0 
2.150000000000e+01 -1.000000000000e+00 0.0 
2.300000000000e+01 -2.000000000000e+00 0.0 
2.450000000000e+01 -3.000000000000e+00 0.0 
2.600000000000e+01 -4.000000000000e+00 0.0 
2.750000000000e+01 -5.000000000000e+00 0.0 
2.900000000000e+01 -6.000000000000e+00 0.0 
3.050000000000e+01 -7.000000000000e+00 0.0 
3.200000000000e+01 -8.000000000000e+00 0.0 
3.350000000000e+01 -9.000000000000e+00 0.0 
5.000000000000e+01 -3.000000000000e+00 0.0 
5.000000000000e+01 -4.000000000000e+00 0.0 
5.000000000000e+01 -5.000000000000e+00 0.0 
5.000000000000e+01 -6.000000000000e+00 0.0 
5.000000000000e+01 -7.000000000000e+00 0.0 
5.000000000000e+01 -8.000000000000e+00 0.0 
5.000000000000e+01 -9.000000000000e+00 0.0 
4.900000000000e+01 -1.000000000000e+01 0.0 
4.800000000000e+01 -1.000000000000e+01 0.0 
4.700000000000e+01 -1.000000000000e+01 0.0 
4.600000000000e+01 -1.000000000000e+01 0.0 
4.500000000000e+01 -1.000000000000e+01 0.0 
4.400000000000e+01 -1.000000000000e+01 0.0 
4.300000000000e+01 -1.000000000000e+01 0.0 
4.200000000000e+01 -1.000000000000e+01 0.0 
4.100000000000e+01 -1.000000000000e+01 0.0 
4.000000000000e+01 -1.000000000000e+01 0.0 
3.900000000000e+01 -1.000000000000e+01 0.0 
3.800000000000e+01 -1.000000000000e+01 0.0 
3.700000000000e+01 -1.000000000000e+01 0.0 
3.600000000000e+01 -1.000000000000e+01 0.0 
1.900000000000e+01 0.0 0.0 
1.800000000000e+01 0.0 0.0 
1.700000000000e+01 0.0 0.0 
1.600000000000e+01 0.0 0.0 
1.500000000000e+01 0.0 0.0 
1.400000000000e+01 0.0 0.0 
1.300000000000e+01 0.0 0.0 
1.200000000000e+01 0.0 0.0 
1.100000000000e+01 0.0 0.0 
1.000000000000e+01 0.0 0.0 
9.000000000000e+00 0.0 0.0 
8.000000000000e+00 0.0 0.0 
7.000000000000e+00 0.0 0.0 
6.000000000000e+00 0.0 0.0 
5.000000000000e+00 0.0 0.0 
4.000000000000e+00 0.0 0.0 
3.000000000000e+00 0.0 0.0 
2.000000000000e+00 0.0 0.0 
1.000000000000e+00 0.0 0.0 
2.548076923077e+01 -3.000000000000e+00 0.0 
2.646153846153e+01 -3.000000000000e+00 0.0 
2.744230769230e+01 -3.000000000000e+00 0.0 
2.842307692306e+01 -3.000000000000e+00 0.0 
2.940384615383e+01 -3.000000000000e+00 0.0 
3.038461538459e+01 -3.000000000000e+00 0.0 
3.136538461536e+01 -3.000000000000e+00 0.0 
3.234615384612e+01 -3.000000000000e+00 0.0 
3.332692307687e+01 -3.000000000000e+00 0.0 
3.430769230762e+01 -3.000000000000e+00 0.0 
3.528846153837e+01 -3.000000000000e+00 0.0 
3.626923076912e+01 -3.000000000000e+00 0.0 
3.724999999988e+01 -3.000000000000e+00 0.0 
3.823076923065e+01 -3.000000000000e+00 0.0 
3.921153846143e+01 -3.000000000000e+00 0.0 
4.019230769221e+01 -3.000000000000e+00 0.0 
4.117307692299e+01 -3.000000000000e+00 0.0 
4.215384615377e+01 -3.000000000000e+00 0.0 
4.313461538455e+01 -3.000000000000e+00 0.0 
4.411538461533e+01 -3.000000000000e+00 0.0 
4.509615384611e+01 -3.000000000000e+00 0.0 
4.607692307688e+01 -3.000000000000e+00 0.0 
4.705769230766e+01 -3.000000000000e+00 0.0 
4.803846153844e+01 -3.000000000000e+00 0.0 
4.901923076922e+01 -3.000000000000e+00 0.0 
4.900000000000e+01 -4.000000000000e+00 0.0 
4.800000000000e+01 -4.000000000000e+00 0.0 
4.700000000000e+01 -4.000000000000e+00 0.0 
4.600000000000e+01 -4.000000000000e+00 0.0 
4.500000000000e+01 -4.000000000000e+00 0.0 
4.400000000000e+01 -4.000000000000e+00 0.0 
4.300000000000e+01 -4.000000000000e+00 0.0 
4.200000000000e+01 -4.000000000000e+00 0.0 
4.100000000000e+01 -4.000000000000e+00 0.0 
4.000000000000e+01 -4.000000000000e+00 0.0 
3.900000000000e+01 -4.000000000000e+00 0.0 
3.800000000000e+01 -4.000000000000e+00 0.0 
3.700000000000e+01 -4.000000000000e+00 0.0 
3.600000000000e+01 -4.000000000000e+00 0.0 
3.500000000000e+01 -4.000000000000e+00 0.0 
3.400000000000e+01 -4.000000000000e+00 0.0 
3.300000000000e+01 -4.000000000000e+00 0.0 
3.200000000000e+01 -4.000000000000e+00 0.0 
3.100000000000e+01 -4.000000000000e+00 0.0 
3.000000000000e+01 -4.000000000000e+00 0.0 
2.900000000000e+01 -4.000000000000e+00 0.0 
2.800000000000e+01 -4.000000000000e+00 0.0 
2.700000000000e+01 -4.000000000000e+00 0.0 
2.847826086957e+01 -5.000000000000e+00 0.0 
2.945652173913e+01 -5.000000000000e+00 0.0 
3.043478260870e+01 -5.000000000000e+00 0.0 
3.141304347826e+01 -5.000000000000e+00 0.0 
3.239130434783e+01 -5.000000000000e+00 0.0 
3.336956521739e+01 -5.000000000000e+00 0.0 
3.434782608696e+01 -5.000000000000e+00 0.0 
3.532608695652e+01 -5.000000000000e+00 0.0 
3.630434782609e+01 -5.000000000000e+00 0.0 
3.728260869565e+01 -5.000000000000e+00 0.0 
3.826086956522e+01 -5.000000000000e+00 0.0 
3.923913043478e+01 -5.000000000000e+00 0.0 
4.021739130435e+01 -5.000000000000e+00 0.0 
4.119565217391e+01 -5.000000000000e+00 0.0 
4.217391304348e+01 -5.000000000000e+00 0.0 
4.315217391304e+01 -5.000000000000e+00 0.0 
4.413043478261e+01 -5.000000000000e+00 0.0 
4.510869565217e+01 -5.000000000000e+00 0.0 
4.608695652174e+01 -5.000000000000e+00 0.0 
4.706521739130e+01 -5.000000000000e+00 0.0 
4.804347826087e+01 -5.000000000000e+00 0.0 
4.902173913043e+01 -5.000000000000e+00 0.0 
4.900000000001e+01 -6.000000000000e+00 0.0 
4.800000000003e+01 -6.000000000000e+00 0.0 
4.700000000004e+01 -6.000000000000e+00 0.0 
4.600000000006e+01 -6.000000000000e+00 0.0 
4.500000000007e+01 -6.000000000000e+00 0.0 
4.400000000009e+01 -6.000000000000e+00 0.0 
4.300000000010e+01 -6.000000000000e+00 0.0 
4.200000000012e+01 -6.000000000000e+00 0.0 
4.100000000013e+01 -6.000000000000e+00 0.0 
4.000000000014e+01 -6.000000000000e+00 0.0 
3.900000000014e+01 -6.000000000000e+00 0.0 
3.800000000012e+01 -6.000000000000e+00 0.0 
3.700000000010e+01 -6.000000000000e+00 0.0 
3.600000000008e+01 -6.000000000000e+00 0.0 
3.500000000006e+01 -6.000000000000e+00 0.0 
3.400000000005e+01 -6.000000000000e+00 0.0 
3.300000000003e+01 -6.000000000000e+00 0.0 
3.200000000001e+01 -6.000000000000e+00 0.0 
3.100000000000e+01 -6.000000000000e+00 0.0 
3.000000000000e+01 -6.000000000000e+00 0.0 
3.147499999998e+01 -7.000000000000e+00 0.0 
3.244999999998e+01 -7.000000000000e+00 0.0 
3.342499999998e+01 -7.000000000000e+00 0.0 
3.439999999998e+01 -7.000000000000e+00 0.0 
3.537499999998e+01 -7.000000000000e+00 0.0 
3.634999999998e+01 -7.000000000000e+00 0.0 
3.732499999998e+01 -7.000000000000e+00 0.0 
3.829999999998e+01 -7.000000000000e+00 0.0 
3.927499999999e+01 -7.000000000000e+00 0.0 
4.024999999999e+01 -7.000000000000e+00 0.0 
4.122499999999e+01 -7.000000000000e+00 0.0 
4.219999999999e+01 -7.000000000000e+00 0.0 
4.317499999999e+01 -7.000000000000e+00 0.0 
4.414999999999e+01 -7.000000000000e+00 0.0 
4.512499999999e+01 -7.000000000000e+00 0.0 
4.609999999999e+01 -7.000000000000e+00 0.0 
4.707500000000e+01 -7.000000000000e+00 0.0 
4.805000000000e+01 -7.000000000000e+00 0.0 
4.902500000000e+01 -7.000000000000e+00 0.0 
4.900000000000e+01 -8.000000000000e+00 0.0 
4.800000000000e+01 -8.000000000000e+00 0.0 
4.700000000000e+01 -8.000000000000e+00 0.0 
4.600000000000e+01 -8.000000000000e+00 0.0 
4.500000000000e+01 -8.000000000000e+00 0.0 
4.400000000000e+01 -8.000000000000e+00 0.0 
4.300000000000e+01 -8.000000000000e+00 0.0 
4.200000000000e+01 -8.000000000000e+00 0.0 
4.100000000000e+01 -8.000000000000e+00 0.0 
4.000000000000e+01 -8.000000000000e+00 0.0 
3.900000000000e+01 -8.000000000000e+00 0.0 
3.800000000000e+01 -8.000000000000e+00 0.0 
3.700000000000e+01 -8.000000000000e+00 0.0 
3.600000000000e+01 -8.000000000000e+00 0.0 
3.500000000000e+01 -8.000000000000e+00 0.0 
3.400000000000e+01 -8.000000000000e+00 0.0 
3.300000000000e+01 -8.000000000000e+00 0.0 
3.447058823527e+01 -9.000000000000e+00 0.0 
3.544117647055e+01 -9.000000000000e+00 0.0 
3.641176470582e+01 -9.000000000000e+00 0.0 
3.738235294109e+01 -9.000000000000e+00 0.0 
3.835294117637e+01 -9.000000000000e+00 0.0 
3.932352941164e+01 -9.000000000000e+00 0.0 
4.029411764691e+01 -9.000000000000e+00 0.0 
4.126470588219e+01 -9.000000000000e+00 0.0 
4.223529411748e+01 -9.000000000000e+00 0.0 
4.320588235279e+01 -9.000000000000e+00 0.0 
4.417647058811e+01 -9.000000000000e+00 0.0 
4.514705882342e+01 -9.000000000000e+00 0.0 
4.611764705874e+01 -9.000000000000e+00 0.0 
4.708823529405e+01 -9.000000000000e+00 0.0 
4.805882352937e+01 -9.000000000000e+00 0.0 
4.902941176468e+01 -9.000000000000e+00 0.0 
2.075000000000e+01 -5.000000000006e-01 0.0 
2.225000000000e+01 -1.500000000000e+00 0.0 
2.375000000000e+01 -2.500000000000e+00 0.0 
2.525000000000e+01 -3.500000000000e+00 0.0 
2.675000000000e+01 -4.500000000000e+00 0.0 
2.825000000000e+01 -5.500000000000e+00 0.0 
2.975000000000e+01 -6.500000000000e+00 0.0 
3.125000000000e+01 -7.500000000000e+00 0.0 
3.275000000000e+01 -8.500000000000e+00 0.0 
3.425000000000e+01 -9.500000000000e+00 0.0 
2.226951693683e+01 -2.403913980114e+00 0.0 
1.650149491944e+01 -1.913490915758e+01 0.0 
1.050042386896e+01 -8.504605092970e-01 0.0 
1.553146524712e+01 -8.281255032105e-01 0.0 
1.150000000008e+01 -1.913397459621e+01 0.0 
2.530060260647e+01 -4.428336431260e+00 0.0 
8.651114563942e-01 -1.052096295641e+01 0.0 
2.050000000013e+01 -1.913397459622e+01 0.0 
2.819198729811e+01 -6.399519052838e+00 0.0 
2.445670302931e+01 -1.915649188023e+01 0.0 
3.117591465718e+01 -8.394293040695e+00 0.0 
7.465053044742e+00 -1.920411160581e+01 0.0 
6.398295709691e+00 -8.230098819370e-01 0.0 
2.849659607461e+01 -1.914296187762e+01 0.0 
3.418732642882e+01 -1.040265792588e+01 0.0 
8.386450935063e-01 -6.533605142809e+00 0.0 
9.178661865596e-01 -1.329769195597e+01 0.0 
3.149448624493e+01 -1.910466733764e+01 0.0 
3.552916747426e+01 -1.914628590759e+01 0.0 
4.449210346537e+01 -1.914359085008e+01 0.0 
4.140975975145e+01 -1.906941860733e+01 0.0 
3.847475958753e+01 -1.916622382724e+01 0.0 
3.653774794640e+01 -1.088712800241e+01 0.0 
4.047886341787e+01 -1.090139014048e+01 0.0 
4.348006339825e+01 -1.092792621489e+01 0.0 
4.919519968029e+01 -1.451526755068e+01 0.0 
4.500000000032e+00 -1.913397459621e+01 0.0 
1.856136921614e+01 -8.212235170404e-01 0.0 
3.499895312306e+00 -8.661165539723e-01 0.0 
9.076088696565e-01 -1.642306201891e+01 0.0 
4.655174095477e+01 -1.086183387525e+01 0.0 
9.430688970604e-01 -3.496112672958e+00 0.0 
3.353992337063e+01 -1.901202090820e+01 0.0 
2.249746016977e+01 -1.921262287282e+01 0.0 
2.650122741777e+01 -1.916123026018e+01 0.0 
1.863571384842e+01 -1.908325534840e+01 0.0 
1.450089971693e+01 -1.917691901860e+01 0.0 
1.350044695317e+01 -8.659695299584e-01 0.0 
3.849987469880e+01 -1.084154983397e+01 0.0 
9.454419857884e+00 -1.900818879936e+01 0.0 
4.917398660523e+01 -1.645692866081e+01 0.0 
8.500000000000e+00 -8.660254037844e-01 0.0 
8.660319230785e-01 -8.500111697188e+00 0.0 
4.649022621545e+01 -1.930506220113e+01 0.0 
2.667688107845e+01 -5.420288124331e+00 0.0 
2.379251615665e+01 -3.412225477429e+00 0.0 
2.966631491830e+01 -7.389030232731e+00 0.0 
3.267915035995e+01 -9.396934932445e+00 0.0 
2.074836922338e+01 -1.320054020319e+00 0.0 
4.915985743621e+01 -1.261973384855e+01 0.0 
2.527129768623e+00 -1.931592414663e+01 0.0 
1.538676247410e+00 -8.436956619311e-01 0.0 
4.908096641539e+01 -1.842484004551e+01 0.0 
3.478612492673e+01 -1.090889364140e+01 0.0 
3.409757055860e+01 -1.131991530427e+01 0.0 
3.501895309466e+01 -1.177687842717e+01 0.0 
3.407758073088e+01 -1.224293381580e+01 0.0 
3.484541875390e+01 -1.277051428430e+01 0.0 
3.400322025842e+01 -1.319022775640e+01 0.0 
3.321672625034e+01 -1.266779191233e+01 0.0 
3.315244139236e+01 -1.360984106532e+01 0.0 
3.236335186892e+01 -1.308463225210e+01 0.0 
3.478337442841e+01 -1.372341158982e+01 0.0 
3.230105923633e+01 -1.403023731610e+01 0.0 
3.150954055289e+01 -1.350301767700e+01 0.0 
3.144604792090e+01 -1.444931742516e+01 0.0 
3.065653897123e+01 -1.392357262981e+01 0.0 
3.071897610812e+01 -1.297447031198e+01 0.0 
2.986790411740e+01 -1.339226181535e+01 0.0 
2.993181466745e+01 -1.244703272398e+01 0.0 
2.908023061869e+01 -1.286254537734e+01 0.0 
2.901619051372e+01 -1.380881655279e+01 0.0 
2.822986160390e+01 -1.327695262116e+01 0.0 
2.829453476870e+01 -1.233265343811e+01 0.0 
2.744542905518e+01 -1.274510491105e+01 0.0 
2.751120089246e+01 -1.180368086886e+01 0.0 
2.666218649885e+01 -1.221619339205e+01 0.0 
2.672371209234e+01 -1.127125228527e+01 0.0 
2.587763216302e+01 -1.168539979114e+01 0.0 
2.581165585299e+01 -1.262994410089e+01 0.0 
2.502890882577e+01 -1.209827323619e+01 0.0 
2.509631327757e+01 -1.115492410304e+01 0.0 
2.424662989877e+01 -1.156630981079e+01 0.0 
2.431704046904e+01 -1.062389179334e+01 0.0 
2.346445438728e+01 -1.103427680694e+01 0.0 
2.339382552877e+01 -1.197964871788e+01 0.0 
2.260936050780e+01 -1.144513277642e+01 0.0 
2.268075012022e+01 -1.049911928216e+01 0.0 
2.182525737661e+01 -1.090920811464e+01 0.0 
2.189682319817e+01 -9.961716944568e+00 0.0 
2.104174127792e+01 -1.037266986667e+01 0.0 
2.111304367575e+01 -9.424179358711e+00 0.0 
2.025306185381e+01 -9.832727364719e+00 0.0 
2.018141124247e+01 -1.079140628871e+01 0.0 
1.938594498257e+01 -1.025147354112e+01 0.0 
1.946106490453e+01 -9.288010758448e+00 0.0 
1.858929958352e+01 -9.706319802516e+00 0.0 
1.851540991219e+01 -1.067205988724e+01 0.0 
1.771485303178e+01 -1.012504443115e+01 0.0 
1.764134552256e+01 -1.109360378538e+01 0.0 
1.683745148095e+01 -1.054496365337e+01 0.0 
1.691852964353e+01 -9.582555261178e+00 0.0 
1.603603813062e+01 -1.000160132379e+01 0.0 
1.595824239350e+01 -1.096750698862e+01 0.0 
1.515080624291e+01 -1.041639501931e+01 0.0 
1.523171602559e+01 -9.451711491453e+00 0.0 
1.434621060709e+01 -9.871956467464e+00 0.0 
1.426777178765e+01 -1.083749501371e+01 0.0 
1.345775282374e+01 -1.028803175500e+01 0.0 
1.354103873368e+01 -9.324918457162e+00 0.0 
1.265072018622e+01 -9.742612837270e+00 0.0 
1.257285762070e+01 -1.071557782384e+01 0.0 
1.175874815690e+01 -1.015972324288e+01 0.0 
1.184203019714e+01 -9.193604071377e+00 0.0 
1.094927709905e+01 -9.612103238656e+00 0.0 
1.086938022910e+01 -1.058685085646e+01 0.0 
1.005424098961e+01 -1.002939116380e+01 0.0 
9.977974613295e+00 -1.101324897989e+01 0.0 
1.012915646404e+01 -9.051815821181e+00 0.0 
9.237127782494e+00 -9.471239055559e+00 0.0 
9.308426593771e+00 -8.483376461131e+00 0.0 
8.418806073345e+00 -8.910712374517e+00 0.0 
2.253688464062e+01 -1.239459402279e+01 0.0 
8.495126726666e+00 -7.921646665254e+00 0.0 
9.389727383206e+00 -7.512103628377e+00 0.0 
7.601560812974e+00 -8.349460349344e+00 0.0 
7.525680547759e+00 -9.339736686940e+00 0.0 
7.677888324502e+00 -7.359727833346e+00 0.0 
6.782001206724e+00 -7.788454494773e+00 0.0 
6.858778622885e+00 -6.797338062822e+00 0.0 
2.196596590865e+01 -8.979025665442e+00 0.0 
2.816540108272e+01 -1.422634142353e+01 0.0 
5.961601194403e+00 -7.226824010712e+00 0.0 
6.038171749656e+00 -6.234825887079e+00 0.0 
6.936257279557e+00 -5.805287640737e+00 0.0 
6.115068918323e+00 -5.242109758768e+00 0.0 
3.564391741903e+01 -1.329240553876e+01 0.0 
3.558115605778e+01 -1.425902892003e+01 0.0 
3.645445282201e+01 -1.381970786460e+01 0.0 
3.639744204358e+01 -1.479198128612e+01 0.0 
3.727266909778e+01 -1.435399586226e+01 0.0 
5.216667013081e+00 -5.671788584287e+00 0.0 
3.220697293295e+01 -1.499594545107e+01 0.0 
3.551112158269e+01 -1.523479869250e+01 0.0 
2.836056961467e+01 -1.139032434851e+01 0.0 
2.516730388602e+01 -1.021382726837e+01 0.0 
1.844436907403e+01 -1.164097215196e+01 0.0 
5.885434318740e+00 -8.218694781467e+00 0.0 
5.064071066867e+00 -7.656614643901e+00 0.0 
4.988089103470e+00 -8.649722082718e+00 0.0 
1.079421050408e+01 -1.157014985435e+01 0.0 
9.902420005256e+00 -1.199903342656e+01 0.0 
1.071994252214e+01 -1.255727909771e+01 0.0 
9.826974788171e+00 -1.298659581767e+01 0.0 
1.064607883789e+01 -1.354595476388e+01 0.0 
9.751541265343e+00 -1.397556905071e+01 0.0 
8.932296185869e+00 -1.341553353988e+01 0.0 
8.856399248106e+00 -1.440570715508e+01 0.0 
8.036186803543e+00 -1.384470558472e+01 0.0 
1.057112875118e+01 -1.453516759081e+01 0.0 
1.146582585687e+01 -1.410539926903e+01 0.0 
7.959894480382e+00 -1.483563350928e+01 0.0 
7.138792279156e+00 -1.427465094140e+01 0.0 
7.062506792418e+00 -1.526615385482e+01 0.0 
6.240693558277e+00 -1.470508863040e+01 0.0 
6.316957575451e+00 -1.371212581281e+01 0.0 
5.418183007107e+00 -1.414253605022e+01 0.0 
5.494748364428e+00 -1.314886770603e+01 0.0 
1.756825565873e+01 -1.206433872514e+01 0.0 
1.837565773345e+01 -1.261356468266e+01 0.0 
1.749574831391e+01 -1.303769280014e+01 0.0 
1.830539187332e+01 -1.358828364284e+01 0.0 
1.742278925170e+01 -1.401367746928e+01 0.0 
1.823303007798e+01 -1.456432294258e+01 0.0 
1.734941694138e+01 -1.499213734361e+01 0.0 
1.653760041637e+01 -1.443920312098e+01 0.0 
3.056237977307e+01 -1.487132260174e+01 0.0 
1.866469084762e+01 -8.742953000418e+00 0.0 
1.953669694916e+01 -8.326038909849e+00 0.0 
1.874194303780e+01 -7.780688158966e+00 0.0 
1.961032016741e+01 -7.366854697285e+00 0.0 
1.881715755159e+01 -6.821102209649e+00 0.0 
1.968369797150e+01 -6.407747217358e+00 0.0 
1.889237123259e+01 -5.858375520026e+00 0.0 
1.802038875366e+01 -6.276202618170e+00 0.0 
1.809793837984e+01 -5.307629520489e+00 0.0 
1.721985207997e+01 -5.728242054488e+00 0.0 
1.729850893523e+01 -4.756990819347e+00 0.0 
1.641745664240e+01 -5.174636548624e+00 0.0 
2.495978509456e+01 -1.304406404294e+01 0.0 
1.911567814831e+01 -1.413854250293e+01 0.0 
1.904387332608e+01 -1.511463127723e+01 0.0 
1.992115934240e+01 -1.468788025898e+01 0.0 
7.013706899628e+00 -4.812582868662e+00 0.0 
5.342091874585e+00 -1.513658157269e+01 0.0 
1.139098043784e+01 -1.509488509480e+01 0.0 
1.228151810610e+01 -1.465617481983e+01 0.0 
1.646373110164e+01 -1.541993323337e+01 0.0 
5.293328636712e+00 -4.678385108584e+00 0.0 
1.975965862987e+01 -5.448124345648e+00 0.0 
2.054318374236e+01 -5.992561293251e+00 0.0 
3.721453439063e+01 -1.533216152738e+01 0.0 
3.809302733893e+01 -1.489235527381e+01 0.0 
1.220852788900e+01 -1.565304565230e+01 0.0 
4.394120899730e+00 -5.108397613210e+00 0.0 
8.779354620288e+00 -1.539524721159e+01 0.0 
1.817791047702e+01 -4.338570146253e+00 0.0 
4.518860013839e+00 -1.457343189307e+01 0.0 
4.442712140414e+00 -1.556841391069e+01 0.0 
8.115343466391e+00 -1.285760324283e+01 0.0 
1.985334703171e+01 -1.566478400426e+01 0.0 
2.071953850276e+01 -1.522074243119e+01 0.0 
1.634012953883e+01 -6.154777738301e+00 0.0 
1.553479994708e+01 -5.593730508879e+00 0.0 
1.561265946942e+01 -4.617761762647e+00 0.0 
1.470674212978e+01 -5.064576488228e+00 0.0 
1.464498299883e+01 -6.026514471420e+00 0.0 
1.383271561817e+01 -5.467796261169e+00 0.0 
1.389241253067e+01 -4.504338666645e+00 0.0 
1.301868735463e+01 -4.907185188626e+00 0.0 
1.294514184846e+01 -5.888160903592e+00 0.0 
1.212955968622e+01 -5.328262335277e+00 0.0 
1.220721122383e+01 -4.341264976687e+00 0.0 
1.131324345897e+01 -4.766773516508e+00 0.0 
5.266597955397e+00 -1.613148974258e+01 0.0 
1.737805990867e+01 -3.786677807525e+00 0.0 
3.078438094513e+01 -1.203225297748e+01 0.0 
1.131569882285e+01 -1.608511932110e+01 0.0 
1.728478341782e+01 -1.596017432313e+01 0.0 
3.803465906019e+01 -1.587509751228e+01 0.0 
3.891681276677e+01 -1.543395196905e+01 0.0 
3.897340985302e+01 -1.444710288980e+01 0.0 
3.980095968193e+01 -1.499059496613e+01 0.0 
3.974334598189e+01 -1.597921884150e+01 0.0 
4.062964983717e+01 -1.553518690417e+01 0.0 
4.068729602479e+01 -1.454434445295e+01 0.0 
4.151772679790e+01 -1.508974196007e+01 0.0 
4.157505195739e+01 -1.409694289912e+01 0.0 
4.240699932656e+01 -1.464347955968e+01 0.0 
4.234898051011e+01 -1.563721375790e+01 0.0 
4.323934606035e+01 -1.519082036405e+01 0.0 
4.329740528208e+01 -1.419587509788e+01 0.0 
4.413056841369e+01 -1.474359631875e+01 0.0 
4.418850110108e+01 -1.374786684042e+01 0.0 
4.502219770667e+01 -1.429605103525e+01 0.0 
4.496411937907e+01 -1.529215882720e+01 0.0 
4.490027319897e+00 -4.154167794594e+00 0.0 
1.565080385988e+01 -1.486411982419e+01 0.0 
1.557610691279e+01 -1.584855627870e+01 0.0 
4.195350646612e+00 -8.089117689096e+00 0.0 
4.124027797830e+00 -9.082831955007e+00 0.0 
4.917944318925e+00 -9.643530901533e+00 0.0 
4.020105689502e+00 -1.007439673661e+01 0.0 
4.587185899277e+01 -1.484039992728e+01 0.0 
4.580078661551e+01 -1.584043391042e+01 0.0 
2.061956522375e+01 -5.046701343981e+00 0.0 
2.139572955529e+01 -5.579553449826e+00 0.0 
3.715344357292e+01 -1.631485124583e+01 0.0 
3.618886196443e+00 -1.500471207167e+01 0.0 
3.695606940204e+00 -1.400939692294e+01 0.0 
2.438890661143e+01 -9.686110599723e+00 0.0 
2.523267572778e+01 -9.276766000622e+00 0.0 
2.446094171539e+01 -8.751904591412e+00 0.0 
2.529089822738e+01 -8.321495612547e+00 0.0 
2.606882688827e+01 -8.864724051119e+00 0.0 
2.452116646430e+01 -7.792756462004e+00 0.0 
1.235543269617e+01 -1.365845617339e+01 0.0 
4.318116874181e+01 -1.618567469992e+01 0.0 
7.835066111909e+00 -5.376366223896e+00 0.0 
7.905687335704e+00 -4.382539065697e+00 0.0 
3.542640009567e+00 -1.600035116542e+01 0.0 
1.572431503071e+01 -1.388358386695e+01 0.0 
2.574684696680e+01 -1.357896141127e+01 0.0 
2.488842657651e+01 -1.399674354505e+01 0.0 
2.568301775611e+01 -1.453552048595e+01 0.0 
2.481535572009e+01 -1.495542756508e+01 0.0 
2.561729699688e+01 -1.549784648532e+01 0.0 
2.474623061296e+01 -1.592058894178e+01 0.0 
2.394234041695e+01 -1.537572575827e+01 0.0 
2.065825452567e+01 -1.621899055217e+01 0.0 
2.387180528935e+01 -1.634552264687e+01 0.0 
4.585364400844e+01 -1.383912334080e+01 0.0 
1.998744432052e+01 -1.370317155541e+01 0.0 
1.205356951443e+01 -6.313580285498e+00 0.0 
5.396543905849e+00 -3.731818611283e+00 0.0 
1.139652573295e+01 -3.745819399350e+00 0.0 
3.574124306703e+00 -4.551456826011e+00 0.0 
3.494140761930e+00 -5.539787055649e+00 0.0 
1.213651452413e+01 -1.664505033022e+01 0.0 
2.555045568519e+01 -1.646529356744e+01 0.0 
2.641671114986e+01 -1.603899382371e+01 0.0 
2.612920721894e+01 -7.906435260873e+00 0.0 
2.690339829698e+01 -8.456969591431e+00 0.0 
1.978024383368e+01 -1.664410216353e+01 0.0 
3.732829979082e+01 -1.336926601859e+01 0.0 
4.074336584605e+01 -1.355133328401e+01 0.0 
4.163204691081e+01 -1.310280943992e+01 0.0 
3.773826114429e+00 -3.493444309145e+00 0.0 
1.228783001032e+01 -3.374822835872e+00 0.0 
4.057110462520e+01 -1.652588478000e+01 0.0 
2.132535497898e+01 -6.523623360525e+00 0.0 
2.216932532211e+01 -6.110044769206e+00 0.0 
1.825781152128e+01 -3.370146817147e+00 0.0 
1.745679445888e+01 -2.812942552063e+00 0.0 
4.666517057280e+01 -1.539981381543e+01 0.0 
4.660575894464e+01 -1.639014410186e+01 0.0 
4.838230979954e+00 -1.063643436446e+01 0.0 
3.938942630206e+00 -1.106778981745e+01 0.0 
1.302967218620e+01 -1.621373452436e+01 0.0 
1.049548003190e+01 -4.204825123240e+00 0.0 
4.573571907195e+01 -1.683820511148e+01 0.0 
1.483686335807e+01 -1.430849689310e+01 0.0 
1.490982658890e+01 -1.332679386284e+01 0.0 
3.190805600162e+00 -9.510968358545e+00 0.0 
2.146625721848e+01 -4.642437303115e+00 0.0 
2.069866208266e+01 -4.111852942193e+00 0.0 
1.286859345584e+01 -6.873252723348e+00 0.0 
1.041794493184e+01 -5.194814260291e+00 0.0 
2.671081808965e+00 -4.976806516331e+00 0.0 
1.295786792925e+01 -1.720506531799e+01 0.0 
3.968438206511e+01 -1.696869067241e+01 0.0 
2.308550456051e+01 -1.579963151273e+01 0.0 
2.315593682844e+01 -1.482967445235e+01 0.0 
2.299471449450e+01 -1.677069968132e+01 0.0 
1.057344714696e+01 -3.214252277840e+00 0.0 
1.124057603753e+01 -1.707713739755e+01 0.0 
2.718402535754e+00 -1.543629882103e+01 0.0 
2.638549692805e+01 -1.696744916809e+01 0.0 
2.723416349007e+01 -1.658104204545e+01 0.0 
2.210193351704e+01 -7.046769643417e+00 0.0 
2.295180925161e+01 -6.657397605239e+00 0.0 
2.301355235833e+01 -5.709111896800e+00 0.0 
2.379052718281e+01 -6.254965406962e+00 0.0 
3.243528601237e+01 -1.214181853533e+01 0.0 
2.287977995457e+01 -7.583722368300e+00 0.0 
2.999876029544e+01 -1.150837653096e+01 0.0 
3.084435366963e+01 -1.109693775882e+01 0.0 
3.006650579669e+01 -1.057778994262e+01 0.0 
2.683802665066e+01 -9.386863216633e+00 0.0 
2.768641973621e+01 -8.988883915666e+00 0.0 
2.040296980397e+01 -7.903629133404e+00 0.0 
1.925235024054e+01 -1.218872783130e+01 0.0 
5.735667000424e+00 -1.020577277283e+01 0.0 
6.396559909872e+00 -1.272326295703e+01 0.0 
1.161199420714e+01 -1.212812778229e+01 0.0 
4.229046132615e+01 -1.663084237572e+01 0.0 
4.312275399692e+01 -1.718087491556e+01 0.0 
4.335502068163e+01 -1.320039231514e+01 0.0 
4.424630298089e+01 -1.275160688731e+01 0.0 
7.090116643816e+00 -3.818998061530e+00 0.0 
7.989472176569e+00 -3.389238711200e+00 0.0 
9.085824861778e+00 -1.144036167408e+01 0.0 
1.041972423731e+01 -1.651614080893e+01 0.0 
3.797525112640e+01 -1.686052038746e+01 0.0 
3.709114253394e+01 -1.730125999865e+01 0.0 
3.626966748340e+01 -1.675477052919e+01 0.0 
1.385164591440e+01 -1.677597757552e+01 0.0 
1.787152588784e+01 -8.198993896093e+00 0.0 
1.668849729812e+01 -1.248560611628e+01 0.0 
1.659546177905e+01 -3.232482605530e+00 0.0 
2.332214717345e+01 -1.292598167641e+01 0.0 
7.168238450786e+00 -2.824711686516e+00 0.0 
2.894878403906e+01 -1.475427524446e+01 0.0 
2.646763248247e+00 -1.643270107952e+01 0.0 
3.467431944285e+00 -1.699648837348e+01 0.0 
2.059475877282e+01 -1.719473628526e+01 0.0 
3.333868355437e+01 -1.080596971682e+01 0.0 
2.246451062637e+01 -1.334557761546e+01 0.0 
2.167821896388e+01 -1.280847834858e+01 0.0 
3.089653185767e+01 -1.017198487212e+01 0.0 
3.012604365669e+01 -9.657298805968e+00 0.0 
2.929627299435e+01 -1.006100135274e+01 0.0 
2.936201435219e+01 -9.136748899251e+00 0.0 
1.198219052702e+01 -7.291887238230e+00 0.0 
1.116702076035e+01 -6.731976101053e+00 0.0 
2.551388807505e+01 -1.746927036981e+01 0.0 
2.378639090370e+01 -1.728678807149e+01 0.0 
2.718543627188e+01 -1.748668016909e+01 0.0 
2.804681050301e+01 -1.712626668293e+01 0.0 
1.970737034667e+01 -1.762317646822e+01 0.0 
1.889535776135e+01 -1.707158098231e+01 0.0 
2.593777711283e+00 -5.971157087874e+00 0.0 
2.773468281110e+01 -8.067164273938e+00 0.0 
4.051205884347e+01 -1.751819982458e+01 0.0 
3.166903145421e+01 -1.068032992414e+01 0.0 
1.033042452886e+01 -1.748285844336e+01 0.0 
9.519274604626e+00 -1.694349240233e+01 0.0 
1.668308673328e+01 -2.255861778986e+00 0.0 
1.570531902832e+01 -2.676795860126e+00 0.0 
4.655826903379e+01 -1.736656245706e+01 0.0 
2.384148070773e+01 -5.328744256413e+00 0.0 
2.460255123641e+01 -5.852182672816e+00 0.0 
2.306638135119e+01 -4.798935440613e+00 0.0 
8.467720450578e-01 -1.849576263072e+01 0.0 
4.849657322345e+01 -1.084860705506e+01 0.0 
2.565860899507e+00 -1.742859793981e+01 0.0 
2.764418872564e+01 -9.927142821799e+00 0.0 
4.565165880064e+01 -1.785336695404e+01 0.0 
2.162231831329e+01 -1.376528337468e+01 0.0 
2.360646352969e+01 -9.136041963102e+00 0.0 
1.392738739903e+01 -1.578285505772e+01 0.0 
4.756405947478e+01 -1.683706841809e+01 0.0 
4.740895034054e+01 -1.793766756892e+01 0.0 
4.080779328826e+01 -1.257387192544e+01 0.0 
4.168907939671e+01 -1.210739129181e+01 0.0 
3.991197722154e+01 -1.300815793917e+01 0.0 
1.905536506762e+01 -3.940076697685e+00 0.0 
1.923879596617e+01 -2.875000734166e+00 0.0 
4.401386745746e+01 -1.673483229438e+01 0.0 
4.247233362525e+00 -7.094581653070e+00 0.0 
3.286051630211e+00 -7.635300020553e+00 0.0 
9.609533347623e+00 -4.594311677967e+00 0.0 
9.523554636369e+00 -5.595597029530e+00 0.0 
5.660336628893e+00 -1.119290329628e+01 0.0 
6.558070063295e+00 -1.076385809362e+01 0.0 
2.809866407414e+01 -1.518037766799e+01 0.0 
2.888868674504e+01 -1.570360690070e+01 0.0 
2.654431550819e+01 -1.411217777162e+01 0.0 
1.402158265969e+01 -1.375404617952e+01 0.0 
1.409592494026e+01 -1.277071998942e+01 0.0 
1.499355196178e+01 -1.235270737023e+01 0.0 
4.221535326155e+01 -1.759335617494e+01 0.0 
4.305583287033e+01 -1.822663146802e+01 0.0 
1.280748808359e+01 -7.834332838285e+00 0.0 
1.368988389326e+01 -7.420529606172e+00 0.0 
1.110091796060e+01 -7.683966794328e+00 0.0 
3.963446145980e+01 -1.794331310122e+01 0.0 
3.423932362213e+00 -1.796415590455e+01 0.0 
4.280814572302e+00 -1.752272834860e+01 0.0 
8.050136380041e+00 -2.421582378631e+00 0.0 
8.888674091650e+00 -2.984264211327e+00 0.0 
2.152839430898e+01 -3.732609965436e+00 0.0 
2.077799585292e+01 -3.183896021866e+00 0.0 
3.618719395821e+01 -1.770276572576e+01 0.0 
3.538165138340e+01 -1.718709995539e+01 0.0 
3.702925326420e+01 -1.828844288807e+01 0.0 
1.756739438711e+00 -5.353284859169e+00 0.0 
2.233710191104e+01 -1.527265621324e+01 0.0 
1.389483555057e+01 -1.771797164730e+01 0.0 
1.475634224300e+01 -1.728357428390e+01 0.0 
1.298797563052e+01 -1.825968924755e+01 0.0 
2.145331271866e+01 -1.673705379077e+01 0.0 
2.133282821169e+01 -1.769400773673e+01 0.0 
2.292139194136e+01 -1.774915400288e+01 0.0 
1.750750053243e+01 -1.861475593469e+00 0.0 
4.830478841772e+01 -1.752611802221e+01 0.0 
4.341203507805e+01 -1.220326745522e+01 0.0 
1.685254151866e+01 -1.443085301632e+00 0.0 
4.431538535165e+01 -1.171841387375e+01 0.0 
4.511308610496e+01 -1.229557320599e+01 0.0 
4.510133242889e+01 -1.123680627466e+01 0.0 
1.846818030617e+00 -4.410877617069e+00 0.0 
3.995468694584e+01 -1.186571542989e+01 0.0 
3.901387459804e+01 -1.242507616755e+01 0.0 
8.966735877533e+00 -1.837818700423e+00 0.0 
4.049310011091e+01 -1.848269508791e+01 0.0 
7.278862053803e+00 -1.918523922691e+00 0.0 
6.429715522129e+00 -2.316676521184e+00 0.0 
9.443505505022e+00 -1.792198868094e+01 0.0 
8.620386951051e+00 -1.737590365556e+01 0.0 
8.571868171503e+00 -1.834436667826e+01 0.0 
7.758629848526e+00 -1.775677907213e+01 0.0 
7.806648388584e+00 -1.680761266021e+01 0.0 
6.908555145436e+00 -1.723746463044e+01 0.0 
4.251709122090e+01 -1.156937480156e+01 0.0 
6.931136405615e+00 -1.832465719263e+01 0.0 
6.015545461353e+00 -1.768865355295e+01 0.0 
5.960535926343e+00 -1.872011001764e+01 0.0 
3.023253444786e+01 -8.761960642196e+00 0.0 
2.454622702599e+01 -6.749421992767e+00 0.0 
2.537499741604e+01 -6.347634963783e+00 0.0 
2.544077378460e+01 -5.431358513649e+00 0.0 
2.801367161747e+01 -1.820907270221e+01 0.0 
2.884507806914e+01 -1.762032095326e+01 0.0 
1.821474531936e+00 -1.588901260460e+01 0.0 
1.821006262604e+00 -1.489370287756e+01 0.0 
4.599962488908e+01 -1.176478780598e+01 0.0 
4.705457470007e+01 -1.172182804229e+01 0.0 
4.667668314802e+01 -1.263464558483e+01 0.0 
4.759648056504e+01 -1.252380987933e+01 0.0 
4.728041618103e+01 -1.341928568376e+01 0.0 
4.825209352360e+01 -1.330491640804e+01 0.0 
4.778118233428e+01 -1.420151961695e+01 0.0 
2.388192727579e+01 -1.826934810142e+01 0.0 
2.381714684947e+01 -4.385917965223e+00 0.0 
3.172733219247e+01 -9.758744265248e+00 0.0 
1.882012070658e+01 -1.805540597212e+01 0.0 
1.805667505243e+01 -1.742221226236e+01 0.0 
2.852599958080e+01 -8.597196079481e+00 0.0 
2.856486123437e+01 -7.661382718527e+00 0.0 
1.111792842875e+01 -1.818223852980e+01 0.0 
2.203322722466e+01 -7.986646678802e+00 0.0 
3.955703676900e+01 -1.903246763601e+01 0.0 
1.944842206513e+01 -8.038750575182e-01 0.0 
1.909882767783e+01 -1.746322740933e+00 0.0 
2.281147422941e+01 -8.525912918334e+00 0.0 
2.850633001468e+01 -9.533271335986e+00 0.0 
2.532883344309e+01 -7.308951659710e+00 0.0 
2.620475466461e+01 -6.979208585400e+00 0.0 
1.396278270396e+01 -1.475095389807e+01 0.0 
9.791001166724e+00 -2.554159793552e+00 0.0 
2.229293380421e+01 -4.269762271052e+00 0.0 
4.677238984118e+01 -1.430071795514e+01 0.0 
2.228658385918e+01 -3.344747535984e+00 0.0 
8.940223674553e-01 -1.543595733415e+01 0.0 
2.118566862474e+01 -8.435876987696e+00 0.0 
2.678325936437e+01 -1.032621195706e+01 0.0 
2.223400220487e+01 -5.179046761770e+00 0.0 
2.375370625384e+01 -7.251580562134e+00 0.0 
3.156971327386e+01 -1.255534750737e+01 0.0 
3.328226391312e+01 -1.172914813316e+01 0.0 
3.250948774219e+01 -1.120157009348e+01 0.0 
2.032993445717e+01 -8.867880112202e+00 0.0 
2.697226974856e+01 -7.536633082045e+00 0.0 
2.707377810386e+01 -6.590835263295e+00 0.0 
2.914099246827e+01 -1.191678458549e+01 0.0 
3.544824072239e+01 -1.621126558525e+01 0.0 
3.456511855436e+01 -1.665054783843e+01 0.0 
3.448395810225e+01 -1.759117813016e+01 0.0 
3.368378673938e+01 -1.708037781328e+01 0.0 
3.375560452567e+01 -1.610973066913e+01 0.0 
3.288001547988e+01 -1.654324255651e+01 0.0 
3.282475929147e+01 -1.749725654692e+01 0.0 
3.199880906313e+01 -1.697294088625e+01 0.0 
3.197001272932e+01 -1.811667776864e+01 0.0 
3.111884713021e+01 -1.742166785755e+01 0.0 
3.120418962865e+01 -1.642155709385e+01 0.0 
3.034666704371e+01 -1.683123833816e+01 0.0 
3.026224379976e+01 -1.772592851714e+01 0.0 
3.046632362943e+01 -1.582232843075e+01 0.0 
1.961344017324e+01 -1.857459447985e+01 0.0 
2.274975894774e+01 -9.532738811922e+00 0.0 
1.833923246887e+01 -2.396746883672e+00 0.0 
1.988859500848e+01 -2.249244376594e+00 0.0 
2.758045562861e+01 -1.086434261689e+01 0.0 
3.247300178163e+01 -1.909930104252e+01 0.0 
3.461947482503e+01 -1.911879848019e+01 0.0 
2.047161538662e+01 -6.941478180358e+00 0.0 
2.750230940214e+01 -1.915490590764e+01 0.0 
3.165081350803e+01 -1.161860780120e+01 0.0 
1.897456727641e+01 -4.889634688522e+00 0.0 
2.549338539756e+01 -1.914858252089e+01 0.0 
3.462873135081e+01 -1.567482276144e+01 0.0 
3.384432415243e+01 -1.512280684518e+01 0.0 
3.471433767690e+01 -1.469086942990e+01 0.0 
3.651470373046e+01 -1.918207952149e+01 0.0 
3.901742690249e+01 -1.345028556517e+01 0.0 
2.153224102692e+01 -1.920169709333e+01 0.0 
1.918382939341e+01 -1.316226275662e+01 0.0 
2.005389162382e+01 -1.271962165174e+01 0.0 
2.011472087878e+01 -1.175029352900e+01 0.0 
3.210679478412e+01 -1.598038618242e+01 0.0 
1.752175226543e+01 -1.914713022656e+01 0.0 
1.696897240059e+01 -1.832772588765e+01 0.0 
1.599682523337e+01 -1.832599992024e+01 0.0 
1.644507199462e+01 -1.743697981535e+01 0.0 
1.549987712903e+01 -1.915192375101e+01 0.0 
3.050250861901e+01 -1.918943550234e+01 0.0 
2.949944061527e+01 -1.922950455235e+01 0.0 
1.375892575273e+01 -6.447160534926e+00 0.0 
1.457223670180e+01 -7.006709243857e+00 0.0 
1.450818793236e+01 -7.965943451779e+00 0.0 
1.538804712402e+01 -7.553409623699e+00 0.0 
1.545817644768e+01 -6.580929593419e+00 0.0 
1.626506893751e+01 -7.129032608911e+00 0.0 
1.619833811522e+01 -8.086588580887e+00 0.0 
1.714448609609e+01 -6.697429609777e+00 0.0 
2.887616543568e+01 -1.668015232137e+01 0.0 
1.349814589130e+01 -1.918225301544e+01 0.0 
1.153887772210e+01 -1.311384581217e+01 0.0 
1.242708159886e+01 -1.267046795531e+01 0.0 
1.249799674267e+01 -1.169005616014e+01 0.0 
6.631723893693e+00 -9.774184881867e+00 0.0 
7.451471631867e+00 -1.033148796006e+01 0.0 
7.377795355458e+00 -1.132196345268e+01 0.0 
5.810931797536e+00 -9.211654212252e+00 0.0 
2.402683899133e+01 -1.441378562320e+01 0.0 
1.249768692036e+01 -1.917388426624e+01 0.0 
1.580373499437e+01 -1.290751860664e+01 0.0 
8.344650507834e+00 -9.898403995170e+00 0.0 
3.750622115305e+01 -1.086526401533e+01 0.0 
3.699391251667e+01 -1.171695900794e+01 0.0 
3.606517829518e+01 -1.173717504500e+01 0.0 
3.650257641795e+01 -1.270047380221e+01 0.0 
3.808951488918e+01 -1.183518714175e+01 0.0 
4.760380962420e+00 -1.162484888315e+01 0.0 
3.861210370848e+00 -1.205657631736e+01 0.0 
3.038284309476e+00 -1.149851280664e+01 0.0 
2.961598794889e+00 -1.248856794980e+01 0.0 
2.138953225512e+00 -1.193212674534e+01 0.0 
2.227383593457e+00 -1.096258903918e+01 0.0 
2.043265419276e+00 -1.292158472959e+01 0.0 
1.252449446028e+00 -1.225502002753e+01 0.0 
3.949985210740e+01 -1.086594001795e+01 0.0 
1.453499444792e+01 -8.768805922472e-01 0.0 
1.403518950933e+01 -1.749965556633e+00 0.0 
1.300715031023e+01 -1.714737233040e+00 0.0 
1.350929389899e+01 -2.527443911291e+00 0.0 
1.449600910711e+01 -2.595486162864e+00 0.0 
1.395693872901e+01 -3.484211041558e+00 0.0 
1.495105865208e+01 -3.364609636216e+00 0.0 
1.508822528740e+01 -1.766586020494e+00 0.0 
1.250223858430e+01 -8.634590186802e-01 0.0 
1.200279523409e+01 -1.709044504992e+00 0.0 
1.150086239419e+01 -8.592789190668e-01 0.0 
1.101482754194e+01 -1.677730591922e+00 0.0 
1.148018564526e+01 -2.659323866909e+00 0.0 
8.800552119754e+00 -3.989875954728e+00 0.0 
3.452790439430e+00 -1.901136170646e+01 0.0 
8.658451825200e-01 -9.503462241795e+00 0.0 
1.694787786797e+00 -9.000589234502e+00 0.0 
1.703436717094e+00 -8.038819004041e+00 0.0 
2.594197971110e+00 -8.563955242845e+00 0.0 
1.630513735412e+00 -9.907244747511e+00 0.0 
8.566859292791e-01 -7.512203837972e+00 0.0 
1.685461277022e+00 -7.164280248030e+00 0.0 
2.506394468801e+00 -8.623386730818e-01 0.0 
2.007475081581e+00 -1.727729545205e+00 0.0 
9.211534699767e-01 -1.628791366312e+00 0.0 
1.500000000020e+00 -2.598063549486e+00 0.0 
2.482078929963e+00 -2.553580088725e+00 0.0 
2.999795253092e+00 -1.732169015019e+00 0.0 
3.999712607169e+00 -1.728832897453e+00 0.0 
4.499752199340e+00 -8.656478679175e-01 0.0 
4.964377774841e+00 -1.730129617941e+00 0.0 
4.425017908337e+00 -2.597541756243e+00 0.0 
5.446573195014e+00 -8.410144840023e-01 0.0 
4.915722346614e+01 -1.550640962770e+01 0.0 
4.826794919243e+01 -1.600000000000e+01 0.0 
1.053139533193e+01 -1.911782884365e+01 0.0 
4.156049861949e+01 -1.095160998589e+01 0.0 
9.494526624416e+00 -8.650570090219e-01 0.0 
4.555762166964e+01 -1.897098103585e+01 0.0 
4.250656411371e+01 -1.914387356218e+01 0.0 
4.350906466345e+01 -1.917234727395e+01 0.0 
8.759665722424e-01 -1.746422130609e+01 0.0 
1.698936011838e+00 -1.795012186674e+01 0.0 
4.742476811029e+01 -1.900090177972e+01 0.0 
7.749196752349e+00 -6.368049313489e+00 0.0 
3.361572113416e+01 -1.798765193915e+01 0.0 
4.484660149212e+01 -1.728661231383e+01 0.0 
1.984038172228e+01 -4.502575320116e+00 0.0 
1.035080352627e+01 -6.166639575753e+00 0.0 
2.753558010652e+00 -1.444909521181e+01 0.0 
7.217069543032e+00 -1.328635391078e+01 0.0 
4.364336727739e+00 -1.655585677381e+01 0.0 
4.595208426108e+00 -1.357919665443e+01 0.0 
6.164967006980e+00 -1.569873454630e+01 0.0 
1.487855768353e+01 -1.826523774028e+01 0.0 
2.791876456372e+00 -4.019632415181e+00 0.0 
4.246464893515e+01 -1.364898659620e+01 0.0 
4.503855590351e+01 -1.329552780944e+01 0.0 
4.407239109604e+01 -1.573900004093e+01 0.0 
5.141054449252e+00 -6.664290382472e+00 0.0 
3.141083947149e+00 -1.055790764912e+01 0.0 
6.196463198741e+00 -4.256497932609e+00 0.0 
2.599618716181e+01 -1.836893455464e+01 0.0 
2.923057372337e+01 -1.098461757645e+01 0.0 
1.168343877486e+01 -1.114079645041e+01 0.0 
6.706222096238e+00 -8.780364234441e+00 0.0 
8.567858614669e+00 -6.943121440850e+00 0.0 
1.123755132901e+01 -5.753525820030e+00 0.0 
2.353456234423e+01 -1.008536320953e+01 0.0 
9.162073319168e+00 -1.045593739109e+01 0.0 
9.676343469685e+00 -1.496493008366e+01 0.0 
4.490637882905e+01 -1.628778970202e+01 0.0 
7.398129387772e+00 -9.639977982323e-01 0.0 
1.049641705805e+01 -1.552503975272e+01 0.0 
9.010356286268e+00 -1.242805042052e+01 0.0 
3.985573925497e+01 -1.399863651620e+01 0.0 
1.816196318262e+01 -1.554066497931e+01 0.0 
1.306332244168e+01 -3.963646550326e+00 0.0 
4.145850903932e+01 -1.608094559275e+01 0.0 
3.794664933633e+01 -1.779020121986e+01 0.0 
3.819614412903e+01 -1.290749321016e+01 0.0 
6.270014188119e+00 -3.255093186826e+00 0.0 
4.251165370388e+01 -1.263870364997e+01 0.0 
1.207347709171e+01 -1.763942826023e+01 0.0 
3.633240829927e+01 -1.577330481104e+01 0.0 
4.319052668832e+00 -6.101812561904e+00 0.0 
1.676492415806e+01 -1.151547901392e+01 0.0 
2.594059220037e+01 -1.074225223009e+01 0.0 
3.340750911501e+01 -9.898764354137e+00 0.0 
4.397619591281e+01 -1.769773736461e+01 0.0 
2.175611595028e+01 -1.185718747128e+01 0.0 
1.641818733106e+01 -1.640685203215e+01 0.0 
1.661211421753e+01 -1.346121366338e+01 0.0 
3.428853504935e+00 -6.551993389271e+00 0.0 
8.700728832502e+00 -1.638460872825e+01 0.0 
1.931369795309e+01 -1.121629383702e+01 0.0 
4.139798872363e+01 -1.706922153459e+01 0.0 
2.647837478700e+01 -1.507353829290e+01 0.0 
1.779469616424e+01 -9.161615782908e+00 0.0 
3.885879219319e+01 -1.642026488918e+01 0.0 
1.338194936770e+01 -1.125916521471e+01 0.0 
1.897071181111e+01 -1.609204322578e+01 0.0 
2.844308548793e+01 -1.046221003096e+01 0.0 
2.659854702194e+01 -1.316109415760e+01 0.0 
2.979604503271e+01 -1.433296157755e+01 0.0 
2.417694041347e+01 -1.251231397779e+01 0.0 
1.807401327411e+00 -1.388891148480e+01 0.0 
9.599810618782e+00 -1.595439365034e+01 0.0 
1.652144692160e+01 -4.205392788472e+00 0.0 
2.367839450246e+01 -8.188385218643e+00 0.0 
3.814894930468e+01 -1.390748338767e+01 0.0 
2.466448215774e+01 -1.685878545680e+01 0.0 
4.134044524611e+01 -1.806610045954e+01 0.0 
2.600511411958e+01 -9.801774120648e+00 0.0 
7.882158050716e+00 -1.582364037353e+01 0.0 
3.881607873422e+01 -1.737970515013e+01 0.0 
8.270182347708e+00 -1.088622154920e+01 0.0 
8.672520392520e-01 -4.532984309881e+00 0.0 
1.993447205337e+01 -3.579061902667e+00 0.0 
1.794616079549e+01 -7.238038888498e+00 0.0 
2.097277068165e+01 -1.132450168636e+01 0.0 
8.194803300681e+00 -1.187214224265e+01 0.0 
3.522279404911e+01 -1.823342818178e+01 0.0 
6.984481050295e+00 -1.625271465557e+01 0.0 
1.309433007797e+01 -1.521718594215e+01 0.0 
2.150246167611e+01 -1.885399038185e+00 0.0 
3.250689370209e+01 -1.028789870535e+01 0.0 
6.085886272238e+00 -1.668342132851e+01 0.0 
1.588455661727e+01 -1.193498985921e+01 0.0 
1.809323400821e+01 -1.651110084195e+01 0.0 
1.348885082381e+00 -1.136065576512e+01 0.0 
2.497670221995e+01 -1.834631276173e+01 0.0 
2.937062818424e+01 -8.233711194470e+00 0.0 
5.185823744469e+00 -1.711566910207e+01 0.0 
1.477497877209e+01 -1.530177014512e+01 0.0 
2.125346158933e+01 -7.473003997367e+00 0.0 
4.751561118290e+01 -1.084897772632e+01 0.0 
5.056026576843e+00 -1.825750475525e+01 0.0 
1.473948554523e+01 -1.634577436309e+01 0.0 
2.410566630936e+01 -1.345970002612e+01 0.0 
1.507337507513e+01 -1.138527895328e+01 0.0 
3.189857338687e+01 -8.887781229006e+00 0.0 
7.298712468334e+00 -1.230231046246e+01 0.0 
2.738235495295e+01 -1.368931690364e+01 0.0 
3.750141041969e+01 -1.920449893070e+01 0.0 
1.557271965640e+01 -1.683317951731e+01 0.0 
3.393731848929e+01 -1.413034777044e+01 0.0 
6.482156824153e+00 -1.174575135362e+01 0.0 
2.077971718439e+01 -1.421279621836e+01 0.0 
3.455084320178e+00 -2.562590040585e+00 0.0 
3.099056096250e+01 -9.270280416035e+00 0.0 
5.580176125418e+00 -1.217387969259e+01 0.0 
1.707247630389e+01 -7.660651981710e+00 0.0 
1.418658814174e+01 -1.180390575393e+01 0.0 
2.049103025389e+01 -1.811296706038e+01 0.0 
4.680386172316e+00 -1.260396879301e+01 0.0 
1.699679896554e+01 -8.624561788199e+00 0.0 
3.779470168555e+00 -1.303424899720e+01 0.0 
3.036589870126e+01 -7.879832518349e+00 0.0 
3.306993001774e+01 -1.457671062095e+01 0.0 
2.840150110165e+00 -1.346530088269e+01 0.0 
2.732011135052e+01 -1.464591214560e+01 0.0 
5.423639259568e+00 -2.659711955016e+00 0.0 
2.324455961696e+01 -1.387269388211e+01 0.0 
1.752768355571e+00 -1.693128613594e+01 0.0 
1.020244783051e+01 -8.076834012808e+00 0.0 
1.330873875224e+01 -1.222417528206e+01 0.0 
3.297727364880e+01 -1.555480372087e+01 0.0 
2.890929955439e+01 -6.868664170731e+00 0.0 
1.323294664622e+01 -1.320754260334e+01 0.0 
2.726532861246e+01 -1.560593120806e+01 0.0 
2.240020643398e+01 -1.429299177247e+01 0.0 
2.090445823633e+01 -1.228128621332e+01 0.0 
1.315809881502e+01 -1.420739326938e+01 0.0 
2.781328038068e+01 -7.181956082300e+00 0.0 
8.614200829057e+00 -5.936933226306e+00 0.0 
8.714765730069e+00 -4.979270529687e+00 0.0 
1.611881701099e+01 -9.041973294003e+00 0.0 
2.806830314340e+01 -1.614622947108e+01 0.0 
2.084435391396e+00 -3.385085422913e+00 0.0 
3.133211811152e+01 -1.542347619750e+01 0.0 
9.693114650768e+00 -3.590281506442e+00 0.0 
1.531883592202e+01 -8.504584946143e+00 0.0 
2.151589117094e+01 -1.578915763018e+01 0.0 
4.918943882696e+01 -1.355538828056e+01 0.0 
1.443236615188e+01 -8.918701794549e+00 0.0 
8.276250966452e-01 -5.537685192197e+00 0.0 
1.362790867918e+01 -8.374718262212e+00 0.0 
2.083767477370e+01 -1.324843956035e+01 0.0 
1.273834678703e+01 -8.790890389337e+00 0.0 
1.192275845670e+01 -8.242261327467e+00 0.0 
4.477236023583e+01 -1.824312396664e+01 0.0 
1.102989384254e+01 -8.649855800911e+00 0.0 
4.849096516045e+01 -1.917293752213e+01 0.0 
1.588996752238e+00 -1.910230934687e+01 0.0 
4.904245197583e+01 -1.159839008158e+01 0.0 
2.753852929608e+01 -5.782128488093e+00 0.0 
1.756133602833e+01 -8.306130313187e-01 0.0 
2.615423700951e+01 -6.153865090092e+00 0.0 
1.028818761294e+01 -7.122020845892e+00 0.0 
2.970818901196e+01 -1.527821347593e+01 0.0 
4.801461623449e+01 -1.164472570985e+01 0.0 
9.455722100419e+00 -6.546069291118e+00 0.0 
3.089099236677e+01 -1.835339328261e+01 0.0 
2.350000000013e+01 -1.920825896750e+01 0.0 
4.830620531887e+01 -1.506626155470e+01 0.0 
1.725381944701e+01 -1.688794487850e+01 0.0 
2.156246225273e+01 -1.475893794002e+01 0.0 
4.919319648787e+01 -1.742767505896e+01 0.0 
4.437935623576e+01 -1.077662927266e+01 0.0 
1.001520521978e+01 -1.652692675208e+00 0.0 
9.067160240050e-01 -1.441937727541e+01 0.0 
2.603365149390e+01 -4.755996613848e+00 0.0 
2.458344439002e+01 -4.873645517696e+00 0.0 
2.304312390142e+01 -3.836552768096e+00 0.0 
2.546923202198e+00 -6.902480355749e+00 0.0 
1.251534969393e+01 -2.490989965776e+00 0.0 
2.454061833377e+01 -3.933354231935e+00 0.0 
1.788186558740e+01 -1.827424884923e+01 0.0 
4.090785243552e+01 -1.166553231904e+01 0.0 
2.230128851568e+01 -1.623015738726e+01 0.0 
2.302362347568e+01 -2.916239960270e+00 0.0 
3.878119254461e+01 -1.830091164002e+01 0.0 
2.210081359958e+01 -1.829238229150e+01 0.0 
8.443704882233e+00 -1.921993252862e+01 0.0 
2.218405824691e+01 -1.724557581508e+01 0.0 
2.151157503963e+01 -2.790636689331e+00 0.0 
3.741658958955e+01 -1.250400191722e+01 0.0 
2.697247663737e+01 -1.838290202309e+01 0.0 
4.743362342862e+01 -1.585850773010e+01 0.0 
6.671345075358e+00 -1.924977576322e+01 0.0 
3.900825404537e+01 -1.157220003875e+01 0.0 
4.649692961375e+01 -1.836335837481e+01 0.0 
1.578831424832e+01 -3.678284023361e+00 0.0 
4.814208768888e+01 -1.841249298770e+01 0.0 
2.964123298315e+01 -1.625739458193e+01 0.0 
4.580760351902e+01 -1.284294554687e+01 0.0 
3.561520879615e+01 -1.245548941949e+01 0.0 
2.555418095658e+00 -1.841101588290e+01 0.0 
3.288468366144e+01 -1.834258164109e+01 0.0 
2.065894391445e+01 -2.240688571739e+00 0.0 
4.739171429915e+01 -1.496536413446e+01 0.0 
3.478086729185e+00 -8.576434653209e+00 0.0 
1.606010630246e+01 -1.588421807951e+00 0.0 
1.018329200594e+01 -1.834320874317e+01 0.0 
2.957213339430e+01 -1.720496954591e+01 0.0 
4.142712790164e+00 -1.837794506222e+01 0.0 
6.698721532573e-01 -2.499999999997e+00 0.0 
8.037039123140e+00 -1.571229354954e+00 0.0 
1.203541361428e+01 -1.847784298001e+01 0.0 
2.899968332038e+01 -1.848264722179e+01 0.0 
1.469229460948e+01 -4.219485753730e+00 0.0 
4.049590781957e+01 -1.932812501995e+01 0.0 
1.996211678340e+01 -1.506329754720e+00 0.0 
4.250588298353e+01 -1.067383247529e+01 0.0 
5.831497011152e+00 -1.635396227234e+00 0.0 
5.317606125670e+00 -1.923927974868e+01 0.0 
4.208546426993e+01 -1.842830665025e+01 0.0 
2.327553405011e+00 -9.459409929662e+00 0.0 
3.568351902251e+01 -1.096637218582e+01 0.0 
1.682104374890e+00 -6.231413350963e+00 0.0 
2.451812238018e+01 -1.766524914339e+01 0.0 
1.058003429638e+01 -2.391839617098e+00 0.0 
4.399988753123e+01 -1.851998776342e+01 0.0 
1.400000000010e+01 -1.852293523028e+01 0.0 
3.604719565984e+01 -1.850662876800e+01 0.0 
1.951297136734e+01 -1.938092349694e+01 0.0 
1.821365318472e+01 -1.531276353287e+00 0.0 
2.298031859732e+01 -1.854635324722e+01 0.0 
1.552168066204e+01 -1.764280741977e+01 0.0 
4.572957713638e+01 -1.073347898229e+01 0.0 
3.429637429624e+01 -1.838861552790e+01 0.0 
2.427434426052e+00 -7.705577451869e+00 0.0 
4.662792031485e+00 -3.359424455416e+00 0.0 
4.926794919243e+01 -1.926794919243e+01 0.0 
7.320508075690e-01 -7.320508075688e-01 0.0 
4.926794919243e+01 -1.073205080757e+01 0.0 
7.320508075705e-01 -1.926794919243e+01 0.0 
2.917460242467e+00 -3.202866455310e+00 0.0 
4.838200575963e+01 -1.232674147454e+01 0.0 
2.998445708009e+01 -1.854403752148e+01 0.0 
5.949940090766e-01 -1.152762038165e+01 0.0 
4.844763495759e+01 -1.678092548787e+01 0.0 
1.301685480160e+01 -3.170056592566e+00 0.0 
1.650046335855e+01 -6.731535384067e-01 0.0 
4.854881540991e+01 -1.405224059779e+01 0.0 
2.119545114693e+01 -1.846813384545e+01 0.0 
3.797852849897e+01 -1.857978513215e+01 0.0 
4.649823708745e+01 -1.338351810816e+01 0.0 
2.012685900976e+01 -2.889659035009e+00 0.0 
2.953271913273e+01 -1.791558075192e+01 0.0 
2.408509097292e+00 -1.021949208421e+01 0.0 
2.642589566221e+01 -1.773216561448e+01 0.0 
1.730010270775e+01 -1.763165076721e+01 0.0 
2.017406551304e+01 -8.513536440582e-01 0.0 
5.254761581934e-01 -1.249999999999e+01 0.0 
6.640448215642e+00 -1.545337834885e+00 0.0 
7.843361506349e+00 -1.852719839527e+01 0.0 
1.588442191088e+00 -1.066158564320e+01 0.0 
2.580823483239e+01 -3.416278049680e+00 0.0 
4.950961538461e+01 -3.500000000000e+00 0.0 
2.731250000000e+01 -4.420918367347e+00 0.0 
4.951086956522e+01 -4.500000000000e+00 0.0 
2.880770112393e+01 -5.415638864241e+00 0.0 
4.951086956522e+01 -5.500000000000e+00 0.0 
3.031250000000e+01 -6.420918367347e+00 0.0 
4.951250000000e+01 -6.500000000000e+00 0.0 
3.180701530612e+01 -7.414795918363e+00 0.0 
4.951250000000e+01 -7.500000000000e+00 0.0 
3.331250000000e+01 -8.420918367347e+00 0.0 
4.951470588234e+01 -8.500000000000e+00 0.0 
3.480610198624e+01 -9.413633635267e+00 0.0 
4.951470588234e+01 -9.500000000000e+00 0.0 

CELLS 2241 8964 
3 328 798 1074 
3 798 328 1076 
3 808 301 819 
3 921 686 1110 
3 688 748 914 
3 778 691 817 
3 308 730 732 
3 328 755 1076 
3 730 308 748 
3 681 916 1110 
3 300 875 876 
3 755 328 1090 
3 920 1072 1116 
3 737 868 958 
3 1072 334 1116 
3 327 921 1110 
3 736 307 877 
3 691 778 816 
3 315 735 1057 
3 735 315 995 
3 916 681 1069 
3 1046 292 1052 
3 773 1046 1052 
3 723 722 932 
3 422 578 867 
3 875 300 984 
3 112 82 1137 
3 767 293 1009 
3 420 422 867 
3 932 722 1142 
3 672 882 884 
3 325 738 915 
3 808 819 1117 
3 19 313 788 
3 323 742 744 
3 751 66 1108 
3 66 751 1134 
3 770 319 814 
3 734 103 1087 
3 103 734 1148 
3 1010 752 1036 
3 288 774 913 
3 1091 289 1095 
3 82 337 1137 
3 729 336 1086 
3 768 1091 1095 
3 882 672 885 
3 336 729 1112 
3 878 879 885 
3 868 737 1109 
3 330 773 1010 
3 720 735 995 
3 498 1111 1129 
3 330 1010 1036 
3 820 302 1000 
3 1093 665 1138 
3 720 995 1064 
3 313 758 788 
3 581 909 1027 
3 916 327 1110 
3 287 1121 1162 
3 1101 727 1103 
3 547 575 781 
3 1111 884 1129 
3 892 711 1116 
3 773 330 1046 
3 1121 731 1162 
3 301 808 1081 
3 608 569 890 
3 297 756 822 
3 984 927 1038 
3 33 32 776 
3 767 1009 1139 
3 4 5 902 
3 899 1093 1138 
3 739 304 990 
3 820 1000 1149 
3 787 1092 1099 
3 909 581 1151 
3 1092 329 1099 
3 569 582 890 
3 307 736 1097 
3 292 798 1052 
3 798 292 1074 
3 748 688 960 
3 730 748 960 
3 759 984 1089 
3 18 19 788 
3 813 810 1058 
3 688 914 1097 
3 915 738 1088 
3 339 866 1137 
3 912 1083 1107 
3 1107 1083 1119 
3 305 33 776 
3 814 319 1144 
3 736 877 1109 
3 913 774 1122 
3 333 765 1062 
3 781 575 782 
3 914 748 1132 
3 334 892 1116 
3 495 1061 1085 
3 726 1101 1103 
3 616 614 792 
3 879 882 885 
3 919 920 1042 
3 685 912 1107 
3 287 878 885 
3 1015 310 1134 
3 460 813 1058 
3 4 902 1153 
3 683 779 815 
3 650 966 1004 
3 694 896 1120 
3 754 781 782 
3 549 547 781 
3 323 744 1102 
3 765 333 1157 
3 753 549 781 
3 784 714 1059 
3 337 339 1137 
3 912 685 1160 
3 549 753 792 
3 1104 1003 1118 
3 769 1019 1028 
3 896 694 1150 
3 1019 294 1028 
3 304 739 1130 
3 716 1104 1118 
3 875 984 1038 
3 686 921 1112 
3 623 680 780 
3 294 752 1028 
3 742 323 1122 
3 920 677 1072 
3 759 927 984 
3 780 680 980 
3 724 852 1142 
3 656 772 780 
3 706 917 918 
3 756 297 1128 
3 958 868 1105 
3 565 537 786 
3 772 623 780 
3 752 294 1036 
3 680 818 980 
3 792 618 987 
3 308 732 1087 
3 779 414 815 
3 738 325 1126 
3 1073 1079 1157 
3 903 315 1057 
3 331 769 1004 
3 852 724 861 
3 753 616 792 
3 788 759 1089 
3 755 289 1091 
3 1061 721 1085 
3 314 760 761 
3 775 414 779 
3 758 313 1042 
3 608 784 1059 
3 920 679 1042 
3 795 668 823 
3 310 1015 1124 
3 1073 678 1079 
3 614 618 792 
3 966 331 1004 
3 300 876 1173 
3 289 755 1090 
3 414 775 789 
3 537 588 786 
3 760 314 1148 
3 618 779 987 
3 769 331 1019 
3 662 851 1056 
3 896 597 1120 
3 293 767 1082 
3 822 756 1106 
3 754 782 1076 
3 597 896 1136 
3 839 969 1023 
3 772 656 1010 
3 755 754 1076 
3 795 650 1004 
3 779 683 987 
3 303 916 1069 
3 426 835 1045 
3 313 919 1042 
3 768 329 1092 
3 624 789 1013 
3 810 835 1058 
3 81 113 777 
3 656 752 1010 
3 1012 684 1016 
3 908 1040 1133 
3 923 316 1149 
3 421 346 828 
3 1043 402 1070 
3 532 1012 1016 
3 866 339 1115 
3 867 578 1105 
3 722 724 1142 
3 1053 944 1080 
3 790 361 818 
3 620 510 823 
3 427 421 828 
3 617 795 823 
3 668 795 1004 
3 566 1026 1066 
3 851 700 1056 
3 777 311 778 
3 782 798 1076 
3 782 575 797 
3 680 790 818 
3 835 805 1045 
3 691 690 996 
3 684 783 1002 
3 734 760 1148 
3 789 775 1013 
3 480 1002 1051 
3 740 950 1174 
3 826 427 828 
3 950 296 1174 
3 908 909 1040 
3 329 768 1095 
3 1053 696 1054 
3 800 427 826 
3 696 695 1054 
3 676 785 791 
3 502 883 955 
3 714 891 1059 
3 969 532 1023 
3 668 620 823 
3 711 892 1124 
3 113 311 777 
3 585 615 791 
3 375 414 789 
3 773 772 1010 
3 783 684 1012 
3 751 1015 1134 
3 1037 426 1045 
3 484 466 821 
3 532 1016 1023 
3 984 300 1089 
3 818 428 980 
3 827 828 1024 
3 727 1101 1146 
3 375 789 796 
3 615 676 791 
3 345 617 793 
3 776 32 1130 
3 361 790 965 
3 834 377 973 
3 761 760 762 
3 890 582 1094 
3 617 794 795 
3 584 484 821 
3 690 824 925 
3 672 884 1111 
3 427 800 962 
3 510 793 823 
3 549 792 987 
3 800 639 962 
3 835 426 1058 
3 428 799 941 
3 295 749 1108 
3 625 834 973 
3 353 619 799 
3 683 815 946 
3 625 833 834 
3 467 483 824 
3 865 306 866 
3 379 376 796 
3 496 847 848 
3 827 1037 1045 
3 113 114 311 
3 617 343 794 
3 466 464 821 
3 540 585 791 
3 469 467 824 
3 348 345 793 
3 738 784 1088 
3 576 666 797 
3 625 832 833 
3 793 617 823 
3 865 866 867 
3 586 691 816 
3 496 848 850 
3 497 500 847 
3 782 797 798 
3 827 1024 1037 
3 575 576 797 
3 462 379 796 
3 789 624 796 
3 586 690 691 
3 815 371 946 
3 715 785 787 
3 37 302 820 
3 39 316 819 
3 362 361 965 
3 483 466 484 
3 539 540 598 
3 354 353 799 
3 483 484 539 
3 496 497 847 
3 428 941 980 
3 917 706 1135 
3 821 624 1013 
3 1026 682 1066 
3 715 598 785 
3 320 57 840 
3 539 484 540 
3 359 428 818 
3 586 490 690 
3 862 555 970 
3 376 375 796 
3 500 844 847 
3 619 510 620 
3 42 841 842 
3 464 462 624 
3 625 453 832 
3 599 598 715 
3 830 515 953 
3 1002 783 1051 
3 615 616 674 
3 689 830 953 
3 318 45 822 
3 592 684 1002 
3 41 301 841 
3 958 578 988 
3 813 460 1078 
3 676 674 768 
3 621 620 653 
3 353 510 619 
3 353 351 510 
3 429 965 991 
3 293 47 825 
3 420 867 1115 
3 794 650 795 
3 624 462 796 
3 695 891 1054 
3 653 668 769 
3 615 614 616 
3 314 761 1014 
3 500 843 844 
3 464 624 821 
3 804 826 827 
3 585 614 615 
3 619 620 621 
3 453 455 832 
3 628 855 942 
3 50 317 831 
3 656 654 752 
3 468 470 850 
3 709 1043 1070 
3 675 754 755 
3 674 616 675 
3 810 807 835 
3 359 357 428 
3 666 772 773 
3 621 653 654 
3 54 319 836 
3 319 770 1096 
3 807 805 835 
3 827 826 828 
3 855 395 942 
3 547 548 575 
3 467 466 483 
3 465 464 466 
3 361 359 818 
3 642 862 970 
3 410 856 857 
3 803 801 804 
3 470 496 850 
3 544 429 545 
3 799 619 941 
3 546 545 547 
3 301 40 819 
3 316 38 820 
3 316 923 1117 
3 628 854 855 
3 639 541 962 
3 615 674 676 
3 463 462 464 
3 690 490 824 
3 576 623 666 
3 864 865 868 
3 830 958 988 
3 840 838 932 
3 811 810 813 
3 345 343 617 
3 352 351 353 
3 490 469 824 
3 887 889 890 
3 414 373 815 
3 367 365 429 
3 373 371 815 
3 284 1003 1104 
3 761 762 763 
3 891 695 1059 
3 540 584 585 
3 57 56 840 
3 474 476 566 
3 338 650 794 
3 315 903 1125 
3 965 790 991 
3 375 373 414 
3 351 348 793 
3 297 43 842 
3 653 620 668 
3 357 354 799 
3 410 857 863 
3 801 800 826 
3 628 853 854 
3 44 297 822 
3 41 40 301 
3 37 36 302 
3 39 38 316 
3 350 348 351 
3 804 801 826 
3 809 807 810 
3 547 545 548 
3 575 548 576 
3 859 856 943 
3 803 804 805 
3 46 318 825 
3 718 639 800 
3 832 566 833 
3 718 800 801 
3 559 557 860 
3 367 429 544 
3 666 623 772 
3 539 598 599 
3 305 776 1100 
3 546 547 549 
3 940 659 1009 
3 856 410 943 
3 501 504 843 
3 320 840 932 
3 585 613 614 
3 42 41 841 
3 316 820 1149 
3 358 357 359 
3 887 888 889 
3 44 43 297 
3 285 836 837 
3 500 501 843 
3 455 474 832 
3 291 51 831 
3 121 286 888 
3 544 545 546 
3 356 354 357 
3 360 359 361 
3 428 357 799 
3 598 540 791 
3 46 45 318 
3 461 379 462 
3 587 586 816 
3 749 295 1175 
3 888 286 889 
3 655 654 656 
3 882 883 884 
3 769 668 1004 
3 285 55 836 
3 48 47 293 
3 510 351 793 
3 879 881 882 
3 728 587 816 
3 882 881 883 
3 972 670 985 
3 864 306 865 
3 340 338 794 
3 50 49 317 
3 322 864 868 
3 302 36 829 
3 562 559 860 
3 689 737 830 
3 675 753 754 
3 474 566 832 
3 690 925 996 
3 52 51 291 
3 40 39 819 
3 38 37 820 
3 628 436 853 
3 431 433 859 
3 367 544 946 
3 436 438 853 
3 54 53 319 
3 540 484 584 
3 847 846 848 
3 844 845 846 
3 579 689 953 
3 58 320 852 
3 879 880 881 
3 56 55 285 
3 843 708 844 
3 43 42 842 
3 809 810 811 
3 120 121 888 
3 544 683 946 
3 638 541 639 
3 45 44 822 
3 350 351 352 
3 605 562 606 
3 599 715 716 
3 838 837 839 
3 600 707 708 
3 844 708 845 
3 878 321 879 
3 47 46 825 
3 824 483 925 
3 592 640 684 
3 689 736 737 
3 926 658 945 
3 844 846 847 
3 352 353 354 
3 51 50 831 
3 433 535 859 
3 444 480 550 
3 364 362 365 
3 703 596 704 
3 848 846 849 
3 853 550 854 
3 365 362 965 
3 701 558 975 
3 474 475 476 
3 366 365 367 
3 403 405 863 
3 585 584 613 
3 431 859 943 
3 606 562 860 
3 430 453 625 
3 56 285 840 
3 717 639 718 
3 601 926 945 
3 55 54 836 
3 285 837 838 
3 372 371 373 
3 879 321 880 
3 59 852 861 
3 802 801 803 
3 504 600 843 
3 58 57 320 
3 438 444 853 
3 576 622 623 
3 343 340 794 
3 430 625 973 
3 434 628 942 
3 596 555 862 
3 828 346 1024 
3 655 780 980 
3 476 494 495 
3 763 762 764 
3 405 410 863 
3 455 457 474 
3 600 657 707 
3 627 449 928 
3 119 120 886 
3 614 613 618 
3 600 708 843 
3 856 698 857 
3 370 368 371 
3 444 550 853 
3 579 687 689 
3 504 567 600 
3 59 58 852 
3 356 357 358 
3 626 697 698 
3 358 359 360 
3 626 698 856 
3 886 120 888 
3 342 340 343 
3 895 894 896 
3 296 126 910 
3 535 590 626 
3 444 479 480 
3 924 594 949 
3 704 862 1006 
3 704 596 862 
3 338 298 650 
3 322 110 864 
3 719 829 1022 
3 360 361 362 
3 126 127 910 
3 714 634 891 
3 880 886 887 
3 696 1053 1080 
3 612 662 1056 
3 692 924 949 
3 489 972 985 
3 413 411 922 
3 451 449 627 
3 592 603 640 
3 509 490 586 
3 326 894 895 
3 299 898 899 
3 288 60 861 
3 60 59 861 
3 894 893 897 
3 626 590 697 
3 434 436 628 
3 640 722 723 
3 634 553 891 
3 487 572 592 
3 908 906 909 
3 535 626 859 
3 857 698 858 
3 312 905 906 
3 326 893 894 
3 638 639 717 
3 127 128 907 
3 111 306 864 
3 111 112 306 
3 555 459 970 
3 299 10 898 
3 600 567 657 
3 785 598 791 
3 745 743 746 
3 825 318 940 
3 629 523 956 
3 675 616 753 
3 738 714 784 
3 621 654 655 
3 107 307 914 
3 106 107 914 
3 127 907 910 
3 907 906 908 
3 901 903 904 
3 477 418 552 
3 312 900 905 
3 893 290 897 
3 287 117 878 
3 418 413 922 
3 766 764 786 
3 109 110 322 
3 662 757 851 
3 438 443 444 
3 763 764 765 
3 10 11 898 
3 901 904 905 
3 30 29 917 
3 304 30 917 
3 689 687 736 
3 307 108 877 
3 898 895 899 
3 28 303 918 
3 552 418 922 
3 110 111 864 
3 109 322 877 
3 653 769 1028 
3 36 35 829 
3 917 29 918 
3 312 906 907 
3 128 312 907 
3 713 634 714 
3 857 858 994 
3 919 677 920 
3 116 117 287 
3 324 911 912 
3 118 321 878 
3 595 555 596 
3 118 119 321 
3 117 118 878 
3 702 596 703 
3 648 711 712 
3 765 764 766 
3 941 655 980 
3 900 901 905 
3 450 451 930 
3 25 24 921 
3 327 25 921 
3 108 109 877 
3 531 459 555 
3 29 28 918 
3 605 606 721 
3 901 902 903 
3 900 335 901 
3 901 335 902 
3 11 12 326 
3 334 69 892 
3 80 79 336 
3 130 335 900 
3 13 290 893 
3 70 69 334 
3 68 310 892 
3 61 288 913 
3 76 309 911 
3 78 77 324 
3 69 68 892 
3 68 67 310 
3 324 77 911 
3 130 131 335 
3 104 105 308 
3 107 108 307 
3 312 129 900 
3 65 64 295 
3 323 62 913 
3 63 62 323 
3 129 130 900 
3 128 129 312 
3 61 60 288 
3 62 61 913 
3 76 75 309 
3 101 102 314 
3 77 76 911 
3 74 73 333 
3 99 100 678 
3 125 126 296 
3 123 124 325 
3 122 123 915 
3 121 122 286 
3 13 14 290 
3 12 13 893 
3 123 325 915 
3 16 17 300 
3 286 122 915 
3 34 33 305 
3 28 27 303 
3 31 30 304 
3 6 7 315 
3 9 10 299 
3 27 26 916 
3 19 20 313 
3 26 25 327 
3 20 21 919 
3 21 22 677 
3 326 12 893 
3 303 27 916 
3 26 327 916 
3 313 20 919 
3 21 677 919 
3 542 543 927 
3 321 119 886 
3 433 534 535 
3 907 908 910 
3 745 746 747 
3 626 856 859 
3 508 492 929 
3 477 552 553 
3 1040 741 1133 
3 648 712 929 
3 535 536 590 
3 326 895 898 
3 492 554 929 
3 685 686 729 
3 11 326 898 
3 480 479 487 
3 442 440 493 
3 542 491 543 
3 610 542 927 
3 461 462 463 
3 655 656 780 
3 371 368 946 
3 450 449 451 
3 554 647 648 
3 758 610 759 
3 601 695 696 
3 673 594 681 
3 589 538 594 
3 734 733 760 
3 448 446 449 
3 491 450 930 
3 685 673 686 
3 589 673 685 
3 493 440 952 
3 648 679 711 
3 551 523 629 
3 758 759 788 
3 749 747 750 
3 681 594 924 
3 528 526 529 
3 444 443 479 
3 488 570 571 
3 507 593 601 
3 713 714 738 
3 880 321 886 
3 589 594 673 
3 648 647 679 
3 887 886 888 
3 806 805 807 
3 732 632 733 
3 478 492 508 
3 554 610 647 
3 657 658 709 
3 647 610 758 
3 732 733 734 
3 474 457 475 
3 749 750 751 
3 720 602 735 
3 744 743 745 
3 537 529 538 
3 571 602 665 
3 601 696 926 
3 873 871 874 
3 525 527 631 
3 412 416 431 
3 588 538 589 
3 528 537 565 
3 697 590 869 
3 759 610 927 
3 554 542 610 
3 537 538 588 
3 530 482 568 
3 590 536 591 
3 563 649 725 
3 529 936 949 
3 535 534 536 
3 442 493 928 
3 742 670 743 
3 528 529 537 
3 671 587 728 
3 645 740 741 
3 471 469 490 
3 554 648 929 
3 527 526 528 
3 875 873 876 
3 631 632 730 
3 592 572 603 
3 869 591 870 
3 492 542 554 
3 571 570 602 
3 745 747 749 
3 590 591 869 
3 665 602 720 
3 591 536 938 
3 431 432 433 
3 417 413 418 
3 872 873 875 
3 125 296 950 
3 325 124 950 
3 543 491 930 
3 488 530 570 
3 448 449 450 
3 449 446 928 
3 405 409 410 
3 504 505 567 
3 551 629 630 
3 817 691 1167 
3 433 533 534 
3 640 603 722 
3 570 530 581 
3 631 527 632 
3 730 632 732 
3 633 553 634 
3 669 636 670 
3 522 520 523 
3 488 482 530 
3 705 629 974 
3 630 629 705 
3 425 482 488 
3 754 753 781 
3 419 418 477 
3 492 491 542 
3 870 871 872 
3 718 801 802 
3 551 630 692 
3 478 450 491 
3 448 450 478 
3 477 553 633 
3 478 491 492 
3 522 523 524 
3 872 871 873 
3 525 526 527 
3 524 523 551 
3 377 378 973 
3 936 692 949 
3 536 597 938 
3 870 591 871 
3 533 432 693 
3 407 404 408 
3 525 524 526 
3 399 401 434 
3 417 419 425 
3 645 634 713 
3 522 524 525 
3 417 418 419 
3 742 743 744 
3 529 526 936 
3 478 508 931 
3 285 838 840 
3 536 534 597 
3 425 419 482 
3 633 634 645 
3 447 446 448 
3 528 565 935 
3 645 713 740 
3 431 416 432 
3 735 602 933 
3 525 631 934 
3 433 432 533 
3 446 442 928 
3 533 693 694 
3 594 538 949 
3 416 413 417 
3 441 445 489 
3 601 593 695 
3 445 442 446 
3 874 871 938 
3 447 448 931 
3 848 849 1030 
3 602 570 933 
3 733 632 935 
3 595 596 702 
3 545 429 991 
3 527 528 935 
3 507 601 945 
3 519 521 579 
3 570 581 933 
3 746 743 972 
3 531 555 595 
3 476 475 494 
3 630 705 706 
3 434 435 436 
3 568 482 939 
3 439 437 440 
3 669 670 742 
3 657 567 658 
3 448 478 931 
3 526 524 936 
3 501 503 504 
3 441 440 442 
3 687 580 688 
3 571 665 971 
3 412 413 416 
3 364 365 366 
3 445 446 447 
3 576 548 622 
3 366 367 368 
3 521 520 522 
3 632 527 935 
3 579 580 687 
3 871 591 938 
3 609 511 636 
3 436 437 438 
3 631 730 960 
3 808 807 809 
3 495 494 563 
3 441 442 445 
3 524 551 936 
3 405 407 409 
3 409 411 412 
3 477 633 939 
3 438 439 443 
3 412 431 943 
3 521 522 934 
3 579 521 580 
3 381 383 430 
3 922 411 944 
3 463 464 465 
3 412 411 413 
3 409 407 411 
3 419 477 939 
3 487 511 572 
3 400 398 402 
3 551 692 936 
3 396 398 399 
3 438 437 439 
3 434 401 435 
3 370 371 372 
3 482 419 939 
3 609 636 669 
3 609 669 774 
3 556 558 701 
3 405 404 407 
3 436 435 437 
3 522 525 934 
3 410 409 943 
3 544 546 683 
3 416 417 937 
3 567 505 945 
3 403 404 405 
3 417 425 937 
3 488 571 963 
3 435 401 635 
3 439 440 441 
3 574 611 612 
3 124 125 950 
3 392 390 393 
3 396 394 397 
3 403 402 404 
3 580 521 934 
3 399 400 401 
3 432 416 937 
3 400 402 403 
3 538 529 949 
3 693 432 937 
3 645 741 959 
3 939 633 959 
3 658 567 945 
3 407 408 944 
3 392 394 395 
3 399 398 400 
3 507 569 593 
3 568 939 959 
3 830 737 958 
3 937 425 963 
3 487 479 511 
3 560 573 574 
3 344 343 345 
3 583 517 604 
3 612 661 662 
3 378 381 973 
3 558 560 975 
3 505 506 507 
3 403 863 947 
3 374 373 375 
3 497 499 500 
3 569 506 582 
3 409 412 943 
3 396 397 398 
3 395 394 396 
3 693 937 963 
3 399 434 942 
3 392 393 394 
3 388 390 391 
3 411 407 944 
3 458 456 459 
3 519 520 521 
3 388 386 389 
3 572 511 609 
3 504 503 505 
3 722 603 724 
3 395 396 942 
3 662 756 757 
3 355 354 356 
3 505 507 945 
3 347 345 348 
3 637 541 638 
3 395 855 978 
3 618 775 779 
3 349 348 350 
3 429 365 965 
3 507 506 569 
3 739 710 776 
3 593 569 608 
3 770 664 771 
3 924 692 967 
3 481 459 531 
3 934 631 960 
3 518 517 583 
3 391 390 392 
3 430 452 453 
3 667 604 710 
3 441 489 948 
3 516 518 519 
3 595 702 783 
3 505 503 506 
3 516 514 517 
3 825 940 1009 
3 609 774 961 
3 400 403 947 
3 580 934 960 
3 688 580 960 
3 396 399 942 
3 443 439 948 
3 479 443 951 
3 633 645 959 
3 465 466 467 
3 384 386 387 
3 388 389 390 
3 368 367 946 
3 667 710 739 
3 803 805 806 
3 692 630 967 
3 623 622 680 
3 513 485 541 
3 439 441 948 
3 705 974 990 
3 486 514 515 
3 401 400 947 
3 384 382 385 
3 516 517 518 
3 583 604 667 
3 523 520 956 
3 519 518 520 
3 670 636 985 
3 663 577 664 
3 636 511 951 
3 440 437 952 
3 752 654 1028 
3 458 481 512 
3 423 421 427 
3 425 488 963 
3 387 386 388 
3 704 1006 1018 
3 453 454 455 
3 470 472 496 
3 384 385 386 
3 455 456 457 
3 621 655 941 
3 635 401 947 
3 515 830 988 
3 748 308 1132 
3 84 275 284 
3 437 435 952 
3 481 531 532 
3 802 803 923 
3 430 383 452 
3 435 635 952 
3 519 579 953 
3 85 276 329 
3 458 459 481 
3 454 452 642 
3 619 621 941 
3 443 948 951 
3 500 499 501 
3 511 479 951 
3 603 572 961 
3 457 456 458 
3 520 518 956 
3 564 562 605 
3 572 609 961 
3 86 277 289 
3 515 516 953 
3 725 649 726 
3 518 583 956 
3 455 454 456 
3 383 382 384 
3 1025 697 1029 
3 509 586 587 
3 629 956 974 
3 963 571 971 
3 87 278 328 
3 561 559 562 
3 630 706 967 
3 501 502 503 
3 363 362 364 
3 515 514 516 
3 994 858 999 
3 496 472 497 
3 618 613 775 
3 582 506 955 
3 501 499 502 
3 503 502 955 
3 453 452 454 
3 829 35 1022 
3 88 279 292 
3 743 670 972 
3 380 379 461 
3 424 486 988 
3 471 490 509 
3 724 603 961 
3 506 503 955 
3 694 693 971 
3 475 457 954 
3 392 395 978 
3 563 577 649 
3 546 549 987 
3 423 427 962 
3 663 664 770 
3 516 519 953 
3 803 806 923 
3 514 513 977 
3 513 541 637 
3 483 539 925 
3 746 972 992 
3 486 513 514 
3 377 834 998 
3 89 280 330 
3 663 770 814 
3 468 467 469 
3 693 963 971 
3 563 494 577 
3 315 7 995 
3 369 368 370 
3 458 512 954 
3 637 638 957 
3 638 717 719 
3 457 458 954 
3 604 517 977 
3 378 376 379 
3 560 574 975 
3 90 281 294 
3 809 811 812 
3 91 282 331 
3 283 91 966 
3 381 430 973 
3 82 283 298 
3 651 406 652 
3 372 373 374 
3 384 387 964 
3 497 472 498 
3 381 382 383 
3 583 667 974 
3 806 807 808 
3 489 445 992 
3 649 577 663 
3 391 392 978 
3 513 637 977 
3 383 384 964 
3 747 746 1001 
3 517 514 977 
3 541 485 962 
3 459 456 970 
3 378 380 381 
3 574 573 611 
3 352 354 355 
3 497 498 499 
3 468 469 470 
3 683 546 987 
3 360 362 363 
3 750 747 1005 
3 486 485 513 
3 381 380 382 
3 556 701 981 
3 512 481 969 
3 956 583 974 
3 612 611 661 
3 578 424 988 
3 684 640 1016 
3 452 383 964 
3 481 532 969 
3 366 368 369 
3 710 604 993 
3 662 661 756 
3 454 642 970 
3 470 469 471 
3 564 605 607 
3 369 406 644 
3 378 379 380 
3 456 454 970 
3 487 592 1002 
3 470 471 472 
3 642 452 964 
3 347 348 349 
3 750 1005 1011 
3 349 350 460 
3 561 562 564 
3 344 345 347 
3 341 340 342 
3 355 356 415 
3 664 577 979 
3 972 489 992 
3 424 485 486 
3 638 719 957 
3 342 343 344 
3 461 463 641 
3 564 607 660 
3 974 667 990 
3 370 372 968 
3 369 370 406 
3 380 461 976 
3 485 423 962 
3 622 548 991 
3 651 652 682 
3 548 545 991 
3 494 475 979 
3 660 727 767 
3 385 382 976 
3 509 587 643 
3 717 718 1000 
3 680 622 790 
3 1018 391 1031 
3 660 607 727 
3 424 423 485 
3 948 489 985 
3 374 375 376 
3 643 587 671 
3 1011 712 1015 
3 363 364 473 
3 476 495 1026 
3 611 573 659 
3 671 728 731 
3 951 948 985 
3 584 821 1013 
3 422 424 578 
3 493 999 1020 
3 382 380 976 
3 747 1001 1005 
3 644 406 651 
3 461 641 976 
3 363 473 556 
3 643 671 672 
3 558 559 560 
3 475 954 979 
3 757 756 1128 
3 560 561 573 
3 468 850 997 
3 445 447 992 
3 667 739 990 
3 814 291 1032 
3 577 494 979 
3 377 376 378 
3 556 557 558 
3 929 712 1011 
3 873 874 1008 
3 560 559 561 
3 486 515 988 
3 746 992 1001 
3 636 951 985 
3 101 314 1014 
3 678 100 1014 
3 347 349 426 
3 558 557 559 
3 627 928 1020 
3 355 415 646 
3 652 406 968 
3 839 1023 1147 
3 374 376 377 
3 34 305 1022 
3 339 338 340 
3 406 370 968 
3 493 952 999 
3 465 467 468 
3 635 947 994 
3 556 473 557 
3 358 360 981 
3 422 423 424 
3 646 415 699 
3 646 699 700 
3 904 903 1057 
3 947 863 994 
3 790 622 991 
3 350 352 982 
3 460 350 982 
3 771 664 1007 
3 7 8 995 
3 498 472 986 
3 364 366 983 
3 863 857 994 
3 91 331 966 
3 298 283 966 
3 422 421 423 
3 539 599 925 
3 999 858 1020 
3 532 531 1012 
3 472 471 986 
3 293 825 1009 
3 977 637 993 
3 698 697 1025 
3 992 447 1001 
3 909 906 1027 
3 595 783 1012 
3 473 364 983 
3 905 904 1027 
3 604 977 993 
3 471 509 986 
3 352 355 982 
3 360 363 981 
3 388 391 1018 
3 854 550 1047 
3 637 957 993 
3 550 480 1051 
3 369 644 983 
3 366 369 983 
3 275 83 1003 
3 509 643 986 
3 561 564 989 
3 341 342 346 
3 564 660 989 
3 613 584 1013 
3 805 804 1045 
3 659 573 989 
3 650 298 966 
3 573 561 989 
3 447 931 1001 
3 860 557 1017 
3 635 994 999 
3 952 635 999 
3 718 802 1000 
3 855 854 1044 
3 363 556 981 
3 834 833 1050 
3 480 487 1002 
3 968 372 998 
3 997 850 1030 
3 862 642 1006 
3 641 463 997 
3 355 646 982 
3 641 997 1030 
3 415 356 1021 
3 664 979 1007 
3 979 954 1007 
3 372 374 998 
3 420 421 422 
3 1001 931 1005 
3 931 508 1005 
3 599 716 996 
3 415 1021 1039 
3 750 1011 1015 
3 666 773 1052 
3 627 1025 1029 
3 284 275 1003 
3 1005 508 1011 
3 465 468 997 
3 876 873 1008 
3 1026 495 1085 
3 420 346 421 
3 341 346 420 
3 473 983 1017 
3 90 294 1019 
3 331 282 1019 
3 508 929 1011 
3 1047 550 1051 
3 704 1018 1031 
3 531 595 1012 
3 964 387 1006 
3 463 465 997 
3 282 90 1019 
3 339 340 341 
3 100 101 1014 
3 954 512 1007 
3 374 377 998 
3 663 814 1032 
3 647 758 1042 
3 642 964 1006 
3 751 750 1015 
3 1030 849 1034 
3 726 649 1032 
3 983 644 1017 
3 606 860 1041 
3 640 723 1016 
3 404 402 1043 
3 981 701 1021 
3 1006 387 1018 
3 358 981 1021 
3 775 613 1013 
3 721 606 1049 
3 387 388 1018 
3 928 493 1020 
3 356 358 1021 
3 1118 332 1131 
3 833 566 1066 
3 787 284 1104 
3 568 959 1040 
3 627 1020 1025 
3 574 612 1048 
3 346 342 1024 
3 89 330 1036 
3 35 34 1022 
3 83 274 332 
3 294 281 1036 
3 703 704 1031 
3 697 869 1029 
3 654 653 1028 
3 1060 845 1063 
3 1044 854 1047 
3 557 473 1017 
3 566 476 1026 
3 811 1113 1123 
3 925 599 996 
3 858 698 1025 
3 1029 869 1033 
3 922 944 1053 
3 337 298 338 
3 342 344 1024 
3 18 788 1089 
3 906 905 1027 
3 731 728 1075 
3 891 553 1054 
3 869 870 1033 
3 385 1034 1055 
3 846 845 1060 
3 850 848 1030 
3 451 627 1029 
3 347 426 1037 
3 1033 870 1035 
3 385 976 1034 
3 1021 701 1039 
3 737 736 1109 
3 495 563 1061 
3 870 872 1035 
3 451 1029 1033 
3 88 292 1046 
3 389 386 1055 
3 1035 872 1038 
3 309 75 1062 
3 74 333 1062 
3 330 280 1046 
3 930 451 1033 
3 708 707 1065 
3 787 785 1092 
3 649 663 1032 
3 695 593 1059 
3 1065 707 1067 
3 1050 833 1066 
3 281 89 1036 
3 872 875 1038 
3 9 299 1064 
3 337 338 339 
3 930 1033 1035 
3 391 978 1031 
3 1020 858 1025 
3 778 817 1131 
3 1086 324 1160 
3 393 390 1063 
3 969 839 1084 
3 606 1041 1049 
3 543 930 1035 
3 543 1035 1038 
3 1034 849 1055 
3 608 890 1140 
3 817 1118 1131 
3 927 543 1038 
3 1016 723 1023 
3 657 709 1068 
3 701 975 1039 
3 798 797 1052 
3 699 415 1039 
3 774 288 1127 
3 114 115 1075 
3 24 23 1071 
3 71 70 1072 
3 73 72 1073 
3 397 394 1067 
3 860 1017 1041 
3 976 641 1034 
3 959 741 1040 
3 83 332 1003 
3 924 967 1069 
3 344 347 1037 
3 82 298 337 
3 48 293 1082 
3 995 8 1064 
3 317 49 1082 
3 1024 344 1037 
3 402 398 1070 
3 1017 644 1041 
3 397 1067 1068 
3 676 768 1092 
3 1068 709 1070 
3 426 349 1058 
3 679 647 1042 
3 393 1063 1065 
3 699 1039 1048 
3 1075 115 1162 
3 389 1055 1060 
3 804 827 1045 
3 408 404 1043 
3 709 658 1077 
3 644 651 1041 
3 883 502 1129 
3 87 328 1074 
3 292 279 1074 
3 408 1077 1080 
3 703 1031 1044 
3 968 998 1050 
3 1039 975 1048 
3 808 809 1081 
3 280 88 1046 
3 911 309 1083 
3 756 661 1106 
3 641 1030 1034 
3 284 787 1099 
3 797 666 1052 
3 978 855 1044 
3 646 700 1078 
3 1031 978 1044 
3 691 996 1167 
3 702 703 1047 
3 768 674 1091 
3 998 834 1050 
3 703 1044 1047 
3 1041 651 1049 
3 565 786 1166 
3 944 408 1080 
3 715 787 1104 
3 702 1047 1051 
3 675 755 1091 
3 1075 728 1145 
3 336 79 1086 
3 78 324 1086 
3 889 286 1088 
3 783 702 1051 
3 552 1053 1054 
3 552 922 1053 
3 1048 612 1056 
3 651 682 1049 
3 975 574 1048 
3 389 1060 1063 
3 103 104 1087 
3 323 913 1122 
3 553 552 1054 
3 512 969 1084 
3 652 968 1050 
3 735 933 1057 
3 460 982 1078 
3 386 385 1055 
3 887 890 1094 
3 849 846 1060 
3 17 18 1089 
3 349 460 1058 
3 593 608 1059 
3 876 1008 1159 
3 700 699 1056 
3 563 725 1061 
3 1043 709 1077 
3 1064 299 1138 
3 652 1050 1066 
3 75 74 1062 
3 881 880 1094 
3 940 318 1106 
3 819 316 1117 
3 333 1073 1157 
3 776 710 1100 
3 841 301 1081 
3 390 389 1063 
3 393 1065 1067 
3 837 836 1096 
3 311 114 1075 
3 8 9 1064 
3 876 1159 1173 
3 408 1043 1077 
3 845 708 1065 
3 86 289 1090 
3 328 278 1090 
3 736 687 1097 
3 1055 849 1060 
3 971 665 1093 
3 605 721 1098 
3 295 64 1102 
3 63 323 1102 
3 394 393 1067 
3 322 868 1109 
3 731 1075 1162 
3 85 329 1095 
3 884 883 1129 
3 289 277 1095 
3 682 652 1066 
3 707 657 1068 
3 1063 845 1065 
3 885 672 1121 
3 729 1086 1160 
3 1067 707 1068 
3 681 924 1069 
3 589 685 1107 
3 921 24 1071 
3 70 334 1072 
3 333 73 1073 
3 397 1068 1070 
3 279 87 1074 
3 398 397 1070 
3 66 65 1108 
3 84 284 1099 
3 329 276 1099 
3 771 1007 1084 
3 914 307 1097 
3 686 673 1110 
3 699 1048 1056 
3 725 726 1103 
3 811 813 1113 
3 762 760 1114 
3 1077 926 1080 
3 658 926 1077 
3 1083 309 1163 
3 1098 725 1103 
3 306 112 1137 
3 678 1014 1079 
3 761 763 1079 
3 760 733 1114 
3 643 672 1111 
3 926 696 1080 
3 706 918 1141 
3 935 565 1114 
3 291 814 1144 
3 809 812 1081 
3 982 646 1078 
3 993 957 1100 
3 597 534 1120 
3 533 694 1120 
3 774 669 1122 
3 287 885 1121 
3 720 1064 1138 
3 49 48 1082 
3 6 315 1125 
3 1014 761 1079 
3 838 839 1147 
3 713 738 1126 
3 296 910 1133 
3 31 304 1130 
3 106 914 1132 
3 990 304 1135 
3 837 1096 1171 
3 308 105 1132 
3 311 1075 1145 
3 921 1071 1112 
3 568 1040 1151 
3 706 705 1135 
3 67 66 1134 
3 806 808 1117 
3 498 986 1111 
3 868 865 1105 
3 896 894 1136 
3 721 1061 1098 
3 52 291 1144 
3 912 911 1083 
3 319 53 1144 
3 672 671 1121 
3 749 751 1108 
3 499 498 1129 
3 904 1057 1156 
3 320 932 1142 
3 829 719 1143 
3 739 776 1130 
3 732 734 1087 
3 339 341 1115 
3 785 676 1092 
3 841 1081 1158 
3 899 895 1150 
3 716 1118 1167 
3 1061 725 1098 
3 102 103 1148 
3 719 717 1143 
3 3 80 1152 
3 23 3 1152 
3 131 0 1153 
3 0 4 1153 
3 72 1 1154 
3 1 99 1154 
3 2 71 1155 
3 22 2 1155 
3 902 335 1153 
3 116 287 1162 
3 1015 712 1124 
3 660 767 1139 
3 581 530 1151 
3 745 749 1175 
3 16 300 1173 
3 290 14 1159 
3 786 764 1166 
3 955 883 1161 
3 721 1049 1085 
3 1040 909 1151 
3 938 597 1169 
3 1081 812 1158 
3 79 78 1086 
3 1008 290 1159 
3 763 765 1157 
3 659 940 1170 
3 1113 851 1123 
3 1078 700 1113 
3 104 308 1087 
3 682 1026 1085 
3 1000 802 1149 
3 665 720 1138 
3 286 915 1088 
3 611 659 1170 
3 1007 512 1084 
3 883 881 1161 
3 766 1083 1163 
3 892 310 1124 
3 659 989 1139 
3 1009 659 1139 
3 300 17 1089 
3 777 778 1131 
3 278 86 1090 
3 674 675 1091 
3 865 867 1105 
3 1049 682 1085 
3 967 706 1141 
3 836 319 1096 
3 880 887 1094 
3 889 1088 1140 
3 277 85 1095 
3 786 588 1119 
3 694 971 1093 
3 957 719 1165 
3 1057 933 1156 
3 770 771 1096 
3 687 688 1097 
3 831 317 1101 
3 607 605 1098 
3 867 866 1115 
3 861 724 1127 
3 719 1022 1165 
3 1071 336 1112 
3 276 84 1099 
3 710 993 1100 
3 318 822 1106 
3 1096 771 1171 
3 607 1098 1103 
3 64 63 1102 
3 813 1078 1113 
3 81 777 1172 
3 716 715 1104 
3 812 811 1123 
3 578 958 1105 
3 679 920 1116 
3 727 607 1103 
3 295 1102 1175 
3 588 589 1107 
3 291 831 1164 
3 961 774 1127 
3 724 961 1127 
3 1093 899 1150 
3 65 295 1108 
3 877 322 1109 
3 673 681 1110 
3 890 889 1140 
3 685 729 1160 
3 766 786 1119 
3 902 5 1125 
3 986 643 1111 
3 700 851 1113 
3 304 917 1135 
3 729 686 1112 
3 1032 291 1164 
3 733 935 1114 
3 325 950 1126 
3 816 778 1145 
3 950 740 1126 
3 784 608 1140 
3 274 81 1172 
3 597 1136 1169 
3 711 679 1116 
3 923 806 1117 
3 341 420 1115 
3 534 533 1120 
3 669 742 1122 
3 723 932 1147 
3 1101 317 1146 
3 940 1106 1170 
3 851 757 1123 
3 1088 784 1140 
3 671 731 1121 
3 712 711 1124 
3 903 902 1125 
3 5 6 1125 
3 1003 332 1118 
3 740 713 1126 
3 288 861 1127 
3 297 842 1128 
3 1069 967 1141 
3 317 1082 1146 
3 1023 723 1147 
3 1114 565 1166 
3 32 31 1130 
3 502 499 1129 
3 105 106 1132 
3 881 1094 1161 
3 910 908 1133 
3 310 67 1134 
3 866 306 1137 
3 1027 904 1156 
3 894 897 1136 
3 1128 842 1158 
3 705 990 1135 
3 302 829 1143 
3 299 899 1138 
3 728 816 1145 
3 1102 744 1175 
3 1071 23 1152 
3 71 1072 1155 
3 1073 72 1154 
3 932 838 1147 
3 581 1027 1156 
3 1100 957 1165 
3 296 1133 1174 
3 852 320 1142 
3 1000 302 1143 
3 778 311 1145 
3 989 660 1139 
3 588 1107 1119 
3 918 303 1141 
3 53 52 1144 
3 309 1062 1163 
3 842 841 1158 
3 717 1000 1143 
3 1083 766 1119 
3 1128 1158 1168 
3 895 896 1150 
3 314 102 1148 
3 767 727 1146 
3 80 336 1152 
3 335 131 1153 
3 99 678 1154 
3 677 22 1155 
3 530 568 1151 
3 839 837 1171 
3 802 923 1149 
3 303 1069 1141 
3 933 581 1156 
3 1118 817 1167 
3 14 15 1159 
3 324 912 1160 
3 115 116 1162 
3 1022 305 1165 
3 765 766 1163 
3 582 955 1161 
3 764 762 1166 
3 1082 767 1146 
3 1159 15 1173 
3 332 274 1172 
3 694 1093 1150 
3 874 938 1169 
3 15 16 1173 
3 726 1032 1164 
3 897 290 1176 
3 1008 874 1176 
3 741 740 1174 
3 744 745 1175 
3 661 611 1170 
3 996 716 1167 
3 336 1071 1152 
3 1072 677 1155 
3 678 1073 1154 
3 1062 765 1163 
3 1169 897 1176 
3 874 1169 1176 
3 290 1008 1176 
3 771 1084 1171 
3 1094 582 1161 
3 1106 661 1170 
3 1079 763 1157 
3 305 1100 1165 
3 1084 839 1171 
3 762 1114 1166 
3 812 1123 1168 
3 1101 726 1164 
3 831 1101 1164 
3 1131 332 1172 
3 1123 757 1168 
3 757 1128 1168 
3 1133 741 1174 
3 1136 897 1169 
3 777 1131 1172 
3 1158 812 1168 
3 155 156 157 
3 155 157 158 
3 154 155 158 
3 159 154 158 
3 153 154 159 
3 160 153 159 
3 152 153 160 
3 161 152 160 
3 151 152 161 
3 162 151 161 
3 150 151 162 
3 163 150 162 
3 149 150 163 
3 164 149 163 
3 148 149 164 
3 165 148 164 
3 147 148 165 
3 147 165 166 
3 146 147 166 
3 133 86 1177 
3 167 146 166 
3 145 146 167 
3 145 167 168 
3 86 133 179 
3 144 145 168 
3 144 168 169 
3 143 144 169 
3 143 169 170 
3 142 143 170 
3 132 133 1177 
3 142 170 171 
3 141 142 171 
3 141 171 172 
3 140 141 172 
3 140 172 173 
3 139 140 173 
3 139 173 174 
3 138 139 174 
3 138 174 175 
3 137 138 175 
3 137 175 176 
3 86 277 1177 
3 136 176 177 
3 136 137 176 
3 135 177 178 
3 135 136 177 
3 134 178 179 
3 134 135 178 
3 133 134 179 
3 277 132 1177 
3 92 93 1178 
3 157 156 1178 
3 93 157 1178 
3 156 92 1178 
3 132 277 85 
3 157 200 201 
3 157 158 200 
3 158 199 200 
3 158 159 199 
3 159 198 199 
3 159 160 198 
3 160 197 198 
3 160 161 197 
3 161 196 197 
3 161 162 196 
3 162 195 196 
3 162 163 195 
3 163 194 195 
3 163 164 194 
3 194 164 193 
3 164 165 193 
3 165 192 193 
3 165 166 192 
3 87 178 1179 
3 166 191 192 
3 166 167 191 
3 167 190 191 
3 178 179 1179 
3 190 167 168 
3 178 87 180 
3 189 190 168 
3 169 189 168 
3 188 189 169 
3 170 188 169 
3 188 170 187 
3 170 171 187 
3 187 171 186 
3 171 172 186 
3 278 87 1179 
3 186 172 185 
3 172 173 185 
3 185 173 184 
3 173 174 184 
3 174 175 183 
3 174 183 184 
3 175 176 182 
3 183 175 182 
3 176 177 181 
3 177 178 180 
3 182 176 181 
3 181 177 180 
3 179 278 1179 
3 94 93 1180 
3 157 201 1180 
3 93 157 1180 
3 201 94 1180 
3 278 179 86 
3 200 201 202 
3 200 202 203 
3 199 200 203 
3 199 203 204 
3 198 199 204 
3 205 198 204 
3 205 197 198 
3 205 206 197 
3 206 196 197 
3 206 207 196 
3 207 195 196 
3 207 208 195 
3 208 194 195 
3 208 209 194 
3 194 209 193 
3 209 210 193 
3 210 192 193 
3 181 88 1181 
3 210 211 192 
3 211 191 192 
3 221 88 181 
3 211 212 191 
3 212 190 191 
3 212 213 190 
3 190 213 189 
3 213 214 189 
3 180 181 1181 
3 189 214 188 
3 214 215 188 
3 188 215 187 
3 215 216 187 
3 187 216 186 
3 216 217 186 
3 186 217 185 
3 217 218 185 
3 185 218 184 
3 218 219 184 
3 88 279 1181 
3 219 220 183 
3 219 183 184 
3 220 221 182 
3 183 220 182 
3 182 221 181 
3 279 180 1181 
3 94 95 1182 
3 202 201 1182 
3 95 202 1182 
3 201 94 1182 
3 279 87 180 
3 239 240 202 
3 203 239 202 
3 238 239 203 
3 204 238 203 
3 237 238 204 
3 205 237 204 
3 236 237 205 
3 206 236 205 
3 235 236 206 
3 235 206 207 
3 234 235 207 
3 208 234 207 
3 233 234 208 
3 209 233 208 
3 232 233 209 
3 210 232 209 
3 89 220 1183 
3 231 232 210 
3 231 210 211 
3 220 221 1183 
3 231 211 230 
3 230 211 212 
3 220 89 222 
3 229 230 212 
3 229 212 213 
3 228 229 213 
3 228 213 214 
3 227 228 214 
3 215 227 214 
3 280 89 1183 
3 226 227 215 
3 226 215 216 
3 225 226 216 
3 225 216 217 
3 224 217 218 
3 224 225 217 
3 218 219 223 
3 224 218 223 
3 219 220 222 
3 219 222 223 
3 221 280 1183 
3 96 95 1184 
3 202 240 1184 
3 95 202 1184 
3 240 96 1184 
3 221 88 280 
3 239 240 241 
3 242 239 241 
3 238 239 242 
3 243 238 242 
3 237 238 243 
3 244 237 243 
3 236 237 244 
3 245 236 244 
3 235 236 245 
3 246 235 245 
3 234 235 246 
3 247 234 246 
3 233 234 247 
3 233 247 248 
3 232 233 248 
3 223 90 1185 
3 249 232 248 
3 90 223 257 
3 232 249 231 
3 249 250 231 
3 231 250 230 
3 250 251 230 
3 251 229 230 
3 229 251 252 
3 222 223 1185 
3 229 252 228 
3 252 253 228 
3 253 227 228 
3 253 254 227 
3 254 226 227 
3 255 226 254 
3 226 255 225 
3 225 255 256 
3 224 256 257 
3 224 225 256 
3 90 281 1185 
3 223 224 257 
3 281 222 1185 
3 96 97 1186 
3 241 240 1186 
3 97 241 1186 
3 240 96 1186 
3 89 222 281 
3 272 273 241 
3 242 272 241 
3 271 272 242 
3 243 271 242 
3 270 271 243 
3 244 270 243 
3 269 270 244 
3 245 269 244 
3 268 269 245 
3 246 268 245 
3 267 268 246 
3 247 267 246 
3 266 267 247 
3 91 256 1187 
3 266 247 248 
3 265 266 248 
3 256 257 1187 
3 249 265 248 
3 265 249 264 
3 256 91 258 
3 249 250 264 
3 250 263 264 
3 250 251 263 
3 251 262 263 
3 251 252 262 
3 282 91 1187 
3 252 261 262 
3 252 253 261 
3 253 254 260 
3 253 260 261 
3 254 255 259 
3 254 259 260 
3 255 256 258 
3 255 258 259 
3 257 282 1187 
3 98 97 1188 
3 241 273 1188 
3 97 241 1188 
3 273 98 1188 
3 90 282 257 
3 272 273 99 
3 272 99 100 
3 271 272 100 
3 271 100 101 
3 270 271 101 
3 270 101 102 
3 269 270 102 
3 269 102 103 
3 268 269 103 
3 268 103 104 
3 267 268 104 
3 267 104 105 
3 259 82 1189 
3 266 267 105 
3 112 82 259 
3 266 105 106 
3 265 266 106 
3 107 265 106 
3 264 265 107 
3 108 264 107 
3 263 264 108 
3 263 108 109 
3 258 259 1189 
3 263 109 262 
3 109 110 262 
3 110 261 262 
3 110 111 261 
3 111 112 260 
3 261 111 260 
3 260 112 259 
3 82 283 1189 
3 283 258 1189 
3 98 1 1190 
3 99 273 1190 
3 1 99 1190 
3 273 98 1190 
3 283 91 258 

CELL_TYPES 2241
5
5
5
5
5
5
5
5
5
5
5
5
5
5
5
5
5
5
5
5
5
5
5
5
5
5
5
5
5
5
5
5
5
5
5
5
5
5
5
5
5
5
5
5
5
5
5
5
5
5
5
5
5
5
5
5
5
5
5
5
5
5
5
5
5
5
5
5
5
5
5
5
5
5
5
5
5
5
5
5
5
5
5
5
5
5
5
5
5
5
5
5
5
5
5
5
5
5
5
5
5
5
5
5
5
5
5
5
5
5
5
5
5
5
5
5
5
5
5
5
5
5
5
5
5
5
5
5
5
5
5
5
5
5
5
5
5
5
5
5
5
5
5
5
5
5
5
5
5
5
5
5
5
5
5
5
5
5
5
5
5
5
5
5
5
5
5
5
5
5
5
5
5
5
5
5
5
5
5
5
5
5
5
5
5
5
5
5
5
5
5
5
5
5
5
5
5
5
5
5
5
5
5
5
5
5
5
5
5
5
5
5
5
5
5
5
5
5
5
5
5
5
5
5
5
5
5
5
5
5
5
5
5
5
5
5
5
5
5
5
5
5
5
5
5
5
5
5
5
5
5
5
5
5
5
5
5
5
5
5
5
5
5
5
5
5
5
5
5
5
5
5
5
5
5
5
5
5
5
5
5
5
5
5
5
5
5
5
5
5
5
5
5
5
5
5
5
5
5
5
5
5
5
5
5
5
5
5
5
5
5
5
5
5
5
5
5
5
5
5
5
5
5
5
5
5
5
5
5
5
5
5
5
5
5
5
5
5
5
5
5
5
5
5
5
5
5
5
5
5
5
5
5
5
5
5
5
5
5
5
5
5
5
5
5
5
5
5
5
5
5
5
5
5
5
5
5
5
5
5
5
5
5
5
5
5
5
5
5
5
5
5
5
5
5
5
5
5
5
5
5
5
5
5
5
5
5
5
5
5
5
5
5
5
5
5
5
5
5
5
5
5
5
5
5
5
5
5
5
5
5
5
5
5
5
5
5
5
5
5
5
5
5
5
5
5
5
5
5
5
5
5
5
5
5
5
5
5
5
5
5
5
5
5
5
5
5
5
5
5
5
5
5
5
5
5
5
5
5
5
5
5
5
5
5
5
5
5
5
5
5
5
5
5
5
5
5
5
5
5
5
5
5
5
5
5
5
5
5
5
5
5
5
5
5
5
5
5
5
5
5
5
5
5
5
5
5
5
5
5
5
5
5
5
5
5
5
5
5
5
5
5
5
5
5
5
5
5
5
5
5
5
5
5
5
5
5
5
5
5
5
5
5
5
5
5
5
5
5
5
5
5
5
5
5
5
5
5
5
5
5
5
5
5
5
5
5
5
5
5
5
5
5
5
5
5
5
5
5
5
5
5
5
5
5
5
5
5
5
5
5
5
5
5
5
5
5
5
5
5
5
5
5
5
5
5
5
5
5
5
5
5
5
5
5
5
5
5
5
5
5
5
5
5
5
5
5
5
5
5
5
5
5
5
5
5
5
5
5
5
5
5
5
5
5
5
5
5
5
5
5
5
5
5
5
5
5
5
5
5
5
5
5
5
5
5
5
5
5
5
5
5
5
5
5
5
5
5
5
5
5
5
5
5
5
5
5
5
5
5
5
5
5
5
5
5
5
5
5
5
5
5
5
5
5
5
5
5
5
5
5
5
5
5
5
5
5
5
5
5
5
5
5
5
5
5
5
5
5
5
5
5
5
5
5
5
5
5
5
5
5
5
5
5
5
5
5
5
5
5
5
5
5
5
5
5
5
5
5
5
5
5
5
5
5
5
5
5
5
5
5
5
5
5
5
5
5
5
5
5
5
5
5
5
5
5
5
5
5
5
5
5
5
5
5
5
5
5
5
5
5
5
5
5
5
5
5
5
5
5
5
5
5
5
5
5
5
5
5
5
5
5
5
5
5
5
5
5
5
5
5
5
5
5
5
5
5
5
5
5
5
5
5
5
5
5
5
5
5
5
5
5
5
5
5
5
5
5
5
5
5
5
5
5
5
5
5
5
5
5
5
5
5
5
5
5
5
5
5
5
5
5
5
5
5
5
5
5
5
5
5
5
5
5
5
5
5
5
5
5
5
5
5
5
5
5
5
5
5
5
5
5
5
5
5
5
5
5
5
5
5
5
5
5
5
5
5
5
5
5
5
5
5
5
5
5
5
5
5
5
5
5
5
5
5
5
5
5
5
5
5
5
5
5
5
5
5
5
5
5
5
5
5
5
5
5
5
5
5
5
5
5
5
5
5
5
5
5
5
5
5
5
5
5
5
5
5
5
5
5
5
5
5
5
5
5
5
5
5
5
5
5
5
5
5
5
5
5
5
5
5
5
5
5
5
5
5
5
5
5
5
5
5
5
5
5
5
5
5
5
5
5
5
5
5
5
5
5
5
5
5
5
5
5
5
5
5
5
5
5
5
5
5
5
5
5
5
5
5
5
5
5
5
5
5
5
5
5
5
5
5
5
5
5
5
5
5
5
5
5
5
5
5
5
5
5
5
5
5
5
5
5
5
5
5
5
5
5
5
5
5
5
5
5
5
5
5
5
5
5
5
5
5
5
5
5
5
5
5
5
5
5
5
5
5
5
5
5
5
5
5
5
5
5
5
5
5
5
5
5
5
5
5
5
5
5
5
5
5
5
5
5
5
5
5
5
5
5
5
5
5
5
5
5
5
5
5
5
5
5
5
5
5
5
5
5
5
5
5
5
5
5
5
5
5
5
5
5
5
5
5
5
5
5
5
5
5
5
5
5
5
5
5
5
5
5
5
5
5
5
5
5
5
5
5
5
5
5
5
5
5
5
5
5
5
5
5
5
5
5
5
5
5
5
5
5
5
5
5
5
5
5
5
5
5
5
5
5
5
5
5
5
5
5
5
5
5
5
5
5
5
5
5
5
5
5
5
5
5
5
5
5
5
5
5
5
5
5
5
5
5
5
5
5
5
5
5
5
5
5
5
5
5
5
5
5
5
5
5
5
5
5
5
5
5
5
5
5
5
5
5
5
5
5
5
5
5
5
5
5
5
5
5
5
5
5
5
5
5
5
5
5
5
5
5
5
5
5
5
5
5
5
5
5
5
5
5
5
5
5
5
5
5
5
5
5
5
5
5
5
5
5
5
5
5
5
5
5
5
5
5
5
5
5
5
5
5
5
5
5
5
5
5
5
5
5
5
5
5
5
5
5
5
5
5
5
5
5
5
5
5
5
5
5
5
5
5
5
5
5
5
5
5
5
5
5
5
5
5
5
5
5
5
5
5
5
5
5
5
5
5
5
5
5
5
5
5
5
5
5
5
5
5
5
5
5
5
5
5
5
5
5
5
5
5
5
5
5
5
5
5
5
5
5
5
5
5
5
5
5
5
5
5
5
5
5
5
5
5
5
5
5
5
5
5
5
5
5
5
5
5
5
5
5
5
5
5
5
5
5
5
5
5
5
5
5
5
5
5
5
5
5
5
5
5
5
5
5
5
5
5
5
5
5
5
5
5
5
5
5
5
5
5
5
5
5
5
5
5
5
5
5
5
5
5
5
5
5
5
5
5
5
5
5
5
5
5
5
5
5
5
5
5
5
5
5
5
5
5
5
5
5
5
5
5
5
5
5
5
5
5
5
5
5
5
5
5
5
5
5
5
5
5
5
5
5
5
5
5
5
5
5
5
5
5
5
5
5
5
5
5
5
5
5
5
5
5
5
5
5
5
5
5
5
5
5
5
5
5
5
5
5
5
5
5
5
5
5
5
5
5
5
5
5
5
5
5
5
5
5
5
5
5
5
5
5
5
5
5
5
5
5
5
5
5
5
5
5
5
5
5
5
5
5
5
5
5
5
5
5
5
5
5
5
5
5
5
5
5
5
5
5
5
5
5
5
5
5
5
5
5
5
5
5
5
5
5
5
5
5
5
5
5
5
5
5
5
5
5
5
5
5
5
5
5
5
5
5
5
5
5
5
5
5
5
5
5
5
5
5
5
5
5
5
5
5
5
5
5
5
5
5
5
5
5
5
5
5
5
5
5
5
5
5
5
5
5
5
5
5
5
5
5
5
5
5
5
5
5
5
5
5
5
5
5
5
5
5
5
5
5
5
5
5
5
5
5
5
5
5
5
5
5
5
5
5
5
5
5
5
5
5
5
5
5
5
5
5
5
5
5
5
5
5
5
5
5
5
5
5
5
5
5
5
5
5
5
5
5
5
5
5
5
5
5
5
5
5
5
5
5
5
5
5
5
5
5
5
5
5
5
5
5
5
5
5
5
5
5
5
5
5
5
5
5
5
5
5
5
5
5
5
5
5
5
5
5
5
5
5
5
5
5
5
5
5
5
5
5
5
5
5
5
5
5
5
5
5
5
5
5
5
5
5
5
5
5
5
5
5
5
5
5
5
5
5
5
5
5
5
5
5
5
5
5
5
5
5
5
5
5
5
5
5
5
5
5
5
5
5
5
5
5
5
5
5
5
5
5
5
5
5
5
5
5
5
5
5
5
5
5
5
5
5
5
5
5
5
5
5
5
5
5
5
5
5
5
5
5
5
5
5
5
5
5
5
5
5
5
5
5
5
5
5
5
5
5
5
5
5
5
5
5
5
5
5
5
5
5
5
5
5
5
5
5
5
5
5
5
5
5
5
5
5
5
5
5
5
5
5
5
5
5
5
5
5
5
5
5
5
5
5
5
5
5
5
5
5
5
5
5
5
5
5
5
5
5
5
5
5
5
5
5
5
5
5
5
5
5
5
5
5
5
5
5
5
5
5
5
5
5
5
5
5
5
5
5
5
5
5
5
5
5
5
5
5
5
5
5
5
5
5
5
5
5
5
5
5
5
5
5
5
5
5
5
5
5
5
5
5
5
5
5
5
5
5
5
5
5
5
5
5
5
5
5
5
5
5
5
5
5
5
5
5
5
5
5
5
5
5
5
5
5
5
5
5
5
5
5
5
5
5
5
5
5
5
5
5
5
5
5
5
5
5
5
5
5
5
5
5
5
5
5
5
5
5
5
5
5
5
5
5
5
5
5
5
5
5
5
5
5
5
5
5
5
5
5
5
5
5
5

POINT_DATA 1191

VECTORS coord float
0.0 0.0 0.0 
5.000000000000e+01 -1.000000000000e+01 0.0 
0.0 -2.000000000000e+01 0.0 
5.000000000000e+01 -2.000000000000e+01 0.0 
0.0 -9.999999999991e-01 0.0 
0.0 -1.999999999998e+00 0.0 
0.0 -2.999999999997e+00 0.0 
0.0 -3.999999999994e+00 0.0 
0.0 -4.999999999991e+00 0.0 
0.0 -5.999999999988e+00 0.0 
0.0 -6.999999999985e+00 0.0 
0.0 -7.999999999982e+00 0.0 
0.0 -8.999999999983e+00 0.0 
0.0 -9.999999999985e+00 0.0 
0.0 -1.099999999999e+01 0.0 
0.0 -1.199999999999e+01 0.0 
0.0 -1.299999999999e+01 0.0 
0.0 -1.399999999999e+01 0.0 
0.0 -1.499999999999e+01 0.0 
0.0 -1.599999999999e+01 0.0 
0.0 -1.700000000000e+01 0.0 
0.0 -1.800000000000e+01 0.0 
0.0 -1.900000000000e+01 0.0 
4.900000000001e+01 -2.000000000000e+01 0.0 
4.800000000001e+01 -2.000000000000e+01 0.0 
4.700000000002e+01 -2.000000000000e+01 0.0 
4.600000000003e+01 -2.000000000000e+01 0.0 
4.500000000004e+01 -2.000000000000e+01 0.0 
4.400000000004e+01 -2.000000000000e+01 0.0 
4.300000000005e+01 -2.000000000000e+01 0.0 
4.200000000006e+01 -2.000000000000e+01 0.0 
4.100000000006e+01 -2.000000000000e+01 0.0 
4.000000000007e+01 -2.000000000000e+01 0.0 
3.900000000008e+01 -2.000000000000e+01 0.0 
3.800000000009e+01 -2.000000000000e+01 0.0 
3.700000000009e+01 -2.000000000000e+01 0.0 
3.600000000010e+01 -2.000000000000e+01 0.0 
3.500000000011e+01 -2.000000000000e+01 0.0 
3.400000000011e+01 -2.000000000000e+01 0.0 
3.300000000012e+01 -2.000000000000e+01 0.0 
3.200000000013e+01 -2.000000000000e+01 0.0 
3.100000000013e+01 -2.000000000000e+01 0.0 
3.000000000013e+01 -2.000000000000e+01 0.0 
2.900000000013e+01 -2.000000000000e+01 0.0 
2.800000000013e+01 -2.000000000000e+01 0.0 
2.700000000013e+01 -2.000000000000e+01 0.0 
2.600000000013e+01 -2.000000000000e+01 0.0 
2.500000000013e+01 -2.000000000000e+01 0.0 
2.400000000013e+01 -2.000000000000e+01 0.0 
2.300000000013e+01 -2.000000000000e+01 0.0 
2.200000000013e+01 -2.000000000000e+01 0.0 
2.100000000013e+01 -2.000000000000e+01 0.0 
2.000000000013e+01 -2.000000000000e+01 0.0 
1.900000000013e+01 -2.000000000000e+01 0.0 
1.800000000013e+01 -2.000000000000e+01 0.0 
1.700000000012e+01 -2.000000000000e+01 0.0 
1.600000000011e+01 -2.000000000000e+01 0.0 
1.500000000011e+01 -2.000000000000e+01 0.0 
1.400000000010e+01 -2.000000000000e+01 0.0 
1.300000000009e+01 -2.000000000000e+01 0.0 
1.200000000009e+01 -2.000000000000e+01 0.0 
1.100000000008e+01 -2.000000000000e+01 0.0 
1.000000000007e+01 -2.000000000000e+01 0.0 
9.000000000064e+00 -2.000000000000e+01 0.0 
8.000000000057e+00 -2.000000000000e+01 0.0 
7.000000000050e+00 -2.000000000000e+01 0.0 
6.000000000043e+00 -2.000000000000e+01 0.0 
5.000000000036e+00 -2.000000000000e+01 0.0 
4.000000000028e+00 -2.000000000000e+01 0.0 
3.000000000021e+00 -2.000000000000e+01 0.0 
2.000000000014e+00 -2.000000000000e+01 0.0 
1.000000000007e+00 -2.000000000000e+01 0.0 
5.000000000000e+01 -1.100000000000e+01 0.0 
5.000000000000e+01 -1.200000000000e+01 0.0 
5.000000000000e+01 -1.300000000000e+01 0.0 
5.000000000000e+01 -1.400000000000e+01 0.0 
5.000000000000e+01 -1.500000000000e+01 0.0 
5.000000000000e+01 -1.600000000000e+01 0.0 
5.000000000000e+01 -1.700000000000e+01 0.0 
5.000000000000e+01 -1.800000000000e+01 0.0 
5.000000000000e+01 -1.900000000000e+01 0.0 
2.000000000000e+01 0.0 0.0 
3.500000000000e+01 -1.000000000000e+01 0.0 
2.150000000000e+01 -1.000000000000e+00 0.0 
2.300000000000e+01 -2.000000000000e+00 0.0 
2.450000000000e+01 -3.000000000000e+00 0.0 
2.600000000000e+01 -4.000000000000e+00 0.0 
2.750000000000e+01 -5.000000000000e+00 0.0 
2.900000000000e+01 -6.000000000000e+00 0.0 
3.050000000000e+01 -7.000000000000e+00 0.0 
3.200000000000e+01 -8.000000000000e+00 0.0 
3.350000000000e+01 -9.000000000000e+00 0.0 
5.000000000000e+01 -3.000000000000e+00 0.0 
5.000000000000e+01 -4.000000000000e+00 0.0 
5.000000000000e+01 -5.000000000000e+00 0.0 
5.000000000000e+01 -6.000000000000e+00 0.0 
5.000000000000e+01 -7.000000000000e+00 0.0 
5.000000000000e+01 -8.000000000000e+00 0.0 
5.000000000000e+01 -9.000000000000e+00 0.0 
4.900000000000e+01 -1.000000000000e+01 0.0 
4.800000000000e+01 -1.000000000000e+01 0.0 
4.700000000000e+01 -1.000000000000e+01 0.0 
4.600000000000e+01 -1.000000000000e+01 0.0 
4.500000000000e+01 -1.000000000000e+01 0.0 
4.400000000000e+01 -1.000000000000e+01 0.0 
4.300000000000e+01 -1.000000000000e+01 0.0 
4.200000000000e+01 -1.000000000000e+01 0.0 
4.100000000000e+01 -1.000000000000e+01 0.0 
4.000000000000e+01 -1.000000000000e+01 0.0 
3.900000000000e+01 -1.000000000000e+01 0.0 
3.800000000000e+01 -1.000000000000e+01 0.0 
3.700000000000e+01 -1.000000000000e+01 0.0 
3.600000000000e+01 -1.000000000000e+01 0.0 
1.900000000000e+01 0.0 0.0 
1.800000000000e+01 0.0 0.0 
1.700000000000e+01 0.0 0.0 
1.600000000000e+01 0.0 0.0 
1.500000000000e+01 0.0 0.0 
1.400000000000e+01 0.0 0.0 
1.300000000000e+01 0.0 0.0 
1.200000000000e+01 0.0 0.0 
1.100000000000e+01 0.0 0.0 
1.000000000000e+01 0.0 0.0 
9.000000000000e+00 0.0 0.0 
8.000000000000e+00 0.0 0.0 
7.000000000000e+00 0.0 0.0 
6.000000000000e+00 0.0 0.0 
5.000000000000e+00 0.0 0.0 
4.000000000000e+00 0.0 0.0 
3.000000000000e+00 0.0 0.0 
2.000000000000e+00 0.0 0.0 
1.000000000000e+00 0.0 0.0 
2.548076923077e+01 -3.000000000000e+00 0.0 
2.646153846153e+01 -3.000000000000e+00 0.0 
2.744230769230e+01 -3.000000000000e+00 0.0 
2.842307692306e+01 -3.000000000000e+00 0.0 
2.940384615383e+01 -3.000000000000e+00 0.0 
3.038461538459e+01 -3.000000000000e+00 0.0 
3.136538461536e+01 -3.000000000000e+00 0.0 
3.234615384612e+01 -3.000000000000e+00 0.0 
3.332692307687e+01 -3.000000000000e+00 0.0 
3.430769230762e+01 -3.000000000000e+00 0.0 
3.528846153837e+01 -3.000000000000e+00 0.0 
3.626923076912e+01 -3.000000000000e+00 0.0 
3.724999999988e+01 -3.000000000000e+00 0.0 
3.823076923065e+01 -3.000000000000e+00 0.0 
3.921153846143e+01 -3.000000000000e+00 0.0 
4.019230769221e+01 -3.000000000000e+00 0.0 
4.117307692299e+01 -3.000000000000e+00 0.0 
4.215384615377e+01 -3.000000000000e+00 0.0 
4.313461538455e+01 -3.000000000000e+00 0.0 
4.411538461533e+01 -3.000000000000e+00 0.0 
4.509615384611e+01 -3.000000000000e+00 0.0 
4.607692307688e+01 -3.000000000000e+00 0.0 
4.705769230766e+01 -3.000000000000e+00 0.0 
4.803846153844e+01 -3.000000000000e+00 0.0 
4.901923076922e+01 -3.000000000000e+00 0.0 
4.900000000000e+01 -4.000000000000e+00 0.0 
4.800000000000e+01 -4.000000000000e+00 0.0 
4.700000000000e+01 -4.000000000000e+00 0.0 
4.600000000000e+01 -4.000000000000e+00 0.0 
4.500000000000e+01 -4.000000000000e+00 0.0 
4.400000000000e+01 -4.000000000000e+00 0.0 
4.300000000000e+01 -4.000000000000e+00 0.0 
4.200000000000e+01 -4.000000000000e+00 0.0 
4.100000000000e+01 -4.000000000000e+00 0.0 
4.000000000000e+01 -4.000000000000e+00 0.0 
3.900000000000e+01 -4.000000000000e+00 0.0 
3.800000000000e+01 -4.000000000000e+00 0.0 
3.700000000000e+01 -4.000000000000e+00 0.0 
3.600000000000e+01 -4.000000000000e+00 0.0 
3.500000000000e+01 -4.000000000000e+00 0.0 
3.400000000000e+01 -4.000000000000e+00 0.0 
3.300000000000e+01 -4.000000000000e+00 0.0 
3.200000000000e+01 -4.000000000000e+00 0.0 
3.100000000000e+01 -4.000000000000e+00 0.0 
3.000000000000e+01 -4.000000000000e+00 0.0 
2.900000000000e+01 -4.000000000000e+00 0.0 
2.800000000000e+01 -4.000000000000e+00 0.0 
2.700000000000e+01 -4.000000000000e+00 0.0 
2.847826086957e+01 -5.000000000000e+00 0.0 
2.945652173913e+01 -5.000000000000e+00 0.0 
3.043478260870e+01 -5.000000000000e+00 0.0 
3.141304347826e+01 -5.000000000000e+00 0.0 
3.239130434783e+01 -5.000000000000e+00 0.0 
3.336956521739e+01 -5.000000000000e+00 0.0 
3.434782608696e+01 -5.000000000000e+00 0.0 
3.532608695652e+01 -5.000000000000e+00 0.0 
3.630434782609e+01 -5.000000000000e+00 0.0 
3.728260869565e+01 -5.000000000000e+00 0.0 
3.826086956522e+01 -5.000000000000e+00 0.0 
3.923913043478e+01 -5.000000000000e+00 0.0 
4.021739130435e+01 -5.000000000000e+00 0.0 
4.119565217391e+01 -5.000000000000e+00 0.0 
4.217391304348e+01 -5.000000000000e+00 0.0 
4.315217391304e+01 -5.000000000000e+00 0.0 
4.413043478261e+01 -5.000000000000e+00 0.0 
4.510869565217e+01 -5.000000000000e+00 0.0 
4.608695652174e+01 -5.000000000000e+00 0.0 
4.706521739130e+01 -5.000000000000e+00 0.0 
4.804347826087e+01 -5.000000000000e+00 0.0 
4.902173913043e+01 -5.000000000000e+00 0.0 
4.900000000001e+01 -6.000000000000e+00 0.0 
4.800000000003e+01 -6.000000000000e+00 0.0 
4.700000000004e+01 -6.000000000000e+00 0.0 
4.600000000006e+01 -6.000000000000e+00 0.0 
4.500000000007e+01 -6.000000000000e+00 0.0 
4.400000000009e+01 -6.000000000000e+00 0.0 
4.300000000010e+01 -6.000000000000e+00 0.0 
4.200000000012e+01 -6.000000000000e+00 0.0 
4.100000000013e+01 -6.000000000000e+00 0.0 
4.000000000014e+01 -6.000000000000e+00 0.0 
3.900000000014e+01 -6.000000000000e+00 0.0 
3.800000000012e+01 -6.000000000000e+00 0.0 
3.700000000010e+01 -6.000000000000e+00 0.0 
3.600000000008e+01 -6.000000000000e+00 0.0 
3.500000000006e+01 -6.000000000000e+00 0.0 
3.400000000005e+01 -6.000000000000e+00 0.0 
3.300000000003e+01 -6.000000000000e+00 0.0 
3.200000000001e+01 -6.000000000000e+00 0.0 
3.100000000000e+01 -6.000000000000e+00 0.0 
3.000000000000e+01 -6.000000000000e+00 0.0 
3.147499999998e+01 -7.000000000000e+00 0.0 
3.244999999998e+01 -7.000000000000e+00 0.0 
3.342499999998e+01 -7.000000000000e+00 0.0 
3.439999999998e+01 -7.000000000000e+00 0.0 
3.537499999998e+01 -7.000000000000e+00 0.0 
3.634999999998e+01 -7.000000000000e+00 0.0 
3.732499999998e+01 -7.000000000000e+00 0.0 
3.829999999998e+01 -7.000000000000e+00 0.0 
3.927499999999e+01 -7.000000000000e+00 0.0 
4.024999999999e+01 -7.000000000000e+00 0.0 
4.122499999999e+01 -7.000000000000e+00 0.0 
4.219999999999e+01 -7.000000000000e+00 0.0 
4.317499999999e+01 -7.000000000000e+00 0.0 
4.414999999999e+01 -7.000000000000e+00 0.0 
4.512499999999e+01 -7.000000000000e+00 0.0 
4.609999999999e+01 -7.000000000000e+00 0.0 
4.707500000000e+01 -7.000000000000e+00 0.0 
4.805000000000e+01 -7.000000000000e+00 0.0 
4.902500000000e+01 -7.000000000000e+00 0.0 
4.900000000000e+01 -8.000000000000e+00 0.0 
4.800000000000e+01 -8.000000000000e+00 0.0 
4.700000000000e+01 -8.000000000000e+00 0.0 
4.600000000000e+01 -8.000000000000e+00 0.0 
4.500000000000e+01 -8.000000000000e+00 0.0 
4.400000000000e+01 -8.000000000000e+00 0.0 
4.300000000000e+01 -8.000000000000e+00 0.0 
4.200000000000e+01 -8.000000000000e+00 0.0 
4.100000000000e+01 -8.000000000000e+00 0.0 
4.000000000000e+01 -8.000000000000e+00 0.0 
3.900000000000e+01 -8.000000000000e+00 0.0 
3.800000000000e+01 -8.000000000000e+00 0.0 
3.700000000000e+01 -8.000000000000e+00 0.0 
3.600000000000e+01 -8.000000000000e+00 0.0 
3.500000000000e+01 -8.000000000000e+00 0.0 
3.400000000000e+01 -8.000000000000e+00 0.0 
3.300000000000e+01 -8.000000000000e+00 0.0 
3.447058823527e+01 -9.000000000000e+00 0.0 
3.544117647055e+01 -9.000000000000e+00 0.0 
3.641176470582e+01 -9.000000000000e+00 0.0 
3.738235294109e+01 -9.000000000000e+00 0.0 
3.835294117637e+01 -9.000000000000e+00 0.0 
3.932352941164e+01 -9.000000000000e+00 0.0 
4.029411764691e+01 -9.000000000000e+00 0.0 
4.126470588219e+01 -9.000000000000e+00 0.0 
4.223529411748e+01 -9.000000000000e+00 0.0 
4.320588235279e+01 -9.000000000000e+00 0.0 
4.417647058811e+01 -9.000000000000e+00 0.0 
4.514705882342e+01 -9.000000000000e+00 0.0 
4.611764705874e+01 -9.000000000000e+00 0.0 
4.708823529405e+01 -9.000000000000e+00 0.0 
4.805882352937e+01 -9.000000000000e+00 0.0 
4.902941176468e+01 -9.000000000000e+00 0.0 
2.075000000000e+01 -5.000000000006e-01 0.0 
2.225000000000e+01 -1.500000000000e+00 0.0 
2.375000000000e+01 -2.500000000000e+00 0.0 
2.525000000000e+01 -3.500000000000e+00 0.0 
2.675000000000e+01 -4.500000000000e+00 0.0 
2.825000000000e+01 -5.500000000000e+00 0.0 
2.975000000000e+01 -6.500000000000e+00 0.0 
3.125000000000e+01 -7.500000000000e+00 0.0 
3.275000000000e+01 -8.500000000000e+00 0.0 
3.425000000000e+01 -9.500000000000e+00 0.0 
2.226951693683e+01 -2.403913980114e+00 0.0 
1.650149491944e+01 -1.913490915758e+01 0.0 
1.050042386896e+01 -8.504605092970e-01 0.0 
1.553146524712e+01 -8.281255032105e-01 0.0 
1.150000000008e+01 -1.913397459621e+01 0.0 
2.530060260647e+01 -4.428336431260e+00 0.0 
8.651114563942e-01 -1.052096295641e+01 0.0 
2.050000000013e+01 -1.913397459622e+01 0.0 
2.819198729811e+01 -6.399519052838e+00 0.0 
2.445670302931e+01 -1.915649188023e+01 0.0 
3.117591465718e+01 -8.394293040695e+00 0.0 
7.465053044742e+00 -1.920411160581e+01 0.0 
6.398295709691e+00 -8.230098819370e-01 0.0 
2.849659607461e+01 -1.914296187762e+01 0.0 
3.418732642882e+01 -1.040265792588e+01 0.0 
8.386450935063e-01 -6.533605142809e+00 0.0 
9.178661865596e-01 -1.329769195597e+01 0.0 
3.149448624493e+01 -1.910466733764e+01 0.0 
3.552916747426e+01 -1.914628590759e+01 0.0 
4.449210346537e+01 -1.914359085008e+01 0.0 
4.140975975145e+01 -1.906941860733e+01 0.0 
3.847475958753e+01 -1.916622382724e+01 0.0 
3.653774794640e+01 -1.088712800241e+01 0.0 
4.047886341787e+01 -1.090139014048e+01 0.0 
4.348006339825e+01 -1.092792621489e+01 0.0 
4.919519968029e+01 -1.451526755068e+01 0.0 
4.500000000032e+00 -1.913397459621e+01 0.0 
1.856136921614e+01 -8.212235170404e-01 0.0 
3.499895312306e+00 -8.661165539723e-01 0.0 
9.076088696565e-01 -1.642306201891e+01 0.0 
4.655174095477e+01 -1.086183387525e+01 0.0 
9.430688970604e-01 -3.496112672958e+00 0.0 
3.353992337063e+01 -1.901202090820e+01 0.0 
2.249746016977e+01 -1.921262287282e+01 0.0 
2.650122741777e+01 -1.916123026018e+01 0.0 
1.863571384842e+01 -1.908325534840e+01 0.0 
1.450089971693e+01 -1.917691901860e+01 0.0 
1.350044695317e+01 -8.659695299584e-01 0.0 
3.849987469880e+01 -1.084154983397e+01 0.0 
9.454419857884e+00 -1.900818879936e+01 0.0 
4.917398660523e+01 -1.645692866081e+01 0.0 
8.500000000000e+00 -8.660254037844e-01 0.0 
8.660319230785e-01 -8.500111697188e+00 0.0 
4.649022621545e+01 -1.930506220113e+01 0.0 
2.667688107845e+01 -5.420288124331e+00 0.0 
2.379251615665e+01 -3.412225477429e+00 0.0 
2.966631491830e+01 -7.389030232731e+00 0.0 
3.267915035995e+01 -9.396934932445e+00 0.0 
2.074836922338e+01 -1.320054020319e+00 0.0 
4.915985743621e+01 -1.261973384855e+01 0.0 
2.527129768623e+00 -1.931592414663e+01 0.0 
1.538676247410e+00 -8.436956619311e-01 0.0 
4.908096641539e+01 -1.842484004551e+01 0.0 
3.478612492673e+01 -1.090889364140e+01 0.0 
3.409757055860e+01 -1.131991530427e+01 0.0 
3.501895309466e+01 -1.177687842717e+01 0.0 
3.407758073088e+01 -1.224293381580e+01 0.0 
3.484541875390e+01 -1.277051428430e+01 0.0 
3.400322025842e+01 -1.319022775640e+01 0.0 
3.321672625034e+01 -1.266779191233e+01 0.0 
3.315244139236e+01 -1.360984106532e+01 0.0 
3.236335186892e+01 -1.308463225210e+01 0.0 
3.478337442841e+01 -1.372341158982e+01 0.0 
3.230105923633e+01 -1.403023731610e+01 0.0 
3.150954055289e+01 -1.350301767700e+01 0.0 
3.144604792090e+01 -1.444931742516e+01 0.0 
3.065653897123e+01 -1.392357262981e+01 0.0 
3.071897610812e+01 -1.297447031198e+01 0.0 
2.986790411740e+01 -1.339226181535e+01 0.0 
2.993181466745e+01 -1.244703272398e+01 0.0 
2.908023061869e+01 -1.286254537734e+01 0.0 
2.901619051372e+01 -1.380881655279e+01 0.0 
2.822986160390e+01 -1.327695262116e+01 0.0 
2.829453476870e+01 -1.233265343811e+01 0.0 
2.744542905518e+01 -1.274510491105e+01 0.0 
2.751120089246e+01 -1.180368086886e+01 0.0 
2.666218649885e+01 -1.221619339205e+01 0.0 
2.672371209234e+01 -1.127125228527e+01 0.0 
2.587763216302e+01 -1.168539979114e+01 0.0 
2.581165585299e+01 -1.262994410089e+01 0.0 
2.502890882577e+01 -1.209827323619e+01 0.0 
2.509631327757e+01 -1.115492410304e+01 0.0 
2.424662989877e+01 -1.156630981079e+01 0.0 
2.431704046904e+01 -1.062389179334e+01 0.0 
2.346445438728e+01 -1.103427680694e+01 0.0 
2.339382552877e+01 -1.197964871788e+01 0.0 
2.260936050780e+01 -1.144513277642e+01 0.0 
2.268075012022e+01 -1.049911928216e+01 0.0 
2.182525737661e+01 -1.090920811464e+01 0.0 
2.189682319817e+01 -9.961716944568e+00 0.0 
2.104174127792e+01 -1.037266986667e+01 0.0 
2.111304367575e+01 -9.424179358711e+00 0.0 
2.025306185381e+01 -9.832727364719e+00 0.0 
2.018141124247e+01 -1.079140628871e+01 0.0 
1.938594498257e+01 -1.025147354112e+01 0.0 
1.946106490453e+01 -9.288010758448e+00 0.0 
1.858929958352e+01 -9.706319802516e+00 0.0 
1.851540991219e+01 -1.067205988724e+01 0.0 
1.771485303178e+01 -1.012504443115e+01 0.0 
1.764134552256e+01 -1.109360378538e+01 0.0 
1.683745148095e+01 -1.054496365337e+01 0.0 
1.691852964353e+01 -9.582555261178e+00 0.0 
1.603603813062e+01 -1.000160132379e+01 0.0 
1.595824239350e+01 -1.096750698862e+01 0.0 
1.515080624291e+01 -1.041639501931e+01 0.0 
1.523171602559e+01 -9.451711491453e+00 0.0 
1.434621060709e+01 -9.871956467464e+00 0.0 
1.426777178765e+01 -1.083749501371e+01 0.0 
1.345775282374e+01 -1.028803175500e+01 0.0 
1.354103873368e+01 -9.324918457162e+00 0.0 
1.265072018622e+01 -9.742612837270e+00 0.0 
1.257285762070e+01 -1.071557782384e+01 0.0 
1.175874815690e+01 -1.015972324288e+01 0.0 
1.184203019714e+01 -9.193604071377e+00 0.0 
1.094927709905e+01 -9.612103238656e+00 0.0 
1.086938022910e+01 -1.058685085646e+01 0.0 
1.005424098961e+01 -1.002939116380e+01 0.0 
9.977974613295e+00 -1.101324897989e+01 0.0 
1.012915646404e+01 -9.051815821181e+00 0.0 
9.237127782494e+00 -9.471239055559e+00 0.0 
9.308426593771e+00 -8.483376461131e+00 0.0 
8.418806073345e+00 -8.910712374517e+00 0.0 
2.253688464062e+01 -1.239459402279e+01 0.0 
8.495126726666e+00 -7.921646665254e+00 0.0 
9.389727383206e+00 -7.512103628377e+00 0.0 
7.601560812974e+00 -8.349460349344e+00 0.0 
7.525680547759e+00 -9.339736686940e+00 0.0 
7.677888324502e+00 -7.359727833346e+00 0.0 
6.782001206724e+00 -7.788454494773e+00 0.0 
6.858778622885e+00 -6.797338062822e+00 0.0 
2.196596590865e+01 -8.979025665442e+00 0.0 
2.816540108272e+01 -1.422634142353e+01 0.0 
5.961601194403e+00 -7.226824010712e+00 0.0 
6.038171749656e+00 -6.234825887079e+00 0.0 
6.936257279557e+00 -5.805287640737e+00 0.0 
6.115068918323e+00 -5.242109758768e+00 0.0 
3.564391741903e+01 -1.329240553876e+01 0.0 
3.558115605778e+01 -1.425902892003e+01 0.0 
3.645445282201e+01 -1.381970786460e+01 0.0 
3.639744204358e+01 -1.479198128612e+01 0.0 
3.727266909778e+01 -1.435399586226e+01 0.0 
5.216667013081e+00 -5.671788584287e+00 0.0 
3.220697293295e+01 -1.499594545107e+01 0.0 
3.551112158269e+01 -1.523479869250e+01 0.0 
2.836056961467e+01 -1.139032434851e+01 0.0 
2.516730388602e+01 -1.021382726837e+01 0.0 
1.844436907403e+01 -1.164097215196e+01 0.0 
5.885434318740e+00 -8.218694781467e+00 0.0 
5.064071066867e+00 -7.656614643901e+00 0.0 
4.988089103470e+00 -8.649722082718e+00 0.0 
1.079421050408e+01 -1.157014985435e+01 0.0 
9.902420005256e+00 -1.199903342656e+01 0.0 
1.071994252214e+01 -1.255727909771e+01 0.0 
9.826974788171e+00 -1.298659581767e+01 0.0 
1.064607883789e+01 -1.354595476388e+01 0.0 
9.751541265343e+00 -1.397556905071e+01 0.0 
8.932296185869e+00 -1.341553353988e+01 0.0 
8.856399248106e+00 -1.440570715508e+01 0.0 
8.036186803543e+00 -1.384470558472e+01 0.0 
1.057112875118e+01 -1.453516759081e+01 0.0 
1.146582585687e+01 -1.410539926903e+01 0.0 
7.959894480382e+00 -1.483563350928e+01 0.0 
7.138792279156e+00 -1.427465094140e+01 0.0 
7.062506792418e+00 -1.526615385482e+01 0.0 
6.240693558277e+00 -1.470508863040e+01 0.0 
6.316957575451e+00 -1.371212581281e+01 0.0 
5.418183007107e+00 -1.414253605022e+01 0.0 
5.494748364428e+00 -1.314886770603e+01 0.0 
1.756825565873e+01 -1.206433872514e+01 0.0 
1.837565773345e+01 -1.261356468266e+01 0.0 
1.749574831391e+01 -1.303769280014e+01 0.0 
1.830539187332e+01 -1.358828364284e+01 0.0 
1.742278925170e+01 -1.401367746928e+01 0.0 
1.823303007798e+01 -1.456432294258e+01 0.0 
1.734941694138e+01 -1.499213734361e+01 0.0 
1.653760041637e+01 -1.443920312098e+01 0.0 
3.056237977307e+01 -1.487132260174e+01 0.0 
1.866469084762e+01 -8.742953000418e+00 0.0 
1.953669694916e+01 -8.326038909849e+00 0.0 
1.874194303780e+01 -7.780688158966e+00 0.0 
1.961032016741e+01 -7.366854697285e+00 0.0 
1.881715755159e+01 -6.821102209649e+00 0.0 
1.968369797150e+01 -6.407747217358e+00 0.0 
1.889237123259e+01 -5.858375520026e+00 0.0 
1.802038875366e+01 -6.276202618170e+00 0.0 
1.809793837984e+01 -5.307629520489e+00 0.0 
1.721985207997e+01 -5.728242054488e+00 0.0 
1.729850893523e+01 -4.756990819347e+00 0.0 
1.641745664240e+01 -5.174636548624e+00 0.0 
2.495978509456e+01 -1.304406404294e+01 0.0 
1.911567814831e+01 -1.413854250293e+01 0.0 
1.904387332608e+01 -1.511463127723e+01 0.0 
1.992115934240e+01 -1.468788025898e+01 0.0 
7.013706899628e+00 -4.812582868662e+00 0.0 
5.342091874585e+00 -1.513658157269e+01 0.0 
1.139098043784e+01 -1.509488509480e+01 0.0 
1.228151810610e+01 -1.465617481983e+01 0.0 
1.646373110164e+01 -1.541993323337e+01 0.0 
5.293328636712e+00 -4.678385108584e+00 0.0 
1.975965862987e+01 -5.448124345648e+00 0.0 
2.054318374236e+01 -5.992561293251e+00 0.0 
3.721453439063e+01 -1.533216152738e+01 0.0 
3.809302733893e+01 -1.489235527381e+01 0.0 
1.220852788900e+01 -1.565304565230e+01 0.0 
4.394120899730e+00 -5.108397613210e+00 0.0 
8.779354620288e+00 -1.539524721159e+01 0.0 
1.817791047702e+01 -4.338570146253e+00 0.0 
4.518860013839e+00 -1.457343189307e+01 0.0 
4.442712140414e+00 -1.556841391069e+01 0.0 
8.115343466391e+00 -1.285760324283e+01 0.0 
1.985334703171e+01 -1.566478400426e+01 0.0 
2.071953850276e+01 -1.522074243119e+01 0.0 
1.634012953883e+01 -6.154777738301e+00 0.0 
1.553479994708e+01 -5.593730508879e+00 0.0 
1.561265946942e+01 -4.617761762647e+00 0.0 
1.470674212978e+01 -5.064576488228e+00 0.0 
1.464498299883e+01 -6.026514471420e+00 0.0 
1.383271561817e+01 -5.467796261169e+00 0.0 
1.389241253067e+01 -4.504338666645e+00 0.0 
1.301868735463e+01 -4.907185188626e+00 0.0 
1.294514184846e+01 -5.888160903592e+00 0.0 
1.212955968622e+01 -5.328262335277e+00 0.0 
1.220721122383e+01 -4.341264976687e+00 0.0 
1.131324345897e+01 -4.766773516508e+00 0.0 
5.266597955397e+00 -1.613148974258e+01 0.0 
1.737805990867e+01 -3.786677807525e+00 0.0 
3.078438094513e+01 -1.203225297748e+01 0.0 
1.131569882285e+01 -1.608511932110e+01 0.0 
1.728478341782e+01 -1.596017432313e+01 0.0 
3.803465906019e+01 -1.587509751228e+01 0.0 
3.891681276677e+01 -1.543395196905e+01 0.0 
3.897340985302e+01 -1.444710288980e+01 0.0 
3.980095968193e+01 -1.499059496613e+01 0.0 
3.974334598189e+01 -1.597921884150e+01 0.0 
4.062964983717e+01 -1.553518690417e+01 0.0 
4.068729602479e+01 -1.454434445295e+01 0.0 
4.151772679790e+01 -1.508974196007e+01 0.0 
4.157505195739e+01 -1.409694289912e+01 0.0 
4.240699932656e+01 -1.464347955968e+01 0.0 
4.234898051011e+01 -1.563721375790e+01 0.0 
4.323934606035e+01 -1.519082036405e+01 0.0 
4.329740528208e+01 -1.419587509788e+01 0.0 
4.413056841369e+01 -1.474359631875e+01 0.0 
4.418850110108e+01 -1.374786684042e+01 0.0 
4.502219770667e+01 -1.429605103525e+01 0.0 
4.496411937907e+01 -1.529215882720e+01 0.0 
4.490027319897e+00 -4.154167794594e+00 0.0 
1.565080385988e+01 -1.486411982419e+01 0.0 
1.557610691279e+01 -1.584855627870e+01 0.0 
4.195350646612e+00 -8.089117689096e+00 0.0 
4.124027797830e+00 -9.082831955007e+00 0.0 
4.917944318925e+00 -9.643530901533e+00 0.0 
4.020105689502e+00 -1.007439673661e+01 0.0 
4.587185899277e+01 -1.484039992728e+01 0.0 
4.580078661551e+01 -1.584043391042e+01 0.0 
2.061956522375e+01 -5.046701343981e+00 0.0 
2.139572955529e+01 -5.579553449826e+00 0.0 
3.715344357292e+01 -1.631485124583e+01 0.0 
3.618886196443e+00 -1.500471207167e+01 0.0 
3.695606940204e+00 -1.400939692294e+01 0.0 
2.438890661143e+01 -9.686110599723e+00 0.0 
2.523267572778e+01 -9.276766000622e+00 0.0 
2.446094171539e+01 -8.751904591412e+00 0.0 
2.529089822738e+01 -8.321495612547e+00 0.0 
2.606882688827e+01 -8.864724051119e+00 0.0 
2.452116646430e+01 -7.792756462004e+00 0.0 
1.235543269617e+01 -1.365845617339e+01 0.0 
4.318116874181e+01 -1.618567469992e+01 0.0 
7.835066111909e+00 -5.376366223896e+00 0.0 
7.905687335704e+00 -4.382539065697e+00 0.0 
3.542640009567e+00 -1.600035116542e+01 0.0 
1.572431503071e+01 -1.388358386695e+01 0.0 
2.574684696680e+01 -1.357896141127e+01 0.0 
2.488842657651e+01 -1.399674354505e+01 0.0 
2.568301775611e+01 -1.453552048595e+01 0.0 
2.481535572009e+01 -1.495542756508e+01 0.0 
2.561729699688e+01 -1.549784648532e+01 0.0 
2.474623061296e+01 -1.592058894178e+01 0.0 
2.394234041695e+01 -1.537572575827e+01 0.0 
2.065825452567e+01 -1.621899055217e+01 0.0 
2.387180528935e+01 -1.634552264687e+01 0.0 
4.585364400844e+01 -1.383912334080e+01 0.0 
1.998744432052e+01 -1.370317155541e+01 0.0 
1.205356951443e+01 -6.313580285498e+00 0.0 
5.396543905849e+00 -3.731818611283e+00 0.0 
1.139652573295e+01 -3.745819399350e+00 0.0 
3.574124306703e+00 -4.551456826011e+00 0.0 
3.494140761930e+00 -5.539787055649e+00 0.0 
1.213651452413e+01 -1.664505033022e+01 0.0 
2.555045568519e+01 -1.646529356744e+01 0.0 
2.641671114986e+01 -1.603899382371e+01 0.0 
2.612920721894e+01 -7.906435260873e+00 0.0 
2.690339829698e+01 -8.456969591431e+00 0.0 
1.978024383368e+01 -1.664410216353e+01 0.0 
3.732829979082e+01 -1.336926601859e+01 0.0 
4.074336584605e+01 -1.355133328401e+01 0.0 
4.163204691081e+01 -1.310280943992e+01 0.0 
3.773826114429e+00 -3.493444309145e+00 0.0 
1.228783001032e+01 -3.374822835872e+00 0.0 
4.057110462520e+01 -1.652588478000e+01 0.0 
2.132535497898e+01 -6.523623360525e+00 0.0 
2.216932532211e+01 -6.110044769206e+00 0.0 
1.825781152128e+01 -3.370146817147e+00 0.0 
1.745679445888e+01 -2.812942552063e+00 0.0 
4.666517057280e+01 -1.539981381543e+01 0.0 
4.660575894464e+01 -1.639014410186e+01 0.0 
4.838230979954e+00 -1.063643436446e+01 0.0 
3.938942630206e+00 -1.106778981745e+01 0.0 
1.302967218620e+01 -1.621373452436e+01 0.0 
1.049548003190e+01 -4.204825123240e+00 0.0 
4.573571907195e+01 -1.683820511148e+01 0.0 
1.483686335807e+01 -1.430849689310e+01 0.0 
1.490982658890e+01 -1.332679386284e+01 0.0 
3.190805600162e+00 -9.510968358545e+00 0.0 
2.146625721848e+01 -4.642437303115e+00 0.0 
2.069866208266e+01 -4.111852942193e+00 0.0 
1.286859345584e+01 -6.873252723348e+00 0.0 
1.041794493184e+01 -5.194814260291e+00 0.0 
2.671081808965e+00 -4.976806516331e+00 0.0 
1.295786792925e+01 -1.720506531799e+01 0.0 
3.968438206511e+01 -1.696869067241e+01 0.0 
2.308550456051e+01 -1.579963151273e+01 0.0 
2.315593682844e+01 -1.482967445235e+01 0.0 
2.299471449450e+01 -1.677069968132e+01 0.0 
1.057344714696e+01 -3.214252277840e+00 0.0 
1.124057603753e+01 -1.707713739755e+01 0.0 
2.718402535754e+00 -1.543629882103e+01 0.0 
2.638549692805e+01 -1.696744916809e+01 0.0 
2.723416349007e+01 -1.658104204545e+01 0.0 
2.210193351704e+01 -7.046769643417e+00 0.0 
2.295180925161e+01 -6.657397605239e+00 0.0 
2.301355235833e+01 -5.709111896800e+00 0.0 
2.379052718281e+01 -6.254965406962e+00 0.0 
3.243528601237e+01 -1.214181853533e+01 0.0 
2.287977995457e+01 -7.583722368300e+00 0.0 
2.999876029544e+01 -1.150837653096e+01 0.0 
3.084435366963e+01 -1.109693775882e+01 0.0 
3.006650579669e+01 -1.057778994262e+01 0.0 
2.683802665066e+01 -9.386863216633e+00 0.0 
2.768641973621e+01 -8.988883915666e+00 0.0 
2.040296980397e+01 -7.903629133404e+00 0.0 
1.925235024054e+01 -1.218872783130e+01 0.0 
5.735667000424e+00 -1.020577277283e+01 0.0 
6.396559909872e+00 -1.272326295703e+01 0.0 
1.161199420714e+01 -1.212812778229e+01 0.0 
4.229046132615e+01 -1.663084237572e+01 0.0 
4.312275399692e+01 -1.718087491556e+01 0.0 
4.335502068163e+01 -1.320039231514e+01 0.0 
4.424630298089e+01 -1.275160688731e+01 0.0 
7.090116643816e+00 -3.818998061530e+00 0.0 
7.989472176569e+00 -3.389238711200e+00 0.0 
9.085824861778e+00 -1.144036167408e+01 0.0 
1.041972423731e+01 -1.651614080893e+01 0.0 
3.797525112640e+01 -1.686052038746e+01 0.0 
3.709114253394e+01 -1.730125999865e+01 0.0 
3.626966748340e+01 -1.675477052919e+01 0.0 
1.385164591440e+01 -1.677597757552e+01 0.0 
1.787152588784e+01 -8.198993896093e+00 0.0 
1.668849729812e+01 -1.248560611628e+01 0.0 
1.659546177905e+01 -3.232482605530e+00 0.0 
2.332214717345e+01 -1.292598167641e+01 0.0 
7.168238450786e+00 -2.824711686516e+00 0.0 
2.894878403906e+01 -1.475427524446e+01 0.0 
2.646763248247e+00 -1.643270107952e+01 0.0 
3.467431944285e+00 -1.699648837348e+01 0.0 
2.059475877282e+01 -1.719473628526e+01 0.0 
3.333868355437e+01 -1.080596971682e+01 0.0 
2.246451062637e+01 -1.334557761546e+01 0.0 
2.167821896388e+01 -1.280847834858e+01 0.0 
3.089653185767e+01 -1.017198487212e+01 0.0 
3.012604365669e+01 -9.657298805968e+00 0.0 
2.929627299435e+01 -1.006100135274e+01 0.0 
2.936201435219e+01 -9.136748899251e+00 0.0 
1.198219052702e+01 -7.291887238230e+00 0.0 
1.116702076035e+01 -6.731976101053e+00 0.0 
2.551388807505e+01 -1.746927036981e+01 0.0 
2.378639090370e+01 -1.728678807149e+01 0.0 
2.718543627188e+01 -1.748668016909e+01 0.0 
2.804681050301e+01 -1.712626668293e+01 0.0 
1.970737034667e+01 -1.762317646822e+01 0.0 
1.889535776135e+01 -1.707158098231e+01 0.0 
2.593777711283e+00 -5.971157087874e+00 0.0 
2.773468281110e+01 -8.067164273938e+00 0.0 
4.051205884347e+01 -1.751819982458e+01 0.0 
3.166903145421e+01 -1.068032992414e+01 0.0 
1.033042452886e+01 -1.748285844336e+01 0.0 
9.519274604626e+00 -1.694349240233e+01 0.0 
1.668308673328e+01 -2.255861778986e+00 0.0 
1.570531902832e+01 -2.676795860126e+00 0.0 
4.655826903379e+01 -1.736656245706e+01 0.0 
2.384148070773e+01 -5.328744256413e+00 0.0 
2.460255123641e+01 -5.852182672816e+00 0.0 
2.306638135119e+01 -4.798935440613e+00 0.0 
8.467720450578e-01 -1.849576263072e+01 0.0 
4.849657322345e+01 -1.084860705506e+01 0.0 
2.565860899507e+00 -1.742859793981e+01 0.0 
2.764418872564e+01 -9.927142821799e+00 0.0 
4.565165880064e+01 -1.785336695404e+01 0.0 
2.162231831329e+01 -1.376528337468e+01 0.0 
2.360646352969e+01 -9.136041963102e+00 0.0 
1.392738739903e+01 -1.578285505772e+01 0.0 
4.756405947478e+01 -1.683706841809e+01 0.0 
4.740895034054e+01 -1.793766756892e+01 0.0 
4.080779328826e+01 -1.257387192544e+01 0.0 
4.168907939671e+01 -1.210739129181e+01 0.0 
3.991197722154e+01 -1.300815793917e+01 0.0 
1.905536506762e+01 -3.940076697685e+00 0.0 
1.923879596617e+01 -2.875000734166e+00 0.0 
4.401386745746e+01 -1.673483229438e+01 0.0 
4.247233362525e+00 -7.094581653070e+00 0.0 
3.286051630211e+00 -7.635300020553e+00 0.0 
9.609533347623e+00 -4.594311677967e+00 0.0 
9.523554636369e+00 -5.595597029530e+00 0.0 
5.660336628893e+00 -1.119290329628e+01 0.0 
6.558070063295e+00 -1.076385809362e+01 0.0 
2.809866407414e+01 -1.518037766799e+01 0.0 
2.888868674504e+01 -1.570360690070e+01 0.0 
2.654431550819e+01 -1.411217777162e+01 0.0 
1.402158265969e+01 -1.375404617952e+01 0.0 
1.409592494026e+01 -1.277071998942e+01 0.0 
1.499355196178e+01 -1.235270737023e+01 0.0 
4.221535326155e+01 -1.759335617494e+01 0.0 
4.305583287033e+01 -1.822663146802e+01 0.0 
1.280748808359e+01 -7.834332838285e+00 0.0 
1.368988389326e+01 -7.420529606172e+00 0.0 
1.110091796060e+01 -7.683966794328e+00 0.0 
3.963446145980e+01 -1.794331310122e+01 0.0 
3.423932362213e+00 -1.796415590455e+01 0.0 
4.280814572302e+00 -1.752272834860e+01 0.0 
8.050136380041e+00 -2.421582378631e+00 0.0 
8.888674091650e+00 -2.984264211327e+00 0.0 
2.152839430898e+01 -3.732609965436e+00 0.0 
2.077799585292e+01 -3.183896021866e+00 0.0 
3.618719395821e+01 -1.770276572576e+01 0.0 
3.538165138340e+01 -1.718709995539e+01 0.0 
3.702925326420e+01 -1.828844288807e+01 0.0 
1.756739438711e+00 -5.353284859169e+00 0.0 
2.233710191104e+01 -1.527265621324e+01 0.0 
1.389483555057e+01 -1.771797164730e+01 0.0 
1.475634224300e+01 -1.728357428390e+01 0.0 
1.298797563052e+01 -1.825968924755e+01 0.0 
2.145331271866e+01 -1.673705379077e+01 0.0 
2.133282821169e+01 -1.769400773673e+01 0.0 
2.292139194136e+01 -1.774915400288e+01 0.0 
1.750750053243e+01 -1.861475593469e+00 0.0 
4.830478841772e+01 -1.752611802221e+01 0.0 
4.341203507805e+01 -1.220326745522e+01 0.0 
1.685254151866e+01 -1.443085301632e+00 0.0 
4.431538535165e+01 -1.171841387375e+01 0.0 
4.511308610496e+01 -1.229557320599e+01 0.0 
4.510133242889e+01 -1.123680627466e+01 0.0 
1.846818030617e+00 -4.410877617069e+00 0.0 
3.995468694584e+01 -1.186571542989e+01 0.0 
3.901387459804e+01 -1.242507616755e+01 0.0 
8.966735877533e+00 -1.837818700423e+00 0.0 
4.049310011091e+01 -1.848269508791e+01 0.0 
7.278862053803e+00 -1.918523922691e+00 0.0 
6.429715522129e+00 -2.316676521184e+00 0.0 
9.443505505022e+00 -1.792198868094e+01 0.0 
8.620386951051e+00 -1.737590365556e+01 0.0 
8.571868171503e+00 -1.834436667826e+01 0.0 
7.758629848526e+00 -1.775677907213e+01 0.0 
7.806648388584e+00 -1.680761266021e+01 0.0 
6.908555145436e+00 -1.723746463044e+01 0.0 
4.251709122090e+01 -1.156937480156e+01 0.0 
6.931136405615e+00 -1.832465719263e+01 0.0 
6.015545461353e+00 -1.768865355295e+01 0.0 
5.960535926343e+00 -1.872011001764e+01 0.0 
3.023253444786e+01 -8.761960642196e+00 0.0 
2.454622702599e+01 -6.749421992767e+00 0.0 
2.537499741604e+01 -6.347634963783e+00 0.0 
2.544077378460e+01 -5.431358513649e+00 0.0 
2.801367161747e+01 -1.820907270221e+01 0.0 
2.884507806914e+01 -1.762032095326e+01 0.0 
1.821474531936e+00 -1.588901260460e+01 0.0 
1.821006262604e+00 -1.489370287756e+01 0.0 
4.599962488908e+01 -1.176478780598e+01 0.0 
4.705457470007e+01 -1.172182804229e+01 0.0 
4.667668314802e+01 -1.263464558483e+01 0.0 
4.759648056504e+01 -1.252380987933e+01 0.0 
4.728041618103e+01 -1.341928568376e+01 0.0 
4.825209352360e+01 -1.330491640804e+01 0.0 
4.778118233428e+01 -1.420151961695e+01 0.0 
2.388192727579e+01 -1.826934810142e+01 0.0 
2.381714684947e+01 -4.385917965223e+00 0.0 
3.172733219247e+01 -9.758744265248e+00 0.0 
1.882012070658e+01 -1.805540597212e+01 0.0 
1.805667505243e+01 -1.742221226236e+01 0.0 
2.852599958080e+01 -8.597196079481e+00 0.0 
2.856486123437e+01 -7.661382718527e+00 0.0 
1.111792842875e+01 -1.818223852980e+01 0.0 
2.203322722466e+01 -7.986646678802e+00 0.0 
3.955703676900e+01 -1.903246763601e+01 0.0 
1.944842206513e+01 -8.038750575182e-01 0.0 
1.909882767783e+01 -1.746322740933e+00 0.0 
2.281147422941e+01 -8.525912918334e+00 0.0 
2.850633001468e+01 -9.533271335986e+00 0.0 
2.532883344309e+01 -7.308951659710e+00 0.0 
2.620475466461e+01 -6.979208585400e+00 0.0 
1.396278270396e+01 -1.475095389807e+01 0.0 
9.791001166724e+00 -2.554159793552e+00 0.0 
2.229293380421e+01 -4.269762271052e+00 0.0 
4.677238984118e+01 -1.430071795514e+01 0.0 
2.228658385918e+01 -3.344747535984e+00 0.0 
8.940223674553e-01 -1.543595733415e+01 0.0 
2.118566862474e+01 -8.435876987696e+00 0.0 
2.678325936437e+01 -1.032621195706e+01 0.0 
2.223400220487e+01 -5.179046761770e+00 0.0 
2.375370625384e+01 -7.251580562134e+00 0.0 
3.156971327386e+01 -1.255534750737e+01 0.0 
3.328226391312e+01 -1.172914813316e+01 0.0 
3.250948774219e+01 -1.120157009348e+01 0.0 
2.032993445717e+01 -8.867880112202e+00 0.0 
2.697226974856e+01 -7.536633082045e+00 0.0 
2.707377810386e+01 -6.590835263295e+00 0.0 
2.914099246827e+01 -1.191678458549e+01 0.0 
3.544824072239e+01 -1.621126558525e+01 0.0 
3.456511855436e+01 -1.665054783843e+01 0.0 
3.448395810225e+01 -1.759117813016e+01 0.0 
3.368378673938e+01 -1.708037781328e+01 0.0 
3.375560452567e+01 -1.610973066913e+01 0.0 
3.288001547988e+01 -1.654324255651e+01 0.0 
3.282475929147e+01 -1.749725654692e+01 0.0 
3.199880906313e+01 -1.697294088625e+01 0.0 
3.197001272932e+01 -1.811667776864e+01 0.0 
3.111884713021e+01 -1.742166785755e+01 0.0 
3.120418962865e+01 -1.642155709385e+01 0.0 
3.034666704371e+01 -1.683123833816e+01 0.0 
3.026224379976e+01 -1.772592851714e+01 0.0 
3.046632362943e+01 -1.582232843075e+01 0.0 
1.961344017324e+01 -1.857459447985e+01 0.0 
2.274975894774e+01 -9.532738811922e+00 0.0 
1.833923246887e+01 -2.396746883672e+00 0.0 
1.988859500848e+01 -2.249244376594e+00 0.0 
2.758045562861e+01 -1.086434261689e+01 0.0 
3.247300178163e+01 -1.909930104252e+01 0.0 
3.461947482503e+01 -1.911879848019e+01 0.0 
2.047161538662e+01 -6.941478180358e+00 0.0 
2.750230940214e+01 -1.915490590764e+01 0.0 
3.165081350803e+01 -1.161860780120e+01 0.0 
1.897456727641e+01 -4.889634688522e+00 0.0 
2.549338539756e+01 -1.914858252089e+01 0.0 
3.462873135081e+01 -1.567482276144e+01 0.0 
3.384432415243e+01 -1.512280684518e+01 0.0 
3.471433767690e+01 -1.469086942990e+01 0.0 
3.651470373046e+01 -1.918207952149e+01 0.0 
3.901742690249e+01 -1.345028556517e+01 0.0 
2.153224102692e+01 -1.920169709333e+01 0.0 
1.918382939341e+01 -1.316226275662e+01 0.0 
2.005389162382e+01 -1.271962165174e+01 0.0 
2.011472087878e+01 -1.175029352900e+01 0.0 
3.210679478412e+01 -1.598038618242e+01 0.0 
1.752175226543e+01 -1.914713022656e+01 0.0 
1.696897240059e+01 -1.832772588765e+01 0.0 
1.599682523337e+01 -1.832599992024e+01 0.0 
1.644507199462e+01 -1.743697981535e+01 0.0 
1.549987712903e+01 -1.915192375101e+01 0.0 
3.050250861901e+01 -1.918943550234e+01 0.0 
2.949944061527e+01 -1.922950455235e+01 0.0 
1.375892575273e+01 -6.447160534926e+00 0.0 
1.457223670180e+01 -7.006709243857e+00 0.0 
1.450818793236e+01 -7.965943451779e+00 0.0 
1.538804712402e+01 -7.553409623699e+00 0.0 
1.545817644768e+01 -6.580929593419e+00 0.0 
1.626506893751e+01 -7.129032608911e+00 0.0 
1.619833811522e+01 -8.086588580887e+00 0.0 
1.714448609609e+01 -6.697429609777e+00 0.0 
2.887616543568e+01 -1.668015232137e+01 0.0 
1.349814589130e+01 -1.918225301544e+01 0.0 
1.153887772210e+01 -1.311384581217e+01 0.0 
1.242708159886e+01 -1.267046795531e+01 0.0 
1.249799674267e+01 -1.169005616014e+01 0.0 
6.631723893693e+00 -9.774184881867e+00 0.0 
7.451471631867e+00 -1.033148796006e+01 0.0 
7.377795355458e+00 -1.132196345268e+01 0.0 
5.810931797536e+00 -9.211654212252e+00 0.0 
2.402683899133e+01 -1.441378562320e+01 0.0 
1.249768692036e+01 -1.917388426624e+01 0.0 
1.580373499437e+01 -1.290751860664e+01 0.0 
8.344650507834e+00 -9.898403995170e+00 0.0 
3.750622115305e+01 -1.086526401533e+01 0.0 
3.699391251667e+01 -1.171695900794e+01 0.0 
3.606517829518e+01 -1.173717504500e+01 0.0 
3.650257641795e+01 -1.270047380221e+01 0.0 
3.808951488918e+01 -1.183518714175e+01 0.0 
4.760380962420e+00 -1.162484888315e+01 0.0 
3.861210370848e+00 -1.205657631736e+01 0.0 
3.038284309476e+00 -1.149851280664e+01 0.0 
2.961598794889e+00 -1.248856794980e+01 0.0 
2.138953225512e+00 -1.193212674534e+01 0.0 
2.227383593457e+00 -1.096258903918e+01 0.0 
2.043265419276e+00 -1.292158472959e+01 0.0 
1.252449446028e+00 -1.225502002753e+01 0.0 
3.949985210740e+01 -1.086594001795e+01 0.0 
1.453499444792e+01 -8.768805922472e-01 0.0 
1.403518950933e+01 -1.749965556633e+00 0.0 
1.300715031023e+01 -1.714737233040e+00 0.0 
1.350929389899e+01 -2.527443911291e+00 0.0 
1.449600910711e+01 -2.595486162864e+00 0.0 
1.395693872901e+01 -3.484211041558e+00 0.0 
1.495105865208e+01 -3.364609636216e+00 0.0 
1.508822528740e+01 -1.766586020494e+00 0.0 
1.250223858430e+01 -8.634590186802e-01 0.0 
1.200279523409e+01 -1.709044504992e+00 0.0 
1.150086239419e+01 -8.592789190668e-01 0.0 
1.101482754194e+01 -1.677730591922e+00 0.0 
1.148018564526e+01 -2.659323866909e+00 0.0 
8.800552119754e+00 -3.989875954728e+00 0.0 
3.452790439430e+00 -1.901136170646e+01 0.0 
8.658451825200e-01 -9.503462241795e+00 0.0 
1.694787786797e+00 -9.000589234502e+00 0.0 
1.703436717094e+00 -8.038819004041e+00 0.0 
2.594197971110e+00 -8.563955242845e+00 0.0 
1.630513735412e+00 -9.907244747511e+00 0.0 
8.566859292791e-01 -7.512203837972e+00 0.0 
1.685461277022e+00 -7.164280248030e+00 0.0 
2.506394468801e+00 -8.623386730818e-01 0.0 
2.007475081581e+00 -1.727729545205e+00 0.0 
9.211534699767e-01 -1.628791366312e+00 0.0 
1.500000000020e+00 -2.598063549486e+00 0.0 
2.482078929963e+00 -2.553580088725e+00 0.0 
2.999795253092e+00 -1.732169015019e+00 0.0 
3.999712607169e+00 -1.728832897453e+00 0.0 
4.499752199340e+00 -8.656478679175e-01 0.0 
4.964377774841e+00 -1.730129617941e+00 0.0 
4.425017908337e+00 -2.597541756243e+00 0.0 
5.446573195014e+00 -8.410144840023e-01 0.0 
4.915722346614e+01 -1.550640962770e+01 0.0 
4.826794919243e+01 -1.600000000000e+01 0.0 
1.053139533193e+01 -1.911782884365e+01 0.0 
4.156049861949e+01 -1.095160998589e+01 0.0 
9.494526624416e+00 -8.650570090219e-01 0.0 
4.555762166964e+01 -1.897098103585e+01 0.0 
4.250656411371e+01 -1.914387356218e+01 0.0 
4.350906466345e+01 -1.917234727395e+01 0.0 
8.759665722424e-01 -1.746422130609e+01 0.0 
1.698936011838e+00 -1.795012186674e+01 0.0 
4.742476811029e+01 -1.900090177972e+01 0.0 
7.749196752349e+00 -6.368049313489e+00 0.0 
3.361572113416e+01 -1.798765193915e+01 0.0 
4.484660149212e+01 -1.728661231383e+01 0.0 
1.984038172228e+01 -4.502575320116e+00 0.0 
1.035080352627e+01 -6.166639575753e+00 0.0 
2.753558010652e+00 -1.444909521181e+01 0.0 
7.217069543032e+00 -1.328635391078e+01 0.0 
4.364336727739e+00 -1.655585677381e+01 0.0 
4.595208426108e+00 -1.357919665443e+01 0.0 
6.164967006980e+00 -1.569873454630e+01 0.0 
1.487855768353e+01 -1.826523774028e+01 0.0 
2.791876456372e+00 -4.019632415181e+00 0.0 
4.246464893515e+01 -1.364898659620e+01 0.0 
4.503855590351e+01 -1.329552780944e+01 0.0 
4.407239109604e+01 -1.573900004093e+01 0.0 
5.141054449252e+00 -6.664290382472e+00 0.0 
3.141083947149e+00 -1.055790764912e+01 0.0 
6.196463198741e+00 -4.256497932609e+00 0.0 
2.599618716181e+01 -1.836893455464e+01 0.0 
2.923057372337e+01 -1.098461757645e+01 0.0 
1.168343877486e+01 -1.114079645041e+01 0.0 
6.706222096238e+00 -8.780364234441e+00 0.0 
8.567858614669e+00 -6.943121440850e+00 0.0 
1.123755132901e+01 -5.753525820030e+00 0.0 
2.353456234423e+01 -1.008536320953e+01 0.0 
9.162073319168e+00 -1.045593739109e+01 0.0 
9.676343469685e+00 -1.496493008366e+01 0.0 
4.490637882905e+01 -1.628778970202e+01 0.0 
7.398129387772e+00 -9.639977982323e-01 0.0 
1.049641705805e+01 -1.552503975272e+01 0.0 
9.010356286268e+00 -1.242805042052e+01 0.0 
3.985573925497e+01 -1.399863651620e+01 0.0 
1.816196318262e+01 -1.554066497931e+01 0.0 
1.306332244168e+01 -3.963646550326e+00 0.0 
4.145850903932e+01 -1.608094559275e+01 0.0 
3.794664933633e+01 -1.779020121986e+01 0.0 
3.819614412903e+01 -1.290749321016e+01 0.0 
6.270014188119e+00 -3.255093186826e+00 0.0 
4.251165370388e+01 -1.263870364997e+01 0.0 
1.207347709171e+01 -1.763942826023e+01 0.0 
3.633240829927e+01 -1.577330481104e+01 0.0 
4.319052668832e+00 -6.101812561904e+00 0.0 
1.676492415806e+01 -1.151547901392e+01 0.0 
2.594059220037e+01 -1.074225223009e+01 0.0 
3.340750911501e+01 -9.898764354137e+00 0.0 
4.397619591281e+01 -1.769773736461e+01 0.0 
2.175611595028e+01 -1.185718747128e+01 0.0 
1.641818733106e+01 -1.640685203215e+01 0.0 
1.661211421753e+01 -1.346121366338e+01 0.0 
3.428853504935e+00 -6.551993389271e+00 0.0 
8.700728832502e+00 -1.638460872825e+01 0.0 
1.931369795309e+01 -1.121629383702e+01 0.0 
4.139798872363e+01 -1.706922153459e+01 0.0 
2.647837478700e+01 -1.507353829290e+01 0.0 
1.779469616424e+01 -9.161615782908e+00 0.0 
3.885879219319e+01 -1.642026488918e+01 0.0 
1.338194936770e+01 -1.125916521471e+01 0.0 
1.897071181111e+01 -1.609204322578e+01 0.0 
2.844308548793e+01 -1.046221003096e+01 0.0 
2.659854702194e+01 -1.316109415760e+01 0.0 
2.979604503271e+01 -1.433296157755e+01 0.0 
2.417694041347e+01 -1.251231397779e+01 0.0 
1.807401327411e+00 -1.388891148480e+01 0.0 
9.599810618782e+00 -1.595439365034e+01 0.0 
1.652144692160e+01 -4.205392788472e+00 0.0 
2.367839450246e+01 -8.188385218643e+00 0.0 
3.814894930468e+01 -1.390748338767e+01 0.0 
2.466448215774e+01 -1.685878545680e+01 0.0 
4.134044524611e+01 -1.806610045954e+01 0.0 
2.600511411958e+01 -9.801774120648e+00 0.0 
7.882158050716e+00 -1.582364037353e+01 0.0 
3.881607873422e+01 -1.737970515013e+01 0.0 
8.270182347708e+00 -1.088622154920e+01 0.0 
8.672520392520e-01 -4.532984309881e+00 0.0 
1.993447205337e+01 -3.579061902667e+00 0.0 
1.794616079549e+01 -7.238038888498e+00 0.0 
2.097277068165e+01 -1.132450168636e+01 0.0 
8.194803300681e+00 -1.187214224265e+01 0.0 
3.522279404911e+01 -1.823342818178e+01 0.0 
6.984481050295e+00 -1.625271465557e+01 0.0 
1.309433007797e+01 -1.521718594215e+01 0.0 
2.150246167611e+01 -1.885399038185e+00 0.0 
3.250689370209e+01 -1.028789870535e+01 0.0 
6.085886272238e+00 -1.668342132851e+01 0.0 
1.588455661727e+01 -1.193498985921e+01 0.0 
1.809323400821e+01 -1.651110084195e+01 0.0 
1.348885082381e+00 -1.136065576512e+01 0.0 
2.497670221995e+01 -1.834631276173e+01 0.0 
2.937062818424e+01 -8.233711194470e+00 0.0 
5.185823744469e+00 -1.711566910207e+01 0.0 
1.477497877209e+01 -1.530177014512e+01 0.0 
2.125346158933e+01 -7.473003997367e+00 0.0 
4.751561118290e+01 -1.084897772632e+01 0.0 
5.056026576843e+00 -1.825750475525e+01 0.0 
1.473948554523e+01 -1.634577436309e+01 0.0 
2.410566630936e+01 -1.345970002612e+01 0.0 
1.507337507513e+01 -1.138527895328e+01 0.0 
3.189857338687e+01 -8.887781229006e+00 0.0 
7.298712468334e+00 -1.230231046246e+01 0.0 
2.738235495295e+01 -1.368931690364e+01 0.0 
3.750141041969e+01 -1.920449893070e+01 0.0 
1.557271965640e+01 -1.683317951731e+01 0.0 
3.393731848929e+01 -1.413034777044e+01 0.0 
6.482156824153e+00 -1.174575135362e+01 0.0 
2.077971718439e+01 -1.421279621836e+01 0.0 
3.455084320178e+00 -2.562590040585e+00 0.0 
3.099056096250e+01 -9.270280416035e+00 0.0 
5.580176125418e+00 -1.217387969259e+01 0.0 
1.707247630389e+01 -7.660651981710e+00 0.0 
1.418658814174e+01 -1.180390575393e+01 0.0 
2.049103025389e+01 -1.811296706038e+01 0.0 
4.680386172316e+00 -1.260396879301e+01 0.0 
1.699679896554e+01 -8.624561788199e+00 0.0 
3.779470168555e+00 -1.303424899720e+01 0.0 
3.036589870126e+01 -7.879832518349e+00 0.0 
3.306993001774e+01 -1.457671062095e+01 0.0 
2.840150110165e+00 -1.346530088269e+01 0.0 
2.732011135052e+01 -1.464591214560e+01 0.0 
5.423639259568e+00 -2.659711955016e+00 0.0 
2.324455961696e+01 -1.387269388211e+01 0.0 
1.752768355571e+00 -1.693128613594e+01 0.0 
1.020244783051e+01 -8.076834012808e+00 0.0 
1.330873875224e+01 -1.222417528206e+01 0.0 
3.297727364880e+01 -1.555480372087e+01 0.0 
2.890929955439e+01 -6.868664170731e+00 0.0 
1.323294664622e+01 -1.320754260334e+01 0.0 
2.726532861246e+01 -1.560593120806e+01 0.0 
2.240020643398e+01 -1.429299177247e+01 0.0 
2.090445823633e+01 -1.228128621332e+01 0.0 
1.315809881502e+01 -1.420739326938e+01 0.0 
2.781328038068e+01 -7.181956082300e+00 0.0 
8.614200829057e+00 -5.936933226306e+00 0.0 
8.714765730069e+00 -4.979270529687e+00 0.0 
1.611881701099e+01 -9.041973294003e+00 0.0 
2.806830314340e+01 -1.614622947108e+01 0.0 
2.084435391396e+00 -3.385085422913e+00 0.0 
3.133211811152e+01 -1.542347619750e+01 0.0 
9.693114650768e+00 -3.590281506442e+00 0.0 
1.531883592202e+01 -8.504584946143e+00 0.0 
2.151589117094e+01 -1.578915763018e+01 0.0 
4.918943882696e+01 -1.355538828056e+01 0.0 
1.443236615188e+01 -8.918701794549e+00 0.0 
8.276250966452e-01 -5.537685192197e+00 0.0 
1.362790867918e+01 -8.374718262212e+00 0.0 
2.083767477370e+01 -1.324843956035e+01 0.0 
1.273834678703e+01 -8.790890389337e+00 0.0 
1.192275845670e+01 -8.242261327467e+00 0.0 
4.477236023583e+01 -1.824312396664e+01 0.0 
1.102989384254e+01 -8.649855800911e+00 0.0 
4.849096516045e+01 -1.917293752213e+01 0.0 
1.588996752238e+00 -1.910230934687e+01 0.0 
4.904245197583e+01 -1.159839008158e+01 0.0 
2.753852929608e+01 -5.782128488093e+00 0.0 
1.756133602833e+01 -8.306130313187e-01 0.0 
2.615423700951e+01 -6.153865090092e+00 0.0 
1.028818761294e+01 -7.122020845892e+00 0.0 
2.970818901196e+01 -1.527821347593e+01 0.0 
4.801461623449e+01 -1.164472570985e+01 0.0 
9.455722100419e+00 -6.546069291118e+00 0.0 
3.089099236677e+01 -1.835339328261e+01 0.0 
2.350000000013e+01 -1.920825896750e+01 0.0 
4.830620531887e+01 -1.506626155470e+01 0.0 
1.725381944701e+01 -1.688794487850e+01 0.0 
2.156246225273e+01 -1.475893794002e+01 0.0 
4.919319648787e+01 -1.742767505896e+01 0.0 
4.437935623576e+01 -1.077662927266e+01 0.0 
1.001520521978e+01 -1.652692675208e+00 0.0 
9.067160240050e-01 -1.441937727541e+01 0.0 
2.603365149390e+01 -4.755996613848e+00 0.0 
2.458344439002e+01 -4.873645517696e+00 0.0 
2.304312390142e+01 -3.836552768096e+00 0.0 
2.546923202198e+00 -6.902480355749e+00 0.0 
1.251534969393e+01 -2.490989965776e+00 0.0 
2.454061833377e+01 -3.933354231935e+00 0.0 
1.788186558740e+01 -1.827424884923e+01 0.0 
4.090785243552e+01 -1.166553231904e+01 0.0 
2.230128851568e+01 -1.623015738726e+01 0.0 
2.302362347568e+01 -2.916239960270e+00 0.0 
3.878119254461e+01 -1.830091164002e+01 0.0 
2.210081359958e+01 -1.829238229150e+01 0.0 
8.443704882233e+00 -1.921993252862e+01 0.0 
2.218405824691e+01 -1.724557581508e+01 0.0 
2.151157503963e+01 -2.790636689331e+00 0.0 
3.741658958955e+01 -1.250400191722e+01 0.0 
2.697247663737e+01 -1.838290202309e+01 0.0 
4.743362342862e+01 -1.585850773010e+01 0.0 
6.671345075358e+00 -1.924977576322e+01 0.0 
3.900825404537e+01 -1.157220003875e+01 0.0 
4.649692961375e+01 -1.836335837481e+01 0.0 
1.578831424832e+01 -3.678284023361e+00 0.0 
4.814208768888e+01 -1.841249298770e+01 0.0 
2.964123298315e+01 -1.625739458193e+01 0.0 
4.580760351902e+01 -1.284294554687e+01 0.0 
3.561520879615e+01 -1.245548941949e+01 0.0 
2.555418095658e+00 -1.841101588290e+01 0.0 
3.288468366144e+01 -1.834258164109e+01 0.0 
2.065894391445e+01 -2.240688571739e+00 0.0 
4.739171429915e+01 -1.496536413446e+01 0.0 
3.478086729185e+00 -8.576434653209e+00 0.0 
1.606010630246e+01 -1.588421807951e+00 0.0 
1.018329200594e+01 -1.834320874317e+01 0.0 
2.957213339430e+01 -1.720496954591e+01 0.0 
4.142712790164e+00 -1.837794506222e+01 0.0 
6.698721532573e-01 -2.499999999997e+00 0.0 
8.037039123140e+00 -1.571229354954e+00 0.0 
1.203541361428e+01 -1.847784298001e+01 0.0 
2.899968332038e+01 -1.848264722179e+01 0.0 
1.469229460948e+01 -4.219485753730e+00 0.0 
4.049590781957e+01 -1.932812501995e+01 0.0 
1.996211678340e+01 -1.506329754720e+00 0.0 
4.250588298353e+01 -1.067383247529e+01 0.0 
5.831497011152e+00 -1.635396227234e+00 0.0 
5.317606125670e+00 -1.923927974868e+01 0.0 
4.208546426993e+01 -1.842830665025e+01 0.0 
2.327553405011e+00 -9.459409929662e+00 0.0 
3.568351902251e+01 -1.096637218582e+01 0.0 
1.682104374890e+00 -6.231413350963e+00 0.0 
2.451812238018e+01 -1.766524914339e+01 0.0 
1.058003429638e+01 -2.391839617098e+00 0.0 
4.399988753123e+01 -1.851998776342e+01 0.0 
1.400000000010e+01 -1.852293523028e+01 0.0 
3.604719565984e+01 -1.850662876800e+01 0.0 
1.951297136734e+01 -1.938092349694e+01 0.0 
1.821365318472e+01 -1.531276353287e+00 0.0 
2.298031859732e+01 -1.854635324722e+01 0.0 
1.552168066204e+01 -1.764280741977e+01 0.0 
4.572957713638e+01 -1.073347898229e+01 0.0 
3.429637429624e+01 -1.838861552790e+01 0.0 
2.427434426052e+00 -7.705577451869e+00 0.0 
4.662792031485e+00 -3.359424455416e+00 0.0 
4.926794919243e+01 -1.926794919243e+01 0.0 
7.320508075690e-01 -7.320508075688e-01 0.0 
4.926794919243e+01 -1.073205080757e+01 0.0 
7.320508075705e-01 -1.926794919243e+01 0.0 
2.917460242467e+00 -3.202866455310e+00 0.0 
4.838200575963e+01 -1.232674147454e+01 0.0 
2.998445708009e+01 -1.854403752148e+01 0.0 
5.949940090766e-01 -1.152762038165e+01 0.0 
4.844763495759e+01 -1.678092548787e+01 0.0 
1.301685480160e+01 -3.170056592566e+00 0.0 
1.650046335855e+01 -6.731535384067e-01 0.0 
4.854881540991e+01 -1.405224059779e+01 0.0 
2.119545114693e+01 -1.846813384545e+01 0.0 
3.797852849897e+01 -1.857978513215e+01 0.0 
4.649823708745e+01 -1.338351810816e+01 0.0 
2.012685900976e+01 -2.889659035009e+00 0.0 
2.953271913273e+01 -1.791558075192e+01 0.0 
2.408509097292e+00 -1.021949208421e+01 0.0 
2.642589566221e+01 -1.773216561448e+01 0.0 
1.730010270775e+01 -1.763165076721e+01 0.0 
2.017406551304e+01 -8.513536440582e-01 0.0 
5.254761581934e-01 -1.249999999999e+01 0.0 
6.640448215642e+00 -1.545337834885e+00 0.0 
7.843361506349e+00 -1.852719839527e+01 0.0 
1.588442191088e+00 -1.066158564320e+01 0.0 
2.580823483239e+01 -3.416278049680e+00 0.0 
4.950961538461e+01 -3.500000000000e+00 0.0 
2.731250000000e+01 -4.420918367347e+00 0.0 
4.951086956522e+01 -4.500000000000e+00 0.0 
2.880770112393e+01 -5.415638864241e+00 0.0 
4.951086956522e+01 -5.500000000000e+00 0.0 
3.031250000000e+01 -6.420918367347e+00 0.0 
4.951250000000e+01 -6.500000000000e+00 0.0 
3.180701530612e+01 -7.414795918363e+00 0.0 
4.951250000000e+01 -7.500000000000e+00 0.0 
3.331250000000e+01 -8.420918367347e+00 0.0 
4.951470588234e+01 -8.500000000000e+00 0.0 
3.480610198624e+01 -9.413633635267e+00 0.0 
4.951470588234e+01 -9.500000000000e+00 0.0 

SCALARS node_number int
LOOKUP_TABLE default
1
2
3
4
5
6
7
8
9
10
11
12
13
14
15
16
17
18
19
20
21
22
23
24
25
26
27
28
29
30
31
32
33
34
35
36
37
38
39
40
41
42
43
44
45
46
47
48
49
50
51
52
53
54
55
56
57
58
59
60
61
62
63
64
65
66
67
68
69
70
71
72
73
74
75
76
77
78
79
80
81
82
84
85
86
87
88
89
90
91
92
93
96
97
98
99
100
101
102
104
105
106
107
108
109
110
111
112
113
114
115
116
117
118
119
120
121
122
123
124
125
126
127
128
129
130
131
132
133
134
135
136
220
221
222
223
224
225
226
227
228
229
230
231
232
233
234
235
236
237
238
239
240
241
242
243
244
245
246
247
248
249
250
251
252
253
254
255
256
257
258
259
260
261
262
263
264
265
266
267
268
269
270
271
272
273
274
275
276
277
278
279
280
281
282
283
284
285
286
287
288
289
290
291
292
293
294
295
296
297
298
299
300
301
302
303
304
305
306
307
308
309
310
311
312
313
314
315
316
317
318
319
320
321
322
323
324
325
326
327
328
329
330
331
332
333
334
335
336
337
338
339
340
341
342
343
344
345
346
347
348
349
350
351
352
353
354
355
356
357
358
359
360
361
362
363
364
365
366
367
368
369
370
371
372
373
374
375
376
377
378
379
380
381
382
383
384
385
386
387
388
389
390
391
392
393
394
395
396
397
398
399
400
401
402
403
404
405
406
407
408
409
410
411
412
413
414
415
416
417
418
419
420
421
422
423
424
425
426
427
428
429
430
431
432
433
434
435
436
437
438
439
440
441
442
443
444
445
446
447
448
449
450
451
452
453
454
455
456
457
458
459
460
461
462
463
464
465
466
467
468
469
470
471
472
473
474
475
476
477
478
479
480
481
482
483
484
485
486
487
488
489
490
491
492
493
494
495
496
497
498
499
500
501
502
503
504
505
506
507
508
509
510
511
512
513
514
515
516
517
518
519
520
521
522
523
524
525
526
527
528
529
530
531
532
533
534
535
536
537
538
539
540
541
542
543
544
545
546
547
548
549
550
551
552
553
554
555
556
557
558
559
560
561
562
563
564
565
566
567
568
569
570
571
572
573
574
575
576
577
578
579
580
581
582
583
584
585
586
587
588
589
590
591
592
593
594
595
596
597
598
599
600
601
602
603
604
605
606
607
608
609
610
611
612
613
614
615
616
617
618
619
620
621
622
623
624
625
626
627
628
629
630
631
632
633
634
635
636
637
638
639
640
641
642
643
644
645
646
647
648
649
650
651
652
653
654
655
656
657
658
659
660
661
662
663
664
665
666
667
668
669
670
671
672
673
674
675
676
677
678
679
680
681
682
683
684
685
686
687
688
689
690
691
692
693
694
695
696
697
698
699
700
701
702
703
704
705
706
707
708
709
710
711
712
713
714
715
716
717
718
719
720
721
722
723
724
725
726
727
728
729
730
731
732
733
734
735
736
737
738
739
740
741
742
743
744
745
746
747
748
749
750
751
752
753
754
755
756
757
758
759
760
761
762
763
764
765
766
767
768
769
770
771
772
773
774
775
776
777
778
779
780
781
782
783
784
785
786
787
788
789
790
791
792
793
794
795
796
797
798
799
800
801
802
803
804
805
806
807
808
809
810
811
812
813
814
815
816
817
818
819
820
821
822
823
824
825
826
827
828
829
830
831
832
833
834
835
836
837
838
839
840
841
842
843
844
845
846
847
848
849
850
851
852
853
854
855
856
857
858
859
860
861
862
863
864
865
866
867
868
869
870
871
872
873
874
875
876
877
878
879
880
881
882
883
884
885
886
887
888
889
890
891
892
893
894
895
896
897
898
899
900
901
902
903
904
905
906
907
908
909
910
911
912
913
914
915
916
917
918
919
920
921
922
923
924
925
926
927
928
929
930
931
932
933
934
935
936
937
938
939
940
941
942
943
944
945
946
947
948
949
950
951
952
953
954
955
956
957
958
959
960
961
962
963
964
965
966
967
968
969
970
971
972
973
974
975
976
977
978
979
980
981
982
983
984
985
986
987
988
989
990
991
992
993
994
995
996
997
998
999
1000
1001
1002
1003
1004
1005
1006
1007
1008
1009
1010
1011
1012
1013
1014
1015
1016
1017
1018
1019
1020
1021
1022
1023
1024
1025
1026
1027
1028
1029
1030
1031
1032
1033
1034
1035
1036
1037
1038
1039
1040
1041
1042
1043
1044
1045
1046
1047
1048
1049
1050
1051
1052
1053
1054
1055
1056
1057
1058
1059
1060
1061
1062
1063
1064
1065
1066
1067
1068
1069
1070
1071
1072
1073
1074
1075
1076
1077
1078
1079
1080
1081
1082
1083
1084
1085
1086
1087
1088
1089
1090
1091
1092
1093
1094
1095
1096
1097
1098
1099
1100
1101
1102
1103
1104
1105
1106
1107
1108
1109
1110
1111
1112
1113
1114
1115
1116
1117
1118
1119
1120
1121
1122
1123
1124
1125
1126
1127
1128
1129
1130
1131
1132
1133
1134
1135
1136
1137
1138
1139
1140
1141
1142
1143
1144
1145
1146
1147
1148
1149
1150
1151
1152
1153
1154
1155
1156
1157
1158
1159
1160
1161
1162
1163
1164
1165
1166
1167
1168
1169
1170
1171
1172
1173
1174
1175
1176
1177
1178
1179
1180
1181
1182
1183
1184
1185
1186
1187
1188
1189
1190
1191
1192
1193
1194
1195
1196
1197
1198
1199
1200
1201
1202
1203
1204
1205
1206
1207
1208
1209
1210
1211
1212
1213
1214
1215
1216
1217
1218
1219
1220
1221
1222
1223
1224
1225
1226
1227
1228
1229
1230
1231
1232
1233
1234
1235
1236
1237
1238
1239
1240
1241
1242
1243
1244
1245
1246
1247
1248
1249
1250
1251
1252
1253
1254
1255
1256
1257
1258
1259
1260
1261
1262
1263
1264
1271
1272
1273
1274
1275
1276
1277
1278
1279
1280
1281
1282
1283
1284

VECTORS node_mesh_deformation float
0.0 6.655789047287e-02 0.0 
0.000000000000e+00 9.476189434172e-02 0.0 
0.0 0.000000000000e+00 0.0 
0.000000000000e+00 0.000000000000e+00 0.0 
0.0 6.744235869945e-02 0.0 
0.0 6.761927390491e-02 0.0 
0.0 6.712761526329e-02 0.0 
0.0 6.596342071442e-02 0.0 
0.0 6.414786965690e-02 0.0 
0.0 6.182850248426e-02 0.0 
0.0 5.909185652764e-02 0.0 
0.0 5.600378164133e-02 0.0 
0.0 5.262911211656e-02 0.0 
0.0 4.900978993243e-02 0.0 
0.0 4.516012863565e-02 0.0 
0.0 4.109812048312e-02 0.0 
0.0 3.681892661334e-02 0.0 
0.0 3.231752774852e-02 0.0 
0.0 2.757215407276e-02 0.0 
0.0 2.257119274530e-02 0.0 
0.0 1.731153612542e-02 0.0 
0.0 1.178896737239e-02 0.0 
0.0 6.017219066450e-03 0.0 
0.000000000000e+00 0.000000000000e+00 0.0 
0.000000000000e+00 0.000000000000e+00 0.0 
0.000000000000e+00 0.000000000000e+00 0.0 
0.000000000000e+00 0.000000000000e+00 0.0 
0.000000000000e+00 0.000000000000e+00 0.0 
0.000000000000e+00 0.000000000000e+00 0.0 
0.000000000000e+00 0.000000000000e+00 0.0 
0.000000000000e+00 0.000000000000e+00 0.0 
0.000000000000e+00 0.000000000000e+00 0.0 
0.000000000000e+00 0.000000000000e+00 0.0 
0.000000000000e+00 0.000000000000e+00 0.0 
0.000000000000e+00 0.000000000000e+00 0.0 
0.000000000000e+00 0.000000000000e+00 0.0 
0.000000000000e+00 0.000000000000e+00 0.0 
0.000000000000e+00 0.000000000000e+00 0.0 
0.000000000000e+00 0.000000000000e+00 0.0 
0.000000000000e+00 0.000000000000e+00 0.0 
0.000000000000e+00 0.000000000000e+00 0.0 
0.000000000000e+00 0.000000000000e+00 0.0 
0.000000000000e+00 0.000000000000e+00 0.0 
0.000000000000e+00 0.000000000000e+00 0.0 
0.000000000000e+00 0.000000000000e+00 0.0 
0.000000000000e+00 0.000000000000e+00 0.0 
0.000000000000e+00 0.000000000000e+00 0.0 
0.000000000000e+00 0.000000000000e+00 0.0 
0.000000000000e+00 0.000000000000e+00 0.0 
0.000000000000e+00 0.000000000000e+00 0.0 
0.000000000000e+00 0.000000000000e+00 0.0 
0.000000000000e+00 0.000000000000e+00 0.0 
0.000000000000e+00 0.000000000000e+00 0.0 
0.000000000000e+00 0.000000000000e+00 0.0 
0.000000000000e+00 0.000000000000e+00 0.0 
0.000000000000e+00 0.000000000000e+00 0.0 
0.000000000000e+00 0.000000000000e+00 0.0 
0.000000000000e+00 0.000000000000e+00 0.0 
0.000000000000e+00 0.000000000000e+00 0.0 
0.000000000000e+00 0.000000000000e+00 0.0 
0.000000000000e+00 0.000000000000e+00 0.0 
0.000000000000e+00 0.000000000000e+00 0.0 
0.000000000000e+00 0.000000000000e+00 0.0 
0.000000000000e+00 0.000000000000e+00 0.0 
0.000000000000e+00 0.000000000000e+00 0.0 
0.000000000000e+00 0.000000000000e+00 0.0 
0.000000000000e+00 0.000000000000e+00 0.0 
0.000000000000e+00 0.000000000000e+00 0.0 
0.000000000000e+00 0.000000000000e+00 0.0 
0.000000000000e+00 0.000000000000e+00 0.0 
0.000000000000e+00 0.000000000000e+00 0.0 
0.000000000000e+00 0.000000000000e+00 0.0 
0.000000000000e+00 8.688235661821e-02 0.0 
0.000000000000e+00 7.859827217606e-02 0.0 
0.000000000000e+00 6.992351519846e-02 0.0 
0.000000000000e+00 6.088444024485e-02 0.0 
0.000000000000e+00 5.149489444891e-02 0.0 
0.000000000000e+00 4.177815833748e-02 0.0 
0.000000000000e+00 3.175285818773e-02 0.0 
0.000000000000e+00 2.143647476668e-02 0.0 
0.000000000000e+00 1.085098723181e-02 0.0 
-6.944959954758e-03 -1.106486367212e-02 0.0 
2.301855515034e-02 8.622530278062e-02 0.0 
4.707726249222e-04 1.619470107105e-02 0.0 
7.515981287636e-03 3.809128522713e-02 0.0 
1.316315901128e-02 5.654391876628e-02 0.0 
1.888064699537e-02 7.006997429955e-02 0.0 
2.328541066939e-02 7.983467787678e-02 0.0 
2.600314943846e-02 8.646316088386e-02 0.0 
2.711156725994e-02 9.012142543889e-02 0.0 
2.681473367492e-02 9.106745690529e-02 0.0 
2.537287049899e-02 8.964121301126e-02 0.0 
0.000000000000e+00 1.373961901565e-01 0.0 
0.000000000000e+00 1.326718663550e-01 0.0 
0.000000000000e+00 1.275208532208e-01 0.0 
0.000000000000e+00 1.218671622560e-01 0.0 
0.000000000000e+00 1.157900505776e-01 0.0 
0.000000000000e+00 1.092123237216e-01 0.0 
0.000000000000e+00 1.022213883437e-01 0.0 
1.286535852792e-03 9.475331158082e-02 0.0 
2.565870163203e-03 9.472296882139e-02 0.0 
3.866693540736e-03 9.466622669464e-02 0.0 
5.191639068833e-03 9.457274233353e-02 0.0 
6.546301718807e-03 9.444317783506e-02 0.0 
7.932435222742e-03 9.424282727940e-02 0.0 
9.366553479204e-03 9.398348120863e-02 0.0 
1.084682449780e-02 9.362126872773e-02 0.0 
1.239118396017e-02 9.316233011263e-02 0.0 
1.400247467953e-02 9.255477913389e-02 0.0 
1.567881957582e-02 9.178085301915e-02 0.0 
1.742969897076e-02 9.079912416546e-02 0.0 
1.924227378750e-02 8.957504251135e-02 0.0 
2.110469207617e-02 8.806037320910e-02 0.0 
-3.760995243393e-03 -2.536653860949e-02 0.0 
9.528322275649e-04 -3.263327574560e-02 0.0 
6.113580177530e-03 -3.482360900497e-02 0.0 
1.175554114575e-02 -3.156237651818e-02 0.0 
1.593852404426e-02 -2.040609591248e-02 0.0 
1.834151788197e-02 -6.406636648167e-03 0.0 
1.914724293725e-02 4.459939543168e-03 0.0 
1.926626643740e-02 1.357460812748e-02 0.0 
1.923874034862e-02 2.163836468490e-02 0.0 
1.896047788761e-02 2.907338687118e-02 0.0 
1.834384413054e-02 3.588153515199e-02 0.0 
1.744750790606e-02 4.199833973946e-02 0.0 
1.620534333144e-02 4.758342289842e-02 0.0 
1.454453974545e-02 5.256097561898e-02 0.0 
1.256945719271e-02 5.683126088658e-02 0.0 
1.037020561642e-02 6.029909510951e-02 0.0 
7.980730695504e-03 6.304883455874e-02 0.0 
5.436396945740e-03 6.505434741334e-02 0.0 
2.732043087345e-03 6.619496347360e-02 0.0 
1.129142586286e-02 6.877482237877e-02 0.0 
1.078080448255e-02 7.892359885386e-02 0.0 
1.042164412817e-02 8.795441596423e-02 0.0 
1.022123373458e-02 9.592324223085e-02 0.0 
1.011359254031e-02 1.029707085987e-01 0.0 
1.004249149188e-02 1.091180035276e-01 0.0 
1.005399116859e-02 1.144173596434e-01 0.0 
1.003611684175e-02 1.189060082011e-01 0.0 
9.951343550831e-03 1.226740506314e-01 0.0 
9.835793437141e-03 1.257990140993e-01 0.0 
9.667470672753e-03 1.283545626288e-01 0.0 
9.434427940342e-03 1.304211749642e-01 0.0 
9.126288843937e-03 1.320708625334e-01 0.0 
8.740080487748e-03 1.333755288218e-01 0.0 
8.278288937390e-03 1.343981358162e-01 0.0 
7.746525197007e-03 1.351922202538e-01 0.0 
7.150957467559e-03 1.358027893788e-01 0.0 
6.498702901801e-03 1.362659490409e-01 0.0 
5.796897896467e-03 1.366123556993e-01 0.0 
5.053068217656e-03 1.368673086066e-01 0.0 
4.275225712817e-03 1.370506691320e-01 0.0 
3.471251599031e-03 1.371788417122e-01 0.0 
2.648666564404e-03 1.372656140229e-01 0.0 
1.812984981036e-03 1.373189369846e-01 0.0 
9.190995177164e-04 1.373452477237e-01 0.0 
1.004810759184e-03 1.326969153715e-01 0.0 
1.956643672209e-03 1.326460453964e-01 0.0 
2.895781989558e-03 1.325941837818e-01 0.0 
3.823110107163e-03 1.325112294228e-01 0.0 
4.737496227953e-03 1.323861036208e-01 0.0 
5.635968990667e-03 1.322047735608e-01 0.0 
6.514988631608e-03 1.319495635744e-01 0.0 
7.370983243987e-03 1.315984661117e-01 0.0 
8.200618205002e-03 1.311238085921e-01 0.0 
9.001234834130e-03 1.304919923870e-01 0.0 
9.771269962897e-03 1.296626098221e-01 0.0 
1.051003586741e-02 1.285866222321e-01 0.0 
1.121829242815e-02 1.272048157015e-01 0.0 
1.189922843679e-02 1.254466325833e-01 0.0 
1.256019894269e-02 1.232310888201e-01 0.0 
1.321169645476e-02 1.204843201576e-01 0.0 
1.384400183196e-02 1.171268100711e-01 0.0 
1.445963363738e-02 1.130879117544e-01 0.0 
1.507030949655e-02 1.082679517735e-01 0.0 
1.569361359917e-02 1.025793328423e-01 0.0 
1.635368035553e-02 9.599668824489e-02 0.0 
1.707364201419e-02 8.846725368622e-02 0.0 
1.785796372060e-02 7.990243467885e-02 0.0 
2.220232603915e-02 8.764508758837e-02 0.0 
2.119501983501e-02 9.446831361935e-02 0.0 
2.015602898413e-02 1.004022505943e-01 0.0 
1.911461671336e-02 1.055176388855e-01 0.0 
1.807649761844e-02 1.098535444597e-01 0.0 
1.704411464132e-02 1.134931933439e-01 0.0 
1.601388622170e-02 1.165150464800e-01 0.0 
1.498494554389e-02 1.189923729125e-01 0.0 
1.395995716754e-02 1.209913155149e-01 0.0 
1.295376053127e-02 1.225779840752e-01 0.0 
1.195972194868e-02 1.238269875800e-01 0.0 
1.097280365361e-02 1.248012728767e-01 0.0 
9.989046456511e-03 1.255529114907e-01 0.0 
9.005461830128e-03 1.261252860988e-01 0.0 
8.020012245190e-03 1.265548749075e-01 0.0 
7.031935266284e-03 1.268725470321e-01 0.0 
6.041208415731e-03 1.271033515236e-01 0.0 
5.048016343181e-03 1.272669922439e-01 0.0 
4.052962567222e-03 1.273795540157e-01 0.0 
3.056794707391e-03 1.274529916265e-01 0.0 
2.059423808404e-03 1.274937617074e-01 0.0 
1.034659564944e-03 1.274810042817e-01 0.0 
1.118245215089e-03 1.219004235042e-01 0.0 
2.227646427102e-03 1.218652174847e-01 0.0 
3.337689087786e-03 1.218212445225e-01 0.0 
4.450823796944e-03 1.217450290306e-01 0.0 
5.570633018756e-03 1.216269854013e-01 0.0 
6.700223658811e-03 1.214539776318e-01 0.0 
7.841984387852e-03 1.212082983247e-01 0.0 
8.998137671377e-03 1.208691566952e-01 0.0 
1.017151041582e-02 1.204086040977e-01 0.0 
1.136593505063e-02 1.197918083542e-01 0.0 
1.258613083059e-02 1.189791139774e-01 0.0 
1.383764903063e-02 1.179235339851e-01 0.0 
1.512697312789e-02 1.165686816467e-01 0.0 
1.646122793679e-02 1.148447769670e-01 0.0 
1.781670063707e-02 1.126831822370e-01 0.0 
1.918684593884e-02 1.100146193211e-01 0.0 
2.056740796584e-02 1.067673371220e-01 0.0 
2.195380928706e-02 1.028591015743e-01 0.0 
2.333499234464e-02 9.823112258737e-02 0.0 
2.466290968228e-02 9.279071803338e-02 0.0 
2.556742193592e-02 9.487630850079e-02 0.0 
2.403174834995e-02 9.892647808742e-02 0.0 
2.245188534751e-02 1.023281559018e-01 0.0 
2.087394031361e-02 1.051760799823e-01 0.0 
1.930741876293e-02 1.075177414229e-01 0.0 
1.775890704302e-02 1.094219693996e-01 0.0 
1.625116790476e-02 1.109500260675e-01 0.0 
1.479951111984e-02 1.121621556268e-01 0.0 
1.339891547644e-02 1.131128506911e-01 0.0 
1.204391878507e-02 1.138492926538e-01 0.0 
1.072846324234e-02 1.144107068730e-01 0.0 
9.449004404900e-03 1.148323083797e-01 0.0 
8.201134570541e-03 1.151458545302e-01 0.0 
6.978935443705e-03 1.153751467405e-01 0.0 
5.781936901151e-03 1.155387111756e-01 0.0 
4.605319438717e-03 1.156510712629e-01 0.0 
3.443104765473e-03 1.157233339919e-01 0.0 
2.290366072096e-03 1.157626693150e-01 0.0 
1.144425488981e-03 1.157511491443e-01 0.0 
1.224887336193e-03 1.092386639589e-01 0.0 
2.454975890679e-03 1.091960593244e-01 0.0 
3.695165016417e-03 1.091486259711e-01 0.0 
4.951745127258e-03 1.090673295112e-01 0.0 
6.229957529044e-03 1.089418171042e-01 0.0 
7.537901682788e-03 1.087590020175e-01 0.0 
8.881121938607e-03 1.085052277631e-01 0.0 
1.026872600509e-02 1.081585245573e-01 0.0 
1.170877988044e-02 1.076945860257e-01 0.0 
1.319895014255e-02 1.070803510706e-01 0.0 
1.474307294896e-02 1.062746009789e-01 0.0 
1.634660277958e-02 1.052383750661e-01 0.0 
1.801376531296e-02 1.039212374458e-01 0.0 
1.974491448227e-02 1.022743092761e-01 0.0 
2.151219912438e-02 1.002288622702e-01 0.0 
2.328971721482e-02 9.773540908579e-02 0.0 
2.504323576076e-02 9.470099830788e-02 0.0 
2.353837514372e-02 9.220570919009e-02 0.0 
2.173851407132e-02 9.432253138592e-02 0.0 
1.992994122607e-02 9.604705060501e-02 0.0 
1.817541973602e-02 9.746596257617e-02 0.0 
1.647985096347e-02 9.860807741223e-02 0.0 
1.484621226832e-02 9.951455560301e-02 0.0 
1.326859638261e-02 1.002271180316e-01 0.0 
1.175930207724e-02 1.007781097063e-01 0.0 
1.030751259984e-02 1.011996211289e-01 0.0 
8.910746672306e-03 1.015231600280e-01 0.0 
7.557074623165e-03 1.017596339498e-01 0.0 
6.243203140826e-03 1.019355726425e-01 0.0 
4.957969836255e-03 1.020543471102e-01 0.0 
3.698264520111e-03 1.021345358431e-01 0.0 
2.458116681630e-03 1.021796004294e-01 0.0 
1.225517514563e-03 1.021767938845e-01 0.0 
-2.895833346951e-03 3.968144676483e-03 0.0 
4.051970764507e-03 2.752932685979e-02 0.0 
1.061556593508e-02 4.774993661284e-02 0.0 
1.613321132324e-02 6.379732378577e-02 0.0 
2.132915436390e-02 7.535512703763e-02 0.0 
2.486293732712e-02 8.352340565603e-02 0.0 
2.674612221883e-02 8.864299549402e-02 0.0 
2.711525144328e-02 9.091102578916e-02 0.0 
2.621916653257e-02 9.062470828402e-02 0.0 
2.429146883246e-02 8.815908047439e-02 0.0 
1.200218244159e-02 2.634700616453e-02 0.0 
1.761378733068e-03 3.670393377604e-03 0.0 
1.296279758987e-02 2.526435192562e-02 0.0 
7.823506465089e-03 -2.492684603195e-02 0.0 
-5.011699169728e-04 3.891434840611e-03 0.0 
2.254225032643e-02 6.077033757453e-02 0.0 
-1.308262042349e-03 4.683634283296e-02 0.0 
3.832795076079e-03 4.290219269784e-03 0.0 
2.853921504203e-02 7.879878898897e-02 0.0 
5.030281266976e-03 5.259151374673e-03 0.0 
2.888162627459e-02 8.522067613422e-02 0.0 
-1.078122070150e-03 4.169968532661e-03 0.0 
1.140988547385e-02 5.104319489490e-02 0.0 
5.295423230017e-03 6.642612126758e-03 0.0 
2.462269679737e-02 8.150522322143e-02 0.0 
-9.534231100439e-04 6.015028010803e-02 0.0 
-1.152835496808e-03 3.537188981674e-02 0.0 
5.012156103980e-03 7.832114592645e-03 0.0 
3.693653040060e-03 8.333332004895e-03 0.0 
1.219353208626e-03 9.204591910294e-03 0.0 
2.164889306457e-03 9.818072159700e-03 0.0 
2.754665134788e-03 8.544255502397e-03 0.0 
2.005979974464e-02 8.211848453101e-02 0.0 
1.321310393426e-02 8.578122856361e-02 0.0 
8.657274861612e-03 8.682128843530e-02 0.0 
8.396942963600e-04 5.608217049326e-02 0.0 
-9.578577714979e-04 4.940877715942e-03 0.0 
3.532483961859e-03 -2.631614346278e-02 0.0 
6.935607943042e-03 6.242095530797e-02 0.0 
-7.303204896882e-04 2.031612969690e-02 0.0 
4.439501682370e-03 8.786409738957e-02 0.0 
2.568828972123e-04 6.631884568029e-02 0.0 
4.912314975897e-03 9.190932617155e-03 0.0 
4.220934516457e-03 4.363345490145e-03 0.0 
5.231670262528e-03 5.864089602458e-03 0.0 
3.073037252541e-03 4.145561584060e-03 0.0 
6.683772652423e-04 3.454983722747e-03 0.0 
1.056937602169e-02 -9.947466060877e-04 0.0 
1.653578834934e-02 8.476183666694e-02 0.0 
-1.129942977453e-03 4.777028075583e-03 0.0 
6.305840910699e-04 3.722560194327e-02 0.0 
1.286041203725e-02 3.910314525534e-02 0.0 
-1.286182726989e-03 5.410257358063e-02 0.0 
6.205051263706e-04 7.528116213020e-03 0.0 
2.634458507154e-02 7.078122314068e-02 0.0 
1.754172973090e-02 4.556625288329e-02 0.0 
2.938595260909e-02 8.338214237382e-02 0.0 
2.721648437164e-02 8.445820534375e-02 0.0 
4.946676661852e-03 3.711316053291e-03 0.0 
1.018773791621e-03 7.326518552448e-02 0.0 
-4.791608127901e-04 4.061675029746e-03 0.0 
3.227704447621e-03 6.645311712428e-02 0.0 
3.460880432371e-04 1.696232497268e-02 0.0 
2.334086017778e-02 7.898093356844e-02 0.0 
2.447812707872e-02 7.446525947556e-02 0.0 
2.242791767225e-02 7.272640955460e-02 0.0 
2.366570693715e-02 6.733661647523e-02 0.0 
2.169292088173e-02 6.451432824384e-02 0.0 
2.247936947816e-02 5.973514908148e-02 0.0 
2.458467963331e-02 6.231831140783e-02 0.0 
2.304998373175e-02 5.488969317616e-02 0.0 
2.524762122314e-02 5.731425426068e-02 0.0 
2.034116266574e-02 5.662143759381e-02 0.0 
2.335055363221e-02 5.002388644598e-02 0.0 
2.561501668472e-02 5.228256821120e-02 0.0 
2.336066385539e-02 4.519231277389e-02 0.0 
2.565157955255e-02 4.727851355776e-02 0.0 
2.781326137698e-02 5.398848494639e-02 0.0 
2.785668987158e-02 4.880666577471e-02 0.0 
2.986465377153e-02 5.506374018331e-02 0.0 
2.991735090455e-02 4.966701493422e-02 0.0 
2.752817776311e-02 4.374760049967e-02 0.0 
2.954570937330e-02 4.443240463214e-02 0.0 
3.171062623070e-02 4.981384635899e-02 0.0 
3.129255249913e-02 4.438581351318e-02 0.0 
3.319631778656e-02 4.919358320853e-02 0.0 
3.269667240240e-02 4.355577251687e-02 0.0 
3.433452400158e-02 4.775544197629e-02 0.0 
3.372254039145e-02 4.193163902053e-02 0.0 
3.168741692377e-02 3.825858045687e-02 0.0 
3.257050208823e-02 3.653590963140e-02 0.0 
3.430536090870e-02 3.951950956795e-02 0.0 
3.297977306209e-02 3.406069171610e-02 0.0 
3.440238650688e-02 3.635432909176e-02 0.0 
3.287445576780e-02 3.091127343724e-02 0.0 
3.110221205342e-02 2.923306295411e-02 0.0 
3.077190230081e-02 2.620723606737e-02 0.0 
3.219795120540e-02 2.712488344154e-02 0.0 
2.976483564175e-02 2.249809021660e-02 0.0 
3.085326556732e-02 2.257831922017e-02 0.0 
2.805570803507e-02 1.815728929015e-02 0.0 
2.883860954965e-02 1.746777314784e-02 0.0 
2.567234809285e-02 1.348051231697e-02 0.0 
2.473218129930e-02 1.478562574290e-02 0.0 
2.203884824590e-02 1.070094032414e-02 0.0 
2.270841678951e-02 8.791281555672e-03 0.0 
1.885240146697e-02 6.840281884779e-03 0.0 
1.814254139438e-02 9.127722899192e-03 0.0 
1.485156159352e-02 6.162129532218e-03 0.0 
1.418079041789e-02 8.647824882809e-03 0.0 
1.089823427834e-02 6.600406354229e-03 0.0 
1.136526444374e-02 3.880564765982e-03 0.0 
7.546112950550e-03 5.334436382928e-03 0.0 
7.216232482957e-03 7.934767863496e-03 0.0 
4.096328848231e-03 7.558502376618e-03 0.0 
4.290818679324e-03 4.975402829539e-03 0.0 
1.203907531398e-03 8.077262190568e-03 0.0 
1.252462498382e-03 1.006044659730e-02 0.0 
-1.244629432335e-03 1.119033402825e-02 0.0 
-1.354521241282e-03 9.478795409777e-03 0.0 
-3.386539455384e-03 1.311002096654e-02 0.0 
-3.185290525073e-03 1.430188536699e-02 0.0 
-5.026964708613e-03 1.674905237046e-02 0.0 
-5.155517395499e-03 1.583351452434e-02 0.0 
-6.466081814343e-03 1.986610116780e-02 0.0 
-6.259640055958e-03 2.024152552764e-02 0.0 
-7.386878015010e-03 2.363113560749e-02 0.0 
-7.049160230842e-03 2.339008664249e-02 0.0 
-7.485367508323e-03 2.364015514003e-02 0.0 
-8.093266406682e-03 2.751787399415e-02 0.0 
-8.029674608627e-03 2.793767678508e-02 0.0 
-8.363801525443e-03 3.179381274574e-02 0.0 
2.871840440137e-02 2.509296185670e-02 0.0 
-8.067744537117e-03 3.257828358835e-02 0.0 
-7.599422132287e-03 2.816794438697e-02 0.0 
-8.192821176784e-03 3.632711884414e-02 0.0 
-8.343703861655e-03 3.503100067201e-02 0.0 
-7.629496317391e-03 3.745314343880e-02 0.0 
-7.614519473521e-03 4.099159286831e-02 0.0 
-6.771826505514e-03 4.240018668106e-02 0.0 
3.139038921625e-02 2.257061967592e-02 0.0 
2.681724954775e-02 3.887284718391e-02 0.0 
-6.684394008624e-03 4.563557158927e-02 0.0 
-5.580609362518e-03 4.725646554236e-02 0.0 
-5.351535867364e-03 4.362409599459e-02 0.0 
-3.874682008484e-03 4.864051123204e-02 0.0 
1.964585956322e-02 6.138616064275e-02 0.0 
1.817097834522e-02 5.312390118324e-02 0.0 
1.759381536834e-02 5.787851900465e-02 0.0 
1.599166463456e-02 4.931608964156e-02 0.0 
1.553109955211e-02 5.397936861844e-02 0.0 
-4.169844763581e-03 5.186666340305e-02 0.0 
2.097023275733e-02 4.236285394303e-02 0.0 
1.623661022622e-02 4.456034945468e-02 0.0 
3.320120122270e-02 5.508117052648e-02 0.0 
3.533065954562e-02 4.246379044429e-02 0.0 
1.718927435128e-02 1.123322391992e-02 0.0 
-7.276490835585e-03 4.379533670475e-02 0.0 
-6.280676535761e-03 4.810878556736e-02 0.0 
-6.642641413164e-03 4.585123698649e-02 0.0 
-5.829955052354e-03 2.031926936121e-02 0.0 
-6.471074986724e-03 2.281634759725e-02 0.0 
-5.180364355095e-03 2.000816547809e-02 0.0 
-5.715153170099e-03 2.183700938858e-02 0.0 
-4.407690811227e-03 1.922786281613e-02 0.0 
-4.906625812234e-03 2.039633450211e-02 0.0 
-5.920291825609e-03 2.320504488317e-02 0.0 
-5.104087265440e-03 2.113339020024e-02 0.0 
-5.849402024079e-03 2.408549546285e-02 0.0 
-3.686009365559e-03 1.791239771465e-02 0.0 
-2.881406179201e-03 1.701483810587e-02 0.0 
-5.036318740234e-03 2.142670127791e-02 0.0 
-5.547298050044e-03 2.447062153489e-02 0.0 
-4.751413518579e-03 2.127053428599e-02 0.0 
-5.056682956234e-03 2.437465192430e-02 0.0 
-5.800996591899e-03 2.769792405698e-02 0.0 
-5.110775597759e-03 2.760913103151e-02 0.0 
-5.792275906494e-03 3.105312363973e-02 0.0 
1.336911729662e-02 1.083973636779e-02 0.0 
1.601242060176e-02 1.294995067574e-02 0.0 
1.244911145935e-02 1.250436455109e-02 0.0 
1.454720141258e-02 1.390860178208e-02 0.0 
1.136471505865e-02 1.318264182695e-02 0.0 
1.293781725358e-02 1.392270291670e-02 0.0 
1.002377211222e-02 1.302345945360e-02 0.0 
8.462758460443e-03 1.278526588855e-02 0.0 
2.306765413481e-02 4.036249360518e-02 0.0 
1.932086050887e-02 4.398146404743e-03 0.0 
2.305874559743e-02 6.771148744980e-03 0.0 
1.944962645247e-02 1.744498995729e-03 0.0 
2.291035969396e-02 4.654254273720e-03 0.0 
1.915469033355e-02 -1.025245094151e-03 0.0 
2.228028168511e-02 2.492918381233e-03 0.0 
1.850354408559e-02 -3.918420949232e-03 0.0 
1.524398635384e-02 -5.903151754502e-03 0.0 
1.456467984367e-02 -9.479697764126e-03 0.0 
1.135342771741e-02 -9.552140155209e-03 0.0 
1.080842120436e-02 -1.359052862460e-02 0.0 
7.746650205302e-03 -1.154253103122e-02 0.0 
3.017130675376e-02 3.340023523670e-02 0.0 
1.606732311730e-02 1.516551813167e-02 0.0 
1.396833433797e-02 1.446973640111e-02 0.0 
1.697687782695e-02 1.613084923398e-02 0.0 
-3.272069116367e-03 4.467045520609e-02 0.0 
-4.412613785410e-03 2.382045906155e-02 0.0 
-2.347343505017e-03 1.574542663654e-02 0.0 
-1.271109461793e-03 1.519188045531e-02 0.0 
7.373904187631e-03 1.236276178889e-02 0.0 
-2.248866162883e-03 5.330512902352e-02 0.0 
2.115824699076e-02 3.548331088581e-04 0.0 
2.468353248724e-02 7.951265884570e-03 0.0 
1.383496793920e-02 4.512206661395e-02 0.0 
1.349952831932e-02 4.975201267188e-02 0.0 
-9.790473380011e-04 1.387273025527e-02 0.0 
-2.676267660719e-03 5.609549630762e-02 0.0 
-4.340784135952e-03 1.858164223779e-02 0.0 
1.340208286981e-02 -1.324646499791e-02 0.0 
-4.303642147543e-03 2.704289409047e-02 0.0 
-3.654165843815e-03 2.284244166382e-02 0.0 
-6.653965708209e-03 2.630978943044e-02 0.0 
1.444655505947e-02 1.471627701476e-02 0.0 
1.735150777387e-02 1.672964066795e-02 0.0 
7.965671514949e-03 -7.587568108057e-03 0.0 
4.612489269535e-03 -7.739448103298e-03 0.0 
4.603171745039e-03 -1.154456811700e-02 0.0 
1.764104322454e-03 -5.780984248138e-03 0.0 
1.662047189024e-03 -2.756718010694e-03 0.0 
-6.057860348250e-04 1.147046245560e-04 0.0 
-1.102511312236e-04 -2.305866659431e-03 0.0 
-1.995245988768e-03 4.521844693071e-03 0.0 
-2.697989407755e-03 6.372670316738e-03 0.0 
-3.603720402246e-03 1.118514569477e-02 0.0 
-2.288720399617e-03 1.007865883717e-02 0.0 
-3.499245835672e-03 1.681238404194e-02 0.0 
-3.684995446086e-03 1.966580640453e-02 0.0 
9.956822840998e-03 -1.779010985992e-02 0.0 
2.941790834979e-02 6.052649837949e-02 0.0 
-1.930381153464e-03 1.384718243782e-02 0.0 
8.484897004109e-03 1.209210180301e-02 0.0 
1.172782050003e-02 4.061860299002e-02 0.0 
1.151740028921e-02 4.523101332462e-02 0.0 
1.298089815847e-02 5.437476384804e-02 0.0 
1.111829641557e-02 4.981516276501e-02 0.0 
9.607563351132e-03 4.044375645368e-02 0.0 
9.330515102782e-03 4.502725741614e-02 0.0 
1.055720285099e-02 5.435562792149e-02 0.0 
8.884203000719e-03 4.956244252455e-02 0.0 
9.857279009559e-03 5.882207926176e-02 0.0 
8.292189957139e-03 5.402862143273e-02 0.0 
7.299154223688e-03 4.456636231331e-02 0.0 
6.809878220160e-03 4.905834641339e-02 0.0 
7.577731104270e-03 5.842152278738e-02 0.0 
6.188664267697e-03 5.347926436233e-02 0.0 
6.760603764413e-03 6.272329781999e-02 0.0 
5.454620905255e-03 5.781820263674e-02 0.0 
4.892993435256e-03 4.838389001939e-02 0.0 
-7.309239341122e-04 5.735869856629e-02 0.0 
5.875180882319e-03 1.261451096606e-02 0.0 
5.030567651701e-03 1.185578287225e-02 0.0 
-5.616905498020e-03 4.972754928161e-02 0.0 
-5.801381508252e-03 4.708495493584e-02 0.0 
-6.687763300732e-03 4.333741070618e-02 0.0 
-5.682428117406e-03 4.426035301948e-02 0.0 
4.220938280973e-03 5.281309241958e-02 0.0 
3.705588846053e-03 4.315824259437e-02 0.0 
2.294915019921e-02 6.824186485726e-03 0.0 
2.611394626708e-02 1.521928119539e-02 0.0 
1.172274220682e-02 3.599353257420e-02 0.0 
-3.419268111274e-03 2.603790835759e-02 0.0 
-3.963672864844e-03 3.028395539351e-02 0.0 
3.512965270261e-02 3.864017252478e-02 0.0 
3.561284174253e-02 4.539576386839e-02 0.0 
3.514415306013e-02 4.100019182516e-02 0.0 
3.510498871329e-02 4.844009170682e-02 0.0 
3.545102299572e-02 5.262081651965e-02 0.0 
3.433125105856e-02 4.346358649953e-02 0.0 
-1.735630183282e-03 1.582627041011e-02 0.0 
5.822555161807e-03 3.939938323534e-02 0.0 
-4.831987692067e-03 3.927139316546e-02 0.0 
-2.389436923929e-03 4.006111058490e-02 0.0 
-2.851117306090e-03 2.148690341951e-02 0.0 
6.474855108317e-03 1.257473923261e-02 0.0 
2.902129719927e-02 3.441517494487e-02 0.0 
2.722826787415e-02 3.000960685481e-02 0.0 
2.589731077214e-02 3.029940384589e-02 0.0 
2.394595418398e-02 2.627526759357e-02 0.0 
2.241885617070e-02 2.584913778363e-02 0.0 
2.032477739328e-02 2.216627527343e-02 0.0 
2.170252398624e-02 2.265812335664e-02 0.0 
1.436011990136e-02 1.456190938772e-02 0.0 
1.799506996458e-02 1.882346850909e-02 0.0 
4.700237962041e-03 6.214402220672e-02 0.0 
1.935202326096e-02 1.682700705934e-02 0.0 
-4.430378681603e-03 1.245966719078e-02 0.0 
1.970598879737e-04 5.421598162860e-02 0.0 
-1.143568714630e-03 1.641620510266e-02 0.0 
-1.280349955105e-03 5.976973410321e-02 0.0 
-2.746876728021e-03 5.808176902102e-02 0.0 
-8.016969254179e-04 1.188176177265e-02 0.0 
1.853629982623e-02 2.102578458408e-02 0.0 
2.053295663076e-02 2.475947288784e-02 0.0 
3.438672406554e-02 5.638659394312e-02 0.0 
3.467377767051e-02 6.014267034143e-02 0.0 
1.167479409776e-02 1.259549121962e-02 0.0 
1.682430388109e-02 6.265112295368e-02 0.0 
1.148592055491e-02 6.341615915661e-02 0.0 
1.056065522176e-02 6.778823454134e-02 0.0 
8.220850138909e-04 6.071693818951e-02 0.0 
-6.599136282048e-05 9.303779140748e-03 0.0 
7.799279862489e-03 3.543438479183e-02 0.0 
2.777250612012e-02 1.553861763171e-02 0.0 
2.882890791579e-02 2.321676422167e-02 0.0 
1.192196715782e-02 -1.715466888551e-02 0.0 
8.819186455238e-03 -2.234064265935e-02 0.0 
3.137460570798e-03 4.752774910262e-02 0.0 
2.670629157663e-03 3.778989953288e-02 0.0 
-6.454762212178e-03 4.060057076624e-02 0.0 
-5.386872951767e-03 4.112248744327e-02 0.0 
3.289054951185e-04 1.221999226251e-02 0.0 
-2.372755435879e-03 2.291064927759e-02 0.0 
3.043807189222e-03 3.322599379474e-02 0.0 
4.025532648301e-03 1.294656912121e-02 0.0 
4.148494207705e-03 1.254806338082e-02 0.0 
-4.681915396788e-03 4.779513692240e-02 0.0 
2.360977807201e-02 1.518383862033e-02 0.0 
2.048527105700e-02 5.958765897755e-03 0.0 
-3.151285151638e-03 8.329063159095e-03 0.0 
-4.544500806169e-03 2.294849137815e-02 0.0 
-1.485953938278e-03 6.130701066733e-02 0.0 
2.066311143274e-04 1.005274215332e-02 0.0 
7.762213416562e-03 3.081743800893e-02 0.0 
1.925426862197e-02 1.948724296961e-02 0.0 
2.266960654045e-02 2.257669274744e-02 0.0 
1.551581838733e-02 1.585602742758e-02 0.0 
7.297287847940e-04 2.301823680139e-02 0.0 
-1.568238344982e-03 1.130683013302e-02 0.0 
-2.502922495742e-03 2.465537790392e-02 0.0 
1.656949881789e-02 1.954923968456e-02 0.0 
1.832080711283e-02 2.305520134377e-02 0.0 
3.039837191593e-02 2.281636509611e-02 0.0 
3.116524273790e-02 3.078981557505e-02 0.0 
2.884504497514e-02 3.212614995642e-02 0.0 
3.088554090027e-02 3.955840232467e-02 0.0 
2.666093446575e-02 6.446171291153e-02 0.0 
3.254414664258e-02 2.965156685814e-02 0.0 
3.120357430334e-02 6.116528726872e-02 0.0 
3.036617481116e-02 6.687465397023e-02 0.0 
3.184653420691e-02 6.712135272777e-02 0.0 
3.536929738243e-02 5.596755126914e-02 0.0 
3.452677241473e-02 6.312925150776e-02 0.0 
2.627730073714e-02 1.070199483692e-02 0.0 
1.975524056642e-02 1.404887911980e-02 0.0 
-7.341427639583e-03 3.942688002789e-02 0.0 
-6.528742464563e-03 3.064486633901e-02 0.0 
-4.248852293546e-03 1.777112261260e-02 0.0 
6.056569549720e-03 3.482380276204e-02 0.0 
4.613440908400e-03 2.946248878592e-02 0.0 
8.133737387539e-03 6.747064013077e-02 0.0 
7.151192842038e-03 7.163725583326e-02 0.0 
-4.239046104342e-04 4.551363832505e-02 0.0 
8.415314290700e-04 4.065269236721e-02 0.0 
-7.409252051628e-03 2.605106360495e-02 0.0 
-2.536052561005e-03 1.354482334725e-02 0.0 
9.561475516406e-03 3.122835475665e-02 0.0 
9.182369846691e-03 2.661551701509e-02 0.0 
1.147406063740e-02 3.136073032075e-02 0.0 
1.469019548288e-03 1.071372906933e-02 0.0 
1.562056500325e-02 5.577364035805e-04 0.0 
9.823878794837e-03 1.110421526539e-02 0.0 
6.987500279564e-03 -2.030804690467e-02 0.0 
2.870229705558e-02 2.737946915549e-02 0.0 
3.215657096674e-03 4.612873642353e-02 0.0 
2.470735904858e-02 3.766796378571e-02 0.0 
-2.038323196371e-03 1.979706836860e-02 0.0 
-2.264307340525e-03 1.660911258069e-02 0.0 
1.116771650890e-02 1.178240234091e-02 0.0 
2.616995067154e-02 7.650447724817e-02 0.0 
2.608731788394e-02 2.371437590003e-02 0.0 
2.588315385167e-02 2.166835440036e-02 0.0 
3.063934796857e-02 7.300047071147e-02 0.0 
3.178466284788e-02 7.289321272951e-02 0.0 
3.304398545420e-02 6.666100125295e-02 0.0 
3.262398863047e-02 7.211438589540e-02 0.0 
-4.927168963592e-03 1.373618298449e-02 0.0 
-5.787485467478e-03 1.805614115769e-02 0.0 
1.405943663577e-02 1.566285591104e-02 0.0 
1.403039261599e-02 1.463277983097e-02 0.0 
1.418883658570e-02 1.737280913077e-02 0.0 
1.580629253743e-02 2.068736716996e-02 0.0 
8.652838007073e-03 9.791754613204e-03 0.0 
9.106469934199e-03 1.085816626768e-02 0.0 
-2.460050375570e-03 5.927924243880e-02 0.0 
3.337155096261e-02 6.766351071308e-02 0.0 
5.957703345807e-03 2.557910417708e-02 0.0 
2.923918692397e-02 7.248022094907e-02 0.0 
-2.006642272132e-03 1.056104024494e-02 0.0 
-2.822895747787e-03 1.292924616885e-02 0.0 
6.324212654487e-03 -2.521243543937e-02 0.0 
4.432265394701e-03 -1.969276567842e-02 0.0 
2.093345300445e-03 2.790639157579e-02 0.0 
2.783077463474e-02 4.174989562671e-02 0.0 
2.968318851757e-02 4.873083511016e-02 0.0 
2.556627997681e-02 3.369845301452e-02 0.0 
-3.428274000163e-04 8.928415758561e-03 0.0 
1.917932156154e-03 8.808853543289e-02 0.0 
-1.544453513474e-03 1.464183625153e-02 0.0 
3.485007444046e-02 5.858592273438e-02 0.0 
2.234537711580e-03 2.283475622466e-02 0.0 
2.321769226863e-02 2.071023165005e-02 0.0 
3.444895912355e-02 3.414086248935e-02 0.0 
1.842244087536e-03 1.239360958090e-02 0.0 
1.715059900690e-03 3.335859934556e-02 0.0 
1.265040680714e-03 2.204397626837e-02 0.0 
1.209153045817e-02 7.203785281039e-02 0.0 
1.100661110944e-02 7.643379364259e-02 0.0 
1.316077915843e-02 6.778112600570e-02 0.0 
1.551387469767e-02 -9.948383721667e-03 0.0 
1.297462759941e-02 -1.264133917595e-02 0.0 
4.474055339927e-03 3.407512010678e-02 0.0 
-5.079901828506e-03 5.219773302454e-02 0.0 
-4.367836400723e-03 5.336501959692e-02 0.0 
-3.312479201016e-03 2.883777665578e-02 0.0 
-5.406693769336e-03 2.863435075445e-02 0.0 
-6.968842674199e-03 3.688623282833e-02 0.0 
-7.697077848927e-03 3.551853087946e-02 0.0 
2.366224791740e-02 3.309287510036e-02 0.0 
2.142747710858e-02 3.139591322166e-02 0.0 
2.751294070180e-02 3.472992193933e-02 0.0 
1.923748791771e-03 1.351319832789e-02 0.0 
1.628685289230e-03 1.287177205904e-02 0.0 
4.032866959383e-03 1.135597806257e-02 0.0 
4.621736061836e-03 2.513473392571e-02 0.0 
3.111149381979e-03 1.874763221117e-02 0.0 
-3.423720314442e-03 1.011095577681e-02 0.0 
-1.170008260297e-03 5.120530100901e-03 0.0 
-6.281823130328e-03 1.869768393474e-02 0.0 
5.613490431109e-03 2.111586780708e-02 0.0 
-1.644641190961e-03 1.155300055905e-02 0.0 
-2.299934960520e-03 1.359624856640e-02 0.0 
4.824470433174e-03 4.119519977792e-02 0.0 
2.156335165621e-03 3.525732073744e-02 0.0 
2.004129669112e-02 1.550408277716e-02 0.0 
1.672799606527e-02 5.521765846343e-03 0.0 
8.663381797817e-03 2.238405168571e-02 0.0 
1.098371799015e-02 2.682752031227e-02 0.0 
6.216481167563e-03 1.703095670783e-02 0.0 
-1.259955610201e-03 6.217313256135e-02 0.0 
2.004538976279e-02 1.959082794704e-02 0.0 
1.139752640013e-03 8.408729271824e-03 0.0 
2.498196231823e-03 9.367075676479e-03 0.0 
1.287938939338e-04 6.946555353057e-03 0.0 
1.385874745074e-02 1.408234615785e-02 0.0 
1.023005716154e-02 1.067802386623e-02 0.0 
1.137623878065e-02 1.171835290042e-02 0.0 
7.092417886394e-03 -2.671962792183e-02 0.0 
9.568930177011e-04 2.633030534230e-02 0.0 
8.483063924700e-03 7.619404520859e-02 0.0 
6.118812678022e-03 -2.902958579269e-02 0.0 
7.349733432228e-03 8.050599852441e-02 0.0 
6.146175902273e-03 7.575204362970e-02 0.0 
6.358728986100e-03 8.463378408581e-02 0.0 
-5.083431804556e-04 6.388632870365e-02 0.0 
1.379379954012e-02 7.757445458485e-02 0.0 
1.498933634503e-02 7.219559738724e-02 0.0 
7.391600845452e-03 3.572074813606e-02 0.0 
3.847895382123e-03 1.578634895430e-02 0.0 
7.064286948292e-03 4.614811813870e-02 0.0 
5.189157319789e-03 5.056237116270e-02 0.0 
-2.089104786288e-03 9.373698188973e-03 0.0 
-2.819987581965e-03 1.196258138263e-02 0.0 
-1.952564859621e-03 7.966987364295e-03 0.0 
-2.639590776692e-03 1.088537057959e-02 0.0 
-3.471554167198e-03 1.477062810277e-02 0.0 
-3.139208012308e-03 1.362990734074e-02 0.0 
9.939539261893e-03 8.126620513316e-02 0.0 
-2.099081338795e-03 8.638618666854e-03 0.0 
-2.644431661374e-03 1.204207417200e-02 0.0 
-1.600534537599e-03 6.926099994679e-03 0.0 
3.094765372456e-02 7.866308593342e-02 0.0 
3.236295447408e-02 4.598741842449e-02 0.0 
3.106586011346e-02 5.500795633797e-02 0.0 
2.757872065229e-02 5.871945382750e-02 0.0 
1.053081385383e-02 1.324797262443e-02 0.0 
1.331137351421e-02 1.811441723669e-02 0.0 
-1.593674473287e-03 2.283729640591e-02 0.0 
-1.870116580214e-03 2.768618632400e-02 0.0 
5.085410773397e-03 8.038874529336e-02 0.0 
3.718428791906e-03 8.084466391367e-02 0.0 
4.056400764270e-03 7.300941877934e-02 0.0 
2.932995605654e-03 7.404393908799e-02 0.0 
3.150508741697e-03 6.609895772340e-02 0.0 
2.032566243258e-03 6.718062513377e-02 0.0 
2.398707420483e-03 5.896979576199e-02 0.0 
9.517796402520e-03 9.940966320084e-03 0.0 
2.351534384545e-02 4.345364543497e-02 0.0 
2.913826059694e-02 7.879915948597e-02 0.0 
6.299997191707e-03 7.961154693593e-03 0.0 
6.987088928799e-03 9.545091347253e-03 0.0 
3.321503850480e-02 7.023097186250e-02 0.0 
3.159563185519e-02 7.517787343752e-02 0.0 
-1.155866068711e-03 7.739029796600e-03 0.0 
3.123806485955e-02 2.261877148166e-02 0.0 
2.836960615717e-03 1.002646765506e-02 0.0 
2.436524018968e-03 -1.713969776755e-02 0.0 
8.335082090401e-03 -1.801120362104e-02 0.0 
3.315438357859e-02 2.873855620946e-02 0.0 
3.395122990318e-02 6.537580911716e-02 0.0 
3.357039182565e-02 5.164971890091e-02 0.0 
3.239370827176e-02 6.032786226419e-02 0.0 
1.984008611110e-03 1.336590314475e-02 0.0 
3.734052396153e-03 2.936410631233e-02 0.0 
2.295548490094e-02 2.488103015076e-02 0.0 
3.481337275815e-03 5.797943333230e-02 0.0 
1.826685465384e-02 2.547814613260e-02 0.0 
-8.644393118105e-04 2.533969586536e-02 0.0 
2.912042705473e-02 1.674770785024e-02 0.0 
3.524045327167e-02 5.188576226667e-02 0.0 
2.641689390359e-02 2.389213722069e-02 0.0 
3.307272693324e-02 3.771892702876e-02 0.0 
2.741595847163e-02 5.923087241245e-02 0.0 
2.565556352614e-02 6.956939127795e-02 0.0 
2.748645584157e-02 7.144288228771e-02 0.0 
2.622167149627e-02 1.212307404772e-02 0.0 
3.312455575432e-02 6.443345437456e-02 0.0 
3.051835679197e-02 6.926328679794e-02 0.0 
3.168218062422e-02 5.544168330946e-02 0.0 
1.383796115333e-02 3.579140756258e-02 0.0 
1.344275969640e-02 3.115115018239e-02 0.0 
1.029943433749e-02 2.259361002682e-02 0.0 
1.278126717353e-02 2.666587740975e-02 0.0 
1.595335718365e-02 3.518141832598e-02 0.0 
1.538575205272e-02 3.060552922274e-02 0.0 
1.184808002421e-02 2.238912801706e-02 0.0 
1.452840747176e-02 2.616542037685e-02 0.0 
9.717196309150e-03 1.652835799344e-02 0.0 
1.325075224258e-02 2.170281947284e-02 0.0 
1.723654057823e-02 2.974493499111e-02 0.0 
1.619591897412e-02 2.555201502349e-02 0.0 
1.230137905246e-02 1.855623935612e-02 0.0 
1.999825902739e-02 3.327479728806e-02 0.0 
5.418822854271e-03 6.408828326776e-03 0.0 
3.301654381608e-02 2.794812401985e-02 0.0 
9.790657537359e-03 -2.109457583012e-02 0.0 
1.142504194277e-02 -7.530057391180e-03 0.0 
3.439872275071e-02 5.392514229784e-02 0.0 
4.776798906569e-03 8.140521096511e-03 0.0 
4.093832434677e-03 8.420649167359e-03 0.0 
2.574406077157e-02 9.265975611747e-03 0.0 
5.284045975248e-03 6.236225067063e-03 0.0 
2.859660393966e-02 6.602020321839e-02 0.0 
1.730858154684e-02 -6.915837988233e-03 0.0 
5.227903915578e-03 5.627774478810e-03 0.0 
1.623162046053e-02 3.982796941066e-02 0.0 
1.864519556636e-02 4.367076436838e-02 0.0 
1.853007347535e-02 4.840334100132e-02 0.0 
3.272379659641e-03 8.130170480413e-03 0.0 
1.411902757959e-02 6.332935345809e-02 0.0 
3.922402613668e-03 4.181475604913e-03 0.0 
1.801098808619e-02 1.505198145625e-02 0.0 
2.162593368167e-02 1.670861995157e-02 0.0 
2.341317932985e-02 1.593717361757e-02 0.0 
1.803043896690e-02 3.438546443164e-02 0.0 
2.281038955978e-03 3.680561991601e-03 0.0 
3.742808099762e-03 6.576890376742e-03 0.0 
2.750316811630e-03 6.470035817728e-03 0.0 
4.692653669167e-03 9.060075673020e-03 0.0 
1.207642863488e-03 3.576666882967e-03 0.0 
4.747080860117e-03 6.845478313391e-03 0.0 
4.670509837229e-03 6.252634875860e-03 0.0 
-9.217776357744e-04 2.659894437866e-03 0.0 
1.533647172517e-03 2.625552696447e-04 0.0 
1.386096542376e-03 3.050288987474e-03 0.0 
4.554765508917e-03 -8.510339984529e-04 0.0 
4.647321175209e-03 -4.155536867995e-03 0.0 
8.045610043272e-03 -3.955161690679e-03 0.0 
7.992385088443e-03 -6.110787539999e-04 0.0 
1.168237893444e-02 -5.805385736458e-03 0.0 
1.754285705076e-02 2.478040143480e-02 0.0 
2.528965230884e-04 3.505431643305e-03 0.0 
-3.573417859462e-03 1.766945173970e-02 0.0 
-2.362580729473e-03 1.579574220485e-02 0.0 
-2.872046800391e-03 1.524182594590e-02 0.0 
-7.988111908679e-03 3.757321257589e-02 0.0 
-8.164179001827e-03 3.350997486536e-02 0.0 
-7.717236701198e-03 3.172143928655e-02 0.0 
-7.467046488664e-03 4.172762849048e-02 0.0 
2.508942153037e-02 2.606000874228e-02 0.0 
-1.698597300361e-04 3.608870249984e-03 0.0 
6.782886808756e-03 1.171368427501e-02 0.0 
-8.313312224903e-03 3.083571484198e-02 0.0 
1.829208029621e-02 8.353886466381e-02 0.0 
1.887737781716e-02 7.610881068008e-02 0.0 
2.052888326869e-02 7.471997048492e-02 0.0 
1.895284517411e-02 6.743184957691e-02 0.0 
1.690477251812e-02 7.634666042822e-02 0.0 
-6.039408072660e-03 3.761265814464e-02 0.0 
-4.971629820158e-03 3.773744795970e-02 0.0 
-4.198679078290e-03 4.103554120117e-02 0.0 
-3.819480613824e-03 3.730947603747e-02 0.0 
-2.949362364038e-03 4.038530377353e-02 0.0 
-3.236459006775e-03 4.406051254198e-02 0.0 
-2.607236065435e-03 3.639683963694e-02 0.0 
-1.712033544775e-03 3.968853356831e-02 0.0 
1.482544188956e-02 8.541819874844e-02 0.0 
8.795544686263e-03 -1.357223721586e-02 0.0 
4.762323616564e-03 -7.412224674024e-03 0.0 
5.795780440321e-03 3.539256450465e-03 0.0 
2.258404662427e-03 -1.739623441505e-03 0.0 
2.613573780442e-03 -1.086563875235e-02 0.0 
6.271799686566e-04 -4.710892206013e-03 0.0 
2.463275448065e-03 -1.220748605884e-02 0.0 
4.334942827230e-03 -1.810616566720e-02 0.0 
1.170786098283e-02 8.922438889645e-03 0.0 
6.692496208212e-03 1.272552879863e-02 0.0 
1.246191254519e-02 1.749120310035e-02 0.0 
7.508381305117e-03 2.087334169460e-02 0.0 
2.473057470516e-03 1.635569759491e-02 0.0 
-1.439884018483e-03 3.483072333606e-02 0.0 
-8.962293032622e-04 5.748195884649e-03 0.0 
-1.320704203368e-03 5.061037192452e-02 0.0 
-2.544313321139e-03 5.172645167900e-02 0.0 
-2.427461467810e-03 5.488937225684e-02 0.0 
-3.775996371576e-03 5.195063590961e-02 0.0 
-2.461517950513e-03 4.858181202609e-02 0.0 
-1.167595555514e-03 5.728753333718e-02 0.0 
-2.163502672915e-03 5.757615544656e-02 0.0 
5.102391458659e-03 6.483562110607e-02 0.0 
2.867781013778e-03 6.603366453610e-02 0.0 
1.426525331267e-03 6.737115097265e-02 0.0 
1.280912668262e-03 6.652670954810e-02 0.0 
2.125683376404e-03 6.487831491182e-02 0.0 
4.195095388130e-03 6.395397409276e-02 0.0 
5.426251704896e-03 6.110272789152e-02 0.0 
8.638612436704e-03 5.924036334815e-02 0.0 
6.441593292819e-03 5.759262244416e-02 0.0 
3.379441904682e-03 5.929525725168e-02 0.0 
1.012207540811e-02 5.551039120831e-02 0.0 
7.695658897688e-04 4.660673614677e-02 0.0 
1.460506613299e-03 4.174642033902e-02 0.0 
-8.076456000872e-04 4.094614440486e-03 0.0 
1.151099683617e-02 8.595264274402e-02 0.0 
1.300963363554e-02 3.257595338295e-02 0.0 
1.164202836577e-03 1.108256295527e-02 0.0 
1.716927912327e-03 9.105204929469e-03 0.0 
1.404119607734e-03 8.859981485550e-03 0.0 
-5.431766116600e-04 1.473981462702e-02 0.0 
-8.766581274871e-04 1.195733653050e-02 0.0 
6.400892815108e-04 1.081373302906e-02 0.0 
-6.533345078203e-03 3.845710835089e-02 0.0 
9.350354853396e-03 1.854506458502e-02 0.0 
3.269865414708e-03 2.859252348255e-02 0.0 
1.938702021327e-02 -1.657654721507e-03 0.0 
-5.942908443123e-03 2.305909154560e-02 0.0 
-2.911322915255e-03 2.920212177248e-02 0.0 
-6.329665093117e-03 2.726284663192e-02 0.0 
-2.998475707248e-03 1.833741856296e-02 0.0 
-4.922049979304e-03 3.091232076185e-02 0.0 
-4.287531678898e-03 2.067176026968e-02 0.0 
1.776744644181e-03 6.662402875936e-03 0.0 
-1.749188447207e-04 6.269816686642e-02 0.0 
9.041475432170e-03 6.319545143471e-02 0.0 
5.913171350940e-03 6.695881183053e-02 0.0 
5.428562409797e-03 4.392534655291e-02 0.0 
-5.485833243601e-03 5.011858837562e-02 0.0 
-4.527475003858e-03 4.430704722224e-02 0.0 
-1.517300701907e-03 4.973481747721e-02 0.0 
9.623410838557e-03 1.077872440450e-02 0.0 
3.271078747221e-02 6.115752657981e-02 0.0 
-4.740087433825e-03 1.743044844507e-02 0.0 
-7.984703558598e-03 3.939112953420e-02 0.0 
-7.321378344185e-03 3.323542019577e-02 0.0 
-4.900667429879e-03 1.739760732791e-02 0.0 
3.400356158101e-02 3.251608160715e-02 0.0 
-7.881662463205e-03 2.692205655959e-02 0.0 
-4.161246442184e-03 1.844453552172e-02 0.0 
4.165902200242e-03 3.864728574381e-02 0.0 
1.166727837584e-02 4.572586744503e-02 0.0 
-3.078773764347e-03 1.602144911496e-02 0.0 
-6.721549250791e-03 2.482465786056e-02 0.0 
1.230450337880e-02 5.894820874806e-02 0.0 
1.110832945221e-02 1.314604237226e-02 0.0 
-1.026621585259e-03 3.117293141500e-03 0.0 
7.639401226065e-03 4.003423932913e-02 0.0 
7.135458515464e-03 2.218189320258e-02 0.0 
1.593301124904e-02 6.741802977526e-02 0.0 
1.674534118793e-03 5.058793610520e-02 0.0 
9.578445950964e-03 7.217034450574e-02 0.0 
-6.679993173631e-04 9.198640181882e-03 0.0 
1.395493030974e-02 4.044488159891e-02 0.0 
-4.129970660008e-03 5.431279621800e-02 0.0 
1.036736340984e-02 9.085963150715e-03 0.0 
3.505857774193e-02 4.549262549812e-02 0.0 
2.607041218739e-02 8.316806421056e-02 0.0 
3.354210905087e-03 2.429420979515e-02 0.0 
2.814596265818e-02 2.224647132481e-02 0.0 
6.113284370539e-03 1.114778404288e-02 0.0 
9.284559613707e-03 1.239050987901e-02 0.0 
-3.784728650039e-03 5.589568899270e-02 0.0 
-3.601444591107e-03 1.553264826703e-02 0.0 
2.103572248109e-02 1.249049415200e-02 0.0 
6.121973560212e-03 3.027376147270e-02 0.0 
2.422701414605e-02 2.989512065358e-02 0.0 
1.534662118513e-02 3.502133239577e-03 0.0 
9.693239491583e-03 3.584282971433e-02 0.0 
-1.018636581405e-03 1.259639849470e-02 0.0 
1.165960272394e-02 1.302883443770e-02 0.0 
3.394590921046e-02 6.029011484294e-02 0.0 
3.038984388547e-02 3.923020225834e-02 0.0 
2.537971763967e-02 4.242370132908e-02 0.0 
3.088489320939e-02 3.165455449055e-02 0.0 
-2.102389738311e-03 3.232488591138e-02 0.0 
-3.486820929771e-03 1.595924116718e-02 0.0 
7.589069680794e-03 -1.580731609940e-02 0.0 
3.417194137613e-02 3.584961011172e-02 0.0 
1.489052953599e-02 5.865759619494e-02 0.0 
1.644349332383e-02 1.776598205066e-02 0.0 
4.306739058002e-03 2.018577160818e-02 0.0 
3.564754811151e-02 4.903678999423e-02 0.0 
-4.263571047296e-03 1.832299890752e-02 0.0 
7.560807535903e-03 2.649472738450e-02 0.0 
-7.974110219834e-03 2.963668849001e-02 0.0 
-3.109666861971e-04 6.475769957229e-02 0.0 
1.711417966431e-02 -3.375856620008e-03 0.0 
1.558621363560e-02 -2.581529225709e-03 0.0 
2.680382334349e-02 1.875568400743e-02 0.0 
-7.394256904536e-03 2.814152885281e-02 0.0 
7.449450567890e-03 1.697178451991e-02 0.0 
-3.971679635024e-03 1.766136700189e-02 0.0 
3.279117177435e-04 1.368223880461e-02 0.0 
8.720069568241e-03 1.537639810537e-02 0.0 
2.781571201410e-02 7.784116027283e-02 0.0 
-3.509915023866e-03 1.660735914657e-02 0.0 
6.925013500508e-03 1.008740748696e-02 0.0 
9.073657513881e-03 1.162717717634e-02 0.0 
-1.960565991646e-03 4.328018896811e-02 0.0 
9.510515042994e-03 1.024159643512e-02 0.0 
3.154838402508e-02 7.709285463766e-02 0.0 
-2.929133307839e-03 1.519397931295e-02 0.0 
3.654934171895e-03 1.253957620985e-02 0.0 
2.875268227050e-02 1.606290725281e-02 0.0 
3.181160948976e-03 8.803321056295e-02 0.0 
-1.931654703857e-03 9.559802678211e-03 0.0 
3.090979943220e-03 1.125866730531e-02 0.0 
2.818942284628e-02 2.903570924946e-02 0.0 
4.008281980825e-03 9.712417918943e-03 0.0 
2.822320549927e-02 8.507846507209e-02 0.0 
-7.078894013588e-03 2.966424663197e-02 0.0 
2.875033819433e-02 3.944453714143e-02 0.0 
2.893754054497e-03 8.045146455107e-03 0.0 
4.122311148011e-03 1.031100271560e-02 0.0 
2.083410279766e-02 5.202727018978e-02 0.0 
-7.184954629321e-03 3.321446427518e-02 0.0 
2.014772298886e-02 1.821227769724e-02 0.0 
2.871392358205e-03 6.246710606573e-02 0.0 
3.016333606511e-02 7.903538960981e-02 0.0 
-6.427890561270e-03 3.410120316939e-02 0.0 
1.178162901595e-02 -2.329490804359e-03 0.0 
1.405857573312e-03 1.163331796076e-02 0.0 
7.842896193335e-03 8.530898518501e-03 0.0 
-5.510453208761e-03 3.439215839207e-02 0.0 
1.166871732132e-02 9.430703838191e-04 0.0 
-4.485198688591e-03 3.414252802212e-02 0.0 
2.935575878173e-02 8.443804123519e-02 0.0 
2.101727861736e-02 4.706650020684e-02 0.0 
-3.357964835325e-03 3.342954350556e-02 0.0 
2.571543019610e-02 3.425006498480e-02 0.0 
3.635581071418e-03 5.521162923632e-02 0.0 
2.582316545032e-02 2.521312702425e-02 0.0 
-1.239122721534e-03 1.748669973908e-02 0.0 
-7.332004621171e-03 2.351497824691e-02 0.0 
-7.159832951480e-04 1.371406607577e-02 0.0 
1.847616620505e-02 3.896912080100e-02 0.0 
2.908942848197e-02 8.145568946736e-02 0.0 
-2.351819142596e-04 1.440998022973e-02 0.0 
2.226974900447e-02 2.881866450274e-02 0.0 
2.320243735408e-02 2.194314128544e-02 0.0 
2.504572381814e-02 1.907475112499e-02 0.0 
1.528723343895e-04 1.442465785561e-02 0.0 
3.139134558869e-02 7.231400230253e-02 0.0 
-6.005462373098e-03 3.400234988886e-02 0.0 
-4.133660367993e-03 3.436457796229e-02 0.0 
7.847293138379e-03 2.511024975371e-03 0.0 
2.001217359307e-02 2.708135591421e-02 0.0 
6.377270833955e-04 6.493631378277e-02 0.0 
2.060350204429e-02 3.764928443035e-02 0.0 
-3.632488363046e-04 2.913162140629e-02 0.0 
4.441412429648e-03 2.178530911754e-03 0.0 
1.709540384663e-02 1.682481866250e-02 0.0 
9.218125039681e-04 6.494076822234e-02 0.0 
1.294161678601e-03 5.679879276542e-03 0.0 
-6.696206936493e-04 6.268361190505e-02 0.0 
-1.321936354836e-03 7.369242263135e-03 0.0 
2.270695241391e-02 1.896100649025e-02 0.0 
-3.489262797856e-03 1.172209461124e-02 0.0 
-5.162473287138e-03 1.479971027300e-02 0.0 
2.263157634111e-03 1.871343778028e-02 0.0 
-6.495977827985e-03 1.931477854990e-02 0.0 
3.177011570088e-04 8.974586104053e-03 0.0 
-4.006678575781e-04 5.370031560009e-03 0.0 
1.203798082869e-03 8.197079611010e-02 0.0 
2.693979488637e-02 7.658027210408e-02 0.0 
5.153394140649e-03 -3.142408389631e-02 0.0 
2.984478091515e-02 6.294159000159e-02 0.0 
-6.820319836788e-03 2.322232351457e-02 0.0 
2.245650009058e-02 3.582373494003e-02 0.0 
2.501450787570e-03 8.154463689358e-02 0.0 
-6.741704820200e-03 2.840312991704e-02 0.0 
9.031926718325e-03 1.393278082950e-02 0.0 
4.509570353559e-03 4.654452471637e-03 0.0 
1.654502482850e-03 5.083621459996e-02 0.0 
6.855601158925e-03 1.050027803976e-02 0.0 
2.029905616297e-02 1.911420969422e-02 0.0 
4.744375509702e-04 2.736690762393e-02 0.0 
7.388939428843e-03 8.822156029772e-02 0.0 
8.130451905924e-03 2.844387175936e-02 0.0 
-1.006585016752e-03 3.024760327391e-02 0.0 
2.360728972103e-02 6.723168755602e-02 0.0 
2.558719416508e-02 5.123329422014e-02 0.0 
2.080670547164e-02 3.478463792381e-02 0.0 
-3.075878080508e-03 5.696865558510e-02 0.0 
2.710762340355e-03 7.686796840403e-03 0.0 
2.025072340440e-02 5.363945305596e-02 0.0 
4.744388963225e-03 6.949524267256e-03 0.0 
1.235034071767e-02 7.977456131191e-02 0.0 
1.675128491456e-02 1.678355395781e-02 0.0 
1.497550484070e-02 3.628927806488e-02 0.0 
5.188823071052e-03 1.733145833458e-02 0.0 
8.408801293914e-03 8.720247620854e-03 0.0 
-1.004209401893e-03 3.937926571236e-03 0.0 
1.282840794439e-02 1.310661373037e-02 0.0 
1.516806932012e-02 1.522868431756e-02 0.0 
1.756834807478e-02 7.009218295653e-02 0.0 
9.621681063646e-03 1.132474165773e-02 0.0 
2.228973081621e-03 4.310771070771e-02 0.0 
-1.010647488229e-03 4.037974821088e-03 0.0 
1.545353748153e-02 7.930356687241e-02 0.0 
1.395213989063e-03 1.754548976781e-02 0.0 
4.988096536817e-03 -1.588167851732e-02 0.0 
7.125476444401e-04 1.707112848972e-02 0.0 
1.891242130861e-02 2.884758191488e-02 0.0 
5.100315464340e-03 7.108486325182e-02 0.0 
2.071512247513e-02 6.824161721913e-02 0.0 
-1.037458280424e-03 9.254768285018e-03 0.0 
8.211127734732e-03 1.501264731327e-02 0.0 
1.189039644899e-02 2.937857933688e-03 0.0 
2.588778265739e-03 5.174959842804e-02 0.0 
-4.917978569650e-03 5.012900246551e-02 0.0 
5.505351438917e-03 -2.598669799256e-02 0.0 
-1.472682799871e-03 7.408746717726e-03 0.0 
1.497821204518e-02 2.187593772410e-02 0.0 
-1.576201215978e-03 9.141138814041e-03 0.0 
6.158086082895e-04 6.727071417299e-02 0.0 
8.857520095694e-03 4.180947471184e-02 0.0 
-4.958963581210e-04 6.357435189766e-03 0.0 
8.893101978916e-03 1.186842629579e-02 0.0 
1.744559763017e-03 -8.105658662013e-03 0.0 
1.775934607373e-03 7.047287556674e-03 0.0 
6.993048471255e-03 -8.486845511699e-03 0.0 
1.009746744561e-02 8.853591500297e-02 0.0 
7.512657232025e-03 5.383379878927e-02 0.0 
-9.322947232064e-04 4.259356387035e-03 0.0 
3.215118393136e-03 1.654606311837e-02 0.0 
-3.470304112679e-03 4.935628657742e-02 0.0 
2.163465481007e-02 8.018857406511e-02 0.0 
-1.748156314226e-03 6.015962458023e-02 0.0 
1.271025558533e-02 1.357372106443e-02 0.0 
4.168618202515e-03 2.366937707399e-02 0.0 
2.238336791514e-03 1.576237557018e-02 0.0 
8.365640218049e-04 5.868699064479e-03 0.0 
5.966902501697e-03 1.463028534108e-02 0.0 
2.410027261405e-03 2.953127127928e-03 0.0 
6.792575059244e-03 -2.553133950772e-02 0.0 
7.701211173856e-03 7.957677285368e-03 0.0 
3.163902380846e-03 8.436361079877e-03 0.0 
5.541350864611e-03 8.879295067946e-02 0.0 
7.308877047969e-03 1.517102334914e-02 0.0 
-3.304123255864e-03 5.486077802725e-02 0.0 
1.293886217315e-03 5.769566950220e-02 0.0 
1.360105147512e-04 7.961187094221e-03 0.0 
1.615883012962e-03 6.700499340562e-02 0.0 
9.330075537477e-04 8.902578857410e-02 0.0 
-1.551559365245e-04 4.411528366834e-03 0.0 
1.218156357438e-03 6.335814578576e-02 0.0 
1.986549289434e-03 7.577637424793e-02 0.0 
8.339790978770e-03 1.190672093725e-02 0.0 
-8.534923319463e-04 4.294881349365e-02 0.0 
1.099732562274e-03 3.394494615214e-02 0.0 
6.103157627546e-04 2.964983067822e-03 0.0 
7.119790263083e-03 -3.177393038739e-02 0.0 
1.586799264345e-03 6.037947144451e-02 0.0 
7.007229266666e-03 7.454820819106e-03 0.0 
4.771284337487e-03 1.437291872558e-02 0.0 
4.088576060774e-03 6.634757235593e-02 0.0 
1.456985385215e-02 -2.929151804182e-03 0.0 
1.165159846560e-02 1.650958155265e-02 0.0 
-3.579647219275e-03 4.657732614329e-02 0.0 
1.292529520614e-02 1.505055341002e-02 0.0 
5.488733589544e-03 8.699116456111e-03 0.0 
1.775489118685e-03 -6.412958204381e-03 0.0 
-7.190781059150e-04 3.891878319705e-02 0.0 
8.454005204124e-03 4.977658971542e-02 0.0 
-1.837502417782e-03 7.367406825107e-03 0.0 
-2.359030335167e-03 4.580721153493e-02 0.0 
1.459465241698e-02 7.052827707037e-02 0.0 
4.820224158735e-04 1.350903632129e-01 0.0 
2.016808137817e-02 8.079492306110e-02 0.0 
4.949751339467e-04 1.301547605510e-01 0.0 
2.374685779730e-02 8.798813864240e-02 0.0 
5.427192021941e-04 1.247554823021e-01 0.0 
2.562131866909e-02 9.226790299588e-02 0.0 
5.481931046276e-04 1.188895324788e-01 0.0 
2.595837924615e-02 9.382034080821e-02 0.0 
5.942043524882e-04 1.125598233703e-01 0.0 
2.505025285238e-02 9.292942129646e-02 0.0 
5.932287316099e-04 1.057721148062e-01 0.0 
2.314784124805e-02 9.003670826132e-02 0.0 
6.241399073517e-04 9.853654442951e-02 0.0 

VECTORS node_bounda_dof_materi_velocity_x float
1.000000000000e+00 0.0 0.0 
1.000000000000e+00 0.0 0.0 
1.000000000000e+00 0.0 0.0 
1.000000000000e+00 0.0 0.0 
1.000000000000e+00 0.0 0.0 
1.000000000000e+00 0.0 0.0 
1.000000000000e+00 0.0 0.0 
1.000000000000e+00 0.0 0.0 
1.000000000000e+00 0.0 0.0 
1.000000000000e+00 0.0 0.0 
1.000000000000e+00 0.0 0.0 
1.000000000000e+00 0.0 0.0 
1.000000000000e+00 0.0 0.0 
1.000000000000e+00 0.0 0.0 
1.000000000000e+00 0.0 0.0 
1.000000000000e+00 0.0 0.0 
1.000000000000e+00 0.0 0.0 
1.000000000000e+00 0.0 0.0 
1.000000000000e+00 0.0 0.0 
1.000000000000e+00 0.0 0.0 
1.000000000000e+00 0.0 0.0 
1.000000000000e+00 0.0 0.0 
1.000000000000e+00 0.0 0.0 
1.000000000000e+00 0.0 0.0 
1.000000000000e+00 0.0 0.0 
1.000000000000e+00 0.0 0.0 
1.000000000000e+00 0.0 0.0 
1.000000000000e+00 0.0 0.0 
1.000000000000e+00 0.0 0.0 
1.000000000000e+00 0.0 0.0 
1.000000000000e+00 0.0 0.0 
1.000000000000e+00 0.0 0.0 
1.000000000000e+00 0.0 0.0 
1.000000000000e+00 0.0 0.0 
1.000000000000e+00 0.0 0.0 
1.000000000000e+00 0.0 0.0 
1.000000000000e+00 0.0 0.0 
1.000000000000e+00 0.0 0.0 
1.000000000000e+00 0.0 0.0 
1.000000000000e+00 0.0 0.0 
1.000000000000e+00 0.0 0.0 
1.000000000000e+00 0.0 0.0 
1.000000000000e+00 0.0 0.0 
1.000000000000e+00 0.0 0.0 
1.000000000000e+00 0.0 0.0 
1.000000000000e+00 0.0 0.0 
1.000000000000e+00 0.0 0.0 
1.000000000000e+00 0.0 0.0 
1.000000000000e+00 0.0 0.0 
1.000000000000e+00 0.0 0.0 
1.000000000000e+00 0.0 0.0 
1.000000000000e+00 0.0 0.0 
1.000000000000e+00 0.0 0.0 
1.000000000000e+00 0.0 0.0 
1.000000000000e+00 0.0 0.0 
1.000000000000e+00 0.0 0.0 
1.000000000000e+00 0.0 0.0 
1.000000000000e+00 0.0 0.0 
1.000000000000e+00 0.0 0.0 
1.000000000000e+00 0.0 0.0 
1.000000000000e+00 0.0 0.0 
1.000000000000e+00 0.0 0.0 
1.000000000000e+00 0.0 0.0 
1.000000000000e+00 0.0 0.0 
1.000000000000e+00 0.0 0.0 
1.000000000000e+00 0.0 0.0 
1.000000000000e+00 0.0 0.0 
1.000000000000e+00 0.0 0.0 
1.000000000000e+00 0.0 0.0 
1.000000000000e+00 0.0 0.0 
1.000000000000e+00 0.0 0.0 
1.000000000000e+00 0.0 0.0 
1.000000000000e+00 0.0 0.0 
1.000000000000e+00 0.0 0.0 
1.000000000000e+00 0.0 0.0 
1.000000000000e+00 0.0 0.0 
1.000000000000e+00 0.0 0.0 
1.000000000000e+00 0.0 0.0 
1.000000000000e+00 0.0 0.0 
1.000000000000e+00 0.0 0.0 
1.000000000000e+00 0.0 0.0 
0.0 0.0 0.0 
0.0 0.0 0.0 
0.0 0.0 0.0 
0.0 0.0 0.0 
0.0 0.0 0.0 
0.0 0.0 0.0 
0.0 0.0 0.0 
0.0 0.0 0.0 
0.0 0.0 0.0 
0.0 0.0 0.0 
0.0 0.0 0.0 
1.000000000000e+00 0.0 0.0 
1.000000000000e+00 0.0 0.0 
1.000000000000e+00 0.0 0.0 
1.000000000000e+00 0.0 0.0 
1.000000000000e+00 0.0 0.0 
1.000000000000e+00 0.0 0.0 
1.000000000000e+00 0.0 0.0 
0.0 0.0 0.0 
0.0 0.0 0.0 
0.0 0.0 0.0 
0.0 0.0 0.0 
0.0 0.0 0.0 
0.0 0.0 0.0 
0.0 0.0 0.0 
0.0 0.0 0.0 
0.0 0.0 0.0 
0.0 0.0 0.0 
0.0 0.0 0.0 
0.0 0.0 0.0 
0.0 0.0 0.0 
0.0 0.0 0.0 
0.0 0.0 0.0 
0.0 0.0 0.0 
0.0 0.0 0.0 
0.0 0.0 0.0 
0.0 0.0 0.0 
0.0 0.0 0.0 
0.0 0.0 0.0 
0.0 0.0 0.0 
0.0 0.0 0.0 
0.0 0.0 0.0 
0.0 0.0 0.0 
0.0 0.0 0.0 
0.0 0.0 0.0 
0.0 0.0 0.0 
0.0 0.0 0.0 
0.0 0.0 0.0 
0.0 0.0 0.0 
0.0 0.0 0.0 
0.0 0.0 0.0 
0.0 0.0 0.0 
0.0 0.0 0.0 
0.0 0.0 0.0 
0.0 0.0 0.0 
0.0 0.0 0.0 
0.0 0.0 0.0 
0.0 0.0 0.0 
0.0 0.0 0.0 
0.0 0.0 0.0 
0.0 0.0 0.0 
0.0 0.0 0.0 
0.0 0.0 0.0 
0.0 0.0 0.0 
0.0 0.0 0.0 
0.0 0.0 0.0 
0.0 0.0 0.0 
0.0 0.0 0.0 
0.0 0.0 0.0 
0.0 0.0 0.0 
0.0 0.0 0.0 
0.0 0.0 0.0 
0.0 0.0 0.0 
0.0 0.0 0.0 
0.0 0.0 0.0 
0.0 0.0 0.0 
0.0 0.0 0.0 
0.0 0.0 0.0 
0.0 0.0 0.0 
0.0 0.0 0.0 
0.0 0.0 0.0 
0.0 0.0 0.0 
0.0 0.0 0.0 
0.0 0.0 0.0 
0.0 0.0 0.0 
0.0 0.0 0.0 
0.0 0.0 0.0 
0.0 0.0 0.0 
0.0 0.0 0.0 
0.0 0.0 0.0 
0.0 0.0 0.0 
0.0 0.0 0.0 
0.0 0.0 0.0 
0.0 0.0 0.0 
0.0 0.0 0.0 
0.0 0.0 0.0 
0.0 0.0 0.0 
0.0 0.0 0.0 
0.0 0.0 0.0 
0.0 0.0 0.0 
0.0 0.0 0.0 
0.0 0.0 0.0 
0.0 0.0 0.0 
0.0 0.0 0.0 
0.0 0.0 0.0 
0.0 0.0 0.0 
0.0 0.0 0.0 
0.0 0.0 0.0 
0.0 0.0 0.0 
0.0 0.0 0.0 
0.0 0.0 0.0 
0.0 0.0 0.0 
0.0 0.0 0.0 
0.0 0.0 0.0 
0.0 0.0 0.0 
0.0 0.0 0.0 
0.0 0.0 0.0 
0.0 0.0 0.0 
0.0 0.0 0.0 
0.0 0.0 0.0 
0.0 0.0 0.0 
0.0 0.0 0.0 
0.0 0.0 0.0 
0.0 0.0 0.0 
0.0 0.0 0.0 
0.0 0.0 0.0 
0.0 0.0 0.0 
0.0 0.0 0.0 
0.0 0.0 0.0 
0.0 0.0 0.0 
0.0 0.0 0.0 
0.0 0.0 0.0 
0.0 0.0 0.0 
0.0 0.0 0.0 
0.0 0.0 0.0 
0.0 0.0 0.0 
0.0 0.0 0.0 
0.0 0.0 0.0 
0.0 0.0 0.0 
0.0 0.0 0.0 
0.0 0.0 0.0 
0.0 0.0 0.0 
0.0 0.0 0.0 
0.0 0.0 0.0 
0.0 0.0 0.0 
0.0 0.0 0.0 
0.0 0.0 0.0 
0.0 0.0 0.0 
0.0 0.0 0.0 
0.0 0.0 0.0 
0.0 0.0 0.0 
0.0 0.0 0.0 
0.0 0.0 0.0 
0.0 0.0 0.0 
0.0 0.0 0.0 
0.0 0.0 0.0 
0.0 0.0 0.0 
0.0 0.0 0.0 
0.0 0.0 0.0 
0.0 0.0 0.0 
0.0 0.0 0.0 
0.0 0.0 0.0 
0.0 0.0 0.0 
0.0 0.0 0.0 
0.0 0.0 0.0 
0.0 0.0 0.0 
0.0 0.0 0.0 
0.0 0.0 0.0 
0.0 0.0 0.0 
0.0 0.0 0.0 
0.0 0.0 0.0 
0.0 0.0 0.0 
0.0 0.0 0.0 
0.0 0.0 0.0 
0.0 0.0 0.0 
0.0 0.0 0.0 
0.0 0.0 0.0 
0.0 0.0 0.0 
0.0 0.0 0.0 
0.0 0.0 0.0 
0.0 0.0 0.0 
0.0 0.0 0.0 
0.0 0.0 0.0 
0.0 0.0 0.0 
0.0 0.0 0.0 
0.0 0.0 0.0 
0.0 0.0 0.0 
0.0 0.0 0.0 
0.0 0.0 0.0 
0.0 0.0 0.0 
0.0 0.0 0.0 
0.0 0.0 0.0 
0.0 0.0 0.0 
0.0 0.0 0.0 
0.0 0.0 0.0 
0.0 0.0 0.0 
0.0 0.0 0.0 
0.0 0.0 0.0 
0.0 0.0 0.0 
0.0 0.0 0.0 
0.0 0.0 0.0 
0.0 0.0 0.0 
0.0 0.0 0.0 
0.0 0.0 0.0 
0.0 0.0 0.0 
0.0 0.0 0.0 
0.0 0.0 0.0 
0.0 0.0 0.0 
0.0 0.0 0.0 
0.0 0.0 0.0 
0.0 0.0 0.0 
0.0 0.0 0.0 
0.0 0.0 0.0 
0.0 0.0 0.0 
0.0 0.0 0.0 
0.0 0.0 0.0 
0.0 0.0 0.0 
0.0 0.0 0.0 
0.0 0.0 0.0 
0.0 0.0 0.0 
0.0 0.0 0.0 
0.0 0.0 0.0 
0.0 0.0 0.0 
0.0 0.0 0.0 
0.0 0.0 0.0 
0.0 0.0 0.0 
0.0 0.0 0.0 
0.0 0.0 0.0 
0.0 0.0 0.0 
0.0 0.0 0.0 
0.0 0.0 0.0 
0.0 0.0 0.0 
0.0 0.0 0.0 
0.0 0.0 0.0 
0.0 0.0 0.0 
0.0 0.0 0.0 
0.0 0.0 0.0 
0.0 0.0 0.0 
0.0 0.0 0.0 
0.0 0.0 0.0 
0.0 0.0 0.0 
0.0 0.0 0.0 
0.0 0.0 0.0 
0.0 0.0 0.0 
0.0 0.0 0.0 
0.0 0.0 0.0 
0.0 0.0 0.0 
0.0 0.0 0.0 
0.0 0.0 0.0 
0.0 0.0 0.0 
0.0 0.0 0.0 
0.0 0.0 0.0 
0.0 0.0 0.0 
0.0 0.0 0.0 
0.0 0.0 0.0 
0.0 0.0 0.0 
0.0 0.0 0.0 
0.0 0.0 0.0 
0.0 0.0 0.0 
0.0 0.0 0.0 
0.0 0.0 0.0 
0.0 0.0 0.0 
0.0 0.0 0.0 
0.0 0.0 0.0 
0.0 0.0 0.0 
0.0 0.0 0.0 
0.0 0.0 0.0 
0.0 0.0 0.0 
0.0 0.0 0.0 
0.0 0.0 0.0 
0.0 0.0 0.0 
0.0 0.0 0.0 
0.0 0.0 0.0 
0.0 0.0 0.0 
0.0 0.0 0.0 
0.0 0.0 0.0 
0.0 0.0 0.0 
0.0 0.0 0.0 
0.0 0.0 0.0 
0.0 0.0 0.0 
0.0 0.0 0.0 
0.0 0.0 0.0 
0.0 0.0 0.0 
0.0 0.0 0.0 
0.0 0.0 0.0 
0.0 0.0 0.0 
0.0 0.0 0.0 
0.0 0.0 0.0 
0.0 0.0 0.0 
0.0 0.0 0.0 
0.0 0.0 0.0 
0.0 0.0 0.0 
0.0 0.0 0.0 
0.0 0.0 0.0 
0.0 0.0 0.0 
0.0 0.0 0.0 
0.0 0.0 0.0 
0.0 0.0 0.0 
0.0 0.0 0.0 
0.0 0.0 0.0 
0.0 0.0 0.0 
0.0 0.0 0.0 
0.0 0.0 0.0 
0.0 0.0 0.0 
0.0 0.0 0.0 
0.0 0.0 0.0 
0.0 0.0 0.0 
0.0 0.0 0.0 
0.0 0.0 0.0 
0.0 0.0 0.0 
0.0 0.0 0.0 
0.0 0.0 0.0 
0.0 0.0 0.0 
0.0 0.0 0.0 
0.0 0.0 0.0 
0.0 0.0 0.0 
0.0 0.0 0.0 
0.0 0.0 0.0 
0.0 0.0 0.0 
0.0 0.0 0.0 
0.0 0.0 0.0 
0.0 0.0 0.0 
0.0 0.0 0.0 
0.0 0.0 0.0 
0.0 0.0 0.0 
0.0 0.0 0.0 
0.0 0.0 0.0 
0.0 0.0 0.0 
0.0 0.0 0.0 
0.0 0.0 0.0 
0.0 0.0 0.0 
0.0 0.0 0.0 
0.0 0.0 0.0 
0.0 0.0 0.0 
0.0 0.0 0.0 
0.0 0.0 0.0 
0.0 0.0 0.0 
0.0 0.0 0.0 
0.0 0.0 0.0 
0.0 0.0 0.0 
0.0 0.0 0.0 
0.0 0.0 0.0 
0.0 0.0 0.0 
0.0 0.0 0.0 
0.0 0.0 0.0 
0.0 0.0 0.0 
0.0 0.0 0.0 
0.0 0.0 0.0 
0.0 0.0 0.0 
0.0 0.0 0.0 
0.0 0.0 0.0 
0.0 0.0 0.0 
0.0 0.0 0.0 
0.0 0.0 0.0 
0.0 0.0 0.0 
0.0 0.0 0.0 
0.0 0.0 0.0 
0.0 0.0 0.0 
0.0 0.0 0.0 
0.0 0.0 0.0 
0.0 0.0 0.0 
0.0 0.0 0.0 
0.0 0.0 0.0 
0.0 0.0 0.0 
0.0 0.0 0.0 
0.0 0.0 0.0 
0.0 0.0 0.0 
0.0 0.0 0.0 
0.0 0.0 0.0 
0.0 0.0 0.0 
0.0 0.0 0.0 
0.0 0.0 0.0 
0.0 0.0 0.0 
0.0 0.0 0.0 
0.0 0.0 0.0 
0.0 0.0 0.0 
0.0 0.0 0.0 
0.0 0.0 0.0 
0.0 0.0 0.0 
0.0 0.0 0.0 
0.0 0.0 0.0 
0.0 0.0 0.0 
0.0 0.0 0.0 
0.0 0.0 0.0 
0.0 0.0 0.0 
0.0 0.0 0.0 
0.0 0.0 0.0 
0.0 0.0 0.0 
0.0 0.0 0.0 
0.0 0.0 0.0 
0.0 0.0 0.0 
0.0 0.0 0.0 
0.0 0.0 0.0 
0.0 0.0 0.0 
0.0 0.0 0.0 
0.0 0.0 0.0 
0.0 0.0 0.0 
0.0 0.0 0.0 
0.0 0.0 0.0 
0.0 0.0 0.0 
0.0 0.0 0.0 
0.0 0.0 0.0 
0.0 0.0 0.0 
0.0 0.0 0.0 
0.0 0.0 0.0 
0.0 0.0 0.0 
0.0 0.0 0.0 
0.0 0.0 0.0 
0.0 0.0 0.0 
0.0 0.0 0.0 
0.0 0.0 0.0 
0.0 0.0 0.0 
0.0 0.0 0.0 
0.0 0.0 0.0 
0.0 0.0 0.0 
0.0 0.0 0.0 
0.0 0.0 0.0 
0.0 0.0 0.0 
0.0 0.0 0.0 
0.0 0.0 0.0 
0.0 0.0 0.0 
0.0 0.0 0.0 
0.0 0.0 0.0 
0.0 0.0 0.0 
0.0 0.0 0.0 
0.0 0.0 0.0 
0.0 0.0 0.0 
0.0 0.0 0.0 
0.0 0.0 0.0 
0.0 0.0 0.0 
0.0 0.0 0.0 
0.0 0.0 0.0 
0.0 0.0 0.0 
0.0 0.0 0.0 
0.0 0.0 0.0 
0.0 0.0 0.0 
0.0 0.0 0.0 
0.0 0.0 0.0 
0.0 0.0 0.0 
0.0 0.0 0.0 
0.0 0.0 0.0 
0.0 0.0 0.0 
0.0 0.0 0.0 
0.0 0.0 0.0 
0.0 0.0 0.0 
0.0 0.0 0.0 
0.0 0.0 0.0 
0.0 0.0 0.0 
0.0 0.0 0.0 
0.0 0.0 0.0 
0.0 0.0 0.0 
0.0 0.0 0.0 
0.0 0.0 0.0 
0.0 0.0 0.0 
0.0 0.0 0.0 
0.0 0.0 0.0 
0.0 0.0 0.0 
0.0 0.0 0.0 
0.0 0.0 0.0 
0.0 0.0 0.0 
0.0 0.0 0.0 
0.0 0.0 0.0 
0.0 0.0 0.0 
0.0 0.0 0.0 
0.0 0.0 0.0 
0.0 0.0 0.0 
0.0 0.0 0.0 
0.0 0.0 0.0 
0.0 0.0 0.0 
0.0 0.0 0.0 
0.0 0.0 0.0 
0.0 0.0 0.0 
0.0 0.0 0.0 
0.0 0.0 0.0 
0.0 0.0 0.0 
0.0 0.0 0.0 
0.0 0.0 0.0 
0.0 0.0 0.0 
0.0 0.0 0.0 
0.0 0.0 0.0 
0.0 0.0 0.0 
0.0 0.0 0.0 
0.0 0.0 0.0 
0.0 0.0 0.0 
0.0 0.0 0.0 
0.0 0.0 0.0 
0.0 0.0 0.0 
0.0 0.0 0.0 
0.0 0.0 0.0 
0.0 0.0 0.0 
0.0 0.0 0.0 
0.0 0.0 0.0 
0.0 0.0 0.0 
0.0 0.0 0.0 
0.0 0.0 0.0 
0.0 0.0 0.0 
0.0 0.0 0.0 
0.0 0.0 0.0 
0.0 0.0 0.0 
0.0 0.0 0.0 
0.0 0.0 0.0 
0.0 0.0 0.0 
0.0 0.0 0.0 
0.0 0.0 0.0 
0.0 0.0 0.0 
0.0 0.0 0.0 
0.0 0.0 0.0 
0.0 0.0 0.0 
0.0 0.0 0.0 
0.0 0.0 0.0 
0.0 0.0 0.0 
0.0 0.0 0.0 
0.0 0.0 0.0 
0.0 0.0 0.0 
0.0 0.0 0.0 
0.0 0.0 0.0 
0.0 0.0 0.0 
0.0 0.0 0.0 
0.0 0.0 0.0 
0.0 0.0 0.0 
0.0 0.0 0.0 
0.0 0.0 0.0 
0.0 0.0 0.0 
0.0 0.0 0.0 
0.0 0.0 0.0 
0.0 0.0 0.0 
0.0 0.0 0.0 
0.0 0.0 0.0 
0.0 0.0 0.0 
0.0 0.0 0.0 
0.0 0.0 0.0 
0.0 0.0 0.0 
0.0 0.0 0.0 
0.0 0.0 0.0 
0.0 0.0 0.0 
0.0 0.0 0.0 
0.0 0.0 0.0 
0.0 0.0 0.0 
0.0 0.0 0.0 
0.0 0.0 0.0 
0.0 0.0 0.0 
0.0 0.0 0.0 
0.0 0.0 0.0 
0.0 0.0 0.0 
0.0 0.0 0.0 
0.0 0.0 0.0 
0.0 0.0 0.0 
0.0 0.0 0.0 
0.0 0.0 0.0 
0.0 0.0 0.0 
0.0 0.0 0.0 
0.0 0.0 0.0 
0.0 0.0 0.0 
0.0 0.0 0.0 
0.0 0.0 0.0 
0.0 0.0 0.0 
0.0 0.0 0.0 
0.0 0.0 0.0 
0.0 0.0 0.0 
0.0 0.0 0.0 
0.0 0.0 0.0 
0.0 0.0 0.0 
0.0 0.0 0.0 
0.0 0.0 0.0 
0.0 0.0 0.0 
0.0 0.0 0.0 
0.0 0.0 0.0 
0.0 0.0 0.0 
0.0 0.0 0.0 
0.0 0.0 0.0 
0.0 0.0 0.0 
0.0 0.0 0.0 
0.0 0.0 0.0 
0.0 0.0 0.0 
0.0 0.0 0.0 
0.0 0.0 0.0 
0.0 0.0 0.0 
0.0 0.0 0.0 
0.0 0.0 0.0 
0.0 0.0 0.0 
0.0 0.0 0.0 
0.0 0.0 0.0 
0.0 0.0 0.0 
0.0 0.0 0.0 
0.0 0.0 0.0 
0.0 0.0 0.0 
0.0 0.0 0.0 
0.0 0.0 0.0 
0.0 0.0 0.0 
0.0 0.0 0.0 
0.0 0.0 0.0 
0.0 0.0 0.0 
0.0 0.0 0.0 
0.0 0.0 0.0 
0.0 0.0 0.0 
0.0 0.0 0.0 
0.0 0.0 0.0 
0.0 0.0 0.0 
0.0 0.0 0.0 
0.0 0.0 0.0 
0.0 0.0 0.0 
0.0 0.0 0.0 
0.0 0.0 0.0 
0.0 0.0 0.0 
0.0 0.0 0.0 
0.0 0.0 0.0 
0.0 0.0 0.0 
0.0 0.0 0.0 
0.0 0.0 0.0 
0.0 0.0 0.0 
0.0 0.0 0.0 
0.0 0.0 0.0 
0.0 0.0 0.0 
0.0 0.0 0.0 
0.0 0.0 0.0 
0.0 0.0 0.0 
0.0 0.0 0.0 
0.0 0.0 0.0 
0.0 0.0 0.0 
0.0 0.0 0.0 
0.0 0.0 0.0 
0.0 0.0 0.0 
0.0 0.0 0.0 
0.0 0.0 0.0 
0.0 0.0 0.0 
0.0 0.0 0.0 
0.0 0.0 0.0 
0.0 0.0 0.0 
0.0 0.0 0.0 
0.0 0.0 0.0 
0.0 0.0 0.0 
0.0 0.0 0.0 
0.0 0.0 0.0 
0.0 0.0 0.0 
0.0 0.0 0.0 
0.0 0.0 0.0 
0.0 0.0 0.0 
0.0 0.0 0.0 
0.0 0.0 0.0 
0.0 0.0 0.0 
0.0 0.0 0.0 
0.0 0.0 0.0 
0.0 0.0 0.0 
0.0 0.0 0.0 
0.0 0.0 0.0 
0.0 0.0 0.0 
0.0 0.0 0.0 
0.0 0.0 0.0 
0.0 0.0 0.0 
0.0 0.0 0.0 
0.0 0.0 0.0 
0.0 0.0 0.0 
0.0 0.0 0.0 
0.0 0.0 0.0 
0.0 0.0 0.0 
0.0 0.0 0.0 
0.0 0.0 0.0 
0.0 0.0 0.0 
0.0 0.0 0.0 
0.0 0.0 0.0 
0.0 0.0 0.0 
0.0 0.0 0.0 
0.0 0.0 0.0 
0.0 0.0 0.0 
0.0 0.0 0.0 
0.0 0.0 0.0 
0.0 0.0 0.0 
0.0 0.0 0.0 
0.0 0.0 0.0 
0.0 0.0 0.0 
0.0 0.0 0.0 
0.0 0.0 0.0 
0.0 0.0 0.0 
0.0 0.0 0.0 
0.0 0.0 0.0 
0.0 0.0 0.0 
0.0 0.0 0.0 
0.0 0.0 0.0 
0.0 0.0 0.0 
0.0 0.0 0.0 
0.0 0.0 0.0 
0.0 0.0 0.0 
0.0 0.0 0.0 
0.0 0.0 0.0 
0.0 0.0 0.0 
0.0 0.0 0.0 
0.0 0.0 0.0 
0.0 0.0 0.0 
0.0 0.0 0.0 
0.0 0.0 0.0 
0.0 0.0 0.0 
0.0 0.0 0.0 
0.0 0.0 0.0 
0.0 0.0 0.0 
0.0 0.0 0.0 
0.0 0.0 0.0 
0.0 0.0 0.0 
0.0 0.0 0.0 
0.0 0.0 0.0 
0.0 0.0 0.0 
0.0 0.0 0.0 
0.0 0.0 0.0 
0.0 0.0 0.0 
0.0 0.0 0.0 
0.0 0.0 0.0 
0.0 0.0 0.0 
0.0 0.0 0.0 
0.0 0.0 0.0 
0.0 0.0 0.0 
0.0 0.0 0.0 
0.0 0.0 0.0 
0.0 0.0 0.0 
0.0 0.0 0.0 
0.0 0.0 0.0 
0.0 0.0 0.0 
0.0 0.0 0.0 
0.0 0.0 0.0 
0.0 0.0 0.0 
0.0 0.0 0.0 
0.0 0.0 0.0 
0.0 0.0 0.0 
0.0 0.0 0.0 
0.0 0.0 0.0 
0.0 0.0 0.0 
0.0 0.0 0.0 
0.0 0.0 0.0 
0.0 0.0 0.0 
0.0 0.0 0.0 
0.0 0.0 0.0 
0.0 0.0 0.0 
0.0 0.0 0.0 
0.0 0.0 0.0 
0.0 0.0 0.0 
0.0 0.0 0.0 
0.0 0.0 0.0 
0.0 0.0 0.0 
0.0 0.0 0.0 
0.0 0.0 0.0 
0.0 0.0 0.0 
0.0 0.0 0.0 
0.0 0.0 0.0 
0.0 0.0 0.0 
0.0 0.0 0.0 
0.0 0.0 0.0 
0.0 0.0 0.0 
0.0 0.0 0.0 
0.0 0.0 0.0 
0.0 0.0 0.0 
0.0 0.0 0.0 
0.0 0.0 0.0 
0.0 0.0 0.0 
0.0 0.0 0.0 
0.0 0.0 0.0 
0.0 0.0 0.0 
0.0 0.0 0.0 
0.0 0.0 0.0 
0.0 0.0 0.0 
0.0 0.0 0.0 
0.0 0.0 0.0 
0.0 0.0 0.0 
0.0 0.0 0.0 
0.0 0.0 0.0 
0.0 0.0 0.0 
0.0 0.0 0.0 
0.0 0.0 0.0 
0.0 0.0 0.0 
0.0 0.0 0.0 
0.0 0.0 0.0 
0.0 0.0 0.0 
0.0 0.0 0.0 
0.0 0.0 0.0 
0.0 0.0 0.0 
0.0 0.0 0.0 
0.0 0.0 0.0 
0.0 0.0 0.0 
0.0 0.0 0.0 
0.0 0.0 0.0 
0.0 0.0 0.0 
0.0 0.0 0.0 
0.0 0.0 0.0 
0.0 0.0 0.0 
0.0 0.0 0.0 
0.0 0.0 0.0 
0.0 0.0 0.0 
0.0 0.0 0.0 
0.0 0.0 0.0 
0.0 0.0 0.0 
0.0 0.0 0.0 
0.0 0.0 0.0 
0.0 0.0 0.0 
0.0 0.0 0.0 
0.0 0.0 0.0 
0.0 0.0 0.0 
0.0 0.0 0.0 
0.0 0.0 0.0 
0.0 0.0 0.0 
0.0 0.0 0.0 
0.0 0.0 0.0 
0.0 0.0 0.0 
0.0 0.0 0.0 
0.0 0.0 0.0 
0.0 0.0 0.0 
0.0 0.0 0.0 
0.0 0.0 0.0 
0.0 0.0 0.0 
0.0 0.0 0.0 
0.0 0.0 0.0 
0.0 0.0 0.0 
0.0 0.0 0.0 
0.0 0.0 0.0 
0.0 0.0 0.0 
0.0 0.0 0.0 
0.0 0.0 0.0 
0.0 0.0 0.0 
0.0 0.0 0.0 
0.0 0.0 0.0 
0.0 0.0 0.0 
0.0 0.0 0.0 
0.0 0.0 0.0 
0.0 0.0 0.0 
0.0 0.0 0.0 
0.0 0.0 0.0 
0.0 0.0 0.0 
0.0 0.0 0.0 
0.0 0.0 0.0 
0.0 0.0 0.0 
0.0 0.0 0.0 
0.0 0.0 0.0 
0.0 0.0 0.0 
0.0 0.0 0.0 
0.0 0.0 0.0 
0.0 0.0 0.0 
0.0 0.0 0.0 
0.0 0.0 0.0 
0.0 0.0 0.0 
0.0 0.0 0.0 
0.0 0.0 0.0 
0.0 0.0 0.0 
0.0 0.0 0.0 
0.0 0.0 0.0 
0.0 0.0 0.0 
0.0 0.0 0.0 
0.0 0.0 0.0 
0.0 0.0 0.0 
0.0 0.0 0.0 
0.0 0.0 0.0 
0.0 0.0 0.0 
0.0 0.0 0.0 
0.0 0.0 0.0 
0.0 0.0 0.0 
0.0 0.0 0.0 
0.0 0.0 0.0 
0.0 0.0 0.0 
0.0 0.0 0.0 
0.0 0.0 0.0 
0.0 0.0 0.0 
0.0 0.0 0.0 
0.0 0.0 0.0 
0.0 0.0 0.0 
0.0 0.0 0.0 
0.0 0.0 0.0 
0.0 0.0 0.0 
0.0 0.0 0.0 
0.0 0.0 0.0 
0.0 0.0 0.0 
0.0 0.0 0.0 
0.0 0.0 0.0 
0.0 0.0 0.0 
0.0 0.0 0.0 
0.0 0.0 0.0 
0.0 0.0 0.0 
0.0 0.0 0.0 
0.0 0.0 0.0 
0.0 0.0 0.0 
0.0 0.0 0.0 
0.0 0.0 0.0 
0.0 0.0 0.0 
0.0 0.0 0.0 
0.0 0.0 0.0 
0.0 0.0 0.0 
0.0 0.0 0.0 
0.0 0.0 0.0 
0.0 0.0 0.0 
0.0 0.0 0.0 
0.0 0.0 0.0 
0.0 0.0 0.0 
0.0 0.0 0.0 
0.0 0.0 0.0 
0.0 0.0 0.0 
0.0 0.0 0.0 
0.0 0.0 0.0 
0.0 0.0 0.0 
0.0 0.0 0.0 
0.0 0.0 0.0 
0.0 0.0 0.0 
0.0 0.0 0.0 
0.0 0.0 0.0 
0.0 0.0 0.0 
0.0 0.0 0.0 
0.0 0.0 0.0 
0.0 0.0 0.0 
0.0 0.0 0.0 
0.0 0.0 0.0 
0.0 0.0 0.0 
0.0 0.0 0.0 
0.0 0.0 0.0 
0.0 0.0 0.0 
0.0 0.0 0.0 
0.0 0.0 0.0 
0.0 0.0 0.0 
0.0 0.0 0.0 
0.0 0.0 0.0 
0.0 0.0 0.0 
0.0 0.0 0.0 
0.0 0.0 0.0 
0.0 0.0 0.0 
0.0 0.0 0.0 
0.0 0.0 0.0 
0.0 0.0 0.0 
0.0 0.0 0.0 
0.0 0.0 0.0 
0.0 0.0 0.0 
0.0 0.0 0.0 
0.0 0.0 0.0 
0.0 0.0 0.0 
0.0 0.0 0.0 
0.0 0.0 0.0 
0.0 0.0 0.0 
0.0 0.0 0.0 
0.0 0.0 0.0 
0.0 0.0 0.0 
0.0 0.0 0.0 
0.0 0.0 0.0 
0.0 0.0 0.0 
0.0 0.0 0.0 
0.0 0.0 0.0 
0.0 0.0 0.0 
0.0 0.0 0.0 
0.0 0.0 0.0 
0.0 0.0 0.0 
0.0 0.0 0.0 
0.0 0.0 0.0 
0.0 0.0 0.0 
0.0 0.0 0.0 
0.0 0.0 0.0 
0.0 0.0 0.0 
0.0 0.0 0.0 
0.0 0.0 0.0 
0.0 0.0 0.0 
0.0 0.0 0.0 
0.0 0.0 0.0 
0.0 0.0 0.0 
0.0 0.0 0.0 
0.0 0.0 0.0 
0.0 0.0 0.0 
0.0 0.0 0.0 
0.0 0.0 0.0 
0.0 0.0 0.0 
0.0 0.0 0.0 
0.0 0.0 0.0 
0.0 0.0 0.0 
0.0 0.0 0.0 
0.0 0.0 0.0 
0.0 0.0 0.0 
0.0 0.0 0.0 
0.0 0.0 0.0 
0.0 0.0 0.0 
0.0 0.0 0.0 
0.0 0.0 0.0 
0.0 0.0 0.0 
0.0 0.0 0.0 
0.0 0.0 0.0 
0.0 0.0 0.0 
0.0 0.0 0.0 
0.0 0.0 0.0 
0.0 0.0 0.0 
0.0 0.0 0.0 
0.0 0.0 0.0 
0.0 0.0 0.0 
0.0 0.0 0.0 
0.0 0.0 0.0 
0.0 0.0 0.0 
0.0 0.0 0.0 
0.0 0.0 0.0 
0.0 0.0 0.0 
0.0 0.0 0.0 
0.0 0.0 0.0 
0.0 0.0 0.0 
0.0 0.0 0.0 
0.0 0.0 0.0 
0.0 0.0 0.0 
0.0 0.0 0.0 
0.0 0.0 0.0 
0.0 0.0 0.0 
0.0 0.0 0.0 
0.0 0.0 0.0 
0.0 0.0 0.0 
0.0 0.0 0.0 
0.0 0.0 0.0 
0.0 0.0 0.0 
0.0 0.0 0.0 
0.0 0.0 0.0 
0.0 0.0 0.0 
0.0 0.0 0.0 
0.0 0.0 0.0 
0.0 0.0 0.0 
0.0 0.0 0.0 
0.0 0.0 0.0 
0.0 0.0 0.0 
0.0 0.0 0.0 
0.0 0.0 0.0 
0.0 0.0 0.0 
0.0 0.0 0.0 
0.0 0.0 0.0 
0.0 0.0 0.0 
0.0 0.0 0.0 
0.0 0.0 0.0 
0.0 0.0 0.0 
0.0 0.0 0.0 
0.0 0.0 0.0 
0.0 0.0 0.0 
0.0 0.0 0.0 
0.0 0.0 0.0 
0.0 0.0 0.0 
0.0 0.0 0.0 
0.0 0.0 0.0 
0.0 0.0 0.0 
0.0 0.0 0.0 
0.0 0.0 0.0 
0.0 0.0 0.0 
0.0 0.0 0.0 
0.0 0.0 0.0 
0.0 0.0 0.0 
0.0 0.0 0.0 
0.0 0.0 0.0 
0.0 0.0 0.0 
0.0 0.0 0.0 
0.0 0.0 0.0 
0.0 0.0 0.0 
0.0 0.0 0.0 
0.0 0.0 0.0 
0.0 0.0 0.0 
0.0 0.0 0.0 
0.0 0.0 0.0 
0.0 0.0 0.0 
0.0 0.0 0.0 
0.0 0.0 0.0 
0.0 0.0 0.0 
0.0 0.0 0.0 
0.0 0.0 0.0 
0.0 0.0 0.0 
0.0 0.0 0.0 
0.0 0.0 0.0 
0.0 0.0 0.0 
0.0 0.0 0.0 
0.0 0.0 0.0 
0.0 0.0 0.0 
0.0 0.0 0.0 
0.0 0.0 0.0 
0.0 0.0 0.0 
0.0 0.0 0.0 
0.0 0.0 0.0 
0.0 0.0 0.0 
0.0 0.0 0.0 
0.0 0.0 0.0 
0.0 0.0 0.0 
0.0 0.0 0.0 
0.0 0.0 0.0 
0.0 0.0 0.0 
0.0 0.0 0.0 
0.0 0.0 0.0 
0.0 0.0 0.0 
0.0 0.0 0.0 
0.0 0.0 0.0 
0.0 0.0 0.0 
0.0 0.0 0.0 
0.0 0.0 0.0 
0.0 0.0 0.0 
0.0 0.0 0.0 
0.0 0.0 0.0 
0.0 0.0 0.0 
0.0 0.0 0.0 
0.0 0.0 0.0 
0.0 0.0 0.0 
0.0 0.0 0.0 
0.0 0.0 0.0 
0.0 0.0 0.0 
0.0 0.0 0.0 
0.0 0.0 0.0 
0.0 0.0 0.0 
0.0 0.0 0.0 
0.0 0.0 0.0 
0.0 0.0 0.0 
0.0 0.0 0.0 
0.0 0.0 0.0 
0.0 0.0 0.0 
0.0 0.0 0.0 
0.0 0.0 0.0 
0.0 0.0 0.0 
0.0 0.0 0.0 
0.0 0.0 0.0 
0.0 0.0 0.0 
0.0 0.0 0.0 
0.0 0.0 0.0 
0.0 0.0 0.0 
0.0 0.0 0.0 
0.0 0.0 0.0 
0.0 0.0 0.0 
0.0 0.0 0.0 
0.0 0.0 0.0 

VECTORS node_bounda_dof_materi_velocity_y float
0.0 0.0 0.0 
0.0 0.0 0.0 
0.0 1.000000000000e+00 0.0 
0.0 1.000000000000e+00 0.0 
0.0 0.0 0.0 
0.0 0.0 0.0 
0.0 0.0 0.0 
0.0 0.0 0.0 
0.0 0.0 0.0 
0.0 0.0 0.0 
0.0 0.0 0.0 
0.0 0.0 0.0 
0.0 0.0 0.0 
0.0 0.0 0.0 
0.0 0.0 0.0 
0.0 0.0 0.0 
0.0 0.0 0.0 
0.0 0.0 0.0 
0.0 0.0 0.0 
0.0 0.0 0.0 
0.0 0.0 0.0 
0.0 0.0 0.0 
0.0 0.0 0.0 
0.0 1.000000000000e+00 0.0 
0.0 1.000000000000e+00 0.0 
0.0 1.000000000000e+00 0.0 
0.0 1.000000000000e+00 0.0 
0.0 1.000000000000e+00 0.0 
0.0 1.000000000000e+00 0.0 
0.0 1.000000000000e+00 0.0 
0.0 1.000000000000e+00 0.0 
0.0 1.000000000000e+00 0.0 
0.0 1.000000000000e+00 0.0 
0.0 1.000000000000e+00 0.0 
0.0 1.000000000000e+00 0.0 
0.0 1.000000000000e+00 0.0 
0.0 1.000000000000e+00 0.0 
0.0 1.000000000000e+00 0.0 
0.0 1.000000000000e+00 0.0 
0.0 1.000000000000e+00 0.0 
0.0 1.000000000000e+00 0.0 
0.0 1.000000000000e+00 0.0 
0.0 1.000000000000e+00 0.0 
0.0 1.000000000000e+00 0.0 
0.0 1.000000000000e+00 0.0 
0.0 1.000000000000e+00 0.0 
0.0 1.000000000000e+00 0.0 
0.0 1.000000000000e+00 0.0 
0.0 1.000000000000e+00 0.0 
0.0 1.000000000000e+00 0.0 
0.0 1.000000000000e+00 0.0 
0.0 1.000000000000e+00 0.0 
0.0 1.000000000000e+00 0.0 
0.0 1.000000000000e+00 0.0 
0.0 1.000000000000e+00 0.0 
0.0 1.000000000000e+00 0.0 
0.0 1.000000000000e+00 0.0 
0.0 1.000000000000e+00 0.0 
0.0 1.000000000000e+00 0.0 
0.0 1.000000000000e+00 0.0 
0.0 1.000000000000e+00 0.0 
0.0 1.000000000000e+00 0.0 
0.0 1.000000000000e+00 0.0 
0.0 1.000000000000e+00 0.0 
0.0 1.000000000000e+00 0.0 
0.0 1.000000000000e+00 0.0 
0.0 1.000000000000e+00 0.0 
0.0 1.000000000000e+00 0.0 
0.0 1.000000000000e+00 0.0 
0.0 1.000000000000e+00 0.0 
0.0 1.000000000000e+00 0.0 
0.0 1.000000000000e+00 0.0 
0.0 0.0 0.0 
0.0 0.0 0.0 
0.0 0.0 0.0 
0.0 0.0 0.0 
0.0 0.0 0.0 
0.0 0.0 0.0 
0.0 0.0 0.0 
0.0 0.0 0.0 
0.0 0.0 0.0 
0.0 0.0 0.0 
0.0 0.0 0.0 
0.0 0.0 0.0 
0.0 0.0 0.0 
0.0 0.0 0.0 
0.0 0.0 0.0 
0.0 0.0 0.0 
0.0 0.0 0.0 
0.0 0.0 0.0 
0.0 0.0 0.0 
0.0 0.0 0.0 
0.0 0.0 0.0 
0.0 0.0 0.0 
0.0 0.0 0.0 
0.0 0.0 0.0 
0.0 0.0 0.0 
0.0 0.0 0.0 
0.0 0.0 0.0 
0.0 0.0 0.0 
0.0 0.0 0.0 
0.0 0.0 0.0 
0.0 0.0 0.0 
0.0 0.0 0.0 
0.0 0.0 0.0 
0.0 0.0 0.0 
0.0 0.0 0.0 
0.0 0.0 0.0 
0.0 0.0 0.0 
0.0 0.0 0.0 
0.0 0.0 0.0 
0.0 0.0 0.0 
0.0 0.0 0.0 
0.0 0.0 0.0 
0.0 0.0 0.0 
0.0 0.0 0.0 
0.0 0.0 0.0 
0.0 0.0 0.0 
0.0 0.0 0.0 
0.0 0.0 0.0 
0.0 0.0 0.0 
0.0 0.0 0.0 
0.0 0.0 0.0 
0.0 0.0 0.0 
0.0 0.0 0.0 
0.0 0.0 0.0 
0.0 0.0 0.0 
0.0 0.0 0.0 
0.0 0.0 0.0 
0.0 0.0 0.0 
0.0 0.0 0.0 
0.0 0.0 0.0 
0.0 0.0 0.0 
0.0 0.0 0.0 
0.0 0.0 0.0 
0.0 0.0 0.0 
0.0 0.0 0.0 
0.0 0.0 0.0 
0.0 0.0 0.0 
0.0 0.0 0.0 
0.0 0.0 0.0 
0.0 0.0 0.0 
0.0 0.0 0.0 
0.0 0.0 0.0 
0.0 0.0 0.0 
0.0 0.0 0.0 
0.0 0.0 0.0 
0.0 0.0 0.0 
0.0 0.0 0.0 
0.0 0.0 0.0 
0.0 0.0 0.0 
0.0 0.0 0.0 
0.0 0.0 0.0 
0.0 0.0 0.0 
0.0 0.0 0.0 
0.0 0.0 0.0 
0.0 0.0 0.0 
0.0 0.0 0.0 
0.0 0.0 0.0 
0.0 0.0 0.0 
0.0 0.0 0.0 
0.0 0.0 0.0 
0.0 0.0 0.0 
0.0 0.0 0.0 
0.0 0.0 0.0 
0.0 0.0 0.0 
0.0 0.0 0.0 
0.0 0.0 0.0 
0.0 0.0 0.0 
0.0 0.0 0.0 
0.0 0.0 0.0 
0.0 0.0 0.0 
0.0 0.0 0.0 
0.0 0.0 0.0 
0.0 0.0 0.0 
0.0 0.0 0.0 
0.0 0.0 0.0 
0.0 0.0 0.0 
0.0 0.0 0.0 
0.0 0.0 0.0 
0.0 0.0 0.0 
0.0 0.0 0.0 
0.0 0.0 0.0 
0.0 0.0 0.0 
0.0 0.0 0.0 
0.0 0.0 0.0 
0.0 0.0 0.0 
0.0 0.0 0.0 
0.0 0.0 0.0 
0.0 0.0 0.0 
0.0 0.0 0.0 
0.0 0.0 0.0 
0.0 0.0 0.0 
0.0 0.0 0.0 
0.0 0.0 0.0 
0.0 0.0 0.0 
0.0 0.0 0.0 
0.0 0.0 0.0 
0.0 0.0 0.0 
0.0 0.0 0.0 
0.0 0.0 0.0 
0.0 0.0 0.0 
0.0 0.0 0.0 
0.0 0.0 0.0 
0.0 0.0 0.0 
0.0 0.0 0.0 
0.0 0.0 0.0 
0.0 0.0 0.0 
0.0 0.0 0.0 
0.0 0.0 0.0 
0.0 0.0 0.0 
0.0 0.0 0.0 
0.0 0.0 0.0 
0.0 0.0 0.0 
0.0 0.0 0.0 
0.0 0.0 0.0 
0.0 0.0 0.0 
0.0 0.0 0.0 
0.0 0.0 0.0 
0.0 0.0 0.0 
0.0 0.0 0.0 
0.0 0.0 0.0 
0.0 0.0 0.0 
0.0 0.0 0.0 
0.0 0.0 0.0 
0.0 0.0 0.0 
0.0 0.0 0.0 
0.0 0.0 0.0 
0.0 0.0 0.0 
0.0 0.0 0.0 
0.0 0.0 0.0 
0.0 0.0 0.0 
0.0 0.0 0.0 
0.0 0.0 0.0 
0.0 0.0 0.0 
0.0 0.0 0.0 
0.0 0.0 0.0 
0.0 0.0 0.0 
0.0 0.0 0.0 
0.0 0.0 0.0 
0.0 0.0 0.0 
0.0 0.0 0.0 
0.0 0.0 0.0 
0.0 0.0 0.0 
0.0 0.0 0.0 
0.0 0.0 0.0 
0.0 0.0 0.0 
0.0 0.0 0.0 
0.0 0.0 0.0 
0.0 0.0 0.0 
0.0 0.0 0.0 
0.0 0.0 0.0 
0.0 0.0 0.0 
0.0 0.0 0.0 
0.0 0.0 0.0 
0.0 0.0 0.0 
0.0 0.0 0.0 
0.0 0.0 0.0 
0.0 0.0 0.0 
0.0 0.0 0.0 
0.0 0.0 0.0 
0.0 0.0 0.0 
0.0 0.0 0.0 
0.0 0.0 0.0 
0.0 0.0 0.0 
0.0 0.0 0.0 
0.0 0.0 0.0 
0.0 0.0 0.0 
0.0 0.0 0.0 
0.0 0.0 0.0 
0.0 0.0 0.0 
0.0 0.0 0.0 
0.0 0.0 0.0 
0.0 0.0 0.0 
0.0 0.0 0.0 
0.0 0.0 0.0 
0.0 0.0 0.0 
0.0 0.0 0.0 
0.0 0.0 0.0 
0.0 0.0 0.0 
0.0 0.0 0.0 
0.0 0.0 0.0 
0.0 0.0 0.0 
0.0 0.0 0.0 
0.0 0.0 0.0 
0.0 0.0 0.0 
0.0 0.0 0.0 
0.0 0.0 0.0 
0.0 0.0 0.0 
0.0 0.0 0.0 
0.0 0.0 0.0 
0.0 0.0 0.0 
0.0 0.0 0.0 
0.0 0.0 0.0 
0.0 0.0 0.0 
0.0 0.0 0.0 
0.0 0.0 0.0 
0.0 0.0 0.0 
0.0 0.0 0.0 
0.0 0.0 0.0 
0.0 0.0 0.0 
0.0 0.0 0.0 
0.0 0.0 0.0 
0.0 0.0 0.0 
0.0 0.0 0.0 
0.0 0.0 0.0 
0.0 0.0 0.0 
0.0 0.0 0.0 
0.0 0.0 0.0 
0.0 0.0 0.0 
0.0 0.0 0.0 
0.0 0.0 0.0 
0.0 0.0 0.0 
0.0 0.0 0.0 
0.0 0.0 0.0 
0.0 0.0 0.0 
0.0 0.0 0.0 
0.0 0.0 0.0 
0.0 0.0 0.0 
0.0 0.0 0.0 
0.0 0.0 0.0 
0.0 0.0 0.0 
0.0 0.0 0.0 
0.0 0.0 0.0 
0.0 0.0 0.0 
0.0 0.0 0.0 
0.0 0.0 0.0 
0.0 0.0 0.0 
0.0 0.0 0.0 
0.0 0.0 0.0 
0.0 0.0 0.0 
0.0 0.0 0.0 
0.0 0.0 0.0 
0.0 0.0 0.0 
0.0 0.0 0.0 
0.0 0.0 0.0 
0.0 0.0 0.0 
0.0 0.0 0.0 
0.0 0.0 0.0 
0.0 0.0 0.0 
0.0 0.0 0.0 
0.0 0.0 0.0 
0.0 0.0 0.0 
0.0 0.0 0.0 
0.0 0.0 0.0 
0.0 0.0 0.0 
0.0 0.0 0.0 
0.0 0.0 0.0 
0.0 0.0 0.0 
0.0 0.0 0.0 
0.0 0.0 0.0 
0.0 0.0 0.0 
0.0 0.0 0.0 
0.0 0.0 0.0 
0.0 0.0 0.0 
0.0 0.0 0.0 
0.0 0.0 0.0 
0.0 0.0 0.0 
0.0 0.0 0.0 
0.0 0.0 0.0 
0.0 0.0 0.0 
0.0 0.0 0.0 
0.0 0.0 0.0 
0.0 0.0 0.0 
0.0 0.0 0.0 
0.0 0.0 0.0 
0.0 0.0 0.0 
0.0 0.0 0.0 
0.0 0.0 0.0 
0.0 0.0 0.0 
0.0 0.0 0.0 
0.0 0.0 0.0 
0.0 0.0 0.0 
0.0 0.0 0.0 
0.0 0.0 0.0 
0.0 0.0 0.0 
0.0 0.0 0.0 
0.0 0.0 0.0 
0.0 0.0 0.0 
0.0 0.0 0.0 
0.0 0.0 0.0 
0.0 0.0 0.0 
0.0 0.0 0.0 
0.0 0.0 0.0 
0.0 0.0 0.0 
0.0 0.0 0.0 
0.0 0.0 0.0 
0.0 0.0 0.0 
0.0 0.0 0.0 
0.0 0.0 0.0 
0.0 0.0 0.0 
0.0 0.0 0.0 
0.0 0.0 0.0 
0.0 0.0 0.0 
0.0 0.0 0.0 
0.0 0.0 0.0 
0.0 0.0 0.0 
0.0 0.0 0.0 
0.0 0.0 0.0 
0.0 0.0 0.0 
0.0 0.0 0.0 
0.0 0.0 0.0 
0.0 0.0 0.0 
0.0 0.0 0.0 
0.0 0.0 0.0 
0.0 0.0 0.0 
0.0 0.0 0.0 
0.0 0.0 0.0 
0.0 0.0 0.0 
0.0 0.0 0.0 
0.0 0.0 0.0 
0.0 0.0 0.0 
0.0 0.0 0.0 
0.0 0.0 0.0 
0.0 0.0 0.0 
0.0 0.0 0.0 
0.0 0.0 0.0 
0.0 0.0 0.0 
0.0 0.0 0.0 
0.0 0.0 0.0 
0.0 0.0 0.0 
0.0 0.0 0.0 
0.0 0.0 0.0 
0.0 0.0 0.0 
0.0 0.0 0.0 
0.0 0.0 0.0 
0.0 0.0 0.0 
0.0 0.0 0.0 
0.0 0.0 0.0 
0.0 0.0 0.0 
0.0 0.0 0.0 
0.0 0.0 0.0 
0.0 0.0 0.0 
0.0 0.0 0.0 
0.0 0.0 0.0 
0.0 0.0 0.0 
0.0 0.0 0.0 
0.0 0.0 0.0 
0.0 0.0 0.0 
0.0 0.0 0.0 
0.0 0.0 0.0 
0.0 0.0 0.0 
0.0 0.0 0.0 
0.0 0.0 0.0 
0.0 0.0 0.0 
0.0 0.0 0.0 
0.0 0.0 0.0 
0.0 0.0 0.0 
0.0 0.0 0.0 
0.0 0.0 0.0 
0.0 0.0 0.0 
0.0 0.0 0.0 
0.0 0.0 0.0 
0.0 0.0 0.0 
0.0 0.0 0.0 
0.0 0.0 0.0 
0.0 0.0 0.0 
0.0 0.0 0.0 
0.0 0.0 0.0 
0.0 0.0 0.0 
0.0 0.0 0.0 
0.0 0.0 0.0 
0.0 0.0 0.0 
0.0 0.0 0.0 
0.0 0.0 0.0 
0.0 0.0 0.0 
0.0 0.0 0.0 
0.0 0.0 0.0 
0.0 0.0 0.0 
0.0 0.0 0.0 
0.0 0.0 0.0 
0.0 0.0 0.0 
0.0 0.0 0.0 
0.0 0.0 0.0 
0.0 0.0 0.0 
0.0 0.0 0.0 
0.0 0.0 0.0 
0.0 0.0 0.0 
0.0 0.0 0.0 
0.0 0.0 0.0 
0.0 0.0 0.0 
0.0 0.0 0.0 
0.0 0.0 0.0 
0.0 0.0 0.0 
0.0 0.0 0.0 
0.0 0.0 0.0 
0.0 0.0 0.0 
0.0 0.0 0.0 
0.0 0.0 0.0 
0.0 0.0 0.0 
0.0 0.0 0.0 
0.0 0.0 0.0 
0.0 0.0 0.0 
0.0 0.0 0.0 
0.0 0.0 0.0 
0.0 0.0 0.0 
0.0 0.0 0.0 
0.0 0.0 0.0 
0.0 0.0 0.0 
0.0 0.0 0.0 
0.0 0.0 0.0 
0.0 0.0 0.0 
0.0 0.0 0.0 
0.0 0.0 0.0 
0.0 0.0 0.0 
0.0 0.0 0.0 
0.0 0.0 0.0 
0.0 0.0 0.0 
0.0 0.0 0.0 
0.0 0.0 0.0 
0.0 0.0 0.0 
0.0 0.0 0.0 
0.0 0.0 0.0 
0.0 0.0 0.0 
0.0 0.0 0.0 
0.0 0.0 0.0 
0.0 0.0 0.0 
0.0 0.0 0.0 
0.0 0.0 0.0 
0.0 0.0 0.0 
0.0 0.0 0.0 
0.0 0.0 0.0 
0.0 0.0 0.0 
0.0 0.0 0.0 
0.0 0.0 0.0 
0.0 0.0 0.0 
0.0 0.0 0.0 
0.0 0.0 0.0 
0.0 0.0 0.0 
0.0 0.0 0.0 
0.0 0.0 0.0 
0.0 0.0 0.0 
0.0 0.0 0.0 
0.0 0.0 0.0 
0.0 0.0 0.0 
0.0 0.0 0.0 
0.0 0.0 0.0 
0.0 0.0 0.0 
0.0 0.0 0.0 
0.0 0.0 0.0 
0.0 0.0 0.0 
0.0 0.0 0.0 
0.0 0.0 0.0 
0.0 0.0 0.0 
0.0 0.0 0.0 
0.0 0.0 0.0 
0.0 0.0 0.0 
0.0 0.0 0.0 
0.0 0.0 0.0 
0.0 0.0 0.0 
0.0 0.0 0.0 
0.0 0.0 0.0 
0.0 0.0 0.0 
0.0 0.0 0.0 
0.0 0.0 0.0 
0.0 0.0 0.0 
0.0 0.0 0.0 
0.0 0.0 0.0 
0.0 0.0 0.0 
0.0 0.0 0.0 
0.0 0.0 0.0 
0.0 0.0 0.0 
0.0 0.0 0.0 
0.0 0.0 0.0 
0.0 0.0 0.0 
0.0 0.0 0.0 
0.0 0.0 0.0 
0.0 0.0 0.0 
0.0 0.0 0.0 
0.0 0.0 0.0 
0.0 0.0 0.0 
0.0 0.0 0.0 
0.0 0.0 0.0 
0.0 0.0 0.0 
0.0 0.0 0.0 
0.0 0.0 0.0 
0.0 0.0 0.0 
0.0 0.0 0.0 
0.0 0.0 0.0 
0.0 0.0 0.0 
0.0 0.0 0.0 
0.0 0.0 0.0 
0.0 0.0 0.0 
0.0 0.0 0.0 
0.0 0.0 0.0 
0.0 0.0 0.0 
0.0 0.0 0.0 
0.0 0.0 0.0 
0.0 0.0 0.0 
0.0 0.0 0.0 
0.0 0.0 0.0 
0.0 0.0 0.0 
0.0 0.0 0.0 
0.0 0.0 0.0 
0.0 0.0 0.0 
0.0 0.0 0.0 
0.0 0.0 0.0 
0.0 0.0 0.0 
0.0 0.0 0.0 
0.0 0.0 0.0 
0.0 0.0 0.0 
0.0 0.0 0.0 
0.0 0.0 0.0 
0.0 0.0 0.0 
0.0 0.0 0.0 
0.0 0.0 0.0 
0.0 0.0 0.0 
0.0 0.0 0.0 
0.0 0.0 0.0 
0.0 0.0 0.0 
0.0 0.0 0.0 
0.0 0.0 0.0 
0.0 0.0 0.0 
0.0 0.0 0.0 
0.0 0.0 0.0 
0.0 0.0 0.0 
0.0 0.0 0.0 
0.0 0.0 0.0 
0.0 0.0 0.0 
0.0 0.0 0.0 
0.0 0.0 0.0 
0.0 0.0 0.0 
0.0 0.0 0.0 
0.0 0.0 0.0 
0.0 0.0 0.0 
0.0 0.0 0.0 
0.0 0.0 0.0 
0.0 0.0 0.0 
0.0 0.0 0.0 
0.0 0.0 0.0 
0.0 0.0 0.0 
0.0 0.0 0.0 
0.0 0.0 0.0 
0.0 0.0 0.0 
0.0 0.0 0.0 
0.0 0.0 0.0 
0.0 0.0 0.0 
0.0 0.0 0.0 
0.0 0.0 0.0 
0.0 0.0 0.0 
0.0 0.0 0.0 
0.0 0.0 0.0 
0.0 0.0 0.0 
0.0 0.0 0.0 
0.0 0.0 0.0 
0.0 0.0 0.0 
0.0 0.0 0.0 
0.0 0.0 0.0 
0.0 0.0 0.0 
0.0 0.0 0.0 
0.0 0.0 0.0 
0.0 0.0 0.0 
0.0 0.0 0.0 
0.0 0.0 0.0 
0.0 0.0 0.0 
0.0 0.0 0.0 
0.0 0.0 0.0 
0.0 0.0 0.0 
0.0 0.0 0.0 
0.0 0.0 0.0 
0.0 0.0 0.0 
0.0 0.0 0.0 
0.0 0.0 0.0 
0.0 0.0 0.0 
0.0 0.0 0.0 
0.0 0.0 0.0 
0.0 0.0 0.0 
0.0 0.0 0.0 
0.0 0.0 0.0 
0.0 0.0 0.0 
0.0 0.0 0.0 
0.0 0.0 0.0 
0.0 0.0 0.0 
0.0 0.0 0.0 
0.0 0.0 0.0 
0.0 0.0 0.0 
0.0 0.0 0.0 
0.0 0.0 0.0 
0.0 0.0 0.0 
0.0 0.0 0.0 
0.0 0.0 0.0 
0.0 0.0 0.0 
0.0 0.0 0.0 
0.0 0.0 0.0 
0.0 0.0 0.0 
0.0 0.0 0.0 
0.0 0.0 0.0 
0.0 0.0 0.0 
0.0 0.0 0.0 
0.0 0.0 0.0 
0.0 0.0 0.0 
0.0 0.0 0.0 
0.0 0.0 0.0 
0.0 0.0 0.0 
0.0 0.0 0.0 
0.0 0.0 0.0 
0.0 0.0 0.0 
0.0 0.0 0.0 
0.0 0.0 0.0 
0.0 0.0 0.0 
0.0 0.0 0.0 
0.0 0.0 0.0 
0.0 0.0 0.0 
0.0 0.0 0.0 
0.0 0.0 0.0 
0.0 0.0 0.0 
0.0 0.0 0.0 
0.0 0.0 0.0 
0.0 0.0 0.0 
0.0 0.0 0.0 
0.0 0.0 0.0 
0.0 0.0 0.0 
0.0 0.0 0.0 
0.0 0.0 0.0 
0.0 0.0 0.0 
0.0 0.0 0.0 
0.0 0.0 0.0 
0.0 0.0 0.0 
0.0 0.0 0.0 
0.0 0.0 0.0 
0.0 0.0 0.0 
0.0 0.0 0.0 
0.0 0.0 0.0 
0.0 0.0 0.0 
0.0 0.0 0.0 
0.0 0.0 0.0 
0.0 0.0 0.0 
0.0 0.0 0.0 
0.0 0.0 0.0 
0.0 0.0 0.0 
0.0 0.0 0.0 
0.0 0.0 0.0 
0.0 0.0 0.0 
0.0 0.0 0.0 
0.0 0.0 0.0 
0.0 0.0 0.0 
0.0 0.0 0.0 
0.0 0.0 0.0 
0.0 0.0 0.0 
0.0 0.0 0.0 
0.0 0.0 0.0 
0.0 0.0 0.0 
0.0 0.0 0.0 
0.0 0.0 0.0 
0.0 0.0 0.0 
0.0 0.0 0.0 
0.0 0.0 0.0 
0.0 0.0 0.0 
0.0 0.0 0.0 
0.0 0.0 0.0 
0.0 0.0 0.0 
0.0 0.0 0.0 
0.0 0.0 0.0 
0.0 0.0 0.0 
0.0 0.0 0.0 
0.0 0.0 0.0 
0.0 0.0 0.0 
0.0 0.0 0.0 
0.0 0.0 0.0 
0.0 0.0 0.0 
0.0 0.0 0.0 
0.0 0.0 0.0 
0.0 0.0 0.0 
0.0 0.0 0.0 
0.0 0.0 0.0 
0.0 0.0 0.0 
0.0 0.0 0.0 
0.0 0.0 0.0 
0.0 0.0 0.0 
0.0 0.0 0.0 
0.0 0.0 0.0 
0.0 0.0 0.0 
0.0 0.0 0.0 
0.0 0.0 0.0 
0.0 0.0 0.0 
0.0 0.0 0.0 
0.0 0.0 0.0 
0.0 0.0 0.0 
0.0 0.0 0.0 
0.0 0.0 0.0 
0.0 0.0 0.0 
0.0 0.0 0.0 
0.0 0.0 0.0 
0.0 0.0 0.0 
0.0 0.0 0.0 
0.0 0.0 0.0 
0.0 0.0 0.0 
0.0 0.0 0.0 
0.0 0.0 0.0 
0.0 0.0 0.0 
0.0 0.0 0.0 
0.0 0.0 0.0 
0.0 0.0 0.0 
0.0 0.0 0.0 
0.0 0.0 0.0 
0.0 0.0 0.0 
0.0 0.0 0.0 
0.0 0.0 0.0 
0.0 0.0 0.0 
0.0 0.0 0.0 
0.0 0.0 0.0 
0.0 0.0 0.0 
0.0 0.0 0.0 
0.0 0.0 0.0 
0.0 0.0 0.0 
0.0 0.0 0.0 
0.0 0.0 0.0 
0.0 0.0 0.0 
0.0 0.0 0.0 
0.0 0.0 0.0 
0.0 0.0 0.0 
0.0 0.0 0.0 
0.0 0.0 0.0 
0.0 0.0 0.0 
0.0 0.0 0.0 
0.0 0.0 0.0 
0.0 0.0 0.0 
0.0 0.0 0.0 
0.0 0.0 0.0 
0.0 0.0 0.0 
0.0 0.0 0.0 
0.0 0.0 0.0 
0.0 0.0 0.0 
0.0 0.0 0.0 
0.0 0.0 0.0 
0.0 0.0 0.0 
0.0 0.0 0.0 
0.0 0.0 0.0 
0.0 0.0 0.0 
0.0 0.0 0.0 
0.0 0.0 0.0 
0.0 0.0 0.0 
0.0 0.0 0.0 
0.0 0.0 0.0 
0.0 0.0 0.0 
0.0 0.0 0.0 
0.0 0.0 0.0 
0.0 0.0 0.0 
0.0 0.0 0.0 
0.0 0.0 0.0 
0.0 0.0 0.0 
0.0 0.0 0.0 
0.0 0.0 0.0 
0.0 0.0 0.0 
0.0 0.0 0.0 
0.0 0.0 0.0 
0.0 0.0 0.0 
0.0 0.0 0.0 
0.0 0.0 0.0 
0.0 0.0 0.0 
0.0 0.0 0.0 
0.0 0.0 0.0 
0.0 0.0 0.0 
0.0 0.0 0.0 
0.0 0.0 0.0 
0.0 0.0 0.0 
0.0 0.0 0.0 
0.0 0.0 0.0 
0.0 0.0 0.0 
0.0 0.0 0.0 
0.0 0.0 0.0 
0.0 0.0 0.0 
0.0 0.0 0.0 
0.0 0.0 0.0 
0.0 0.0 0.0 
0.0 0.0 0.0 
0.0 0.0 0.0 
0.0 0.0 0.0 
0.0 0.0 0.0 
0.0 0.0 0.0 
0.0 0.0 0.0 
0.0 0.0 0.0 
0.0 0.0 0.0 
0.0 0.0 0.0 
0.0 0.0 0.0 
0.0 0.0 0.0 
0.0 0.0 0.0 
0.0 0.0 0.0 
0.0 0.0 0.0 
0.0 0.0 0.0 
0.0 0.0 0.0 
0.0 0.0 0.0 
0.0 0.0 0.0 
0.0 0.0 0.0 
0.0 0.0 0.0 
0.0 0.0 0.0 
0.0 0.0 0.0 
0.0 0.0 0.0 
0.0 0.0 0.0 
0.0 0.0 0.0 
0.0 0.0 0.0 
0.0 0.0 0.0 
0.0 0.0 0.0 
0.0 0.0 0.0 
0.0 0.0 0.0 
0.0 0.0 0.0 
0.0 0.0 0.0 
0.0 0.0 0.0 
0.0 0.0 0.0 
0.0 0.0 0.0 
0.0 0.0 0.0 
0.0 0.0 0.0 
0.0 0.0 0.0 
0.0 0.0 0.0 
0.0 0.0 0.0 
0.0 0.0 0.0 
0.0 0.0 0.0 
0.0 0.0 0.0 
0.0 0.0 0.0 
0.0 0.0 0.0 
0.0 0.0 0.0 
0.0 0.0 0.0 
0.0 0.0 0.0 
0.0 0.0 0.0 
0.0 0.0 0.0 
0.0 0.0 0.0 
0.0 0.0 0.0 
0.0 0.0 0.0 
0.0 0.0 0.0 
0.0 0.0 0.0 
0.0 0.0 0.0 
0.0 0.0 0.0 
0.0 0.0 0.0 
0.0 0.0 0.0 
0.0 0.0 0.0 
0.0 0.0 0.0 
0.0 0.0 0.0 
0.0 0.0 0.0 
0.0 0.0 0.0 
0.0 0.0 0.0 
0.0 0.0 0.0 
0.0 0.0 0.0 
0.0 0.0 0.0 
0.0 0.0 0.0 
0.0 0.0 0.0 
0.0 0.0 0.0 
0.0 0.0 0.0 
0.0 0.0 0.0 
0.0 0.0 0.0 
0.0 0.0 0.0 
0.0 0.0 0.0 
0.0 0.0 0.0 
0.0 0.0 0.0 
0.0 0.0 0.0 
0.0 0.0 0.0 
0.0 0.0 0.0 
0.0 0.0 0.0 
0.0 0.0 0.0 
0.0 0.0 0.0 
0.0 0.0 0.0 
0.0 0.0 0.0 
0.0 0.0 0.0 
0.0 0.0 0.0 
0.0 0.0 0.0 
0.0 0.0 0.0 
0.0 0.0 0.0 
0.0 0.0 0.0 
0.0 0.0 0.0 
0.0 0.0 0.0 
0.0 0.0 0.0 
0.0 0.0 0.0 
0.0 0.0 0.0 
0.0 0.0 0.0 
0.0 0.0 0.0 
0.0 0.0 0.0 
0.0 0.0 0.0 
0.0 0.0 0.0 
0.0 0.0 0.0 
0.0 0.0 0.0 
0.0 0.0 0.0 
0.0 0.0 0.0 
0.0 0.0 0.0 
0.0 0.0 0.0 
0.0 0.0 0.0 
0.0 0.0 0.0 
0.0 0.0 0.0 
0.0 0.0 0.0 
0.0 0.0 0.0 
0.0 0.0 0.0 
0.0 0.0 0.0 
0.0 0.0 0.0 
0.0 0.0 0.0 
0.0 0.0 0.0 
0.0 0.0 0.0 
0.0 0.0 0.0 
0.0 0.0 0.0 
0.0 0.0 0.0 
0.0 0.0 0.0 
0.0 0.0 0.0 
0.0 0.0 0.0 
0.0 0.0 0.0 
0.0 0.0 0.0 
0.0 0.0 0.0 
0.0 0.0 0.0 
0.0 0.0 0.0 
0.0 0.0 0.0 
0.0 0.0 0.0 
0.0 0.0 0.0 
0.0 0.0 0.0 
0.0 0.0 0.0 
0.0 0.0 0.0 
0.0 0.0 0.0 
0.0 0.0 0.0 
0.0 0.0 0.0 
0.0 0.0 0.0 
0.0 0.0 0.0 
0.0 0.0 0.0 
0.0 0.0 0.0 
0.0 0.0 0.0 
0.0 0.0 0.0 
0.0 0.0 0.0 
0.0 0.0 0.0 
0.0 0.0 0.0 
0.0 0.0 0.0 
0.0 0.0 0.0 
0.0 0.0 0.0 
0.0 0.0 0.0 
0.0 0.0 0.0 
0.0 0.0 0.0 
0.0 0.0 0.0 
0.0 0.0 0.0 
0.0 0.0 0.0 
0.0 0.0 0.0 
0.0 0.0 0.0 
0.0 0.0 0.0 
0.0 0.0 0.0 
0.0 0.0 0.0 
0.0 0.0 0.0 
0.0 0.0 0.0 
0.0 0.0 0.0 
0.0 0.0 0.0 
0.0 0.0 0.0 
0.0 0.0 0.0 
0.0 0.0 0.0 
0.0 0.0 0.0 
0.0 0.0 0.0 
0.0 0.0 0.0 
0.0 0.0 0.0 
0.0 0.0 0.0 
0.0 0.0 0.0 
0.0 0.0 0.0 
0.0 0.0 0.0 
0.0 0.0 0.0 
0.0 0.0 0.0 
0.0 0.0 0.0 
0.0 0.0 0.0 
0.0 0.0 0.0 
0.0 0.0 0.0 
0.0 0.0 0.0 
0.0 0.0 0.0 
0.0 0.0 0.0 
0.0 0.0 0.0 
0.0 0.0 0.0 
0.0 0.0 0.0 
0.0 0.0 0.0 
0.0 0.0 0.0 
0.0 0.0 0.0 
0.0 0.0 0.0 
0.0 0.0 0.0 
0.0 0.0 0.0 
0.0 0.0 0.0 
0.0 0.0 0.0 
0.0 0.0 0.0 
0.0 0.0 0.0 
0.0 0.0 0.0 
0.0 0.0 0.0 
0.0 0.0 0.0 
0.0 0.0 0.0 
0.0 0.0 0.0 
0.0 0.0 0.0 
0.0 0.0 0.0 
0.0 0.0 0.0 
0.0 0.0 0.0 
0.0 0.0 0.0 
0.0 0.0 0.0 
0.0 0.0 0.0 
0.0 0.0 0.0 
0.0 0.0 0.0 
0.0 0.0 0.0 
0.0 0.0 0.0 
0.0 0.0 0.0 
0.0 0.0 0.0 
0.0 0.0 0.0 
0.0 0.0 0.0 
0.0 0.0 0.0 
0.0 0.0 0.0 
0.0 0.0 0.0 
0.0 0.0 0.0 
0.0 0.0 0.0 
0.0 0.0 0.0 
0.0 0.0 0.0 
0.0 0.0 0.0 
0.0 0.0 0.0 
0.0 0.0 0.0 
0.0 0.0 0.0 
0.0 0.0 0.0 
0.0 0.0 0.0 
0.0 0.0 0.0 
0.0 0.0 0.0 
0.0 0.0 0.0 
0.0 0.0 0.0 
0.0 0.0 0.0 
0.0 0.0 0.0 
0.0 0.0 0.0 
0.0 0.0 0.0 
0.0 0.0 0.0 
0.0 0.0 0.0 
0.0 0.0 0.0 
0.0 0.0 0.0 
0.0 0.0 0.0 
0.0 0.0 0.0 
0.0 0.0 0.0 
0.0 0.0 0.0 
0.0 0.0 0.0 
0.0 0.0 0.0 
0.0 0.0 0.0 
0.0 0.0 0.0 
0.0 0.0 0.0 
0.0 0.0 0.0 
0.0 0.0 0.0 
0.0 0.0 0.0 
0.0 0.0 0.0 
0.0 0.0 0.0 
0.0 0.0 0.0 
0.0 0.0 0.0 
0.0 0.0 0.0 
0.0 0.0 0.0 
0.0 0.0 0.0 
0.0 0.0 0.0 
0.0 0.0 0.0 
0.0 0.0 0.0 
0.0 0.0 0.0 
0.0 0.0 0.0 
0.0 0.0 0.0 
0.0 0.0 0.0 
0.0 0.0 0.0 
0.0 0.0 0.0 
0.0 0.0 0.0 
0.0 0.0 0.0 
0.0 0.0 0.0 
0.0 0.0 0.0 
0.0 0.0 0.0 
0.0 0.0 0.0 
0.0 0.0 0.0 
0.0 0.0 0.0 
0.0 0.0 0.0 
0.0 0.0 0.0 
0.0 0.0 0.0 
0.0 0.0 0.0 
0.0 0.0 0.0 
0.0 0.0 0.0 
0.0 0.0 0.0 
0.0 0.0 0.0 
0.0 0.0 0.0 
0.0 0.0 0.0 
0.0 0.0 0.0 
0.0 0.0 0.0 
0.0 0.0 0.0 
0.0 0.0 0.0 
0.0 0.0 0.0 
0.0 0.0 0.0 
0.0 0.0 0.0 
0.0 0.0 0.0 
0.0 0.0 0.0 
0.0 0.0 0.0 
0.0 0.0 0.0 
0.0 0.0 0.0 
0.0 0.0 0.0 
0.0 0.0 0.0 
0.0 0.0 0.0 
0.0 0.0 0.0 
0.0 0.0 0.0 
0.0 0.0 0.0 
0.0 0.0 0.0 
0.0 0.0 0.0 
0.0 0.0 0.0 
0.0 0.0 0.0 
0.0 0.0 0.0 
0.0 0.0 0.0 
0.0 0.0 0.0 
0.0 0.0 0.0 
0.0 0.0 0.0 
0.0 0.0 0.0 
0.0 0.0 0.0 
0.0 0.0 0.0 
0.0 0.0 0.0 
0.0 0.0 0.0 
0.0 0.0 0.0 
0.0 0.0 0.0 
0.0 0.0 0.0 
0.0 0.0 0.0 

SCALARS node_boundary float
LOOKUP_TABLE default
1.000000000000e+00 
1.000000000000e+00 
1.000000000000e+00 
1.000000000000e+00 
1.000000000000e+00 
1.000000000000e+00 
1.000000000000e+00 
1.000000000000e+00 
1.000000000000e+00 
1.000000000000e+00 
1.000000000000e+00 
1.000000000000e+00 
1.000000000000e+00 
1.000000000000e+00 
1.000000000000e+00 
1.000000000000e+00 
1.000000000000e+00 
1.000000000000e+00 
1.000000000000e+00 
1.000000000000e+00 
1.000000000000e+00 
1.000000000000e+00 
1.000000000000e+00 
1.000000000000e+00 
1.000000000000e+00 
1.000000000000e+00 
1.000000000000e+00 
1.000000000000e+00 
1.000000000000e+00 
1.000000000000e+00 
1.000000000000e+00 
1.000000000000e+00 
1.000000000000e+00 
1.000000000000e+00 
1.000000000000e+00 
1.000000000000e+00 
1.000000000000e+00 
1.000000000000e+00 
1.000000000000e+00 
1.000000000000e+00 
1.000000000000e+00 
1.000000000000e+00 
1.000000000000e+00 
1.000000000000e+00 
1.000000000000e+00 
1.000000000000e+00 
1.000000000000e+00 
1.000000000000e+00 
1.000000000000e+00 
1.000000000000e+00 
1.000000000000e+00 
1.000000000000e+00 
1.000000000000e+00 
1.000000000000e+00 
1.000000000000e+00 
1.000000000000e+00 
1.000000000000e+00 
1.000000000000e+00 
1.000000000000e+00 
1.000000000000e+00 
1.000000000000e+00 
1.000000000000e+00 
1.000000000000e+00 
1.000000000000e+00 
1.000000000000e+00 
1.000000000000e+00 
1.000000000000e+00 
1.000000000000e+00 
1.000000000000e+00 
1.000000000000e+00 
1.000000000000e+00 
1.000000000000e+00 
1.000000000000e+00 
1.000000000000e+00 
1.000000000000e+00 
1.000000000000e+00 
1.000000000000e+00 
1.000000000000e+00 
1.000000000000e+00 
1.000000000000e+00 
1.000000000000e+00 
1.000000000000e+00 
0.0
1.000000000000e+00 
1.000000000000e+00 
1.000000000000e+00 
0.0
0.0
0.0
0.0
0.0
0.0
1.000000000000e+00 
1.000000000000e+00 
1.000000000000e+00 
1.000000000000e+00 
1.000000000000e+00 
1.000000000000e+00 
1.000000000000e+00 
0.0
0.0
0.0
0.0
0.0
0.0
0.0
0.0
0.0
0.0
0.0
0.0
0.0
0.0
1.000000000000e+00 
1.000000000000e+00 
1.000000000000e+00 
1.000000000000e+00 
1.000000000000e+00 
1.000000000000e+00 
1.000000000000e+00 
1.000000000000e+00 
1.000000000000e+00 
1.000000000000e+00 
1.000000000000e+00 
1.000000000000e+00 
1.000000000000e+00 
1.000000000000e+00 
1.000000000000e+00 
1.000000000000e+00 
1.000000000000e+00 
1.000000000000e+00 
1.000000000000e+00 
1.000000000000e+00 
1.000000000000e+00 
1.000000000000e+00 
1.000000000000e+00 
1.000000000000e+00 
1.000000000000e+00 
1.000000000000e+00 
1.000000000000e+00 
1.000000000000e+00 
1.000000000000e+00 
1.000000000000e+00 
1.000000000000e+00 
1.000000000000e+00 
1.000000000000e+00 
1.000000000000e+00 
1.000000000000e+00 
1.000000000000e+00 
1.000000000000e+00 
1.000000000000e+00 
1.000000000000e+00 
1.000000000000e+00 
1.000000000000e+00 
1.000000000000e+00 
1.000000000000e+00 
1.000000000000e+00 
0.0
0.0
0.0
0.0
0.0
0.0
0.0
0.0
0.0
0.0
0.0
0.0
0.0
0.0
0.0
0.0
0.0
0.0
0.0
0.0
0.0
0.0
0.0
0.0
0.0
0.0
0.0
0.0
0.0
0.0
0.0
0.0
0.0
0.0
0.0
0.0
0.0
0.0
0.0
0.0
0.0
0.0
0.0
0.0
0.0
0.0
0.0
0.0
0.0
0.0
0.0
0.0
0.0
0.0
0.0
0.0
0.0
0.0
0.0
0.0
0.0
0.0
0.0
0.0
0.0
0.0
0.0
0.0
0.0
0.0
0.0
0.0
0.0
0.0
0.0
0.0
0.0
0.0
0.0
0.0
0.0
0.0
0.0
0.0
0.0
0.0
0.0
0.0
0.0
0.0
0.0
0.0
0.0
0.0
0.0
0.0
0.0
0.0
0.0
0.0
0.0
0.0
0.0
0.0
0.0
0.0
0.0
0.0
0.0
0.0
0.0
0.0
0.0
0.0
0.0
0.0
0.0
1.000000000000e+00 
1.000000000000e+00 
1.000000000000e+00 
0.0
0.0
0.0
0.0
0.0
0.0
0.0
0.0
0.0
0.0
0.0
0.0
0.0
0.0
0.0
0.0
0.0
0.0
0.0
0.0
0.0
0.0
0.0
0.0
0.0
0.0
0.0
0.0
0.0
0.0
0.0
0.0
0.0
0.0
0.0
0.0
0.0
0.0
0.0
0.0
0.0
0.0
0.0
0.0
0.0
0.0
0.0
0.0
0.0
0.0
0.0
0.0
0.0
0.0
0.0
0.0
0.0
0.0
0.0
0.0
0.0
0.0
0.0
0.0
0.0
0.0
0.0
0.0
0.0
0.0
0.0
0.0
0.0
0.0
0.0
0.0
0.0
0.0
0.0
0.0
0.0
0.0
0.0
0.0
0.0
0.0
0.0
0.0
0.0
0.0
0.0
0.0
0.0
0.0
0.0
0.0
0.0
0.0
0.0
0.0
0.0
0.0
0.0
0.0
0.0
0.0
0.0
0.0
0.0
0.0
0.0
0.0
0.0
0.0
0.0
0.0
0.0
0.0
0.0
0.0
0.0
0.0
0.0
0.0
0.0
0.0
0.0
0.0
0.0
0.0
0.0
0.0
0.0
0.0
0.0
0.0
0.0
0.0
0.0
0.0
0.0
0.0
0.0
0.0
0.0
0.0
0.0
0.0
0.0
0.0
0.0
0.0
0.0
0.0
0.0
0.0
0.0
0.0
0.0
0.0
0.0
0.0
0.0
0.0
0.0
0.0
0.0
0.0
0.0
0.0
0.0
0.0
0.0
0.0
0.0
0.0
0.0
0.0
0.0
0.0
0.0
0.0
0.0
0.0
0.0
0.0
0.0
0.0
0.0
0.0
0.0
0.0
0.0
0.0
0.0
0.0
0.0
0.0
0.0
0.0
0.0
0.0
0.0
0.0
0.0
0.0
0.0
0.0
0.0
0.0
0.0
0.0
0.0
0.0
0.0
0.0
0.0
0.0
0.0
0.0
0.0
0.0
0.0
0.0
0.0
0.0
0.0
0.0
0.0
0.0
0.0
0.0
0.0
0.0
0.0
0.0
0.0
0.0
0.0
0.0
0.0
0.0
0.0
0.0
0.0
0.0
0.0
0.0
0.0
0.0
0.0
0.0
0.0
0.0
0.0
0.0
0.0
0.0
0.0
0.0
0.0
0.0
0.0
0.0
0.0
0.0
0.0
0.0
0.0
0.0
0.0
0.0
0.0
0.0
0.0
0.0
0.0
0.0
0.0
0.0
0.0
0.0
0.0
0.0
0.0
0.0
0.0
0.0
0.0
0.0
0.0
0.0
0.0
0.0
0.0
0.0
0.0
0.0
0.0
0.0
0.0
0.0
0.0
0.0
0.0
0.0
0.0
0.0
0.0
0.0
0.0
0.0
0.0
0.0
0.0
0.0
0.0
0.0
0.0
0.0
0.0
0.0
0.0
0.0
0.0
0.0
0.0
0.0
0.0
0.0
0.0
0.0
0.0
0.0
0.0
0.0
0.0
0.0
0.0
0.0
0.0
0.0
0.0
0.0
0.0
0.0
0.0
0.0
0.0
0.0
0.0
0.0
0.0
0.0
0.0
0.0
0.0
0.0
0.0
0.0
0.0
0.0
0.0
0.0
0.0
0.0
0.0
0.0
0.0
0.0
0.0
0.0
0.0
0.0
0.0
0.0
0.0
0.0
0.0
0.0
0.0
0.0
0.0
0.0
0.0
0.0
0.0
0.0
0.0
0.0
0.0
0.0
0.0
0.0
0.0
0.0
0.0
0.0
0.0
0.0
0.0
0.0
0.0
0.0
0.0
0.0
0.0
0.0
0.0
0.0
0.0
0.0
0.0
0.0
0.0
0.0
0.0
0.0
0.0
0.0
0.0
0.0
0.0
0.0
0.0
0.0
0.0
0.0
0.0
0.0
0.0
0.0
0.0
0.0
0.0
0.0
0.0
0.0
0.0
0.0
0.0
0.0
0.0
0.0
0.0
0.0
0.0
0.0
0.0
0.0
0.0
0.0
0.0
0.0
0.0
0.0
0.0
0.0
0.0
0.0
0.0
0.0
0.0
0.0
0.0
0.0
0.0
0.0
0.0
0.0
0.0
0.0
0.0
0.0
0.0
0.0
0.0
0.0
0.0
0.0
0.0
0.0
0.0
0.0
0.0
0.0
0.0
0.0
0.0
0.0
0.0
0.0
0.0
0.0
0.0
0.0
0.0
0.0
0.0
0.0
0.0
0.0
0.0
0.0
0.0
0.0
0.0
0.0
0.0
0.0
0.0
0.0
0.0
0.0
0.0
0.0
0.0
0.0
0.0
0.0
0.0
0.0
0.0
0.0
0.0
0.0
0.0
0.0
0.0
0.0
0.0
0.0
0.0
0.0
0.0
0.0
0.0
0.0
0.0
0.0
0.0
0.0
0.0
0.0
0.0
0.0
0.0
0.0
0.0
0.0
0.0
0.0
0.0
0.0
0.0
0.0
0.0
0.0
0.0
0.0
0.0
0.0
0.0
0.0
0.0
0.0
0.0
0.0
0.0
0.0
0.0
0.0
0.0
0.0
0.0
0.0
0.0
0.0
0.0
0.0
0.0
0.0
0.0
0.0
0.0
0.0
0.0
0.0
0.0
0.0
0.0
0.0
0.0
0.0
0.0
0.0
0.0
0.0
0.0
0.0
0.0
0.0
0.0
0.0
0.0
0.0
0.0
0.0
0.0
0.0
0.0
0.0
0.0
0.0
0.0
0.0
0.0
0.0
0.0
0.0
0.0
0.0
0.0
0.0
0.0
0.0
0.0
0.0
0.0
0.0
0.0
0.0
0.0
0.0
0.0
0.0
0.0
0.0
0.0
0.0
0.0
0.0
0.0
0.0
0.0
0.0
0.0
0.0
0.0
0.0
0.0
0.0
0.0
0.0
0.0
0.0
0.0
0.0
0.0
0.0
0.0
0.0
0.0
0.0
0.0
0.0
0.0
0.0
0.0
0.0
0.0
0.0
0.0
0.0
0.0
0.0
0.0
0.0
0.0
0.0
0.0
0.0
0.0
0.0
0.0
0.0
0.0
0.0
0.0
0.0
0.0
0.0
0.0
0.0
0.0
0.0
0.0
0.0
0.0
0.0
0.0
0.0
0.0
0.0
0.0
0.0
0.0
0.0
0.0
0.0
0.0
0.0
0.0
0.0
0.0
0.0
0.0
0.0
0.0
0.0
0.0
0.0
0.0
0.0
0.0
0.0
0.0
0.0
0.0
0.0
0.0
0.0
0.0
0.0
0.0
0.0
0.0
0.0
0.0
0.0
0.0
0.0
0.0
0.0
0.0
0.0
0.0
0.0
0.0
0.0
0.0
0.0
0.0
0.0
0.0
0.0
0.0
0.0
0.0
0.0
0.0
0.0
0.0
0.0
0.0
0.0
0.0
0.0
0.0
0.0
0.0
0.0
0.0
0.0
0.0
0.0
0.0
0.0
0.0
0.0
0.0
0.0
0.0
0.0
0.0
0.0
0.0
0.0
0.0
0.0
0.0
0.0
0.0
0.0
0.0
0.0
0.0
0.0
0.0
0.0
0.0
0.0
0.0
0.0
0.0
0.0
0.0
0.0
0.0
0.0
0.0
0.0
0.0
0.0
0.0
0.0
0.0
0.0
0.0
0.0
0.0
0.0
0.0
0.0
0.0
0.0
0.0
0.0
0.0
0.0
0.0
0.0
0.0
0.0
0.0
0.0
0.0
0.0
0.0
0.0
0.0
0.0
0.0
0.0
0.0
0.0
0.0
0.0
0.0
0.0
0.0
0.0
0.0
0.0
0.0
0.0
0.0
0.0
0.0
0.0
0.0
0.0
0.0
0.0
0.0
0.0
0.0
0.0
0.0
0.0
0.0
0.0
0.0
0.0
0.0
0.0
0.0
0.0
0.0
0.0
0.0
0.0
0.0
0.0
0.0
0.0
0.0
0.0
0.0
0.0
0.0
0.0
0.0
0.0
0.0
0.0
0.0
0.0
0.0
0.0
0.0
0.0
0.0
0.0
0.0
0.0
0.0
0.0
0.0
0.0
0.0
0.0
0.0
0.0

VECTORS node_force_edge float
0.0 0.0 0.0 
0.0 0.0 0.0 
0.0 0.0 0.0 
0.0 0.0 0.0 
0.0 0.0 0.0 
0.0 0.0 0.0 
0.0 0.0 0.0 
0.0 0.0 0.0 
0.0 0.0 0.0 
0.0 0.0 0.0 
0.0 0.0 0.0 
0.0 0.0 0.0 
0.0 0.0 0.0 
0.0 0.0 0.0 
0.0 0.0 0.0 
0.0 0.0 0.0 
0.0 0.0 0.0 
0.0 0.0 0.0 
0.0 0.0 0.0 
0.0 0.0 0.0 
0.0 0.0 0.0 
0.0 0.0 0.0 
0.0 0.0 0.0 
0.0 0.0 0.0 
0.0 0.0 0.0 
0.0 0.0 0.0 
0.0 0.0 0.0 
0.0 0.0 0.0 
0.0 0.0 0.0 
0.0 0.0 0.0 
0.0 0.0 0.0 
0.0 0.0 0.0 
0.0 0.0 0.0 
0.0 0.0 0.0 
0.0 0.0 0.0 
0.0 0.0 0.0 
0.0 0.0 0.0 
0.0 0.0 0.0 
0.0 0.0 0.0 
0.0 0.0 0.0 
0.0 0.0 0.0 
0.0 0.0 0.0 
0.0 0.0 0.0 
0.0 0.0 0.0 
0.0 0.0 0.0 
0.0 0.0 0.0 
0.0 0.0 0.0 
0.0 0.0 0.0 
0.0 0.0 0.0 
0.0 0.0 0.0 
0.0 0.0 0.0 
0.0 0.0 0.0 
0.0 0.0 0.0 
0.0 0.0 0.0 
0.0 0.0 0.0 
0.0 0.0 0.0 
0.0 0.0 0.0 
0.0 0.0 0.0 
0.0 0.0 0.0 
0.0 0.0 0.0 
0.0 0.0 0.0 
0.0 0.0 0.0 
0.0 0.0 0.0 
0.0 0.0 0.0 
0.0 0.0 0.0 
0.0 0.0 0.0 
0.0 0.0 0.0 
0.0 0.0 0.0 
0.0 0.0 0.0 
0.0 0.0 0.0 
0.0 0.0 0.0 
0.0 0.0 0.0 
0.0 0.0 0.0 
0.0 0.0 0.0 
0.0 0.0 0.0 
0.0 0.0 0.0 
0.0 0.0 0.0 
0.0 0.0 0.0 
0.0 0.0 0.0 
0.0 0.0 0.0 
0.0 0.0 0.0 
0.0 -1.000000000000e+02 0.0 
0.0 0.0 0.0 
0.0 0.0 0.0 
0.0 0.0 0.0 
0.0 0.0 0.0 
0.0 0.0 0.0 
0.0 0.0 0.0 
0.0 0.0 0.0 
0.0 0.0 0.0 
0.0 0.0 0.0 
0.0 0.0 0.0 
0.0 0.0 0.0 
0.0 0.0 0.0 
0.0 0.0 0.0 
0.0 0.0 0.0 
0.0 0.0 0.0 
0.0 0.0 0.0 
0.0 0.0 0.0 
0.0 0.0 0.0 
0.0 0.0 0.0 
0.0 0.0 0.0 
0.0 0.0 0.0 
0.0 0.0 0.0 
0.0 0.0 0.0 
0.0 0.0 0.0 
0.0 0.0 0.0 
0.0 0.0 0.0 
0.0 0.0 0.0 
0.0 0.0 0.0 
0.0 0.0 0.0 
0.0 0.0 0.0 
0.0 0.0 0.0 
0.0 -1.000000000000e+02 0.0 
0.0 -1.000000000000e+02 0.0 
0.0 -1.000000000000e+02 0.0 
0.0 -1.000000000000e+02 0.0 
0.0 -1.000000000000e+02 0.0 
0.0 0.0 0.0 
0.0 0.0 0.0 
0.0 0.0 0.0 
0.0 0.0 0.0 
0.0 0.0 0.0 
0.0 0.0 0.0 
0.0 0.0 0.0 
0.0 0.0 0.0 
0.0 0.0 0.0 
0.0 0.0 0.0 
0.0 0.0 0.0 
0.0 0.0 0.0 
0.0 0.0 0.0 
0.0 0.0 0.0 
0.0 0.0 0.0 
0.0 0.0 0.0 
0.0 0.0 0.0 
0.0 0.0 0.0 
0.0 0.0 0.0 
0.0 0.0 0.0 
0.0 0.0 0.0 
0.0 0.0 0.0 
0.0 0.0 0.0 
0.0 0.0 0.0 
0.0 0.0 0.0 
0.0 0.0 0.0 
0.0 0.0 0.0 
0.0 0.0 0.0 
0.0 0.0 0.0 
0.0 0.0 0.0 
0.0 0.0 0.0 
0.0 0.0 0.0 
0.0 0.0 0.0 
0.0 0.0 0.0 
0.0 0.0 0.0 
0.0 0.0 0.0 
0.0 0.0 0.0 
0.0 0.0 0.0 
0.0 0.0 0.0 
0.0 0.0 0.0 
0.0 0.0 0.0 
0.0 0.0 0.0 
0.0 0.0 0.0 
0.0 0.0 0.0 
0.0 0.0 0.0 
0.0 0.0 0.0 
0.0 0.0 0.0 
0.0 0.0 0.0 
0.0 0.0 0.0 
0.0 0.0 0.0 
0.0 0.0 0.0 
0.0 0.0 0.0 
0.0 0.0 0.0 
0.0 0.0 0.0 
0.0 0.0 0.0 
0.0 0.0 0.0 
0.0 0.0 0.0 
0.0 0.0 0.0 
0.0 0.0 0.0 
0.0 0.0 0.0 
0.0 0.0 0.0 
0.0 0.0 0.0 
0.0 0.0 0.0 
0.0 0.0 0.0 
0.0 0.0 0.0 
0.0 0.0 0.0 
0.0 0.0 0.0 
0.0 0.0 0.0 
0.0 0.0 0.0 
0.0 0.0 0.0 
0.0 0.0 0.0 
0.0 0.0 0.0 
0.0 0.0 0.0 
0.0 0.0 0.0 
0.0 0.0 0.0 
0.0 0.0 0.0 
0.0 0.0 0.0 
0.0 0.0 0.0 
0.0 0.0 0.0 
0.0 0.0 0.0 
0.0 0.0 0.0 
0.0 0.0 0.0 
0.0 0.0 0.0 
0.0 0.0 0.0 
0.0 0.0 0.0 
0.0 0.0 0.0 
0.0 0.0 0.0 
0.0 0.0 0.0 
0.0 0.0 0.0 
0.0 0.0 0.0 
0.0 0.0 0.0 
0.0 0.0 0.0 
0.0 0.0 0.0 
0.0 0.0 0.0 
0.0 0.0 0.0 
0.0 0.0 0.0 
0.0 0.0 0.0 
0.0 0.0 0.0 
0.0 0.0 0.0 
0.0 0.0 0.0 
0.0 0.0 0.0 
0.0 0.0 0.0 
0.0 0.0 0.0 
0.0 0.0 0.0 
0.0 0.0 0.0 
0.0 0.0 0.0 
0.0 0.0 0.0 
0.0 0.0 0.0 
0.0 0.0 0.0 
0.0 0.0 0.0 
0.0 0.0 0.0 
0.0 0.0 0.0 
0.0 0.0 0.0 
0.0 0.0 0.0 
0.0 0.0 0.0 
0.0 0.0 0.0 
0.0 0.0 0.0 
0.0 0.0 0.0 
0.0 0.0 0.0 
0.0 0.0 0.0 
0.0 0.0 0.0 
0.0 0.0 0.0 
0.0 0.0 0.0 
0.0 0.0 0.0 
0.0 0.0 0.0 
0.0 0.0 0.0 
0.0 0.0 0.0 
0.0 0.0 0.0 
0.0 0.0 0.0 
0.0 0.0 0.0 
0.0 0.0 0.0 
0.0 0.0 0.0 
0.0 0.0 0.0 
0.0 0.0 0.0 
0.0 0.0 0.0 
0.0 0.0 0.0 
0.0 0.0 0.0 
0.0 0.0 0.0 
0.0 0.0 0.0 
0.0 0.0 0.0 
0.0 0.0 0.0 
0.0 0.0 0.0 
0.0 0.0 0.0 
0.0 0.0 0.0 
0.0 0.0 0.0 
0.0 0.0 0.0 
0.0 0.0 0.0 
0.0 0.0 0.0 
0.0 0.0 0.0 
0.0 0.0 0.0 
0.0 0.0 0.0 
0.0 0.0 0.0 
0.0 0.0 0.0 
0.0 0.0 0.0 
0.0 0.0 0.0 
0.0 0.0 0.0 
0.0 0.0 0.0 
0.0 0.0 0.0 
0.0 0.0 0.0 
0.0 0.0 0.0 
0.0 0.0 0.0 
0.0 0.0 0.0 
0.0 0.0 0.0 
0.0 0.0 0.0 
0.0 0.0 0.0 
0.0 0.0 0.0 
0.0 0.0 0.0 
0.0 0.0 0.0 
0.0 0.0 0.0 
0.0 0.0 0.0 
0.0 0.0 0.0 
0.0 0.0 0.0 
0.0 0.0 0.0 
0.0 0.0 0.0 
0.0 0.0 0.0 
0.0 0.0 0.0 
0.0 0.0 0.0 
0.0 0.0 0.0 
0.0 0.0 0.0 
0.0 0.0 0.0 
0.0 0.0 0.0 
0.0 0.0 0.0 
0.0 0.0 0.0 
0.0 0.0 0.0 
0.0 0.0 0.0 
0.0 0.0 0.0 
0.0 0.0 0.0 
0.0 0.0 0.0 
0.0 0.0 0.0 
0.0 0.0 0.0 
0.0 0.0 0.0 
0.0 0.0 0.0 
0.0 0.0 0.0 
0.0 0.0 0.0 
0.0 0.0 0.0 
0.0 0.0 0.0 
0.0 0.0 0.0 
0.0 0.0 0.0 
0.0 0.0 0.0 
0.0 0.0 0.0 
0.0 0.0 0.0 
0.0 0.0 0.0 
0.0 0.0 0.0 
0.0 0.0 0.0 
0.0 0.0 0.0 
0.0 0.0 0.0 
0.0 0.0 0.0 
0.0 0.0 0.0 
0.0 0.0 0.0 
0.0 0.0 0.0 
0.0 0.0 0.0 
0.0 0.0 0.0 
0.0 0.0 0.0 
0.0 0.0 0.0 
0.0 0.0 0.0 
0.0 0.0 0.0 
0.0 0.0 0.0 
0.0 0.0 0.0 
0.0 0.0 0.0 
0.0 0.0 0.0 
0.0 0.0 0.0 
0.0 0.0 0.0 
0.0 0.0 0.0 
0.0 0.0 0.0 
0.0 0.0 0.0 
0.0 0.0 0.0 
0.0 0.0 0.0 
0.0 0.0 0.0 
0.0 0.0 0.0 
0.0 0.0 0.0 
0.0 0.0 0.0 
0.0 0.0 0.0 
0.0 0.0 0.0 
0.0 0.0 0.0 
0.0 0.0 0.0 
0.0 0.0 0.0 
0.0 0.0 0.0 
0.0 0.0 0.0 
0.0 0.0 0.0 
0.0 0.0 0.0 
0.0 0.0 0.0 
0.0 0.0 0.0 
0.0 0.0 0.0 
0.0 0.0 0.0 
0.0 0.0 0.0 
0.0 0.0 0.0 
0.0 0.0 0.0 
0.0 0.0 0.0 
0.0 0.0 0.0 
0.0 0.0 0.0 
0.0 0.0 0.0 
0.0 0.0 0.0 
0.0 0.0 0.0 
0.0 0.0 0.0 
0.0 0.0 0.0 
0.0 0.0 0.0 
0.0 0.0 0.0 
0.0 0.0 0.0 
0.0 0.0 0.0 
0.0 0.0 0.0 
0.0 0.0 0.0 
0.0 0.0 0.0 
0.0 0.0 0.0 
0.0 0.0 0.0 
0.0 0.0 0.0 
0.0 0.0 0.0 
0.0 0.0 0.0 
0.0 0.0 0.0 
0.0 0.0 0.0 
0.0 0.0 0.0 
0.0 0.0 0.0 
0.0 0.0 0.0 
0.0 0.0 0.0 
0.0 0.0 0.0 
0.0 0.0 0.0 
0.0 0.0 0.0 
0.0 0.0 0.0 
0.0 0.0 0.0 
0.0 0.0 0.0 
0.0 0.0 0.0 
0.0 0.0 0.0 
0.0 0.0 0.0 
0.0 0.0 0.0 
0.0 0.0 0.0 
0.0 0.0 0.0 
0.0 0.0 0.0 
0.0 0.0 0.0 
0.0 0.0 0.0 
0.0 0.0 0.0 
0.0 0.0 0.0 
0.0 0.0 0.0 
0.0 0.0 0.0 
0.0 0.0 0.0 
0.0 0.0 0.0 
0.0 0.0 0.0 
0.0 0.0 0.0 
0.0 0.0 0.0 
0.0 0.0 0.0 
0.0 0.0 0.0 
0.0 0.0 0.0 
0.0 0.0 0.0 
0.0 0.0 0.0 
0.0 0.0 0.0 
0.0 0.0 0.0 
0.0 0.0 0.0 
0.0 0.0 0.0 
0.0 0.0 0.0 
0.0 0.0 0.0 
0.0 0.0 0.0 
0.0 0.0 0.0 
0.0 0.0 0.0 
0.0 0.0 0.0 
0.0 0.0 0.0 
0.0 0.0 0.0 
0.0 0.0 0.0 
0.0 0.0 0.0 
0.0 0.0 0.0 
0.0 0.0 0.0 
0.0 0.0 0.0 
0.0 0.0 0.0 
0.0 0.0 0.0 
0.0 0.0 0.0 
0.0 0.0 0.0 
0.0 0.0 0.0 
0.0 0.0 0.0 
0.0 0.0 0.0 
0.0 0.0 0.0 
0.0 0.0 0.0 
0.0 0.0 0.0 
0.0 0.0 0.0 
0.0 0.0 0.0 
0.0 0.0 0.0 
0.0 0.0 0.0 
0.0 0.0 0.0 
0.0 0.0 0.0 
0.0 0.0 0.0 
0.0 0.0 0.0 
0.0 0.0 0.0 
0.0 0.0 0.0 
0.0 0.0 0.0 
0.0 0.0 0.0 
0.0 0.0 0.0 
0.0 0.0 0.0 
0.0 0.0 0.0 
0.0 0.0 0.0 
0.0 0.0 0.0 
0.0 0.0 0.0 
0.0 0.0 0.0 
0.0 0.0 0.0 
0.0 0.0 0.0 
0.0 0.0 0.0 
0.0 0.0 0.0 
0.0 0.0 0.0 
0.0 0.0 0.0 
0.0 0.0 0.0 
0.0 0.0 0.0 
0.0 0.0 0.0 
0.0 0.0 0.0 
0.0 0.0 0.0 
0.0 0.0 0.0 
0.0 0.0 0.0 
0.0 0.0 0.0 
0.0 0.0 0.0 
0.0 0.0 0.0 
0.0 0.0 0.0 
0.0 0.0 0.0 
0.0 0.0 0.0 
0.0 0.0 0.0 
0.0 0.0 0.0 
0.0 0.0 0.0 
0.0 0.0 0.0 
0.0 0.0 0.0 
0.0 0.0 0.0 
0.0 0.0 0.0 
0.0 0.0 0.0 
0.0 0.0 0.0 
0.0 0.0 0.0 
0.0 0.0 0.0 
0.0 0.0 0.0 
0.0 0.0 0.0 
0.0 0.0 0.0 
0.0 0.0 0.0 
0.0 0.0 0.0 
0.0 0.0 0.0 
0.0 0.0 0.0 
0.0 0.0 0.0 
0.0 0.0 0.0 
0.0 0.0 0.0 
0.0 0.0 0.0 
0.0 0.0 0.0 
0.0 0.0 0.0 
0.0 0.0 0.0 
0.0 0.0 0.0 
0.0 0.0 0.0 
0.0 0.0 0.0 
0.0 0.0 0.0 
0.0 0.0 0.0 
0.0 0.0 0.0 
0.0 0.0 0.0 
0.0 0.0 0.0 
0.0 0.0 0.0 
0.0 0.0 0.0 
0.0 0.0 0.0 
0.0 0.0 0.0 
0.0 0.0 0.0 
0.0 0.0 0.0 
0.0 0.0 0.0 
0.0 0.0 0.0 
0.0 0.0 0.0 
0.0 0.0 0.0 
0.0 0.0 0.0 
0.0 0.0 0.0 
0.0 0.0 0.0 
0.0 0.0 0.0 
0.0 0.0 0.0 
0.0 0.0 0.0 
0.0 0.0 0.0 
0.0 0.0 0.0 
0.0 0.0 0.0 
0.0 0.0 0.0 
0.0 0.0 0.0 
0.0 0.0 0.0 
0.0 0.0 0.0 
0.0 0.0 0.0 
0.0 0.0 0.0 
0.0 0.0 0.0 
0.0 0.0 0.0 
0.0 0.0 0.0 
0.0 0.0 0.0 
0.0 0.0 0.0 
0.0 0.0 0.0 
0.0 0.0 0.0 
0.0 0.0 0.0 
0.0 0.0 0.0 
0.0 0.0 0.0 
0.0 0.0 0.0 
0.0 0.0 0.0 
0.0 0.0 0.0 
0.0 0.0 0.0 
0.0 0.0 0.0 
0.0 0.0 0.0 
0.0 0.0 0.0 
0.0 0.0 0.0 
0.0 0.0 0.0 
0.0 0.0 0.0 
0.0 0.0 0.0 
0.0 0.0 0.0 
0.0 0.0 0.0 
0.0 0.0 0.0 
0.0 0.0 0.0 
0.0 0.0 0.0 
0.0 0.0 0.0 
0.0 0.0 0.0 
0.0 0.0 0.0 
0.0 0.0 0.0 
0.0 0.0 0.0 
0.0 0.0 0.0 
0.0 0.0 0.0 
0.0 0.0 0.0 
0.0 0.0 0.0 
0.0 0.0 0.0 
0.0 0.0 0.0 
0.0 0.0 0.0 
0.0 0.0 0.0 
0.0 0.0 0.0 
0.0 0.0 0.0 
0.0 0.0 0.0 
0.0 0.0 0.0 
0.0 0.0 0.0 
0.0 0.0 0.0 
0.0 0.0 0.0 
0.0 0.0 0.0 
0.0 0.0 0.0 
0.0 0.0 0.0 
0.0 0.0 0.0 
0.0 0.0 0.0 
0.0 0.0 0.0 
0.0 0.0 0.0 
0.0 0.0 0.0 
0.0 0.0 0.0 
0.0 0.0 0.0 
0.0 0.0 0.0 
0.0 0.0 0.0 
0.0 0.0 0.0 
0.0 0.0 0.0 
0.0 0.0 0.0 
0.0 0.0 0.0 
0.0 0.0 0.0 
0.0 0.0 0.0 
0.0 0.0 0.0 
0.0 0.0 0.0 
0.0 0.0 0.0 
0.0 0.0 0.0 
0.0 0.0 0.0 
0.0 0.0 0.0 
0.0 0.0 0.0 
0.0 0.0 0.0 
0.0 0.0 0.0 
0.0 0.0 0.0 
0.0 0.0 0.0 
0.0 0.0 0.0 
0.0 0.0 0.0 
0.0 0.0 0.0 
0.0 0.0 0.0 
0.0 0.0 0.0 
0.0 0.0 0.0 
0.0 0.0 0.0 
0.0 0.0 0.0 
0.0 0.0 0.0 
0.0 0.0 0.0 
0.0 0.0 0.0 
0.0 0.0 0.0 
0.0 0.0 0.0 
0.0 0.0 0.0 
0.0 0.0 0.0 
0.0 0.0 0.0 
0.0 0.0 0.0 
0.0 0.0 0.0 
0.0 0.0 0.0 
0.0 0.0 0.0 
0.0 0.0 0.0 
0.0 0.0 0.0 
0.0 0.0 0.0 
0.0 0.0 0.0 
0.0 0.0 0.0 
0.0 0.0 0.0 
0.0 0.0 0.0 
0.0 0.0 0.0 
0.0 0.0 0.0 
0.0 0.0 0.0 
0.0 0.0 0.0 
0.0 0.0 0.0 
0.0 0.0 0.0 
0.0 0.0 0.0 
0.0 0.0 0.0 
0.0 0.0 0.0 
0.0 0.0 0.0 
0.0 0.0 0.0 
0.0 0.0 0.0 
0.0 0.0 0.0 
0.0 0.0 0.0 
0.0 0.0 0.0 
0.0 0.0 0.0 
0.0 0.0 0.0 
0.0 0.0 0.0 
0.0 0.0 0.0 
0.0 0.0 0.0 
0.0 0.0 0.0 
0.0 0.0 0.0 
0.0 0.0 0.0 
0.0 0.0 0.0 
0.0 0.0 0.0 
0.0 0.0 0.0 
0.0 0.0 0.0 
0.0 0.0 0.0 
0.0 0.0 0.0 
0.0 0.0 0.0 
0.0 0.0 0.0 
0.0 0.0 0.0 
0.0 0.0 0.0 
0.0 0.0 0.0 
0.0 0.0 0.0 
0.0 0.0 0.0 
0.0 0.0 0.0 
0.0 0.0 0.0 
0.0 0.0 0.0 
0.0 0.0 0.0 
0.0 0.0 0.0 
0.0 0.0 0.0 
0.0 0.0 0.0 
0.0 0.0 0.0 
0.0 0.0 0.0 
0.0 0.0 0.0 
0.0 0.0 0.0 
0.0 0.0 0.0 
0.0 0.0 0.0 
0.0 0.0 0.0 
0.0 0.0 0.0 
0.0 0.0 0.0 
0.0 0.0 0.0 
0.0 0.0 0.0 
0.0 0.0 0.0 
0.0 0.0 0.0 
0.0 0.0 0.0 
0.0 0.0 0.0 
0.0 0.0 0.0 
0.0 0.0 0.0 
0.0 0.0 0.0 
0.0 0.0 0.0 
0.0 0.0 0.0 
0.0 0.0 0.0 
0.0 0.0 0.0 
0.0 0.0 0.0 
0.0 0.0 0.0 
0.0 0.0 0.0 
0.0 0.0 0.0 
0.0 0.0 0.0 
0.0 0.0 0.0 
0.0 0.0 0.0 
0.0 0.0 0.0 
0.0 0.0 0.0 
0.0 0.0 0.0 
0.0 0.0 0.0 
0.0 0.0 0.0 
0.0 0.0 0.0 
0.0 0.0 0.0 
0.0 0.0 0.0 
0.0 0.0 0.0 
0.0 0.0 0.0 
0.0 0.0 0.0 
0.0 0.0 0.0 
0.0 0.0 0.0 
0.0 0.0 0.0 
0.0 0.0 0.0 
0.0 0.0 0.0 
0.0 0.0 0.0 
0.0 0.0 0.0 
0.0 0.0 0.0 
0.0 0.0 0.0 
0.0 0.0 0.0 
0.0 0.0 0.0 
0.0 0.0 0.0 
0.0 0.0 0.0 
0.0 0.0 0.0 
0.0 0.0 0.0 
0.0 0.0 0.0 
0.0 0.0 0.0 
0.0 0.0 0.0 
0.0 0.0 0.0 
0.0 0.0 0.0 
0.0 0.0 0.0 
0.0 0.0 0.0 
0.0 0.0 0.0 
0.0 0.0 0.0 
0.0 0.0 0.0 
0.0 0.0 0.0 
0.0 0.0 0.0 
0.0 0.0 0.0 
0.0 0.0 0.0 
0.0 0.0 0.0 
0.0 0.0 0.0 
0.0 0.0 0.0 
0.0 0.0 0.0 
0.0 0.0 0.0 
0.0 0.0 0.0 
0.0 0.0 0.0 
0.0 0.0 0.0 
0.0 0.0 0.0 
0.0 0.0 0.0 
0.0 0.0 0.0 
0.0 0.0 0.0 
0.0 0.0 0.0 
0.0 0.0 0.0 
0.0 0.0 0.0 
0.0 0.0 0.0 
0.0 0.0 0.0 
0.0 0.0 0.0 
0.0 0.0 0.0 
0.0 0.0 0.0 
0.0 0.0 0.0 
0.0 0.0 0.0 
0.0 0.0 0.0 
0.0 0.0 0.0 
0.0 0.0 0.0 
0.0 0.0 0.0 
0.0 0.0 0.0 
0.0 0.0 0.0 
0.0 0.0 0.0 
0.0 0.0 0.0 
0.0 0.0 0.0 
0.0 0.0 0.0 
0.0 0.0 0.0 
0.0 0.0 0.0 
0.0 0.0 0.0 
0.0 0.0 0.0 
0.0 0.0 0.0 
0.0 0.0 0.0 
0.0 0.0 0.0 
0.0 0.0 0.0 
0.0 0.0 0.0 
0.0 0.0 0.0 
0.0 0.0 0.0 
0.0 0.0 0.0 
0.0 0.0 0.0 
0.0 0.0 0.0 
0.0 0.0 0.0 
0.0 0.0 0.0 
0.0 0.0 0.0 
0.0 0.0 0.0 
0.0 0.0 0.0 
0.0 0.0 0.0 
0.0 0.0 0.0 
0.0 0.0 0.0 
0.0 0.0 0.0 
0.0 0.0 0.0 
0.0 0.0 0.0 
0.0 0.0 0.0 
0.0 0.0 0.0 
0.0 0.0 0.0 
0.0 0.0 0.0 
0.0 0.0 0.0 
0.0 0.0 0.0 
0.0 0.0 0.0 
0.0 0.0 0.0 
0.0 0.0 0.0 
0.0 0.0 0.0 
0.0 0.0 0.0 
0.0 0.0 0.0 
0.0 0.0 0.0 
0.0 0.0 0.0 
0.0 0.0 0.0 
0.0 0.0 0.0 
0.0 0.0 0.0 
0.0 0.0 0.0 
0.0 0.0 0.0 
0.0 0.0 0.0 
0.0 0.0 0.0 
0.0 0.0 0.0 
0.0 0.0 0.0 
0.0 0.0 0.0 
0.0 0.0 0.0 
0.0 0.0 0.0 
0.0 0.0 0.0 
0.0 0.0 0.0 
0.0 0.0 0.0 
0.0 0.0 0.0 
0.0 0.0 0.0 
0.0 0.0 0.0 
0.0 0.0 0.0 
0.0 0.0 0.0 
0.0 0.0 0.0 
0.0 0.0 0.0 
0.0 0.0 0.0 
0.0 0.0 0.0 
0.0 0.0 0.0 
0.0 0.0 0.0 
0.0 0.0 0.0 
0.0 0.0 0.0 
0.0 0.0 0.0 
0.0 0.0 0.0 
0.0 0.0 0.0 
0.0 0.0 0.0 
0.0 0.0 0.0 
0.0 0.0 0.0 
0.0 0.0 0.0 
0.0 0.0 0.0 
0.0 0.0 0.0 
0.0 0.0 0.0 
0.0 0.0 0.0 
0.0 0.0 0.0 
0.0 0.0 0.0 
0.0 0.0 0.0 
0.0 0.0 0.0 
0.0 0.0 0.0 
0.0 0.0 0.0 
0.0 0.0 0.0 
0.0 0.0 0.0 
0.0 0.0 0.0 
0.0 0.0 0.0 
0.0 0.0 0.0 
0.0 0.0 0.0 
0.0 0.0 0.0 
0.0 0.0 0.0 
0.0 0.0 0.0 
0.0 0.0 0.0 
0.0 0.0 0.0 
0.0 0.0 0.0 
0.0 0.0 0.0 
0.0 0.0 0.0 
0.0 0.0 0.0 
0.0 0.0 0.0 
0.0 0.0 0.0 
0.0 0.0 0.0 
0.0 0.0 0.0 
0.0 0.0 0.0 
0.0 0.0 0.0 
0.0 0.0 0.0 
0.0 0.0 0.0 
0.0 0.0 0.0 
0.0 0.0 0.0 
0.0 0.0 0.0 
0.0 0.0 0.0 
0.0 0.0 0.0 
0.0 0.0 0.0 
0.0 0.0 0.0 
0.0 0.0 0.0 
0.0 0.0 0.0 
0.0 0.0 0.0 
0.0 0.0 0.0 
0.0 0.0 0.0 
0.0 0.0 0.0 
0.0 0.0 0.0 
0.0 0.0 0.0 
0.0 0.0 0.0 
0.0 0.0 0.0 
0.0 0.0 0.0 
0.0 0.0 0.0 
0.0 0.0 0.0 
0.0 0.0 0.0 
0.0 0.0 0.0 
0.0 0.0 0.0 
0.0 0.0 0.0 
0.0 0.0 0.0 
0.0 0.0 0.0 
0.0 0.0 0.0 
0.0 0.0 0.0 
0.0 0.0 0.0 
0.0 0.0 0.0 
0.0 0.0 0.0 
0.0 0.0 0.0 
0.0 0.0 0.0 
0.0 0.0 0.0 
0.0 0.0 0.0 
0.0 0.0 0.0 
0.0 0.0 0.0 
0.0 0.0 0.0 
0.0 0.0 0.0 
0.0 0.0 0.0 
0.0 0.0 0.0 
0.0 0.0 0.0 
0.0 0.0 0.0 
0.0 0.0 0.0 
0.0 0.0 0.0 
0.0 0.0 0.0 
0.0 0.0 0.0 
0.0 0.0 0.0 
0.0 0.0 0.0 
0.0 0.0 0.0 
0.0 0.0 0.0 
0.0 0.0 0.0 
0.0 0.0 0.0 
0.0 0.0 0.0 
0.0 0.0 0.0 
0.0 0.0 0.0 
0.0 0.0 0.0 
0.0 0.0 0.0 
0.0 0.0 0.0 
0.0 0.0 0.0 
0.0 0.0 0.0 
0.0 0.0 0.0 
0.0 0.0 0.0 
0.0 0.0 0.0 
0.0 0.0 0.0 
0.0 0.0 0.0 
0.0 0.0 0.0 
0.0 0.0 0.0 
0.0 0.0 0.0 
0.0 0.0 0.0 
0.0 0.0 0.0 
0.0 0.0 0.0 
0.0 0.0 0.0 
0.0 0.0 0.0 
0.0 0.0 0.0 
0.0 0.0 0.0 
0.0 0.0 0.0 
0.0 0.0 0.0 
0.0 0.0 0.0 
0.0 0.0 0.0 
0.0 0.0 0.0 
0.0 0.0 0.0 
0.0 0.0 0.0 
0.0 0.0 0.0 
0.0 0.0 0.0 
0.0 0.0 0.0 
0.0 0.0 0.0 
0.0 0.0 0.0 
0.0 0.0 0.0 
0.0 0.0 0.0 
0.0 0.0 0.0 
0.0 0.0 0.0 
0.0 0.0 0.0 
0.0 0.0 0.0 
0.0 0.0 0.0 
0.0 0.0 0.0 
0.0 0.0 0.0 
0.0 0.0 0.0 
0.0 0.0 0.0 
0.0 0.0 0.0 
0.0 0.0 0.0 
0.0 0.0 0.0 
0.0 0.0 0.0 
0.0 0.0 0.0 
0.0 0.0 0.0 
0.0 0.0 0.0 
0.0 0.0 0.0 
0.0 0.0 0.0 
0.0 0.0 0.0 
0.0 0.0 0.0 
0.0 0.0 0.0 
0.0 0.0 0.0 
0.0 0.0 0.0 
0.0 0.0 0.0 
0.0 0.0 0.0 
0.0 0.0 0.0 
0.0 0.0 0.0 
0.0 0.0 0.0 
0.0 0.0 0.0 
0.0 0.0 0.0 
0.0 0.0 0.0 
0.0 0.0 0.0 
0.0 0.0 0.0 
0.0 0.0 0.0 
0.0 0.0 0.0 
0.0 0.0 0.0 
0.0 0.0 0.0 
0.0 0.0 0.0 
0.0 0.0 0.0 
0.0 0.0 0.0 
0.0 0.0 0.0 
0.0 0.0 0.0 
0.0 0.0 0.0 
0.0 0.0 0.0 
0.0 0.0 0.0 
0.0 0.0 0.0 
0.0 0.0 0.0 
0.0 0.0 0.0 
0.0 0.0 0.0 
0.0 0.0 0.0 
0.0 0.0 0.0 
0.0 0.0 0.0 
0.0 0.0 0.0 
0.0 0.0 0.0 
0.0 0.0 0.0 
0.0 0.0 0.0 
0.0 0.0 0.0 
0.0 0.0 0.0 
0.0 0.0 0.0 
0.0 0.0 0.0 
0.0 0.0 0.0 
0.0 0.0 0.0 
0.0 0.0 0.0 
0.0 0.0 0.0 
0.0 0.0 0.0 
0.0 0.0 0.0 
0.0 0.0 0.0 
0.0 0.0 0.0 
0.0 0.0 0.0 
0.0 0.0 0.0 
0.0 0.0 0.0 
0.0 0.0 0.0 
0.0 0.0 0.0 
0.0 0.0 0.0 
0.0 0.0 0.0 
0.0 0.0 0.0 
0.0 0.0 0.0 
0.0 0.0 0.0 
0.0 0.0 0.0 
0.0 0.0 0.0 
0.0 0.0 0.0 
0.0 0.0 0.0 
0.0 0.0 0.0 
0.0 0.0 0.0 
0.0 0.0 0.0 
0.0 0.0 0.0 
0.0 0.0 0.0 
0.0 0.0 0.0 
0.0 0.0 0.0 
0.0 0.0 0.0 
0.0 0.0 0.0 
0.0 0.0 0.0 
0.0 0.0 0.0 
0.0 0.0 0.0 
0.0 0.0 0.0 
0.0 0.0 0.0 
0.0 0.0 0.0 
0.0 0.0 0.0 
0.0 0.0 0.0 
0.0 0.0 0.0 
0.0 0.0 0.0 
0.0 0.0 0.0 
0.0 0.0 0.0 
0.0 0.0 0.0 
0.0 0.0 0.0 
0.0 0.0 0.0 
0.0 0.0 0.0 
0.0 0.0 0.0 
0.0 0.0 0.0 
0.0 0.0 0.0 
0.0 0.0 0.0 
0.0 0.0 0.0 
0.0 0.0 0.0 
0.0 0.0 0.0 
0.0 0.0 0.0 
0.0 0.0 0.0 
0.0 0.0 0.0 
0.0 0.0 0.0 
0.0 0.0 0.0 
0.0 0.0 0.0 
0.0 0.0 0.0 
0.0 0.0 0.0 
0.0 0.0 0.0 
0.0 0.0 0.0 
0.0 0.0 0.0 
0.0 0.0 0.0 
0.0 0.0 0.0 
0.0 0.0 0.0 
0.0 0.0 0.0 
0.0 0.0 0.0 
0.0 0.0 0.0 
0.0 0.0 0.0 
0.0 0.0 0.0 
0.0 0.0 0.0 
0.0 0.0 0.0 
0.0 0.0 0.0 
0.0 0.0 0.0 
0.0 0.0 0.0 
0.0 0.0 0.0 
0.0 0.0 0.0 
0.0 0.0 0.0 
0.0 0.0 0.0 
0.0 0.0 0.0 
0.0 0.0 0.0 
0.0 0.0 0.0 
0.0 0.0 0.0 
0.0 0.0 0.0 
0.0 0.0 0.0 
0.0 0.0 0.0 
0.0 0.0 0.0 
0.0 0.0 0.0 
0.0 0.0 0.0 
0.0 0.0 0.0 
0.0 0.0 0.0 
0.0 0.0 0.0 
0.0 0.0 0.0 
0.0 0.0 0.0 
0.0 0.0 0.0 
0.0 0.0 0.0 
0.0 0.0 0.0 
0.0 0.0 0.0 
0.0 0.0 0.0 
0.0 0.0 0.0 
0.0 0.0 0.0 
0.0 0.0 0.0 
0.0 0.0 0.0 
0.0 0.0 0.0 
0.0 0.0 0.0 
0.0 0.0 0.0 
0.0 0.0 0.0 
0.0 0.0 0.0 
0.0 0.0 0.0 
0.0 0.0 0.0 
0.0 0.0 0.0 
0.0 0.0 0.0 
0.0 0.0 0.0 
0.0 0.0 0.0 
0.0 0.0 0.0 
0.0 0.0 0.0 
0.0 0.0 0.0 
0.0 0.0 0.0 
0.0 0.0 0.0 
0.0 0.0 0.0 
0.0 0.0 0.0 
0.0 0.0 0.0 
0.0 0.0 0.0 
0.0 0.0 0.0 
0.0 0.0 0.0 
0.0 0.0 0.0 
0.0 0.0 0.0 
0.0 0.0 0.0 
0.0 0.0 0.0 
0.0 0.0 0.0 
0.0 0.0 0.0 
0.0 0.0 0.0 
0.0 0.0 0.0 
0.0 0.0 0.0 
0.0 0.0 0.0 
0.0 0.0 0.0 
0.0 0.0 0.0 
0.0 0.0 0.0 
0.0 0.0 0.0 
0.0 0.0 0.0 
0.0 0.0 0.0 
0.0 0.0 0.0 

VECTORS node_force_gravity float
0.0 -1.962000000000e+01 0.0 
0.0 -1.962000000000e+01 0.0 
0.0 -1.962000000000e+01 0.0 
0.0 -1.962000000000e+01 0.0 
0.0 -1.962000000000e+01 0.0 
0.0 -1.962000000000e+01 0.0 
0.0 -1.962000000000e+01 0.0 
0.0 -1.962000000000e+01 0.0 
0.0 -1.962000000000e+01 0.0 
0.0 -1.962000000000e+01 0.0 
0.0 -1.962000000000e+01 0.0 
0.0 -1.962000000000e+01 0.0 
0.0 -1.962000000000e+01 0.0 
0.0 -1.962000000000e+01 0.0 
0.0 -1.962000000000e+01 0.0 
0.0 -1.962000000000e+01 0.0 
0.0 -1.962000000000e+01 0.0 
0.0 -1.962000000000e+01 0.0 
0.0 -1.962000000000e+01 0.0 
0.0 -1.962000000000e+01 0.0 
0.0 -1.962000000000e+01 0.0 
0.0 -1.962000000000e+01 0.0 
0.0 -1.962000000000e+01 0.0 
0.0 -1.962000000000e+01 0.0 
0.0 -1.962000000000e+01 0.0 
0.0 -1.962000000000e+01 0.0 
0.0 -1.962000000000e+01 0.0 
0.0 -1.962000000000e+01 0.0 
0.0 -1.962000000000e+01 0.0 
0.0 -1.962000000000e+01 0.0 
0.0 -1.962000000000e+01 0.0 
0.0 -1.962000000000e+01 0.0 
0.0 -1.962000000000e+01 0.0 
0.0 -1.962000000000e+01 0.0 
0.0 -1.962000000000e+01 0.0 
0.0 -1.962000000000e+01 0.0 
0.0 -1.962000000000e+01 0.0 
0.0 -1.962000000000e+01 0.0 
0.0 -1.962000000000e+01 0.0 
0.0 -1.962000000000e+01 0.0 
0.0 -1.962000000000e+01 0.0 
0.0 -1.962000000000e+01 0.0 
0.0 -1.962000000000e+01 0.0 
0.0 -1.962000000000e+01 0.0 
0.0 -1.962000000000e+01 0.0 
0.0 -1.962000000000e+01 0.0 
0.0 -1.962000000000e+01 0.0 
0.0 -1.962000000000e+01 0.0 
0.0 -1.962000000000e+01 0.0 
0.0 -1.962000000000e+01 0.0 
0.0 -1.962000000000e+01 0.0 
0.0 -1.962000000000e+01 0.0 
0.0 -1.962000000000e+01 0.0 
0.0 -1.962000000000e+01 0.0 
0.0 -1.962000000000e+01 0.0 
0.0 -1.962000000000e+01 0.0 
0.0 -1.962000000000e+01 0.0 
0.0 -1.962000000000e+01 0.0 
0.0 -1.962000000000e+01 0.0 
0.0 -1.962000000000e+01 0.0 
0.0 -1.962000000000e+01 0.0 
0.0 -1.962000000000e+01 0.0 
0.0 -1.962000000000e+01 0.0 
0.0 -1.962000000000e+01 0.0 
0.0 -1.962000000000e+01 0.0 
0.0 -1.962000000000e+01 0.0 
0.0 -1.962000000000e+01 0.0 
0.0 -1.962000000000e+01 0.0 
0.0 -1.962000000000e+01 0.0 
0.0 -1.962000000000e+01 0.0 
0.0 -1.962000000000e+01 0.0 
0.0 -1.962000000000e+01 0.0 
0.0 -1.962000000000e+01 0.0 
0.0 -1.962000000000e+01 0.0 
0.0 -1.962000000000e+01 0.0 
0.0 -1.962000000000e+01 0.0 
0.0 -1.962000000000e+01 0.0 
0.0 -1.962000000000e+01 0.0 
0.0 -1.962000000000e+01 0.0 
0.0 -1.962000000000e+01 0.0 
0.0 -1.962000000000e+01 0.0 
0.0 -1.962000000000e+01 0.0 
0.0 -1.962000000000e+01 0.0 
0.0 -1.962000000000e+01 0.0 
0.0 -1.962000000000e+01 0.0 
0.0 -1.962000000000e+01 0.0 
0.0 -1.962000000000e+01 0.0 
0.0 -1.962000000000e+01 0.0 
0.0 -1.962000000000e+01 0.0 
0.0 -1.962000000000e+01 0.0 
0.0 -1.962000000000e+01 0.0 
0.0 -1.962000000000e+01 0.0 
0.0 -1.962000000000e+01 0.0 
0.0 -1.962000000000e+01 0.0 
0.0 -1.962000000000e+01 0.0 
0.0 -1.962000000000e+01 0.0 
0.0 -1.962000000000e+01 0.0 
0.0 -1.962000000000e+01 0.0 
0.0 -1.962000000000e+01 0.0 
0.0 -1.962000000000e+01 0.0 
0.0 -1.962000000000e+01 0.0 
0.0 -1.962000000000e+01 0.0 
0.0 -1.962000000000e+01 0.0 
0.0 -1.962000000000e+01 0.0 
0.0 -1.962000000000e+01 0.0 
0.0 -1.962000000000e+01 0.0 
0.0 -1.962000000000e+01 0.0 
0.0 -1.962000000000e+01 0.0 
0.0 -1.962000000000e+01 0.0 
0.0 -1.962000000000e+01 0.0 
0.0 -1.962000000000e+01 0.0 
0.0 -1.962000000000e+01 0.0 
0.0 -1.962000000000e+01 0.0 
0.0 -1.962000000000e+01 0.0 
0.0 -1.962000000000e+01 0.0 
0.0 -1.962000000000e+01 0.0 
0.0 -1.962000000000e+01 0.0 
0.0 -1.962000000000e+01 0.0 
0.0 -1.962000000000e+01 0.0 
0.0 -1.962000000000e+01 0.0 
0.0 -1.962000000000e+01 0.0 
0.0 -1.962000000000e+01 0.0 
0.0 -1.962000000000e+01 0.0 
0.0 -1.962000000000e+01 0.0 
0.0 -1.962000000000e+01 0.0 
0.0 -1.962000000000e+01 0.0 
0.0 -1.962000000000e+01 0.0 
0.0 -1.962000000000e+01 0.0 
0.0 -1.962000000000e+01 0.0 
0.0 -1.962000000000e+01 0.0 
0.0 -1.962000000000e+01 0.0 
0.0 -1.962000000000e+01 0.0 
0.0 -1.962000000000e+01 0.0 
0.0 -1.962000000000e+01 0.0 
0.0 -1.962000000000e+01 0.0 
0.0 -1.962000000000e+01 0.0 
0.0 -1.962000000000e+01 0.0 
0.0 -1.962000000000e+01 0.0 
0.0 -1.962000000000e+01 0.0 
0.0 -1.962000000000e+01 0.0 
0.0 -1.962000000000e+01 0.0 
0.0 -1.962000000000e+01 0.0 
0.0 -1.962000000000e+01 0.0 
0.0 -1.962000000000e+01 0.0 
0.0 -1.962000000000e+01 0.0 
0.0 -1.962000000000e+01 0.0 
0.0 -1.962000000000e+01 0.0 
0.0 -1.962000000000e+01 0.0 
0.0 -1.962000000000e+01 0.0 
0.0 -1.962000000000e+01 0.0 
0.0 -1.962000000000e+01 0.0 
0.0 -1.962000000000e+01 0.0 
0.0 -1.962000000000e+01 0.0 
0.0 -1.962000000000e+01 0.0 
0.0 -1.962000000000e+01 0.0 
0.0 -1.962000000000e+01 0.0 
0.0 -1.962000000000e+01 0.0 
0.0 -1.962000000000e+01 0.0 
0.0 -1.962000000000e+01 0.0 
0.0 -1.962000000000e+01 0.0 
0.0 -1.962000000000e+01 0.0 
0.0 -1.962000000000e+01 0.0 
0.0 -1.962000000000e+01 0.0 
0.0 -1.962000000000e+01 0.0 
0.0 -1.962000000000e+01 0.0 
0.0 -1.962000000000e+01 0.0 
0.0 -1.962000000000e+01 0.0 
0.0 -1.962000000000e+01 0.0 
0.0 -1.962000000000e+01 0.0 
0.0 -1.962000000000e+01 0.0 
0.0 -1.962000000000e+01 0.0 
0.0 -1.962000000000e+01 0.0 
0.0 -1.962000000000e+01 0.0 
0.0 -1.962000000000e+01 0.0 
0.0 -1.962000000000e+01 0.0 
0.0 -1.962000000000e+01 0.0 
0.0 -1.962000000000e+01 0.0 
0.0 -1.962000000000e+01 0.0 
0.0 -1.962000000000e+01 0.0 
0.0 -1.962000000000e+01 0.0 
0.0 -1.962000000000e+01 0.0 
0.0 -1.962000000000e+01 0.0 
0.0 -1.962000000000e+01 0.0 
0.0 -1.962000000000e+01 0.0 
0.0 -1.962000000000e+01 0.0 
0.0 -1.962000000000e+01 0.0 
0.0 -1.962000000000e+01 0.0 
0.0 -1.962000000000e+01 0.0 
0.0 -1.962000000000e+01 0.0 
0.0 -1.962000000000e+01 0.0 
0.0 -1.962000000000e+01 0.0 
0.0 -1.962000000000e+01 0.0 
0.0 -1.962000000000e+01 0.0 
0.0 -1.962000000000e+01 0.0 
0.0 -1.962000000000e+01 0.0 
0.0 -1.962000000000e+01 0.0 
0.0 -1.962000000000e+01 0.0 
0.0 -1.962000000000e+01 0.0 
0.0 -1.962000000000e+01 0.0 
0.0 -1.962000000000e+01 0.0 
0.0 -1.962000000000e+01 0.0 
0.0 -1.962000000000e+01 0.0 
0.0 -1.962000000000e+01 0.0 
0.0 -1.962000000000e+01 0.0 
0.0 -1.962000000000e+01 0.0 
0.0 -1.962000000000e+01 0.0 
0.0 -1.962000000000e+01 0.0 
0.0 -1.962000000000e+01 0.0 
0.0 -1.962000000000e+01 0.0 
0.0 -1.962000000000e+01 0.0 
0.0 -1.962000000000e+01 0.0 
0.0 -1.962000000000e+01 0.0 
0.0 -1.962000000000e+01 0.0 
0.0 -1.962000000000e+01 0.0 
0.0 -1.962000000000e+01 0.0 
0.0 -1.962000000000e+01 0.0 
0.0 -1.962000000000e+01 0.0 
0.0 -1.962000000000e+01 0.0 
0.0 -1.962000000000e+01 0.0 
0.0 -1.962000000000e+01 0.0 
0.0 -1.962000000000e+01 0.0 
0.0 -1.962000000000e+01 0.0 
0.0 -1.962000000000e+01 0.0 
0.0 -1.962000000000e+01 0.0 
0.0 -1.962000000000e+01 0.0 
0.0 -1.962000000000e+01 0.0 
0.0 -1.962000000000e+01 0.0 
0.0 -1.962000000000e+01 0.0 
0.0 -1.962000000000e+01 0.0 
0.0 -1.962000000000e+01 0.0 
0.0 -1.962000000000e+01 0.0 
0.0 -1.962000000000e+01 0.0 
0.0 -1.962000000000e+01 0.0 
0.0 -1.962000000000e+01 0.0 
0.0 -1.962000000000e+01 0.0 
0.0 -1.962000000000e+01 0.0 
0.0 -1.962000000000e+01 0.0 
0.0 -1.962000000000e+01 0.0 
0.0 -1.962000000000e+01 0.0 
0.0 -1.962000000000e+01 0.0 
0.0 -1.962000000000e+01 0.0 
0.0 -1.962000000000e+01 0.0 
0.0 -1.962000000000e+01 0.0 
0.0 -1.962000000000e+01 0.0 
0.0 -1.962000000000e+01 0.0 
0.0 -1.962000000000e+01 0.0 
0.0 -1.962000000000e+01 0.0 
0.0 -1.962000000000e+01 0.0 
0.0 -1.962000000000e+01 0.0 
0.0 -1.962000000000e+01 0.0 
0.0 -1.962000000000e+01 0.0 
0.0 -1.962000000000e+01 0.0 
0.0 -1.962000000000e+01 0.0 
0.0 -1.962000000000e+01 0.0 
0.0 -1.962000000000e+01 0.0 
0.0 -1.962000000000e+01 0.0 
0.0 -1.962000000000e+01 0.0 
0.0 -1.962000000000e+01 0.0 
0.0 -1.962000000000e+01 0.0 
0.0 -1.962000000000e+01 0.0 
0.0 -1.962000000000e+01 0.0 
0.0 -1.962000000000e+01 0.0 
0.0 -1.962000000000e+01 0.0 
0.0 -1.962000000000e+01 0.0 
0.0 -1.962000000000e+01 0.0 
0.0 -1.962000000000e+01 0.0 
0.0 -1.962000000000e+01 0.0 
0.0 -1.962000000000e+01 0.0 
0.0 -1.962000000000e+01 0.0 
0.0 -1.962000000000e+01 0.0 
0.0 -1.962000000000e+01 0.0 
0.0 -1.962000000000e+01 0.0 
0.0 -1.962000000000e+01 0.0 
0.0 -1.962000000000e+01 0.0 
0.0 -1.962000000000e+01 0.0 
0.0 -1.962000000000e+01 0.0 
0.0 -1.962000000000e+01 0.0 
0.0 -1.962000000000e+01 0.0 
0.0 -1.962000000000e+01 0.0 
0.0 -1.962000000000e+01 0.0 
0.0 -1.962000000000e+01 0.0 
0.0 -1.962000000000e+01 0.0 
0.0 -1.962000000000e+01 0.0 
0.0 -1.962000000000e+01 0.0 
0.0 -1.962000000000e+01 0.0 
0.0 -1.962000000000e+01 0.0 
0.0 -1.962000000000e+01 0.0 
0.0 -1.962000000000e+01 0.0 
0.0 -1.962000000000e+01 0.0 
0.0 -1.962000000000e+01 0.0 
0.0 -1.962000000000e+01 0.0 
0.0 -1.962000000000e+01 0.0 
0.0 -1.962000000000e+01 0.0 
0.0 -1.962000000000e+01 0.0 
0.0 -1.962000000000e+01 0.0 
0.0 -1.962000000000e+01 0.0 
0.0 -1.962000000000e+01 0.0 
0.0 -1.962000000000e+01 0.0 
0.0 -1.962000000000e+01 0.0 
0.0 -1.962000000000e+01 0.0 
0.0 -1.962000000000e+01 0.0 
0.0 -1.962000000000e+01 0.0 
0.0 -1.962000000000e+01 0.0 
0.0 -1.962000000000e+01 0.0 
0.0 -1.962000000000e+01 0.0 
0.0 -1.962000000000e+01 0.0 
0.0 -1.962000000000e+01 0.0 
0.0 -1.962000000000e+01 0.0 
0.0 -1.962000000000e+01 0.0 
0.0 -1.962000000000e+01 0.0 
0.0 -1.962000000000e+01 0.0 
0.0 -1.962000000000e+01 0.0 
0.0 -1.962000000000e+01 0.0 
0.0 -1.962000000000e+01 0.0 
0.0 -1.962000000000e+01 0.0 
0.0 -1.962000000000e+01 0.0 
0.0 -1.962000000000e+01 0.0 
0.0 -1.962000000000e+01 0.0 
0.0 -1.962000000000e+01 0.0 
0.0 -1.962000000000e+01 0.0 
0.0 -1.962000000000e+01 0.0 
0.0 -1.962000000000e+01 0.0 
0.0 -1.962000000000e+01 0.0 
0.0 -1.962000000000e+01 0.0 
0.0 -1.962000000000e+01 0.0 
0.0 -1.962000000000e+01 0.0 
0.0 -1.962000000000e+01 0.0 
0.0 -1.962000000000e+01 0.0 
0.0 -1.962000000000e+01 0.0 
0.0 -1.962000000000e+01 0.0 
0.0 -1.962000000000e+01 0.0 
0.0 -1.962000000000e+01 0.0 
0.0 -1.962000000000e+01 0.0 
0.0 -1.962000000000e+01 0.0 
0.0 -1.962000000000e+01 0.0 
0.0 -1.962000000000e+01 0.0 
0.0 -1.962000000000e+01 0.0 
0.0 -1.962000000000e+01 0.0 
0.0 -1.962000000000e+01 0.0 
0.0 -1.962000000000e+01 0.0 
0.0 -1.962000000000e+01 0.0 
0.0 -1.962000000000e+01 0.0 
0.0 -1.962000000000e+01 0.0 
0.0 -1.962000000000e+01 0.0 
0.0 -1.962000000000e+01 0.0 
0.0 -1.962000000000e+01 0.0 
0.0 -1.962000000000e+01 0.0 
0.0 -1.962000000000e+01 0.0 
0.0 -1.962000000000e+01 0.0 
0.0 -1.962000000000e+01 0.0 
0.0 -1.962000000000e+01 0.0 
0.0 -1.962000000000e+01 0.0 
0.0 -1.962000000000e+01 0.0 
0.0 -1.962000000000e+01 0.0 
0.0 -1.962000000000e+01 0.0 
0.0 -1.962000000000e+01 0.0 
0.0 -1.962000000000e+01 0.0 
0.0 -1.962000000000e+01 0.0 
0.0 -1.962000000000e+01 0.0 
0.0 -1.962000000000e+01 0.0 
0.0 -1.962000000000e+01 0.0 
0.0 -1.962000000000e+01 0.0 
0.0 -1.962000000000e+01 0.0 
0.0 -1.962000000000e+01 0.0 
0.0 -1.962000000000e+01 0.0 
0.0 -1.962000000000e+01 0.0 
0.0 -1.962000000000e+01 0.0 
0.0 -1.962000000000e+01 0.0 
0.0 -1.962000000000e+01 0.0 
0.0 -1.962000000000e+01 0.0 
0.0 -1.962000000000e+01 0.0 
0.0 -1.962000000000e+01 0.0 
0.0 -1.962000000000e+01 0.0 
0.0 -1.962000000000e+01 0.0 
0.0 -1.962000000000e+01 0.0 
0.0 -1.962000000000e+01 0.0 
0.0 -1.962000000000e+01 0.0 
0.0 -1.962000000000e+01 0.0 
0.0 -1.962000000000e+01 0.0 
0.0 -1.962000000000e+01 0.0 
0.0 -1.962000000000e+01 0.0 
0.0 -1.962000000000e+01 0.0 
0.0 -1.962000000000e+01 0.0 
0.0 -1.962000000000e+01 0.0 
0.0 -1.962000000000e+01 0.0 
0.0 -1.962000000000e+01 0.0 
0.0 -1.962000000000e+01 0.0 
0.0 -1.962000000000e+01 0.0 
0.0 -1.962000000000e+01 0.0 
0.0 -1.962000000000e+01 0.0 
0.0 -1.962000000000e+01 0.0 
0.0 -1.962000000000e+01 0.0 
0.0 -1.962000000000e+01 0.0 
0.0 -1.962000000000e+01 0.0 
0.0 -1.962000000000e+01 0.0 
0.0 -1.962000000000e+01 0.0 
0.0 -1.962000000000e+01 0.0 
0.0 -1.962000000000e+01 0.0 
0.0 -1.962000000000e+01 0.0 
0.0 -1.962000000000e+01 0.0 
0.0 -1.962000000000e+01 0.0 
0.0 -1.962000000000e+01 0.0 
0.0 -1.962000000000e+01 0.0 
0.0 -1.962000000000e+01 0.0 
0.0 -1.962000000000e+01 0.0 
0.0 -1.962000000000e+01 0.0 
0.0 -1.962000000000e+01 0.0 
0.0 -1.962000000000e+01 0.0 
0.0 -1.962000000000e+01 0.0 
0.0 -1.962000000000e+01 0.0 
0.0 -1.962000000000e+01 0.0 
0.0 -1.962000000000e+01 0.0 
0.0 -1.962000000000e+01 0.0 
0.0 -1.962000000000e+01 0.0 
0.0 -1.962000000000e+01 0.0 
0.0 -1.962000000000e+01 0.0 
0.0 -1.962000000000e+01 0.0 
0.0 -1.962000000000e+01 0.0 
0.0 -1.962000000000e+01 0.0 
0.0 -1.962000000000e+01 0.0 
0.0 -1.962000000000e+01 0.0 
0.0 -1.962000000000e+01 0.0 
0.0 -1.962000000000e+01 0.0 
0.0 -1.962000000000e+01 0.0 
0.0 -1.962000000000e+01 0.0 
0.0 -1.962000000000e+01 0.0 
0.0 -1.962000000000e+01 0.0 
0.0 -1.962000000000e+01 0.0 
0.0 -1.962000000000e+01 0.0 
0.0 -1.962000000000e+01 0.0 
0.0 -1.962000000000e+01 0.0 
0.0 -1.962000000000e+01 0.0 
0.0 -1.962000000000e+01 0.0 
0.0 -1.962000000000e+01 0.0 
0.0 -1.962000000000e+01 0.0 
0.0 -1.962000000000e+01 0.0 
0.0 -1.962000000000e+01 0.0 
0.0 -1.962000000000e+01 0.0 
0.0 -1.962000000000e+01 0.0 
0.0 -1.962000000000e+01 0.0 
0.0 -1.962000000000e+01 0.0 
0.0 -1.962000000000e+01 0.0 
0.0 -1.962000000000e+01 0.0 
0.0 -1.962000000000e+01 0.0 
0.0 -1.962000000000e+01 0.0 
0.0 -1.962000000000e+01 0.0 
0.0 -1.962000000000e+01 0.0 
0.0 -1.962000000000e+01 0.0 
0.0 -1.962000000000e+01 0.0 
0.0 -1.962000000000e+01 0.0 
0.0 -1.962000000000e+01 0.0 
0.0 -1.962000000000e+01 0.0 
0.0 -1.962000000000e+01 0.0 
0.0 -1.962000000000e+01 0.0 
0.0 -1.962000000000e+01 0.0 
0.0 -1.962000000000e+01 0.0 
0.0 -1.962000000000e+01 0.0 
0.0 -1.962000000000e+01 0.0 
0.0 -1.962000000000e+01 0.0 
0.0 -1.962000000000e+01 0.0 
0.0 -1.962000000000e+01 0.0 
0.0 -1.962000000000e+01 0.0 
0.0 -1.962000000000e+01 0.0 
0.0 -1.962000000000e+01 0.0 
0.0 -1.962000000000e+01 0.0 
0.0 -1.962000000000e+01 0.0 
0.0 -1.962000000000e+01 0.0 
0.0 -1.962000000000e+01 0.0 
0.0 -1.962000000000e+01 0.0 
0.0 -1.962000000000e+01 0.0 
0.0 -1.962000000000e+01 0.0 
0.0 -1.962000000000e+01 0.0 
0.0 -1.962000000000e+01 0.0 
0.0 -1.962000000000e+01 0.0 
0.0 -1.962000000000e+01 0.0 
0.0 -1.962000000000e+01 0.0 
0.0 -1.962000000000e+01 0.0 
0.0 -1.962000000000e+01 0.0 
0.0 -1.962000000000e+01 0.0 
0.0 -1.962000000000e+01 0.0 
0.0 -1.962000000000e+01 0.0 
0.0 -1.962000000000e+01 0.0 
0.0 -1.962000000000e+01 0.0 
0.0 -1.962000000000e+01 0.0 
0.0 -1.962000000000e+01 0.0 
0.0 -1.962000000000e+01 0.0 
0.0 -1.962000000000e+01 0.0 
0.0 -1.962000000000e+01 0.0 
0.0 -1.962000000000e+01 0.0 
0.0 -1.962000000000e+01 0.0 
0.0 -1.962000000000e+01 0.0 
0.0 -1.962000000000e+01 0.0 
0.0 -1.962000000000e+01 0.0 
0.0 -1.962000000000e+01 0.0 
0.0 -1.962000000000e+01 0.0 
0.0 -1.962000000000e+01 0.0 
0.0 -1.962000000000e+01 0.0 
0.0 -1.962000000000e+01 0.0 
0.0 -1.962000000000e+01 0.0 
0.0 -1.962000000000e+01 0.0 
0.0 -1.962000000000e+01 0.0 
0.0 -1.962000000000e+01 0.0 
0.0 -1.962000000000e+01 0.0 
0.0 -1.962000000000e+01 0.0 
0.0 -1.962000000000e+01 0.0 
0.0 -1.962000000000e+01 0.0 
0.0 -1.962000000000e+01 0.0 
0.0 -1.962000000000e+01 0.0 
0.0 -1.962000000000e+01 0.0 
0.0 -1.962000000000e+01 0.0 
0.0 -1.962000000000e+01 0.0 
0.0 -1.962000000000e+01 0.0 
0.0 -1.962000000000e+01 0.0 
0.0 -1.962000000000e+01 0.0 
0.0 -1.962000000000e+01 0.0 
0.0 -1.962000000000e+01 0.0 
0.0 -1.962000000000e+01 0.0 
0.0 -1.962000000000e+01 0.0 
0.0 -1.962000000000e+01 0.0 
0.0 -1.962000000000e+01 0.0 
0.0 -1.962000000000e+01 0.0 
0.0 -1.962000000000e+01 0.0 
0.0 -1.962000000000e+01 0.0 
0.0 -1.962000000000e+01 0.0 
0.0 -1.962000000000e+01 0.0 
0.0 -1.962000000000e+01 0.0 
0.0 -1.962000000000e+01 0.0 
0.0 -1.962000000000e+01 0.0 
0.0 -1.962000000000e+01 0.0 
0.0 -1.962000000000e+01 0.0 
0.0 -1.962000000000e+01 0.0 
0.0 -1.962000000000e+01 0.0 
0.0 -1.962000000000e+01 0.0 
0.0 -1.962000000000e+01 0.0 
0.0 -1.962000000000e+01 0.0 
0.0 -1.962000000000e+01 0.0 
0.0 -1.962000000000e+01 0.0 
0.0 -1.962000000000e+01 0.0 
0.0 -1.962000000000e+01 0.0 
0.0 -1.962000000000e+01 0.0 
0.0 -1.962000000000e+01 0.0 
0.0 -1.962000000000e+01 0.0 
0.0 -1.962000000000e+01 0.0 
0.0 -1.962000000000e+01 0.0 
0.0 -1.962000000000e+01 0.0 
0.0 -1.962000000000e+01 0.0 
0.0 -1.962000000000e+01 0.0 
0.0 -1.962000000000e+01 0.0 
0.0 -1.962000000000e+01 0.0 
0.0 -1.962000000000e+01 0.0 
0.0 -1.962000000000e+01 0.0 
0.0 -1.962000000000e+01 0.0 
0.0 -1.962000000000e+01 0.0 
0.0 -1.962000000000e+01 0.0 
0.0 -1.962000000000e+01 0.0 
0.0 -1.962000000000e+01 0.0 
0.0 -1.962000000000e+01 0.0 
0.0 -1.962000000000e+01 0.0 
0.0 -1.962000000000e+01 0.0 
0.0 -1.962000000000e+01 0.0 
0.0 -1.962000000000e+01 0.0 
0.0 -1.962000000000e+01 0.0 
0.0 -1.962000000000e+01 0.0 
0.0 -1.962000000000e+01 0.0 
0.0 -1.962000000000e+01 0.0 
0.0 -1.962000000000e+01 0.0 
0.0 -1.962000000000e+01 0.0 
0.0 -1.962000000000e+01 0.0 
0.0 -1.962000000000e+01 0.0 
0.0 -1.962000000000e+01 0.0 
0.0 -1.962000000000e+01 0.0 
0.0 -1.962000000000e+01 0.0 
0.0 -1.962000000000e+01 0.0 
0.0 -1.962000000000e+01 0.0 
0.0 -1.962000000000e+01 0.0 
0.0 -1.962000000000e+01 0.0 
0.0 -1.962000000000e+01 0.0 
0.0 -1.962000000000e+01 0.0 
0.0 -1.962000000000e+01 0.0 
0.0 -1.962000000000e+01 0.0 
0.0 -1.962000000000e+01 0.0 
0.0 -1.962000000000e+01 0.0 
0.0 -1.962000000000e+01 0.0 
0.0 -1.962000000000e+01 0.0 
0.0 -1.962000000000e+01 0.0 
0.0 -1.962000000000e+01 0.0 
0.0 -1.962000000000e+01 0.0 
0.0 -1.962000000000e+01 0.0 
0.0 -1.962000000000e+01 0.0 
0.0 -1.962000000000e+01 0.0 
0.0 -1.962000000000e+01 0.0 
0.0 -1.962000000000e+01 0.0 
0.0 -1.962000000000e+01 0.0 
0.0 -1.962000000000e+01 0.0 
0.0 -1.962000000000e+01 0.0 
0.0 -1.962000000000e+01 0.0 
0.0 -1.962000000000e+01 0.0 
0.0 -1.962000000000e+01 0.0 
0.0 -1.962000000000e+01 0.0 
0.0 -1.962000000000e+01 0.0 
0.0 -1.962000000000e+01 0.0 
0.0 -1.962000000000e+01 0.0 
0.0 -1.962000000000e+01 0.0 
0.0 -1.962000000000e+01 0.0 
0.0 -1.962000000000e+01 0.0 
0.0 -1.962000000000e+01 0.0 
0.0 -1.962000000000e+01 0.0 
0.0 -1.962000000000e+01 0.0 
0.0 -1.962000000000e+01 0.0 
0.0 -1.962000000000e+01 0.0 
0.0 -1.962000000000e+01 0.0 
0.0 -1.962000000000e+01 0.0 
0.0 -1.962000000000e+01 0.0 
0.0 -1.962000000000e+01 0.0 
0.0 -1.962000000000e+01 0.0 
0.0 -1.962000000000e+01 0.0 
0.0 -1.962000000000e+01 0.0 
0.0 -1.962000000000e+01 0.0 
0.0 -1.962000000000e+01 0.0 
0.0 -1.962000000000e+01 0.0 
0.0 -1.962000000000e+01 0.0 
0.0 -1.962000000000e+01 0.0 
0.0 -1.962000000000e+01 0.0 
0.0 -1.962000000000e+01 0.0 
0.0 -1.962000000000e+01 0.0 
0.0 -1.962000000000e+01 0.0 
0.0 -1.962000000000e+01 0.0 
0.0 -1.962000000000e+01 0.0 
0.0 -1.962000000000e+01 0.0 
0.0 -1.962000000000e+01 0.0 
0.0 -1.962000000000e+01 0.0 
0.0 -1.962000000000e+01 0.0 
0.0 -1.962000000000e+01 0.0 
0.0 -1.962000000000e+01 0.0 
0.0 -1.962000000000e+01 0.0 
0.0 -1.962000000000e+01 0.0 
0.0 -1.962000000000e+01 0.0 
0.0 -1.962000000000e+01 0.0 
0.0 -1.962000000000e+01 0.0 
0.0 -1.962000000000e+01 0.0 
0.0 -1.962000000000e+01 0.0 
0.0 -1.962000000000e+01 0.0 
0.0 -1.962000000000e+01 0.0 
0.0 -1.962000000000e+01 0.0 
0.0 -1.962000000000e+01 0.0 
0.0 -1.962000000000e+01 0.0 
0.0 -1.962000000000e+01 0.0 
0.0 -1.962000000000e+01 0.0 
0.0 -1.962000000000e+01 0.0 
0.0 -1.962000000000e+01 0.0 
0.0 -1.962000000000e+01 0.0 
0.0 -1.962000000000e+01 0.0 
0.0 -1.962000000000e+01 0.0 
0.0 -1.962000000000e+01 0.0 
0.0 -1.962000000000e+01 0.0 
0.0 -1.962000000000e+01 0.0 
0.0 -1.962000000000e+01 0.0 
0.0 -1.962000000000e+01 0.0 
0.0 -1.962000000000e+01 0.0 
0.0 -1.962000000000e+01 0.0 
0.0 -1.962000000000e+01 0.0 
0.0 -1.962000000000e+01 0.0 
0.0 -1.962000000000e+01 0.0 
0.0 -1.962000000000e+01 0.0 
0.0 -1.962000000000e+01 0.0 
0.0 -1.962000000000e+01 0.0 
0.0 -1.962000000000e+01 0.0 
0.0 -1.962000000000e+01 0.0 
0.0 -1.962000000000e+01 0.0 
0.0 -1.962000000000e+01 0.0 
0.0 -1.962000000000e+01 0.0 
0.0 -1.962000000000e+01 0.0 
0.0 -1.962000000000e+01 0.0 
0.0 -1.962000000000e+01 0.0 
0.0 -1.962000000000e+01 0.0 
0.0 -1.962000000000e+01 0.0 
0.0 -1.962000000000e+01 0.0 
0.0 -1.962000000000e+01 0.0 
0.0 -1.962000000000e+01 0.0 
0.0 -1.962000000000e+01 0.0 
0.0 -1.962000000000e+01 0.0 
0.0 -1.962000000000e+01 0.0 
0.0 -1.962000000000e+01 0.0 
0.0 -1.962000000000e+01 0.0 
0.0 -1.962000000000e+01 0.0 
0.0 -1.962000000000e+01 0.0 
0.0 -1.962000000000e+01 0.0 
0.0 -1.962000000000e+01 0.0 
0.0 -1.962000000000e+01 0.0 
0.0 -1.962000000000e+01 0.0 
0.0 -1.962000000000e+01 0.0 
0.0 -1.962000000000e+01 0.0 
0.0 -1.962000000000e+01 0.0 
0.0 -1.962000000000e+01 0.0 
0.0 -1.962000000000e+01 0.0 
0.0 -1.962000000000e+01 0.0 
0.0 -1.962000000000e+01 0.0 
0.0 -1.962000000000e+01 0.0 
0.0 -1.962000000000e+01 0.0 
0.0 -1.962000000000e+01 0.0 
0.0 -1.962000000000e+01 0.0 
0.0 -1.962000000000e+01 0.0 
0.0 -1.962000000000e+01 0.0 
0.0 -1.962000000000e+01 0.0 
0.0 -1.962000000000e+01 0.0 
0.0 -1.962000000000e+01 0.0 
0.0 -1.962000000000e+01 0.0 
0.0 -1.962000000000e+01 0.0 
0.0 -1.962000000000e+01 0.0 
0.0 -1.962000000000e+01 0.0 
0.0 -1.962000000000e+01 0.0 
0.0 -1.962000000000e+01 0.0 
0.0 -1.962000000000e+01 0.0 
0.0 -1.962000000000e+01 0.0 
0.0 -1.962000000000e+01 0.0 
0.0 -1.962000000000e+01 0.0 
0.0 -1.962000000000e+01 0.0 
0.0 -1.962000000000e+01 0.0 
0.0 -1.962000000000e+01 0.0 
0.0 -1.962000000000e+01 0.0 
0.0 -1.962000000000e+01 0.0 
0.0 -1.962000000000e+01 0.0 
0.0 -1.962000000000e+01 0.0 
0.0 -1.962000000000e+01 0.0 
0.0 -1.962000000000e+01 0.0 
0.0 -1.962000000000e+01 0.0 
0.0 -1.962000000000e+01 0.0 
0.0 -1.962000000000e+01 0.0 
0.0 -1.962000000000e+01 0.0 
0.0 -1.962000000000e+01 0.0 
0.0 -1.962000000000e+01 0.0 
0.0 -1.962000000000e+01 0.0 
0.0 -1.962000000000e+01 0.0 
0.0 -1.962000000000e+01 0.0 
0.0 -1.962000000000e+01 0.0 
0.0 -1.962000000000e+01 0.0 
0.0 -1.962000000000e+01 0.0 
0.0 -1.962000000000e+01 0.0 
0.0 -1.962000000000e+01 0.0 
0.0 -1.962000000000e+01 0.0 
0.0 -1.962000000000e+01 0.0 
0.0 -1.962000000000e+01 0.0 
0.0 -1.962000000000e+01 0.0 
0.0 -1.962000000000e+01 0.0 
0.0 -1.962000000000e+01 0.0 
0.0 -1.962000000000e+01 0.0 
0.0 -1.962000000000e+01 0.0 
0.0 -1.962000000000e+01 0.0 
0.0 -1.962000000000e+01 0.0 
0.0 -1.962000000000e+01 0.0 
0.0 -1.962000000000e+01 0.0 
0.0 -1.962000000000e+01 0.0 
0.0 -1.962000000000e+01 0.0 
0.0 -1.962000000000e+01 0.0 
0.0 -1.962000000000e+01 0.0 
0.0 -1.962000000000e+01 0.0 
0.0 -1.962000000000e+01 0.0 
0.0 -1.962000000000e+01 0.0 
0.0 -1.962000000000e+01 0.0 
0.0 -1.962000000000e+01 0.0 
0.0 -1.962000000000e+01 0.0 
0.0 -1.962000000000e+01 0.0 
0.0 -1.962000000000e+01 0.0 
0.0 -1.962000000000e+01 0.0 
0.0 -1.962000000000e+01 0.0 
0.0 -1.962000000000e+01 0.0 
0.0 -1.962000000000e+01 0.0 
0.0 -1.962000000000e+01 0.0 
0.0 -1.962000000000e+01 0.0 
0.0 -1.962000000000e+01 0.0 
0.0 -1.962000000000e+01 0.0 
0.0 -1.962000000000e+01 0.0 
0.0 -1.962000000000e+01 0.0 
0.0 -1.962000000000e+01 0.0 
0.0 -1.962000000000e+01 0.0 
0.0 -1.962000000000e+01 0.0 
0.0 -1.962000000000e+01 0.0 
0.0 -1.962000000000e+01 0.0 
0.0 -1.962000000000e+01 0.0 
0.0 -1.962000000000e+01 0.0 
0.0 -1.962000000000e+01 0.0 
0.0 -1.962000000000e+01 0.0 
0.0 -1.962000000000e+01 0.0 
0.0 -1.962000000000e+01 0.0 
0.0 -1.962000000000e+01 0.0 
0.0 -1.962000000000e+01 0.0 
0.0 -1.962000000000e+01 0.0 
0.0 -1.962000000000e+01 0.0 
0.0 -1.962000000000e+01 0.0 
0.0 -1.962000000000e+01 0.0 
0.0 -1.962000000000e+01 0.0 
0.0 -1.962000000000e+01 0.0 
0.0 -1.962000000000e+01 0.0 
0.0 -1.962000000000e+01 0.0 
0.0 -1.962000000000e+01 0.0 
0.0 -1.962000000000e+01 0.0 
0.0 -1.962000000000e+01 0.0 
0.0 -1.962000000000e+01 0.0 
0.0 -1.962000000000e+01 0.0 
0.0 -1.962000000000e+01 0.0 
0.0 -1.962000000000e+01 0.0 
0.0 -1.962000000000e+01 0.0 
0.0 -1.962000000000e+01 0.0 
0.0 -1.962000000000e+01 0.0 
0.0 -1.962000000000e+01 0.0 
0.0 -1.962000000000e+01 0.0 
0.0 -1.962000000000e+01 0.0 
0.0 -1.962000000000e+01 0.0 
0.0 -1.962000000000e+01 0.0 
0.0 -1.962000000000e+01 0.0 
0.0 -1.962000000000e+01 0.0 
0.0 -1.962000000000e+01 0.0 
0.0 -1.962000000000e+01 0.0 
0.0 -1.962000000000e+01 0.0 
0.0 -1.962000000000e+01 0.0 
0.0 -1.962000000000e+01 0.0 
0.0 -1.962000000000e+01 0.0 
0.0 -1.962000000000e+01 0.0 
0.0 -1.962000000000e+01 0.0 
0.0 -1.962000000000e+01 0.0 
0.0 -1.962000000000e+01 0.0 
0.0 -1.962000000000e+01 0.0 
0.0 -1.962000000000e+01 0.0 
0.0 -1.962000000000e+01 0.0 
0.0 -1.962000000000e+01 0.0 
0.0 -1.962000000000e+01 0.0 
0.0 -1.962000000000e+01 0.0 
0.0 -1.962000000000e+01 0.0 
0.0 -1.962000000000e+01 0.0 
0.0 -1.962000000000e+01 0.0 
0.0 -1.962000000000e+01 0.0 
0.0 -1.962000000000e+01 0.0 
0.0 -1.962000000000e+01 0.0 
0.0 -1.962000000000e+01 0.0 
0.0 -1.962000000000e+01 0.0 
0.0 -1.962000000000e+01 0.0 
0.0 -1.962000000000e+01 0.0 
0.0 -1.962000000000e+01 0.0 
0.0 -1.962000000000e+01 0.0 
0.0 -1.962000000000e+01 0.0 
0.0 -1.962000000000e+01 0.0 
0.0 -1.962000000000e+01 0.0 
0.0 -1.962000000000e+01 0.0 
0.0 -1.962000000000e+01 0.0 
0.0 -1.962000000000e+01 0.0 
0.0 -1.962000000000e+01 0.0 
0.0 -1.962000000000e+01 0.0 
0.0 -1.962000000000e+01 0.0 
0.0 -1.962000000000e+01 0.0 
0.0 -1.962000000000e+01 0.0 
0.0 -1.962000000000e+01 0.0 
0.0 -1.962000000000e+01 0.0 
0.0 -1.962000000000e+01 0.0 
0.0 -1.962000000000e+01 0.0 
0.0 -1.962000000000e+01 0.0 
0.0 -1.962000000000e+01 0.0 
0.0 -1.962000000000e+01 0.0 
0.0 -1.962000000000e+01 0.0 
0.0 -1.962000000000e+01 0.0 
0.0 -1.962000000000e+01 0.0 
0.0 -1.962000000000e+01 0.0 
0.0 -1.962000000000e+01 0.0 
0.0 -1.962000000000e+01 0.0 
0.0 -1.962000000000e+01 0.0 
0.0 -1.962000000000e+01 0.0 
0.0 -1.962000000000e+01 0.0 
0.0 -1.962000000000e+01 0.0 
0.0 -1.962000000000e+01 0.0 
0.0 -1.962000000000e+01 0.0 
0.0 -1.962000000000e+01 0.0 
0.0 -1.962000000000e+01 0.0 
0.0 -1.962000000000e+01 0.0 
0.0 -1.962000000000e+01 0.0 
0.0 -1.962000000000e+01 0.0 
0.0 -1.962000000000e+01 0.0 
0.0 -1.962000000000e+01 0.0 
0.0 -1.962000000000e+01 0.0 
0.0 -1.962000000000e+01 0.0 
0.0 -1.962000000000e+01 0.0 
0.0 -1.962000000000e+01 0.0 
0.0 -1.962000000000e+01 0.0 
0.0 -1.962000000000e+01 0.0 
0.0 -1.962000000000e+01 0.0 
0.0 -1.962000000000e+01 0.0 
0.0 -1.962000000000e+01 0.0 
0.0 -1.962000000000e+01 0.0 
0.0 -1.962000000000e+01 0.0 
0.0 -1.962000000000e+01 0.0 
0.0 -1.962000000000e+01 0.0 
0.0 -1.962000000000e+01 0.0 
0.0 -1.962000000000e+01 0.0 
0.0 -1.962000000000e+01 0.0 
0.0 -1.962000000000e+01 0.0 
0.0 -1.962000000000e+01 0.0 
0.0 -1.962000000000e+01 0.0 
0.0 -1.962000000000e+01 0.0 
0.0 -1.962000000000e+01 0.0 
0.0 -1.962000000000e+01 0.0 
0.0 -1.962000000000e+01 0.0 
0.0 -1.962000000000e+01 0.0 
0.0 -1.962000000000e+01 0.0 
0.0 -1.962000000000e+01 0.0 
0.0 -1.962000000000e+01 0.0 
0.0 -1.962000000000e+01 0.0 
0.0 -1.962000000000e+01 0.0 
0.0 -1.962000000000e+01 0.0 
0.0 -1.962000000000e+01 0.0 
0.0 -1.962000000000e+01 0.0 
0.0 -1.962000000000e+01 0.0 
0.0 -1.962000000000e+01 0.0 
0.0 -1.962000000000e+01 0.0 
0.0 -1.962000000000e+01 0.0 
0.0 -1.962000000000e+01 0.0 
0.0 -1.962000000000e+01 0.0 
0.0 -1.962000000000e+01 0.0 
0.0 -1.962000000000e+01 0.0 
0.0 -1.962000000000e+01 0.0 
0.0 -1.962000000000e+01 0.0 
0.0 -1.962000000000e+01 0.0 
0.0 -1.962000000000e+01 0.0 
0.0 -1.962000000000e+01 0.0 
0.0 -1.962000000000e+01 0.0 
0.0 -1.962000000000e+01 0.0 
0.0 -1.962000000000e+01 0.0 
0.0 -1.962000000000e+01 0.0 
0.0 -1.962000000000e+01 0.0 
0.0 -1.962000000000e+01 0.0 
0.0 -1.962000000000e+01 0.0 
0.0 -1.962000000000e+01 0.0 
0.0 -1.962000000000e+01 0.0 
0.0 -1.962000000000e+01 0.0 
0.0 -1.962000000000e+01 0.0 
0.0 -1.962000000000e+01 0.0 
0.0 -1.962000000000e+01 0.0 
0.0 -1.962000000000e+01 0.0 
0.0 -1.962000000000e+01 0.0 
0.0 -1.962000000000e+01 0.0 
0.0 -1.962000000000e+01 0.0 
0.0 -1.962000000000e+01 0.0 
0.0 -1.962000000000e+01 0.0 
0.0 -1.962000000000e+01 0.0 
0.0 -1.962000000000e+01 0.0 
0.0 -1.962000000000e+01 0.0 
0.0 -1.962000000000e+01 0.0 
0.0 -1.962000000000e+01 0.0 
0.0 -1.962000000000e+01 0.0 
0.0 -1.962000000000e+01 0.0 
0.0 -1.962000000000e+01 0.0 
0.0 -1.962000000000e+01 0.0 
0.0 -1.962000000000e+01 0.0 
0.0 -1.962000000000e+01 0.0 
0.0 -1.962000000000e+01 0.0 
0.0 -1.962000000000e+01 0.0 
0.0 -1.962000000000e+01 0.0 
0.0 -1.962000000000e+01 0.0 
0.0 -1.962000000000e+01 0.0 
0.0 -1.962000000000e+01 0.0 
0.0 -1.962000000000e+01 0.0 
0.0 -1.962000000000e+01 0.0 
0.0 -1.962000000000e+01 0.0 
0.0 -1.962000000000e+01 0.0 
0.0 -1.962000000000e+01 0.0 
0.0 -1.962000000000e+01 0.0 
0.0 -1.962000000000e+01 0.0 
0.0 -1.962000000000e+01 0.0 
0.0 -1.962000000000e+01 0.0 
0.0 -1.962000000000e+01 0.0 
0.0 -1.962000000000e+01 0.0 
0.0 -1.962000000000e+01 0.0 
0.0 -1.962000000000e+01 0.0 
0.0 -1.962000000000e+01 0.0 
0.0 -1.962000000000e+01 0.0 
0.0 -1.962000000000e+01 0.0 
0.0 -1.962000000000e+01 0.0 
0.0 -1.962000000000e+01 0.0 
0.0 -1.962000000000e+01 0.0 
0.0 -1.962000000000e+01 0.0 
0.0 -1.962000000000e+01 0.0 
0.0 -1.962000000000e+01 0.0 
0.0 -1.962000000000e+01 0.0 
0.0 -1.962000000000e+01 0.0 
0.0 -1.962000000000e+01 0.0 
0.0 -1.962000000000e+01 0.0 
0.0 -1.962000000000e+01 0.0 
0.0 -1.962000000000e+01 0.0 
0.0 -1.962000000000e+01 0.0 
0.0 -1.962000000000e+01 0.0 
0.0 -1.962000000000e+01 0.0 
0.0 -1.962000000000e+01 0.0 
0.0 -1.962000000000e+01 0.0 
0.0 -1.962000000000e+01 0.0 
0.0 -1.962000000000e+01 0.0 
0.0 -1.962000000000e+01 0.0 
0.0 -1.962000000000e+01 0.0 
0.0 -1.962000000000e+01 0.0 
0.0 -1.962000000000e+01 0.0 
0.0 -1.962000000000e+01 0.0 
0.0 -1.962000000000e+01 0.0 
0.0 -1.962000000000e+01 0.0 
0.0 -1.962000000000e+01 0.0 
0.0 -1.962000000000e+01 0.0 
0.0 -1.962000000000e+01 0.0 
0.0 -1.962000000000e+01 0.0 
0.0 -1.962000000000e+01 0.0 
0.0 -1.962000000000e+01 0.0 
0.0 -1.962000000000e+01 0.0 
0.0 -1.962000000000e+01 0.0 
0.0 -1.962000000000e+01 0.0 
0.0 -1.962000000000e+01 0.0 
0.0 -1.962000000000e+01 0.0 
0.0 -1.962000000000e+01 0.0 
0.0 -1.962000000000e+01 0.0 
0.0 -1.962000000000e+01 0.0 
0.0 -1.962000000000e+01 0.0 
0.0 -1.962000000000e+01 0.0 
0.0 -1.962000000000e+01 0.0 
0.0 -1.962000000000e+01 0.0 
0.0 -1.962000000000e+01 0.0 
0.0 -1.962000000000e+01 0.0 
0.0 -1.962000000000e+01 0.0 
0.0 -1.962000000000e+01 0.0 
0.0 -1.962000000000e+01 0.0 
0.0 -1.962000000000e+01 0.0 
0.0 -1.962000000000e+01 0.0 
0.0 -1.962000000000e+01 0.0 
0.0 -1.962000000000e+01 0.0 
0.0 -1.962000000000e+01 0.0 
0.0 -1.962000000000e+01 0.0 
0.0 -1.962000000000e+01 0.0 
0.0 -1.962000000000e+01 0.0 
0.0 -1.962000000000e+01 0.0 
0.0 -1.962000000000e+01 0.0 
0.0 -1.962000000000e+01 0.0 
0.0 -1.962000000000e+01 0.0 
0.0 -1.962000000000e+01 0.0 
0.0 -1.962000000000e+01 0.0 
0.0 -1.962000000000e+01 0.0 
0.0 -1.962000000000e+01 0.0 
0.0 -1.962000000000e+01 0.0 
0.0 -1.962000000000e+01 0.0 
0.0 -1.962000000000e+01 0.0 
0.0 -1.962000000000e+01 0.0 
0.0 -1.962000000000e+01 0.0 
0.0 -1.962000000000e+01 0.0 
0.0 -1.962000000000e+01 0.0 
0.0 -1.962000000000e+01 0.0 
0.0 -1.962000000000e+01 0.0 
0.0 -1.962000000000e+01 0.0 
0.0 -1.962000000000e+01 0.0 
0.0 -1.962000000000e+01 0.0 
0.0 -1.962000000000e+01 0.0 
0.0 -1.962000000000e+01 0.0 
0.0 -1.962000000000e+01 0.0 
0.0 -1.962000000000e+01 0.0 
0.0 -1.962000000000e+01 0.0 
0.0 -1.962000000000e+01 0.0 
0.0 -1.962000000000e+01 0.0 
0.0 -1.962000000000e+01 0.0 
0.0 -1.962000000000e+01 0.0 
0.0 -1.962000000000e+01 0.0 
0.0 -1.962000000000e+01 0.0 
0.0 -1.962000000000e+01 0.0 
0.0 -1.962000000000e+01 0.0 
0.0 -1.962000000000e+01 0.0 
0.0 -1.962000000000e+01 0.0 
0.0 -1.962000000000e+01 0.0 
0.0 -1.962000000000e+01 0.0 
0.0 -1.962000000000e+01 0.0 
0.0 -1.962000000000e+01 0.0 
0.0 -1.962000000000e+01 0.0 
0.0 -1.962000000000e+01 0.0 
0.0 -1.962000000000e+01 0.0 
0.0 -1.962000000000e+01 0.0 
0.0 -1.962000000000e+01 0.0 
0.0 -1.962000000000e+01 0.0 
0.0 -1.962000000000e+01 0.0 
0.0 -1.962000000000e+01 0.0 
0.0 -1.962000000000e+01 0.0 
0.0 -1.962000000000e+01 0.0 
0.0 -1.962000000000e+01 0.0 
0.0 -1.962000000000e+01 0.0 
0.0 -1.962000000000e+01 0.0 
0.0 -1.962000000000e+01 0.0 
0.0 -1.962000000000e+01 0.0 
0.0 -1.962000000000e+01 0.0 
0.0 -1.962000000000e+01 0.0 
0.0 -1.962000000000e+01 0.0 
0.0 -1.962000000000e+01 0.0 
0.0 -1.962000000000e+01 0.0 
0.0 -1.962000000000e+01 0.0 
0.0 -1.962000000000e+01 0.0 
0.0 -1.962000000000e+01 0.0 
0.0 -1.962000000000e+01 0.0 
0.0 -1.962000000000e+01 0.0 
0.0 -1.962000000000e+01 0.0 
0.0 -1.962000000000e+01 0.0 
0.0 -1.962000000000e+01 0.0 
0.0 -1.962000000000e+01 0.0 
0.0 -1.962000000000e+01 0.0 
0.0 -1.962000000000e+01 0.0 
0.0 -1.962000000000e+01 0.0 
0.0 -1.962000000000e+01 0.0 
0.0 -1.962000000000e+01 0.0 
0.0 -1.962000000000e+01 0.0 
0.0 -1.962000000000e+01 0.0 
0.0 -1.962000000000e+01 0.0 
0.0 -1.962000000000e+01 0.0 
0.0 -1.962000000000e+01 0.0 
0.0 -1.962000000000e+01 0.0 
0.0 -1.962000000000e+01 0.0 
0.0 -1.962000000000e+01 0.0 
0.0 -1.962000000000e+01 0.0 
0.0 -1.962000000000e+01 0.0 
0.0 -1.962000000000e+01 0.0 
0.0 -1.962000000000e+01 0.0 
0.0 -1.962000000000e+01 0.0 
0.0 -1.962000000000e+01 0.0 
0.0 -1.962000000000e+01 0.0 
0.0 -1.962000000000e+01 0.0 
0.0 -1.962000000000e+01 0.0 
0.0 -1.962000000000e+01 0.0 
0.0 -1.962000000000e+01 0.0 
0.0 -1.962000000000e+01 0.0 
0.0 -1.962000000000e+01 0.0 
0.0 -1.962000000000e+01 0.0 
0.0 -1.962000000000e+01 0.0 
0.0 -1.962000000000e+01 0.0 
0.0 -1.962000000000e+01 0.0 
0.0 -1.962000000000e+01 0.0 
0.0 -1.962000000000e+01 0.0 
0.0 -1.962000000000e+01 0.0 
0.0 -1.962000000000e+01 0.0 
0.0 -1.962000000000e+01 0.0 
0.0 -1.962000000000e+01 0.0 
0.0 -1.962000000000e+01 0.0 
0.0 -1.962000000000e+01 0.0 
0.0 -1.962000000000e+01 0.0 
0.0 -1.962000000000e+01 0.0 
0.0 -1.962000000000e+01 0.0 
0.0 -1.962000000000e+01 0.0 
0.0 -1.962000000000e+01 0.0 
0.0 -1.962000000000e+01 0.0 
0.0 -1.962000000000e+01 0.0 
0.0 -1.962000000000e+01 0.0 
0.0 -1.962000000000e+01 0.0 
0.0 -1.962000000000e+01 0.0 
0.0 -1.962000000000e+01 0.0 
0.0 -1.962000000000e+01 0.0 
0.0 -1.962000000000e+01 0.0 
0.0 -1.962000000000e+01 0.0 
0.0 -1.962000000000e+01 0.0 
0.0 -1.962000000000e+01 0.0 
0.0 -1.962000000000e+01 0.0 
0.0 -1.962000000000e+01 0.0 
0.0 -1.962000000000e+01 0.0 
0.0 -1.962000000000e+01 0.0 
0.0 -1.962000000000e+01 0.0 
0.0 -1.962000000000e+01 0.0 
0.0 -1.962000000000e+01 0.0 
0.0 -1.962000000000e+01 0.0 
0.0 -1.962000000000e+01 0.0 
0.0 -1.962000000000e+01 0.0 
0.0 -1.962000000000e+01 0.0 
0.0 -1.962000000000e+01 0.0 
0.0 -1.962000000000e+01 0.0 
0.0 -1.962000000000e+01 0.0 
0.0 -1.962000000000e+01 0.0 
0.0 -1.962000000000e+01 0.0 
0.0 -1.962000000000e+01 0.0 
0.0 -1.962000000000e+01 0.0 
0.0 -1.962000000000e+01 0.0 
0.0 -1.962000000000e+01 0.0 
0.0 -1.962000000000e+01 0.0 
0.0 -1.962000000000e+01 0.0 
0.0 -1.962000000000e+01 0.0 
0.0 -1.962000000000e+01 0.0 
0.0 -1.962000000000e+01 0.0 
0.0 -1.962000000000e+01 0.0 
0.0 -1.962000000000e+01 0.0 
0.0 -1.962000000000e+01 0.0 
0.0 -1.962000000000e+01 0.0 
0.0 -1.962000000000e+01 0.0 
0.0 -1.962000000000e+01 0.0 
0.0 -1.962000000000e+01 0.0 
0.0 -1.962000000000e+01 0.0 
0.0 -1.962000000000e+01 0.0 
0.0 -1.962000000000e+01 0.0 
0.0 -1.962000000000e+01 0.0 
0.0 -1.962000000000e+01 0.0 
0.0 -1.962000000000e+01 0.0 
0.0 -1.962000000000e+01 0.0 

VECTORS node_rhside_materi_fixed float
-6.132450456724e+00 0.0 0.0 
6.780327071793e+01 0.0 0.0 
-8.412008194221e+01 -2.007423003204e+02 0.0 
7.061151059232e+01 -1.687115101603e+02 0.0 
-1.064601615020e+01 0.0 0.0 
-1.382134786375e+01 0.0 0.0 
-1.661150715722e+01 0.0 0.0 
-2.778326810526e+01 0.0 0.0 
-4.361112662016e+01 0.0 0.0 
-5.757891596710e+01 0.0 0.0 
-6.997051840134e+01 0.0 0.0 
-8.088344973160e+01 0.0 0.0 
-9.024853825385e+01 0.0 0.0 
-9.849243243069e+01 0.0 0.0 
-1.059201389038e+02 0.0 0.0 
-1.124179171806e+02 0.0 0.0 
-1.181019503592e+02 0.0 0.0 
-1.236844631596e+02 0.0 0.0 
-1.287538038886e+02 0.0 0.0 
-1.354158397462e+02 0.0 0.0 
-1.442321169628e+02 0.0 0.0 
-1.531875420191e+02 0.0 0.0 
-1.626466234611e+02 0.0 0.0 
4.875019046269e-01 -3.363041252090e+02 0.0 
7.843827253835e-01 -3.375366572503e+02 0.0 
2.831847817611e+00 -3.367916660337e+02 0.0 
1.728860688561e+00 -3.370428907321e+02 0.0 
3.522269804413e+00 -3.379155123762e+02 0.0 
4.052849186601e+00 -3.375212763396e+02 0.0 
4.523618026867e+00 -3.383848853433e+02 0.0 
5.359320655036e+00 -3.391951749983e+02 0.0 
7.012183430939e+00 -3.390549340848e+02 0.0 
6.276624539535e+00 -3.398821452647e+02 0.0 
8.209780034069e+00 -3.414359512245e+02 0.0 
9.044221283553e+00 -3.416077266711e+02 0.0 
9.719591070173e+00 -3.433468308206e+02 0.0 
1.054723221048e+01 -3.442951578218e+02 0.0 
1.162075857619e+01 -3.456585997312e+02 0.0 
1.219501103018e+01 -3.476870765019e+02 0.0 
1.381665055437e+01 -3.493976816100e+02 0.0 
1.454307384092e+01 -3.515112488945e+02 0.0 
1.538487985372e+01 -3.536506234972e+02 0.0 
1.607496231512e+01 -3.557336916830e+02 0.0 
1.630242435677e+01 -3.583218280560e+02 0.0 
1.716250678824e+01 -3.612974330166e+02 0.0 
1.737052177586e+01 -3.638945767063e+02 0.0 
1.764447323540e+01 -3.667027089945e+02 0.0 
1.770188937343e+01 -3.698182426905e+02 0.0 
1.747598819355e+01 -3.724902869815e+02 0.0 
1.715803018874e+01 -3.751639683502e+02 0.0 
1.664201382635e+01 -3.780223846004e+02 0.0 
1.611936870888e+01 -3.808972745892e+02 0.0 
1.563332901679e+01 -3.832765304909e+02 0.0 
1.438428127499e+01 -3.855269299713e+02 0.0 
1.368222608511e+01 -3.885713360834e+02 0.0 
1.279010493785e+01 -3.904251722573e+02 0.0 
1.177812102708e+01 -3.926987430381e+02 0.0 
1.050796973124e+01 -3.945353769070e+02 0.0 
9.440550459872e+00 -3.961104818497e+02 0.0 
8.228199118600e+00 -3.975963644420e+02 0.0 
7.041755093434e+00 -3.986591548290e+02 0.0 
6.027470755847e+00 -3.994853295223e+02 0.0 
5.039696567244e+00 -4.004733706815e+02 0.0 
4.288052608058e+00 -4.006497189003e+02 0.0 
3.448841714944e+00 -4.008458638036e+02 0.0 
2.805227080197e+00 -4.008060033015e+02 0.0 
2.188074541559e+00 -4.016335002491e+02 0.0 
1.547490702817e+00 -4.008501377044e+02 0.0 
1.102157875593e+00 -4.015340822287e+02 0.0 
1.284921915471e+00 -4.008960023259e+02 0.0 
4.544389072914e-01 -4.011109302084e+02 0.0 
2.998777117331e-01 -4.009336006518e+02 0.0 
7.569357734272e+01 0.0 0.0 
8.420931920932e+01 0.0 0.0 
9.215854139386e+01 0.0 0.0 
9.983411626567e+01 0.0 0.0 
1.074904811672e+02 0.0 0.0 
1.153604312002e+02 0.0 0.0 
1.226441715500e+02 0.0 0.0 
1.294626458017e+02 0.0 0.0 
1.374920500476e+02 0.0 0.0 
0.0 0.0 0.0 
0.0 0.0 0.0 
0.0 0.0 0.0 
0.0 0.0 0.0 
0.0 0.0 0.0 
0.0 0.0 0.0 
0.0 0.0 0.0 
0.0 0.0 0.0 
0.0 0.0 0.0 
0.0 0.0 0.0 
0.0 0.0 0.0 
5.988357444657e+00 0.0 0.0 
1.831526194121e+01 0.0 0.0 
2.603327726553e+01 0.0 0.0 
3.435314418633e+01 0.0 0.0 
4.273337585389e+01 0.0 0.0 
5.118402011147e+01 0.0 0.0 
5.960687354808e+01 0.0 0.0 
0.0 0.0 0.0 
0.0 0.0 0.0 
0.0 0.0 0.0 
0.0 0.0 0.0 
0.0 0.0 0.0 
0.0 0.0 0.0 
0.0 0.0 0.0 
0.0 0.0 0.0 
0.0 0.0 0.0 
0.0 0.0 0.0 
0.0 0.0 0.0 
0.0 0.0 0.0 
0.0 0.0 0.0 
0.0 0.0 0.0 
0.0 0.0 0.0 
0.0 0.0 0.0 
0.0 0.0 0.0 
0.0 0.0 0.0 
0.0 0.0 0.0 
0.0 0.0 0.0 
0.0 0.0 0.0 
0.0 0.0 0.0 
0.0 0.0 0.0 
0.0 0.0 0.0 
0.0 0.0 0.0 
0.0 0.0 0.0 
0.0 0.0 0.0 
0.0 0.0 0.0 
0.0 0.0 0.0 
0.0 0.0 0.0 
0.0 0.0 0.0 
0.0 0.0 0.0 
0.0 0.0 0.0 
0.0 0.0 0.0 
0.0 0.0 0.0 
0.0 0.0 0.0 
0.0 0.0 0.0 
0.0 0.0 0.0 
0.0 0.0 0.0 
0.0 0.0 0.0 
0.0 0.0 0.0 
0.0 0.0 0.0 
0.0 0.0 0.0 
0.0 0.0 0.0 
0.0 0.0 0.0 
0.0 0.0 0.0 
0.0 0.0 0.0 
0.0 0.0 0.0 
0.0 0.0 0.0 
0.0 0.0 0.0 
0.0 0.0 0.0 
0.0 0.0 0.0 
0.0 0.0 0.0 
0.0 0.0 0.0 
0.0 0.0 0.0 
0.0 0.0 0.0 
0.0 0.0 0.0 
0.0 0.0 0.0 
0.0 0.0 0.0 
0.0 0.0 0.0 
0.0 0.0 0.0 
0.0 0.0 0.0 
0.0 0.0 0.0 
0.0 0.0 0.0 
0.0 0.0 0.0 
0.0 0.0 0.0 
0.0 0.0 0.0 
0.0 0.0 0.0 
0.0 0.0 0.0 
0.0 0.0 0.0 
0.0 0.0 0.0 
0.0 0.0 0.0 
0.0 0.0 0.0 
0.0 0.0 0.0 
0.0 0.0 0.0 
0.0 0.0 0.0 
0.0 0.0 0.0 
0.0 0.0 0.0 
0.0 0.0 0.0 
0.0 0.0 0.0 
0.0 0.0 0.0 
0.0 0.0 0.0 
0.0 0.0 0.0 
0.0 0.0 0.0 
0.0 0.0 0.0 
0.0 0.0 0.0 
0.0 0.0 0.0 
0.0 0.0 0.0 
0.0 0.0 0.0 
0.0 0.0 0.0 
0.0 0.0 0.0 
0.0 0.0 0.0 
0.0 0.0 0.0 
0.0 0.0 0.0 
0.0 0.0 0.0 
0.0 0.0 0.0 
0.0 0.0 0.0 
0.0 0.0 0.0 
0.0 0.0 0.0 
0.0 0.0 0.0 
0.0 0.0 0.0 
0.0 0.0 0.0 
0.0 0.0 0.0 
0.0 0.0 0.0 
0.0 0.0 0.0 
0.0 0.0 0.0 
0.0 0.0 0.0 
0.0 0.0 0.0 
0.0 0.0 0.0 
0.0 0.0 0.0 
0.0 0.0 0.0 
0.0 0.0 0.0 
0.0 0.0 0.0 
0.0 0.0 0.0 
0.0 0.0 0.0 
0.0 0.0 0.0 
0.0 0.0 0.0 
0.0 0.0 0.0 
0.0 0.0 0.0 
0.0 0.0 0.0 
0.0 0.0 0.0 
0.0 0.0 0.0 
0.0 0.0 0.0 
0.0 0.0 0.0 
0.0 0.0 0.0 
0.0 0.0 0.0 
0.0 0.0 0.0 
0.0 0.0 0.0 
0.0 0.0 0.0 
0.0 0.0 0.0 
0.0 0.0 0.0 
0.0 0.0 0.0 
0.0 0.0 0.0 
0.0 0.0 0.0 
0.0 0.0 0.0 
0.0 0.0 0.0 
0.0 0.0 0.0 
0.0 0.0 0.0 
0.0 0.0 0.0 
0.0 0.0 0.0 
0.0 0.0 0.0 
0.0 0.0 0.0 
0.0 0.0 0.0 
0.0 0.0 0.0 
0.0 0.0 0.0 
0.0 0.0 0.0 
0.0 0.0 0.0 
0.0 0.0 0.0 
0.0 0.0 0.0 
0.0 0.0 0.0 
0.0 0.0 0.0 
0.0 0.0 0.0 
0.0 0.0 0.0 
0.0 0.0 0.0 
0.0 0.0 0.0 
0.0 0.0 0.0 
0.0 0.0 0.0 
0.0 0.0 0.0 
0.0 0.0 0.0 
0.0 0.0 0.0 
0.0 0.0 0.0 
0.0 0.0 0.0 
0.0 0.0 0.0 
0.0 0.0 0.0 
0.0 0.0 0.0 
0.0 0.0 0.0 
0.0 0.0 0.0 
0.0 0.0 0.0 
0.0 0.0 0.0 
0.0 0.0 0.0 
0.0 0.0 0.0 
0.0 0.0 0.0 
0.0 0.0 0.0 
0.0 0.0 0.0 
0.0 0.0 0.0 
0.0 0.0 0.0 
0.0 0.0 0.0 
0.0 0.0 0.0 
0.0 0.0 0.0 
0.0 0.0 0.0 
0.0 0.0 0.0 
0.0 0.0 0.0 
0.0 0.0 0.0 
0.0 0.0 0.0 
0.0 0.0 0.0 
0.0 0.0 0.0 
0.0 0.0 0.0 
0.0 0.0 0.0 
0.0 0.0 0.0 
0.0 0.0 0.0 
0.0 0.0 0.0 
0.0 0.0 0.0 
0.0 0.0 0.0 
0.0 0.0 0.0 
0.0 0.0 0.0 
0.0 0.0 0.0 
0.0 0.0 0.0 
0.0 0.0 0.0 
0.0 0.0 0.0 
0.0 0.0 0.0 
0.0 0.0 0.0 
0.0 0.0 0.0 
0.0 0.0 0.0 
0.0 0.0 0.0 
0.0 0.0 0.0 
0.0 0.0 0.0 
0.0 0.0 0.0 
0.0 0.0 0.0 
0.0 0.0 0.0 
0.0 0.0 0.0 
0.0 0.0 0.0 
0.0 0.0 0.0 
0.0 0.0 0.0 
0.0 0.0 0.0 
0.0 0.0 0.0 
0.0 0.0 0.0 
0.0 0.0 0.0 
0.0 0.0 0.0 
0.0 0.0 0.0 
0.0 0.0 0.0 
0.0 0.0 0.0 
0.0 0.0 0.0 
0.0 0.0 0.0 
0.0 0.0 0.0 
0.0 0.0 0.0 
0.0 0.0 0.0 
0.0 0.0 0.0 
0.0 0.0 0.0 
0.0 0.0 0.0 
0.0 0.0 0.0 
0.0 0.0 0.0 
0.0 0.0 0.0 
0.0 0.0 0.0 
0.0 0.0 0.0 
0.0 0.0 0.0 
0.0 0.0 0.0 
0.0 0.0 0.0 
0.0 0.0 0.0 
0.0 0.0 0.0 
0.0 0.0 0.0 
0.0 0.0 0.0 
0.0 0.0 0.0 
0.0 0.0 0.0 
0.0 0.0 0.0 
0.0 0.0 0.0 
0.0 0.0 0.0 
0.0 0.0 0.0 
0.0 0.0 0.0 
0.0 0.0 0.0 
0.0 0.0 0.0 
0.0 0.0 0.0 
0.0 0.0 0.0 
0.0 0.0 0.0 
0.0 0.0 0.0 
0.0 0.0 0.0 
0.0 0.0 0.0 
0.0 0.0 0.0 
0.0 0.0 0.0 
0.0 0.0 0.0 
0.0 0.0 0.0 
0.0 0.0 0.0 
0.0 0.0 0.0 
0.0 0.0 0.0 
0.0 0.0 0.0 
0.0 0.0 0.0 
0.0 0.0 0.0 
0.0 0.0 0.0 
0.0 0.0 0.0 
0.0 0.0 0.0 
0.0 0.0 0.0 
0.0 0.0 0.0 
0.0 0.0 0.0 
0.0 0.0 0.0 
0.0 0.0 0.0 
0.0 0.0 0.0 
0.0 0.0 0.0 
0.0 0.0 0.0 
0.0 0.0 0.0 
0.0 0.0 0.0 
0.0 0.0 0.0 
0.0 0.0 0.0 
0.0 0.0 0.0 
0.0 0.0 0.0 
0.0 0.0 0.0 
0.0 0.0 0.0 
0.0 0.0 0.0 
0.0 0.0 0.0 
0.0 0.0 0.0 
0.0 0.0 0.0 
0.0 0.0 0.0 
0.0 0.0 0.0 
0.0 0.0 0.0 
0.0 0.0 0.0 
0.0 0.0 0.0 
0.0 0.0 0.0 
0.0 0.0 0.0 
0.0 0.0 0.0 
0.0 0.0 0.0 
0.0 0.0 0.0 
0.0 0.0 0.0 
0.0 0.0 0.0 
0.0 0.0 0.0 
0.0 0.0 0.0 
0.0 0.0 0.0 
0.0 0.0 0.0 
0.0 0.0 0.0 
0.0 0.0 0.0 
0.0 0.0 0.0 
0.0 0.0 0.0 
0.0 0.0 0.0 
0.0 0.0 0.0 
0.0 0.0 0.0 
0.0 0.0 0.0 
0.0 0.0 0.0 
0.0 0.0 0.0 
0.0 0.0 0.0 
0.0 0.0 0.0 
0.0 0.0 0.0 
0.0 0.0 0.0 
0.0 0.0 0.0 
0.0 0.0 0.0 
0.0 0.0 0.0 
0.0 0.0 0.0 
0.0 0.0 0.0 
0.0 0.0 0.0 
0.0 0.0 0.0 
0.0 0.0 0.0 
0.0 0.0 0.0 
0.0 0.0 0.0 
0.0 0.0 0.0 
0.0 0.0 0.0 
0.0 0.0 0.0 
0.0 0.0 0.0 
0.0 0.0 0.0 
0.0 0.0 0.0 
0.0 0.0 0.0 
0.0 0.0 0.0 
0.0 0.0 0.0 
0.0 0.0 0.0 
0.0 0.0 0.0 
0.0 0.0 0.0 
0.0 0.0 0.0 
0.0 0.0 0.0 
0.0 0.0 0.0 
0.0 0.0 0.0 
0.0 0.0 0.0 
0.0 0.0 0.0 
0.0 0.0 0.0 
0.0 0.0 0.0 
0.0 0.0 0.0 
0.0 0.0 0.0 
0.0 0.0 0.0 
0.0 0.0 0.0 
0.0 0.0 0.0 
0.0 0.0 0.0 
0.0 0.0 0.0 
0.0 0.0 0.0 
0.0 0.0 0.0 
0.0 0.0 0.0 
0.0 0.0 0.0 
0.0 0.0 0.0 
0.0 0.0 0.0 
0.0 0.0 0.0 
0.0 0.0 0.0 
0.0 0.0 0.0 
0.0 0.0 0.0 
0.0 0.0 0.0 
0.0 0.0 0.0 
0.0 0.0 0.0 
0.0 0.0 0.0 
0.0 0.0 0.0 
0.0 0.0 0.0 
0.0 0.0 0.0 
0.0 0.0 0.0 
0.0 0.0 0.0 
0.0 0.0 0.0 
0.0 0.0 0.0 
0.0 0.0 0.0 
0.0 0.0 0.0 
0.0 0.0 0.0 
0.0 0.0 0.0 
0.0 0.0 0.0 
0.0 0.0 0.0 
0.0 0.0 0.0 
0.0 0.0 0.0 
0.0 0.0 0.0 
0.0 0.0 0.0 
0.0 0.0 0.0 
0.0 0.0 0.0 
0.0 0.0 0.0 
0.0 0.0 0.0 
0.0 0.0 0.0 
0.0 0.0 0.0 
0.0 0.0 0.0 
0.0 0.0 0.0 
0.0 0.0 0.0 
0.0 0.0 0.0 
0.0 0.0 0.0 
0.0 0.0 0.0 
0.0 0.0 0.0 
0.0 0.0 0.0 
0.0 0.0 0.0 
0.0 0.0 0.0 
0.0 0.0 0.0 
0.0 0.0 0.0 
0.0 0.0 0.0 
0.0 0.0 0.0 
0.0 0.0 0.0 
0.0 0.0 0.0 
0.0 0.0 0.0 
0.0 0.0 0.0 
0.0 0.0 0.0 
0.0 0.0 0.0 
0.0 0.0 0.0 
0.0 0.0 0.0 
0.0 0.0 0.0 
0.0 0.0 0.0 
0.0 0.0 0.0 
0.0 0.0 0.0 
0.0 0.0 0.0 
0.0 0.0 0.0 
0.0 0.0 0.0 
0.0 0.0 0.0 
0.0 0.0 0.0 
0.0 0.0 0.0 
0.0 0.0 0.0 
0.0 0.0 0.0 
0.0 0.0 0.0 
0.0 0.0 0.0 
0.0 0.0 0.0 
0.0 0.0 0.0 
0.0 0.0 0.0 
0.0 0.0 0.0 
0.0 0.0 0.0 
0.0 0.0 0.0 
0.0 0.0 0.0 
0.0 0.0 0.0 
0.0 0.0 0.0 
0.0 0.0 0.0 
0.0 0.0 0.0 
0.0 0.0 0.0 
0.0 0.0 0.0 
0.0 0.0 0.0 
0.0 0.0 0.0 
0.0 0.0 0.0 
0.0 0.0 0.0 
0.0 0.0 0.0 
0.0 0.0 0.0 
0.0 0.0 0.0 
0.0 0.0 0.0 
0.0 0.0 0.0 
0.0 0.0 0.0 
0.0 0.0 0.0 
0.0 0.0 0.0 
0.0 0.0 0.0 
0.0 0.0 0.0 
0.0 0.0 0.0 
0.0 0.0 0.0 
0.0 0.0 0.0 
0.0 0.0 0.0 
0.0 0.0 0.0 
0.0 0.0 0.0 
0.0 0.0 0.0 
0.0 0.0 0.0 
0.0 0.0 0.0 
0.0 0.0 0.0 
0.0 0.0 0.0 
0.0 0.0 0.0 
0.0 0.0 0.0 
0.0 0.0 0.0 
0.0 0.0 0.0 
0.0 0.0 0.0 
0.0 0.0 0.0 
0.0 0.0 0.0 
0.0 0.0 0.0 
0.0 0.0 0.0 
0.0 0.0 0.0 
0.0 0.0 0.0 
0.0 0.0 0.0 
0.0 0.0 0.0 
0.0 0.0 0.0 
0.0 0.0 0.0 
0.0 0.0 0.0 
0.0 0.0 0.0 
0.0 0.0 0.0 
0.0 0.0 0.0 
0.0 0.0 0.0 
0.0 0.0 0.0 
0.0 0.0 0.0 
0.0 0.0 0.0 
0.0 0.0 0.0 
0.0 0.0 0.0 
0.0 0.0 0.0 
0.0 0.0 0.0 
0.0 0.0 0.0 
0.0 0.0 0.0 
0.0 0.0 0.0 
0.0 0.0 0.0 
0.0 0.0 0.0 
0.0 0.0 0.0 
0.0 0.0 0.0 
0.0 0.0 0.0 
0.0 0.0 0.0 
0.0 0.0 0.0 
0.0 0.0 0.0 
0.0 0.0 0.0 
0.0 0.0 0.0 
0.0 0.0 0.0 
0.0 0.0 0.0 
0.0 0.0 0.0 
0.0 0.0 0.0 
0.0 0.0 0.0 
0.0 0.0 0.0 
0.0 0.0 0.0 
0.0 0.0 0.0 
0.0 0.0 0.0 
0.0 0.0 0.0 
0.0 0.0 0.0 
0.0 0.0 0.0 
0.0 0.0 0.0 
0.0 0.0 0.0 
0.0 0.0 0.0 
0.0 0.0 0.0 
0.0 0.0 0.0 
0.0 0.0 0.0 
0.0 0.0 0.0 
0.0 0.0 0.0 
0.0 0.0 0.0 
0.0 0.0 0.0 
0.0 0.0 0.0 
0.0 0.0 0.0 
0.0 0.0 0.0 
0.0 0.0 0.0 
0.0 0.0 0.0 
0.0 0.0 0.0 
0.0 0.0 0.0 
0.0 0.0 0.0 
0.0 0.0 0.0 
0.0 0.0 0.0 
0.0 0.0 0.0 
0.0 0.0 0.0 
0.0 0.0 0.0 
0.0 0.0 0.0 
0.0 0.0 0.0 
0.0 0.0 0.0 
0.0 0.0 0.0 
0.0 0.0 0.0 
0.0 0.0 0.0 
0.0 0.0 0.0 
0.0 0.0 0.0 
0.0 0.0 0.0 
0.0 0.0 0.0 
0.0 0.0 0.0 
0.0 0.0 0.0 
0.0 0.0 0.0 
0.0 0.0 0.0 
0.0 0.0 0.0 
0.0 0.0 0.0 
0.0 0.0 0.0 
0.0 0.0 0.0 
0.0 0.0 0.0 
0.0 0.0 0.0 
0.0 0.0 0.0 
0.0 0.0 0.0 
0.0 0.0 0.0 
0.0 0.0 0.0 
0.0 0.0 0.0 
0.0 0.0 0.0 
0.0 0.0 0.0 
0.0 0.0 0.0 
0.0 0.0 0.0 
0.0 0.0 0.0 
0.0 0.0 0.0 
0.0 0.0 0.0 
0.0 0.0 0.0 
0.0 0.0 0.0 
0.0 0.0 0.0 
0.0 0.0 0.0 
0.0 0.0 0.0 
0.0 0.0 0.0 
0.0 0.0 0.0 
0.0 0.0 0.0 
0.0 0.0 0.0 
0.0 0.0 0.0 
0.0 0.0 0.0 
0.0 0.0 0.0 
0.0 0.0 0.0 
0.0 0.0 0.0 
0.0 0.0 0.0 
0.0 0.0 0.0 
0.0 0.0 0.0 
0.0 0.0 0.0 
0.0 0.0 0.0 
0.0 0.0 0.0 
0.0 0.0 0.0 
0.0 0.0 0.0 
0.0 0.0 0.0 
0.0 0.0 0.0 
0.0 0.0 0.0 
0.0 0.0 0.0 
0.0 0.0 0.0 
0.0 0.0 0.0 
0.0 0.0 0.0 
0.0 0.0 0.0 
0.0 0.0 0.0 
0.0 0.0 0.0 
0.0 0.0 0.0 
0.0 0.0 0.0 
0.0 0.0 0.0 
0.0 0.0 0.0 
0.0 0.0 0.0 
0.0 0.0 0.0 
0.0 0.0 0.0 
0.0 0.0 0.0 
0.0 0.0 0.0 
0.0 0.0 0.0 
0.0 0.0 0.0 
0.0 0.0 0.0 
0.0 0.0 0.0 
0.0 0.0 0.0 
0.0 0.0 0.0 
0.0 0.0 0.0 
0.0 0.0 0.0 
0.0 0.0 0.0 
0.0 0.0 0.0 
0.0 0.0 0.0 
0.0 0.0 0.0 
0.0 0.0 0.0 
0.0 0.0 0.0 
0.0 0.0 0.0 
0.0 0.0 0.0 
0.0 0.0 0.0 
0.0 0.0 0.0 
0.0 0.0 0.0 
0.0 0.0 0.0 
0.0 0.0 0.0 
0.0 0.0 0.0 
0.0 0.0 0.0 
0.0 0.0 0.0 
0.0 0.0 0.0 
0.0 0.0 0.0 
0.0 0.0 0.0 
0.0 0.0 0.0 
0.0 0.0 0.0 
0.0 0.0 0.0 
0.0 0.0 0.0 
0.0 0.0 0.0 
0.0 0.0 0.0 
0.0 0.0 0.0 
0.0 0.0 0.0 
0.0 0.0 0.0 
0.0 0.0 0.0 
0.0 0.0 0.0 
0.0 0.0 0.0 
0.0 0.0 0.0 
0.0 0.0 0.0 
0.0 0.0 0.0 
0.0 0.0 0.0 
0.0 0.0 0.0 
0.0 0.0 0.0 
0.0 0.0 0.0 
0.0 0.0 0.0 
0.0 0.0 0.0 
0.0 0.0 0.0 
0.0 0.0 0.0 
0.0 0.0 0.0 
0.0 0.0 0.0 
0.0 0.0 0.0 
0.0 0.0 0.0 
0.0 0.0 0.0 
0.0 0.0 0.0 
0.0 0.0 0.0 
0.0 0.0 0.0 
0.0 0.0 0.0 
0.0 0.0 0.0 
0.0 0.0 0.0 
0.0 0.0 0.0 
0.0 0.0 0.0 
0.0 0.0 0.0 
0.0 0.0 0.0 
0.0 0.0 0.0 
0.0 0.0 0.0 
0.0 0.0 0.0 
0.0 0.0 0.0 
0.0 0.0 0.0 
0.0 0.0 0.0 
0.0 0.0 0.0 
0.0 0.0 0.0 
0.0 0.0 0.0 
0.0 0.0 0.0 
0.0 0.0 0.0 
0.0 0.0 0.0 
0.0 0.0 0.0 
0.0 0.0 0.0 
0.0 0.0 0.0 
0.0 0.0 0.0 
0.0 0.0 0.0 
0.0 0.0 0.0 
0.0 0.0 0.0 
0.0 0.0 0.0 
0.0 0.0 0.0 
0.0 0.0 0.0 
0.0 0.0 0.0 
0.0 0.0 0.0 
0.0 0.0 0.0 
0.0 0.0 0.0 
0.0 0.0 0.0 
0.0 0.0 0.0 
0.0 0.0 0.0 
0.0 0.0 0.0 
0.0 0.0 0.0 
0.0 0.0 0.0 
0.0 0.0 0.0 
0.0 0.0 0.0 
0.0 0.0 0.0 
0.0 0.0 0.0 
0.0 0.0 0.0 
0.0 0.0 0.0 
0.0 0.0 0.0 
0.0 0.0 0.0 
0.0 0.0 0.0 
0.0 0.0 0.0 
0.0 0.0 0.0 
0.0 0.0 0.0 
0.0 0.0 0.0 
0.0 0.0 0.0 
0.0 0.0 0.0 
0.0 0.0 0.0 
0.0 0.0 0.0 
0.0 0.0 0.0 
0.0 0.0 0.0 
0.0 0.0 0.0 
0.0 0.0 0.0 
0.0 0.0 0.0 
0.0 0.0 0.0 
0.0 0.0 0.0 
0.0 0.0 0.0 
0.0 0.0 0.0 
0.0 0.0 0.0 
0.0 0.0 0.0 
0.0 0.0 0.0 
0.0 0.0 0.0 
0.0 0.0 0.0 
0.0 0.0 0.0 
0.0 0.0 0.0 
0.0 0.0 0.0 
0.0 0.0 0.0 
0.0 0.0 0.0 
0.0 0.0 0.0 
0.0 0.0 0.0 
0.0 0.0 0.0 
0.0 0.0 0.0 
0.0 0.0 0.0 
0.0 0.0 0.0 
0.0 0.0 0.0 
0.0 0.0 0.0 
0.0 0.0 0.0 
0.0 0.0 0.0 
0.0 0.0 0.0 
0.0 0.0 0.0 
0.0 0.0 0.0 
0.0 0.0 0.0 
0.0 0.0 0.0 
0.0 0.0 0.0 
0.0 0.0 0.0 
0.0 0.0 0.0 
0.0 0.0 0.0 
0.0 0.0 0.0 
0.0 0.0 0.0 
0.0 0.0 0.0 
0.0 0.0 0.0 
0.0 0.0 0.0 
0.0 0.0 0.0 
0.0 0.0 0.0 
0.0 0.0 0.0 
0.0 0.0 0.0 
0.0 0.0 0.0 
0.0 0.0 0.0 
0.0 0.0 0.0 
0.0 0.0 0.0 
0.0 0.0 0.0 
0.0 0.0 0.0 
0.0 0.0 0.0 
0.0 0.0 0.0 
0.0 0.0 0.0 
0.0 0.0 0.0 
0.0 0.0 0.0 
0.0 0.0 0.0 
0.0 0.0 0.0 
0.0 0.0 0.0 
0.0 0.0 0.0 
0.0 0.0 0.0 
0.0 0.0 0.0 
0.0 0.0 0.0 
0.0 0.0 0.0 
0.0 0.0 0.0 
0.0 0.0 0.0 
0.0 0.0 0.0 
0.0 0.0 0.0 
0.0 0.0 0.0 
0.0 0.0 0.0 
0.0 0.0 0.0 
0.0 0.0 0.0 
0.0 0.0 0.0 
0.0 0.0 0.0 
0.0 0.0 0.0 
0.0 0.0 0.0 
0.0 0.0 0.0 
0.0 0.0 0.0 
0.0 0.0 0.0 
0.0 0.0 0.0 
0.0 0.0 0.0 
0.0 0.0 0.0 
0.0 0.0 0.0 
0.0 0.0 0.0 
0.0 0.0 0.0 
0.0 0.0 0.0 
0.0 0.0 0.0 
0.0 0.0 0.0 
0.0 0.0 0.0 
0.0 0.0 0.0 
0.0 0.0 0.0 
0.0 0.0 0.0 
0.0 0.0 0.0 
0.0 0.0 0.0 
0.0 0.0 0.0 
0.0 0.0 0.0 
0.0 0.0 0.0 
0.0 0.0 0.0 
0.0 0.0 0.0 
0.0 0.0 0.0 
0.0 0.0 0.0 
0.0 0.0 0.0 
0.0 0.0 0.0 
0.0 0.0 0.0 
0.0 0.0 0.0 
0.0 0.0 0.0 
0.0 0.0 0.0 
0.0 0.0 0.0 
0.0 0.0 0.0 
0.0 0.0 0.0 
0.0 0.0 0.0 
0.0 0.0 0.0 
0.0 0.0 0.0 
0.0 0.0 0.0 
0.0 0.0 0.0 
0.0 0.0 0.0 
0.0 0.0 0.0 
0.0 0.0 0.0 
0.0 0.0 0.0 
0.0 0.0 0.0 
0.0 0.0 0.0 
0.0 0.0 0.0 
0.0 0.0 0.0 
0.0 0.0 0.0 
0.0 0.0 0.0 
0.0 0.0 0.0 
0.0 0.0 0.0 
0.0 0.0 0.0 
0.0 0.0 0.0 
0.0 0.0 0.0 
0.0 0.0 0.0 
0.0 0.0 0.0 
0.0 0.0 0.0 
0.0 0.0 0.0 
0.0 0.0 0.0 
0.0 0.0 0.0 
0.0 0.0 0.0 
0.0 0.0 0.0 
0.0 0.0 0.0 
0.0 0.0 0.0 
0.0 0.0 0.0 
0.0 0.0 0.0 
0.0 0.0 0.0 
0.0 0.0 0.0 
0.0 0.0 0.0 
0.0 0.0 0.0 
0.0 0.0 0.0 
0.0 0.0 0.0 
0.0 0.0 0.0 
0.0 0.0 0.0 
0.0 0.0 0.0 
0.0 0.0 0.0 
0.0 0.0 0.0 
0.0 0.0 0.0 
0.0 0.0 0.0 
0.0 0.0 0.0 
0.0 0.0 0.0 
0.0 0.0 0.0 
0.0 0.0 0.0 
0.0 0.0 0.0 
0.0 0.0 0.0 
0.0 0.0 0.0 
0.0 0.0 0.0 
0.0 0.0 0.0 
0.0 0.0 0.0 
0.0 0.0 0.0 
0.0 0.0 0.0 
0.0 0.0 0.0 
0.0 0.0 0.0 
0.0 0.0 0.0 
0.0 0.0 0.0 
0.0 0.0 0.0 
0.0 0.0 0.0 
0.0 0.0 0.0 
0.0 0.0 0.0 
0.0 0.0 0.0 
0.0 0.0 0.0 
0.0 0.0 0.0 
0.0 0.0 0.0 
0.0 0.0 0.0 
0.0 0.0 0.0 
0.0 0.0 0.0 
0.0 0.0 0.0 
0.0 0.0 0.0 
0.0 0.0 0.0 
0.0 0.0 0.0 
0.0 0.0 0.0 
0.0 0.0 0.0 
0.0 0.0 0.0 
0.0 0.0 0.0 
0.0 0.0 0.0 
0.0 0.0 0.0 
0.0 0.0 0.0 
0.0 0.0 0.0 
0.0 0.0 0.0 
0.0 0.0 0.0 
0.0 0.0 0.0 
0.0 0.0 0.0 
0.0 0.0 0.0 
0.0 0.0 0.0 
0.0 0.0 0.0 
0.0 0.0 0.0 
0.0 0.0 0.0 
0.0 0.0 0.0 
0.0 0.0 0.0 
0.0 0.0 0.0 
0.0 0.0 0.0 
0.0 0.0 0.0 
0.0 0.0 0.0 
0.0 0.0 0.0 
0.0 0.0 0.0 
0.0 0.0 0.0 
0.0 0.0 0.0 
0.0 0.0 0.0 
0.0 0.0 0.0 
0.0 0.0 0.0 
0.0 0.0 0.0 
0.0 0.0 0.0 
0.0 0.0 0.0 
0.0 0.0 0.0 
0.0 0.0 0.0 
0.0 0.0 0.0 
0.0 0.0 0.0 
0.0 0.0 0.0 
0.0 0.0 0.0 
0.0 0.0 0.0 
0.0 0.0 0.0 
0.0 0.0 0.0 
0.0 0.0 0.0 
0.0 0.0 0.0 
0.0 0.0 0.0 
0.0 0.0 0.0 
0.0 0.0 0.0 
0.0 0.0 0.0 
0.0 0.0 0.0 
0.0 0.0 0.0 
0.0 0.0 0.0 
0.0 0.0 0.0 
0.0 0.0 0.0 
0.0 0.0 0.0 
0.0 0.0 0.0 
0.0 0.0 0.0 
0.0 0.0 0.0 
0.0 0.0 0.0 
0.0 0.0 0.0 
0.0 0.0 0.0 
0.0 0.0 0.0 
0.0 0.0 0.0 
0.0 0.0 0.0 
0.0 0.0 0.0 
0.0 0.0 0.0 
0.0 0.0 0.0 
0.0 0.0 0.0 
0.0 0.0 0.0 
0.0 0.0 0.0 
0.0 0.0 0.0 
0.0 0.0 0.0 
0.0 0.0 0.0 
0.0 0.0 0.0 
0.0 0.0 0.0 
0.0 0.0 0.0 
0.0 0.0 0.0 
0.0 0.0 0.0 
0.0 0.0 0.0 
0.0 0.0 0.0 
0.0 0.0 0.0 
0.0 0.0 0.0 
0.0 0.0 0.0 
0.0 0.0 0.0 
0.0 0.0 0.0 
0.0 0.0 0.0 
0.0 0.0 0.0 
0.0 0.0 0.0 
0.0 0.0 0.0 
0.0 0.0 0.0 
0.0 0.0 0.0 
0.0 0.0 0.0 
0.0 0.0 0.0 
0.0 0.0 0.0 
0.0 0.0 0.0 
0.0 0.0 0.0 
0.0 0.0 0.0 
0.0 0.0 0.0 
0.0 0.0 0.0 
0.0 0.0 0.0 
0.0 0.0 0.0 
0.0 0.0 0.0 
0.0 0.0 0.0 
0.0 0.0 0.0 
0.0 0.0 0.0 
0.0 0.0 0.0 
0.0 0.0 0.0 
0.0 0.0 0.0 
0.0 0.0 0.0 
0.0 0.0 0.0 
0.0 0.0 0.0 
0.0 0.0 0.0 
0.0 0.0 0.0 
0.0 0.0 0.0 
0.0 0.0 0.0 
0.0 0.0 0.0 
0.0 0.0 0.0 
0.0 0.0 0.0 
0.0 0.0 0.0 
0.0 0.0 0.0 
0.0 0.0 0.0 
0.0 0.0 0.0 
0.0 0.0 0.0 
0.0 0.0 0.0 
0.0 0.0 0.0 
0.0 0.0 0.0 
0.0 0.0 0.0 
0.0 0.0 0.0 
0.0 0.0 0.0 
0.0 0.0 0.0 
0.0 0.0 0.0 
0.0 0.0 0.0 
0.0 0.0 0.0 
0.0 0.0 0.0 
0.0 0.0 0.0 
0.0 0.0 0.0 
0.0 0.0 0.0 
0.0 0.0 0.0 
0.0 0.0 0.0 
0.0 0.0 0.0 
0.0 0.0 0.0 
0.0 0.0 0.0 
0.0 0.0 0.0 
0.0 0.0 0.0 
0.0 0.0 0.0 
0.0 0.0 0.0 
0.0 0.0 0.0 
0.0 0.0 0.0 
0.0 0.0 0.0 
0.0 0.0 0.0 
0.0 0.0 0.0 
0.0 0.0 0.0 
0.0 0.0 0.0 
0.0 0.0 0.0 
0.0 0.0 0.0 
0.0 0.0 0.0 
0.0 0.0 0.0 
0.0 0.0 0.0 
0.0 0.0 0.0 
0.0 0.0 0.0 
0.0 0.0 0.0 
0.0 0.0 0.0 
0.0 0.0 0.0 
0.0 0.0 0.0 
0.0 0.0 0.0 
0.0 0.0 0.0 
0.0 0.0 0.0 
0.0 0.0 0.0 
0.0 0.0 0.0 
0.0 0.0 0.0 
0.0 0.0 0.0 
0.0 0.0 0.0 
0.0 0.0 0.0 
0.0 0.0 0.0 
0.0 0.0 0.0 
0.0 0.0 0.0 

VECTORS node_materi_velocity float
0.0 -7.716913742175e-04 0.0 
0.0 9.812808290806e-03 0.0 
0.0 0.0 0.0 
0.0 0.0 0.0 
0.0 -7.638215381488e-04 0.0 
0.0 -7.514698361074e-04 0.0 
0.0 -7.332978899908e-04 0.0 
0.0 -7.082249844835e-04 0.0 
0.0 -6.744973195425e-04 0.0 
0.0 -6.330399222837e-04 0.0 
0.0 -5.843729971868e-04 0.0 
0.0 -5.290429057152e-04 0.0 
0.0 -4.683612354125e-04 0.0 
0.0 -4.037374056256e-04 0.0 
0.0 -3.369751323317e-04 0.0 
0.0 -2.704718116648e-04 0.0 
0.0 -2.062113620460e-04 0.0 
0.0 -1.453338630046e-04 0.0 
0.0 -9.131802449741e-05 0.0 
0.0 -4.629214354721e-05 0.0 
0.0 -1.227403187541e-05 0.0 
0.0 7.817409302767e-06 0.0 
0.0 1.132684970569e-05 0.0 
0.0 0.0 0.0 
0.0 0.0 0.0 
0.0 0.0 0.0 
0.0 0.0 0.0 
0.0 0.0 0.0 
0.0 0.0 0.0 
0.0 0.0 0.0 
0.0 0.0 0.0 
0.0 0.0 0.0 
0.0 0.0 0.0 
0.0 0.0 0.0 
0.0 0.0 0.0 
0.0 0.0 0.0 
0.0 0.0 0.0 
0.0 0.0 0.0 
0.0 0.0 0.0 
0.0 0.0 0.0 
0.0 0.0 0.0 
0.0 0.0 0.0 
0.0 0.0 0.0 
0.0 0.0 0.0 
0.0 0.0 0.0 
0.0 0.0 0.0 
0.0 0.0 0.0 
0.0 0.0 0.0 
0.0 0.0 0.0 
0.0 0.0 0.0 
0.0 0.0 0.0 
0.0 0.0 0.0 
0.0 0.0 0.0 
0.0 0.0 0.0 
0.0 0.0 0.0 
0.0 0.0 0.0 
0.0 0.0 0.0 
0.0 0.0 0.0 
0.0 0.0 0.0 
0.0 0.0 0.0 
0.0 0.0 0.0 
0.0 0.0 0.0 
0.0 0.0 0.0 
0.0 0.0 0.0 
0.0 0.0 0.0 
0.0 0.0 0.0 
0.0 0.0 0.0 
0.0 0.0 0.0 
0.0 0.0 0.0 
0.0 0.0 0.0 
0.0 0.0 0.0 
0.0 0.0 0.0 
0.0 8.810300902583e-03 0.0 
0.0 7.809506405629e-03 0.0 
0.0 6.811680452243e-03 0.0 
0.0 5.817474160798e-03 0.0 
0.0 4.828452618684e-03 0.0 
0.0 3.845585874516e-03 0.0 
0.0 2.870217407483e-03 0.0 
0.0 1.903566266646e-03 0.0 
0.0 9.468731812060e-04 0.0 
-1.163691979933e-03 2.920780721732e-03 0.0 
1.701094324569e-03 9.793413518341e-03 0.0 
-7.920946471543e-04 4.209200047731e-03 0.0 
2.526240923940e-04 5.754423060306e-03 0.0 
-2.664278976806e-04 9.076509709435e-03 0.0 
4.781987088372e-04 1.106478429081e-02 0.0 
1.238304629963e-03 1.184029746107e-02 0.0 
1.717267720250e-03 1.206470762527e-02 0.0 
1.934816791299e-03 1.189942674612e-02 0.0 
1.951162984521e-03 1.137946362568e-02 0.0 
1.861699480284e-03 1.064853341667e-02 0.0 
0.0 1.690287337742e-02 0.0 
0.0 1.587047915314e-02 0.0 
0.0 1.485017872134e-02 0.0 
0.0 1.383822953078e-02 0.0 
0.0 1.282880717653e-02 0.0 
0.0 1.182235305800e-02 0.0 
0.0 1.081673691362e-02 0.0 
9.431716189643e-05 9.814874160666e-03 0.0 
1.897288602509e-04 9.821391360010e-03 0.0 
2.858567648565e-04 9.831866276332e-03 0.0 
3.831638513933e-04 9.846099021965e-03 0.0 
4.820986715929e-04 9.862896485739e-03 0.0 
5.827729486304e-04 9.881410979263e-03 0.0 
6.860642043257e-04 9.901124384654e-03 0.0 
7.922692831679e-04 9.919552278617e-03 0.0 
9.023364116900e-04 9.936021551936e-03 0.0 
1.017323271432e-03 9.947657793597e-03 0.0 
1.137743606709e-03 9.950947057528e-03 0.0 
1.265112462419e-03 9.942155207726e-03 0.0 
1.400419170610e-03 9.917173626539e-03 0.0 
1.545059630975e-03 9.869700480634e-03 0.0 
-1.103858030783e-03 2.355356131275e-03 0.0 
-9.882905790306e-04 1.807556081427e-03 0.0 
-8.495646990204e-04 1.331486891044e-03 0.0 
-7.017211050632e-04 9.283286340468e-04 0.0 
-5.671635272770e-04 5.921528965960e-04 0.0 
-4.452461410420e-04 3.135268860659e-04 0.0 
-3.364000332800e-04 8.372546491635e-05 0.0 
-2.424511561419e-04 -1.048706598020e-04 0.0 
-1.632045444290e-04 -2.578648123821e-04 0.0 
-9.869372931254e-05 -3.807404064785e-04 0.0 
-4.821043640989e-05 -4.801854948299e-04 0.0 
-9.802091632122e-06 -5.572349716927e-04 0.0 
1.583954567563e-05 -6.184837611343e-04 0.0 
3.294740639699e-05 -6.660847502612e-04 0.0 
4.104230001101e-05 -7.027655699565e-04 0.0 
4.151056030870e-05 -7.295854146620e-04 0.0 
3.592536976960e-05 -7.488127742681e-04 0.0 
2.602267300416e-05 -7.620799615196e-04 0.0 
1.371270161598e-05 -7.690698251772e-04 0.0 
-1.240341567524e-03 1.143134520038e-02 0.0 
-1.145524533361e-03 1.273849616902e-02 0.0 
-9.975660612561e-04 1.380022772311e-02 0.0 
-7.935344396358e-04 1.459624413371e-02 0.0 
-6.105573030067e-04 1.523648248168e-02 0.0 
-5.191826012173e-04 1.580569710649e-02 0.0 
3.143123829856e-04 1.623089652103e-02 0.0 
9.999398385354e-04 1.643795141778e-02 0.0 
1.019493464585e-03 1.659974363686e-02 0.0 
1.089300134047e-03 1.673041715373e-02 0.0 
1.163751104455e-03 1.683086013066e-02 0.0 
1.222234452291e-03 1.690160672864e-02 0.0 
1.254389180048e-03 1.694616195030e-02 0.0 
1.257337982714e-03 1.697160809236e-02 0.0 
1.232597081460e-03 1.698362163344e-02 0.0 
1.183458077083e-03 1.698615316245e-02 0.0 
1.113658502657e-03 1.698221185469e-02 0.0 
1.026673845729e-03 1.697410345495e-02 0.0 
9.256763901168e-04 1.696369669989e-02 0.0 
8.134970071556e-04 1.695235891368e-02 0.0 
6.927695450825e-04 1.694104178744e-02 0.0 
5.659661379475e-04 1.693024571401e-02 0.0 
4.354871388452e-04 1.691930962179e-02 0.0 
3.046098406827e-04 1.690450201505e-02 0.0 
1.571251342078e-04 1.690259775419e-02 0.0 
1.359748059026e-04 1.587124268983e-02 0.0 
2.682412997533e-04 1.588186069026e-02 0.0 
3.966740842198e-04 1.589509885261e-02 0.0 
5.205320763280e-04 1.590815317993e-02 0.0 
6.389335983405e-04 1.592212907349e-02 0.0 
7.505817687796e-04 1.593735015440e-02 0.0 
8.538067150232e-04 1.595334706229e-02 0.0 
9.466853869683e-04 1.596914096326e-02 0.0 
1.027113875884e-03 1.598328666362e-02 0.0 
1.092856684549e-03 1.599378118172e-02 0.0 
1.141690661761e-03 1.599797008198e-02 0.0 
1.171613178982e-03 1.599215817352e-02 0.0 
1.181165354198e-03 1.597116120799e-02 0.0 
1.169487558468e-03 1.592794592358e-02 0.0 
1.135664998410e-03 1.585511365692e-02 0.0 
1.077538745038e-03 1.574846533742e-02 0.0 
9.852378565339e-04 1.561249699514e-02 0.0 
8.143372855235e-04 1.556546897385e-02 0.0 
5.808497946797e-04 1.529297981565e-02 0.0 
3.926197829321e-04 1.466347969119e-02 0.0 
2.896002221173e-04 1.405634560764e-02 0.0 
2.570778907256e-04 1.332414812614e-02 0.0 
2.974136939022e-04 1.237091962055e-02 0.0 
1.120208828817e-03 1.270053492947e-02 0.0 
1.084089077358e-03 1.338446493733e-02 0.0 
1.090754873026e-03 1.397356111505e-02 0.0 
1.084998737688e-03 1.441719918899e-02 0.0 
1.103580463364e-03 1.462322882600e-02 0.0 
1.154463486077e-03 1.472567938246e-02 0.0 
1.182667379959e-03 1.483334379883e-02 0.0 
1.191410692177e-03 1.491562850545e-02 0.0 
1.183872683431e-03 1.496954915209e-02 0.0 
1.162030444618e-03 1.499894761864e-02 0.0 
1.126884177375e-03 1.500965855612e-02 0.0 
1.079041026603e-03 1.500736036965e-02 0.0 
1.019195050392e-03 1.499656406877e-02 0.0 
9.482661002263e-04 1.498063310588e-02 0.0 
8.673626242066e-04 1.496204015487e-02 0.0 
7.776745314398e-04 1.494260528765e-02 0.0 
6.803909195821e-04 1.492361559551e-02 0.0 
5.766294749187e-04 1.490588937692e-02 0.0 
4.674137093857e-04 1.488978504269e-02 0.0 
3.538113318675e-04 1.487524526628e-02 0.0 
2.373216095191e-04 1.486243933875e-02 0.0 
1.189549755921e-04 1.485466409992e-02 0.0 
1.126314765456e-04 1.384031128804e-02 0.0 
2.254241987779e-04 1.384966620537e-02 0.0 
3.370527031723e-04 1.386283692959e-02 0.0 
4.463821783331e-04 1.387891963092e-02 0.0 
5.523812855964e-04 1.389738381998e-02 0.0 
6.542108832326e-04 1.391789987966e-02 0.0 
7.511302307191e-04 1.393987623682e-02 0.0 
8.424475675813e-04 1.396229422122e-02 0.0 
9.275321997286e-04 1.398360245724e-02 0.0 
1.005867717930e-03 1.400161857562e-02 0.0 
1.077119188399e-03 1.401338496654e-02 0.0 
1.141150444947e-03 1.401499851149e-02 0.0 
1.197947584714e-03 1.400155291721e-02 0.0 
1.247430678281e-03 1.396742513396e-02 0.0 
1.289539027026e-03 1.390732914003e-02 0.0 
1.324835463286e-03 1.381770276104e-02 0.0 
1.358210647621e-03 1.369841827516e-02 0.0 
1.417702588910e-03 1.351142968546e-02 0.0 
1.512651255922e-03 1.318916264908e-02 0.0 
1.607255354787e-03 1.270322725338e-02 0.0 
1.782454831287e-03 1.228944348603e-02 0.0 
1.652566535939e-03 1.255731341241e-02 0.0 
1.546698522054e-03 1.273270328981e-02 0.0 
1.459804546685e-03 1.284809271509e-02 0.0 
1.379547466804e-03 1.292665216575e-02 0.0 
1.301305371977e-03 1.297643104919e-02 0.0 
1.222890827639e-03 1.300277954502e-02 0.0 
1.143307787303e-03 1.301117810238e-02 0.0 
1.061820497381e-03 1.300646438604e-02 0.0 
9.778692179472e-04 1.299282677713e-02 0.0 
8.910613825943e-04 1.297366759523e-02 0.0 
8.012224702297e-04 1.295164922454e-02 0.0 
7.083671642757e-04 1.292877039518e-02 0.0 
6.126154325122e-04 1.290645929476e-02 0.0 
5.142195090293e-04 1.288570849236e-02 0.0 
4.135583140446e-04 1.286720613542e-02 0.0 
3.111741262428e-04 1.285150774183e-02 0.0 
2.077559266090e-04 1.283932839344e-02 0.0 
1.039222903421e-04 1.283212140145e-02 0.0 
1.018723720465e-04 1.182445607690e-02 0.0 
2.040470972144e-04 1.183246586445e-02 0.0 
3.061711185891e-04 1.184475666157e-02 0.0 
4.079422071001e-04 1.186089888230e-02 0.0 
5.090952138724e-04 1.188009406975e-02 0.0 
6.094970846405e-04 1.190158140433e-02 0.0 
7.090556371476e-04 1.192446960072e-02 0.0 
8.079621916029e-04 1.194743028500e-02 0.0 
9.064525153785e-04 1.196879245362e-02 0.0 
1.004921739592e-03 1.198613063446e-02 0.0 
1.104067003837e-03 1.199625690897e-02 0.0 
1.204767066134e-03 1.199532397626e-02 0.0 
1.308115483462e-03 1.197861977612e-02 0.0 
1.415568828662e-03 1.194070843437e-02 0.0 
1.529037844194e-03 1.187432057975e-02 0.0 
1.652559328648e-03 1.177137686999e-02 0.0 
1.789964832197e-03 1.161513977411e-02 0.0 
1.707108133830e-03 1.078397646350e-02 0.0 
1.568160174220e-03 1.087273002259e-02 0.0 
1.437126556551e-03 1.092889365150e-02 0.0 
1.314661789917e-03 1.096112475295e-02 0.0 
1.198726576385e-03 1.097485080684e-02 0.0 
1.088012528593e-03 1.097493755255e-02 0.0 
9.813227178319e-04 1.096536278431e-02 0.0 
8.776368683685e-04 1.094934120646e-02 0.0 
7.762244412413e-04 1.092987926130e-02 0.0 
6.766009758884e-04 1.090908464877e-02 0.0 
5.780866288762e-04 1.088812783163e-02 0.0 
4.804741398961e-04 1.086862112988e-02 0.0 
3.834929702286e-04 1.085117725607e-02 0.0 
2.869987241904e-04 1.083662154678e-02 0.0 
1.909987682659e-04 1.082582231917e-02 0.0 
9.547892723871e-05 1.081952749052e-02 0.0 
-9.438438306230e-04 3.524409887245e-03 0.0 
-4.505863823194e-04 4.874862890371e-03 0.0 
1.712562144025e-04 7.397948565473e-03 0.0 
5.363993899784e-05 1.023519668973e-02 0.0 
9.173018692790e-04 1.153943548086e-02 0.0 
1.517604908117e-03 1.200054276787e-02 0.0 
1.863559943835e-03 1.203330234485e-02 0.0 
1.960709590884e-03 1.167198267822e-02 0.0 
1.918734753300e-03 1.103202882288e-02 0.0 
1.789813774886e-03 1.023222793760e-02 0.0 
2.178494371568e-04 5.030791545469e-03 0.0 
4.600813207343e-04 1.695069464930e-04 0.0 
-1.185153257653e-05 -3.415457976296e-04 0.0 
-3.523007403419e-04 7.223955844429e-04 0.0 
2.959700214956e-04 7.467320330180e-05 0.0 
1.210301044960e-03 9.470564039957e-03 0.0 
9.898391656129e-05 -3.678634679713e-04 0.0 
5.752431031383e-04 2.939472532206e-04 0.0 
2.061257445525e-03 1.104943478558e-02 0.0 
6.005593264113e-04 4.367610478315e-04 0.0 
2.186710104769e-03 1.069796451433e-02 0.0 
1.641791246464e-04 3.360034648219e-05 0.0 
7.415757758841e-05 -6.517902730269e-04 0.0 
5.499542714907e-04 5.988762483966e-04 0.0 
1.862261671413e-03 9.279764413396e-03 0.0 
7.018629069739e-05 -6.068029923196e-04 0.0 
1.018699001858e-04 -1.856201025158e-04 0.0 
4.756309510165e-04 7.189810873503e-04 0.0 
3.088320030191e-04 7.613852661482e-04 0.0 
7.922056738143e-05 8.087800225198e-04 0.0 
1.512956664172e-04 8.731493512019e-04 0.0 
2.094718274516e-04 7.704537466768e-04 0.0 
1.486036716210e-03 8.977617548045e-03 0.0 
9.535946020774e-04 9.021062134947e-03 0.0 
6.206245216011e-04 8.952115832167e-03 0.0 
5.536335165339e-05 5.307537308162e-03 0.0 
9.975740558520e-05 2.025706439103e-05 0.0 
-6.391056774487e-04 2.067426650921e-03 0.0 
6.079450902508e-05 -7.363521417982e-04 0.0 
7.009644699705e-05 -2.926579234382e-05 0.0 
3.185636338709e-04 8.970985793100e-03 0.0 
4.397689922146e-05 -7.210649645830e-04 0.0 
4.373466015398e-04 8.471410350402e-04 0.0 
5.533401671432e-04 3.351927235900e-04 0.0 
5.798356414347e-04 5.135341801494e-04 0.0 
5.570937590253e-04 2.429665715195e-04 0.0 
3.743357214446e-04 1.175520855901e-04 0.0 
-1.768838812403e-04 1.594930052136e-04 0.0 
1.204430425162e-03 9.081091467559e-03 0.0 
2.666076066034e-04 5.837112226185e-05 0.0 
4.087058214327e-05 3.398874746227e-03 0.0 
4.999699230327e-05 -5.319965708514e-04 0.0 
8.930791675732e-05 -4.979930211128e-04 0.0 
3.943489283526e-05 6.563266549966e-04 0.0 
1.743127785363e-03 1.053889711444e-02 0.0 
5.653359604314e-04 7.153471216214e-03 0.0 
2.209869455588e-03 1.105958511276e-02 0.0 
2.057835984252e-03 1.007131631469e-02 0.0 
-5.636667266263e-04 3.473358243208e-03 0.0 
6.946636851230e-05 7.191627411699e-03 0.0 
4.505419638083e-05 1.184920837339e-05 0.0 
2.894218231899e-05 -7.605811964378e-04 0.0 
2.178162272767e-05 1.494762783991e-03 0.0 
1.773207773787e-03 8.821874701954e-03 0.0 
1.904729749095e-03 8.312829928925e-03 0.0 
1.735308306446e-03 7.945316564110e-03 0.0 
1.889662677747e-03 7.360633576135e-03 0.0 
1.724739970894e-03 6.905607306998e-03 0.0 
1.839652294297e-03 6.389448833365e-03 0.0 
2.025075057108e-03 6.808033419084e-03 0.0 
1.944975570363e-03 5.859828039643e-03 0.0 
2.146986293695e-03 6.249564062748e-03 0.0 
1.650517132466e-03 5.932484378210e-03 0.0 
2.032611257082e-03 5.321557547497e-03 0.0 
2.249552877720e-03 5.680094315576e-03 0.0 
2.098222321911e-03 4.781503431930e-03 0.0 
2.326566641117e-03 5.106310344534e-03 0.0 
2.458487868203e-03 5.994762161473e-03 0.0 
2.545198723660e-03 5.386525018506e-03 0.0 
2.654671722177e-03 6.255015377328e-03 0.0 
2.748525920504e-03 5.607172246658e-03 0.0 
2.599131730530e-03 4.786738193954e-03 0.0 
2.805986308316e-03 4.972169635375e-03 0.0 
2.931764095232e-03 5.761629219440e-03 0.0 
2.988716438639e-03 5.089490689616e-03 0.0 
3.089074271386e-03 5.840667618191e-03 0.0 
3.141403750035e-03 5.129738457551e-03 0.0 
3.215680610681e-03 5.836570717304e-03 0.0 
3.259014253324e-03 5.090745214251e-03 0.0 
3.148894628267e-03 4.455530687726e-03 0.0 
3.255640229789e-03 4.393360780770e-03 0.0 
3.334502622344e-03 4.969663520445e-03 0.0 
3.317502845701e-03 4.255823713083e-03 0.0 
3.361549582350e-03 4.766754770027e-03 0.0 
3.329330375439e-03 4.046234895328e-03 0.0 
3.257670048427e-03 3.608622643920e-03 0.0 
3.257043015259e-03 3.404555927255e-03 0.0 
3.287461432524e-03 3.772817262953e-03 0.0 
3.205023257081e-03 3.149779171279e-03 0.0 
3.190732962354e-03 3.448866024385e-03 0.0 
3.102844429444e-03 2.856192650738e-03 0.0 
3.041941568185e-03 3.089351198697e-03 0.0 
2.953580680942e-03 2.534915874929e-03 0.0 
2.990247162512e-03 2.345197293846e-03 0.0 
2.844266523611e-03 2.060214434245e-03 0.0 
2.763538943611e-03 2.200397853061e-03 0.0 
2.663051323719e-03 1.767503636036e-03 0.0 
2.717176242004e-03 1.659227993140e-03 0.0 
2.546356460907e-03 1.404558581154e-03 0.0 
2.575201889294e-03 1.322978745402e-03 0.0 
2.416020026267e-03 1.102179566666e-03 0.0 
2.353451867559e-03 1.153749020848e-03 0.0 
2.236742632833e-03 8.846190505536e-04 0.0 
2.274696100690e-03 8.526420652577e-04 0.0 
2.108588016369e-03 6.639979784056e-04 0.0 
2.042428322711e-03 6.743562110957e-04 0.0 
1.930305529159e-03 4.828539688509e-04 0.0 
1.972605551176e-03 4.860970052847e-04 0.0 
1.808320224820e-03 3.289330386586e-04 0.0 
1.744610563517e-03 3.118533600547e-04 0.0 
1.637654162191e-03 1.810896057634e-04 0.0 
1.680418608179e-03 2.084248886855e-04 0.0 
1.522677089068e-03 7.926726129656e-05 0.0 
1.463866041706e-03 4.356693464831e-05 0.0 
1.362948577876e-03 -4.001375111233e-05 0.0 
1.402541415690e-03 2.759985638033e-06 0.0 
1.254850861943e-03 -1.021090597981e-04 0.0 
1.277505598233e-03 -5.350069575124e-05 0.0 
1.201357494776e-03 -1.508546483896e-04 0.0 
1.106472179953e-03 -1.987504811207e-04 0.0 
1.042713115091e-03 -2.512858697387e-04 0.0 
9.604125058118e-04 -2.865607633422e-04 0.0 
3.160721676460e-03 3.030772263937e-03 0.0 
8.922490260481e-04 -3.396045346466e-04 0.0 
9.570362651278e-04 -2.987250119499e-04 0.0 
8.198090509516e-04 -3.650781842628e-04 0.0 
8.704192039620e-04 -3.083660698502e-04 0.0 
7.500023728031e-04 -4.174593063306e-04 0.0 
6.863402664644e-04 -4.346046580920e-04 0.0 
6.179290279618e-04 -4.851168290850e-04 0.0 
3.098752685778e-03 3.743779139094e-03 0.0 
2.616128643298e-03 4.203768322102e-03 0.0 
5.618041734506e-04 -4.954474814058e-04 0.0 
4.975718328151e-04 -5.431215479204e-04 0.0 
5.364678863025e-04 -5.285717141099e-04 0.0 
4.236433316680e-04 -5.830596467767e-04 0.0 
1.548965831024e-03 6.439083361130e-03 0.0 
1.458694393572e-03 5.455272605222e-03 0.0 
1.374046814393e-03 5.951747659907e-03 0.0 
1.266910895535e-03 4.966257107684e-03 0.0 
1.198627498456e-03 5.445055741071e-03 0.0 
3.897364533810e-04 -5.923386023482e-04 0.0 
1.863649016595e-03 4.391803199661e-03 0.0 
1.323243711142e-03 4.476583867188e-03 0.0 
2.992632499342e-03 6.577256606790e-03 0.0 
3.346629805090e-03 5.562139885550e-03 0.0 
2.706335684276e-03 1.539441112820e-03 0.0 
6.138263708086e-04 -4.413683517606e-04 0.0 
4.961845466317e-04 -4.968417756727e-04 0.0 
5.336718132210e-04 -4.396847114826e-04 0.0 
1.408243262903e-03 4.429595781856e-05 0.0 
1.267909691113e-03 -7.265003516111e-06 0.0 
1.377772729287e-03 8.171035652916e-05 0.0 
1.225082912975e-03 3.434148208506e-05 0.0 
1.310316414564e-03 1.126784135895e-04 0.0 
1.148650428681e-03 6.906455169917e-05 0.0 
1.074618751500e-03 1.194264362967e-06 0.0 
9.920059020792e-04 3.843331509346e-05 0.0 
9.279591446927e-04 -2.046715508077e-05 0.0 
1.205780573835e-03 1.348811397840e-04 0.0 
1.378821832837e-03 1.894802938158e-04 0.0 
8.419325053925e-04 1.806425500825e-05 0.0 
7.865838452639e-04 -3.309976615516e-05 0.0 
6.998800558070e-04 5.525831733093e-06 0.0 
6.519921922584e-04 -3.873571618501e-05 0.0 
7.170012117058e-04 -8.578561495803e-05 0.0 
5.893275916961e-04 -8.499418058902e-05 0.0 
6.362328148668e-04 -1.386613713008e-04 0.0 
2.542041336701e-03 1.230014163198e-03 0.0 
2.631807946011e-03 1.407539208964e-03 0.0 
2.447590713979e-03 1.125413976338e-03 0.0 
2.493763575030e-03 1.262881143101e-03 0.0 
2.292126899685e-03 1.008734588245e-03 0.0 
2.292761430350e-03 1.105838254830e-03 0.0 
2.075582664559e-03 8.798705880674e-04 0.0 
2.083417431781e-03 7.992246117566e-04 0.0 
2.139357775288e-03 4.237523437562e-03 0.0 
2.541982216061e-03 1.864314750053e-03 0.0 
2.611027455597e-03 2.327131839363e-03 0.0 
2.352171243906e-03 1.950873601183e-03 0.0 
2.383756036853e-03 2.439288889887e-03 0.0 
2.092823161169e-03 2.027110376057e-03 0.0 
2.079891887504e-03 2.539749163896e-03 0.0 
1.764365305943e-03 2.097332038815e-03 0.0 
1.799496101760e-03 1.644108738929e-03 0.0 
1.457409544488e-03 1.693929002534e-03 0.0 
1.512763127669e-03 1.294678895704e-03 0.0 
1.167557920896e-03 1.330420570745e-03 0.0 
1.239224809515e-03 9.809543568860e-04 0.0 
3.112900067049e-03 3.828356901518e-03 0.0 
2.500919738515e-03 1.378393897302e-03 0.0 
2.252516872800e-03 1.177190133777e-03 0.0 
2.465051397773e-03 1.463821525826e-03 0.0 
4.449867061547e-04 -5.637336575673e-04 0.0 
5.254019474940e-04 -3.897857765168e-05 0.0 
1.241976157551e-03 1.961521207937e-04 0.0 
1.427005104023e-03 2.617629486576e-04 0.0 
1.853636496593e-03 6.939362014804e-04 0.0 
3.252258866503e-04 -6.282426946368e-04 0.0 
1.701571366514e-03 2.634007710055e-03 0.0 
2.036050654324e-03 3.145772202265e-03 0.0 
1.079803544372e-03 4.458610335384e-03 0.0 
1.027612684267e-03 4.926160678309e-03 0.0 
1.253070000738e-03 2.499292374515e-04 0.0 
2.948533554129e-04 -6.337750888852e-04 0.0 
8.795997716888e-04 6.591816441651e-05 0.0 
1.063344976251e-03 1.747565637634e-03 0.0 
4.682511337952e-04 -7.947006625219e-05 0.0 
4.079597667457e-04 -3.515328842976e-05 0.0 
9.875119681078e-04 -6.662437747992e-05 0.0 
2.168296353331e-03 1.216468713440e-03 0.0 
2.389035998684e-03 1.516658690480e-03 0.0 
1.542666714335e-03 9.609656356950e-04 0.0 
1.284265560941e-03 6.896773704992e-04 0.0 
9.849707324820e-04 7.026147545176e-04 0.0 
1.051201917376e-03 4.423212554990e-04 0.0 
1.306568196934e-03 4.476002142016e-04 0.0 
1.080946536027e-03 2.399391226642e-04 0.0 
8.333475396450e-04 2.322258566398e-04 0.0 
8.745731131790e-04 5.844709458410e-05 0.0 
1.091955122690e-03 7.377895400226e-05 0.0 
8.971899099842e-04 -8.207554036871e-05 0.0 
6.890167403322e-04 -9.672051301077e-05 0.0 
7.217706689764e-04 -2.155677732585e-04 0.0 
4.451740521519e-04 -2.937706456607e-06 0.0 
7.801731830434e-04 1.373427060220e-03 0.0 
2.528999819178e-03 6.902743069734e-03 0.0 
1.065290583438e-03 1.903412423622e-04 0.0 
1.802386230302e-03 7.415699375082e-04 0.0 
9.001114384911e-04 3.940799440755e-03 0.0 
8.631714021674e-04 4.398867397388e-03 0.0 
9.659871419763e-04 5.393931184517e-03 0.0 
8.157010849057e-04 4.855649178353e-03 0.0 
7.076854785960e-04 3.865930682268e-03 0.0 
6.738153660247e-04 4.315967723958e-03 0.0 
7.605827940826e-04 5.310909148639e-03 0.0 
6.308768083993e-04 4.764510599819e-03 0.0 
6.997672761193e-04 5.762924565600e-03 0.0 
5.808730848434e-04 5.210770623778e-03 0.0 
5.101995733285e-04 4.218077532509e-03 0.0 
4.702017149557e-04 4.660920787664e-03 0.0 
5.254928046774e-04 5.655542367424e-03 0.0 
4.235486540292e-04 5.102819538169e-03 0.0 
4.659108624695e-04 6.098348161347e-03 0.0 
3.713285418651e-04 5.543801048710e-03 0.0 
3.302220405351e-04 4.553427546953e-03 0.0 
2.443675111704e-04 -6.641584440237e-04 0.0 
1.871406680377e-03 6.285616364560e-04 0.0 
1.630383579315e-03 5.429857885511e-04 0.0 
4.254984546302e-04 -4.902357006537e-04 0.0 
4.507452904037e-04 -4.301876824439e-04 0.0 
5.590468808731e-04 -3.780696119477e-04 0.0 
4.615478078095e-04 -3.677560089417e-04 0.0 
2.834968005644e-04 4.997253613171e-03 0.0 
2.466611667409e-04 4.008741615276e-03 0.0 
1.607272838287e-03 3.268691621451e-03 0.0 
1.956986199417e-03 3.862262394686e-03 0.0 
9.232458883409e-04 3.482081821334e-03 0.0 
3.548647357990e-04 -7.062718320311e-05 0.0 
3.986745269363e-04 -1.214374767192e-04 0.0 
3.337280660645e-03 5.285469330929e-03 0.0 
3.287015392793e-03 6.166079269420e-03 0.0 
3.239050493847e-03 5.812933437192e-03 0.0 
3.143506207673e-03 6.796616936106e-03 0.0 
3.176831938080e-03 7.115422659927e-03 0.0 
3.050806856960e-03 6.354427097617e-03 0.0 
1.557196274340e-03 2.613323773090e-04 0.0 
4.001118062420e-04 3.674094806518e-03 0.0 
5.628832388102e-04 -5.024040778620e-04 0.0 
4.518577476789e-04 -5.326839786646e-04 0.0 
3.008032904438e-04 -2.903038548699e-05 0.0 
2.055558429243e-03 7.007899948632e-04 0.0 
2.974585913524e-03 3.835446157908e-03 0.0 
2.905896542878e-03 3.270991898664e-03 0.0 
2.734883053470e-03 3.226521510901e-03 0.0 
2.633155345072e-03 2.721575438092e-03 0.0 
2.428187712218e-03 2.628138443132e-03 0.0 
2.291429898140e-03 2.181033199268e-03 0.0 
2.495516810369e-03 2.264691167018e-03 0.0 
2.036773626936e-03 1.216150274812e-03 0.0 
2.120196195671e-03 1.778245127936e-03 0.0 
3.195119972195e-04 5.993928515318e-03 0.0 
2.697363193830e-03 1.703113344007e-03 0.0 
1.083832535703e-03 -5.828003727641e-05 0.0 
2.614103543571e-04 -6.531634826790e-04 0.0 
5.218170291407e-04 -2.280814231955e-04 0.0 
2.137239138083e-04 -6.672364875885e-04 0.0 
2.532642380592e-04 -6.314618407022e-04 0.0 
1.036824267708e-03 2.242121031232e-04 0.0 
2.050927365878e-03 2.040013143841e-03 0.0 
2.190099588984e-03 2.475196833198e-03 0.0 
2.979249262806e-03 7.859510190487e-03 0.0 
3.004428624901e-03 8.109481752312e-03 0.0 
1.802669961874e-03 9.586882455366e-04 0.0 
1.280686237693e-03 6.450004340664e-03 0.0 
8.251986952162e-04 6.315924265412e-03 0.0 
7.498280192628e-04 6.768960223381e-03 0.0 
1.742912319207e-04 -6.948962261917e-04 0.0 
4.710527554646e-04 -9.937482644467e-05 0.0 
5.638115304663e-04 3.331667431192e-03 0.0 
2.361397246723e-03 3.698345973661e-03 0.0 
2.301172050854e-03 4.501252059736e-03 0.0 
6.254958057102e-04 1.805949265011e-03 0.0 
3.599084182775e-04 1.426221395386e-03 0.0 
2.083309076394e-04 4.440351607282e-03 0.0 
1.752969038491e-04 3.466734974538e-03 0.0 
5.697250250165e-04 -3.144987024410e-04 0.0 
4.633919957927e-04 -3.030009693186e-04 0.0 
1.234674361803e-03 2.930517298732e-04 0.0 
5.673313995492e-04 -3.289609169307e-04 0.0 
2.003775197170e-04 3.030371099712e-03 0.0 
1.854045150005e-03 5.459217589321e-04 0.0 
1.996060553959e-03 5.894116776196e-04 0.0 
3.547356428768e-04 -4.174382661917e-04 0.0 
1.467231407794e-03 4.014303737211e-03 0.0 
1.123886407394e-03 3.390429967747e-03 0.0 
1.282425035226e-03 9.600318863121e-05 0.0 
7.342637063785e-04 -3.078009347281e-04 0.0 
1.742570431737e-04 -6.634026050670e-04 0.0 
9.744956601339e-04 2.438014708047e-04 0.0 
5.730135877421e-04 2.888104391213e-03 0.0 
2.325288580291e-03 1.861513280731e-03 0.0 
2.659329860456e-03 2.297129241683e-03 0.0 
1.919508290408e-03 1.424027360304e-03 0.0 
3.914633836869e-04 -3.391106441570e-04 0.0 
8.493719487149e-04 1.698402712674e-04 0.0 
2.504423357850e-04 -5.942125607682e-05 0.0 
1.796629874522e-03 1.875772048366e-03 0.0 
1.922804084018e-03 2.268996593198e-03 0.0 
2.658807485798e-03 4.273262702018e-03 0.0 
2.618077092602e-03 5.169135692428e-03 0.0 
2.201986769699e-03 5.466368950582e-03 0.0 
2.516598677689e-03 6.228603008329e-03 0.0 
2.204693288139e-03 7.197736367492e-03 0.0 
2.913549792837e-03 4.845617399489e-03 0.0 
2.701072377739e-03 7.145551492603e-03 0.0 
2.540459555590e-03 7.828089630890e-03 0.0 
2.683905546343e-03 8.056949102796e-03 0.0 
3.155521281094e-03 7.321471524205e-03 0.0 
2.977113389168e-03 8.248738404534e-03 0.0 
2.657076558491e-03 2.875136369482e-03 0.0 
2.803921869038e-03 1.745452948360e-03 0.0 
6.738496488472e-04 -3.201916916380e-04 0.0 
7.619497197153e-04 -1.394751424615e-04 0.0 
1.531016990358e-03 1.466826919792e-04 0.0 
4.219575572950e-04 3.234579823235e-03 0.0 
3.150683226080e-04 2.696806321943e-03 0.0 
5.670907161955e-04 6.656290370916e-03 0.0 
4.971919564263e-04 7.099081559113e-03 0.0 
3.474897291658e-04 -5.896802138709e-04 0.0 
3.365382297193e-04 -5.522790138538e-04 0.0 
1.149495529856e-03 -9.293197985321e-05 0.0 
8.872591002924e-04 1.449036900140e-04 0.0 
7.382349457957e-04 2.967416146408e-03 0.0 
7.279625012826e-04 2.519384961215e-03 0.0 
9.288115846338e-04 3.022843017484e-03 0.0 
1.181935375304e-03 3.219376284144e-04 0.0 
2.300737515628e-03 1.540439195310e-03 0.0 
2.367294001978e-03 9.733421244999e-04 0.0 
5.280888181950e-04 1.051415946082e-03 0.0 
3.122131476578e-03 3.172436551166e-03 0.0 
2.485844885648e-04 -6.054005728894e-04 0.0 
2.388044715766e-03 3.991128651411e-03 0.0 
2.054882729518e-04 -2.105552013046e-05 0.0 
2.373229911205e-04 1.065590329510e-06 0.0 
1.620923643492e-03 9.146385599805e-04 0.0 
2.037739313539e-03 8.730521056213e-03 0.0 
3.000572665966e-03 2.654427378575e-03 0.0 
3.033103936002e-03 2.524070433477e-03 0.0 
2.492383677092e-03 8.765233010803e-03 0.0 
2.603068456351e-03 8.983515497166e-03 0.0 
2.806258387866e-03 8.213611348963e-03 0.0 
2.688651818810e-03 9.132042707360e-03 0.0 
1.243580090459e-03 -2.726622155301e-05 0.0 
1.057774403663e-03 -1.606056622575e-04 0.0 
1.582698946583e-03 1.447802381050e-03 0.0 
1.685760948574e-03 1.309810056910e-03 0.0 
1.512004614766e-03 1.646689754795e-03 0.0 
1.632353634998e-03 2.005911105871e-03 0.0 
1.367594309517e-03 6.921250777347e-04 0.0 
1.557435290220e-03 7.413719056943e-04 0.0 
2.012614394944e-04 -6.233858053755e-04 0.0 
2.778903287229e-03 9.098759169357e-03 0.0 
4.302444237244e-04 2.358748098124e-03 0.0 
2.363541233003e-03 8.489943986647e-03 0.0 
6.798602751711e-04 1.285215022536e-04 0.0 
7.215542326986e-04 1.090779198854e-04 0.0 
1.314601870138e-04 1.103619660382e-03 0.0 
3.093249318587e-04 7.316791675030e-04 0.0 
1.353996678050e-04 2.515147668567e-03 0.0 
2.044742099746e-03 6.625638423014e-03 0.0 
2.328463947990e-03 7.454522874166e-03 0.0 
1.677735968656e-03 5.719102212405e-03 0.0 
3.120555520387e-05 1.362785061359e-05 0.0 
1.375806388658e-04 8.966123443313e-03 0.0 
1.537410735493e-04 4.915580171137e-06 0.0 
3.087063948810e-03 7.423503424611e-03 0.0 
1.455246205755e-04 2.044711174143e-03 0.0 
2.851683313978e-03 2.206365478016e-03 0.0 
3.266587599269e-03 4.929601930911e-03 0.0 
1.441229892960e-03 3.815934401785e-04 0.0 
1.109489538278e-04 3.028574448430e-03 0.0 
8.058232095866e-05 1.962997857179e-03 0.0 
8.668438610586e-04 7.310561906314e-03 0.0 
7.834395402293e-04 7.779882282949e-03 0.0 
9.554630316069e-04 6.867192824579e-03 0.0 
9.346827024612e-04 2.241800579003e-03 0.0 
3.928204275623e-04 2.379998557427e-03 0.0 
3.019945367750e-04 3.133156370469e-03 0.0 
3.879333996104e-04 -5.454166398962e-04 0.0 
3.169388896679e-04 -5.313425196489e-04 0.0 
5.812605403338e-04 -4.047829909292e-04 0.0 
7.250023196786e-04 -3.774181913338e-04 0.0 
6.790820663144e-04 -2.574890702343e-04 0.0 
7.909493762409e-04 -2.573217852932e-04 0.0 
2.361638158222e-03 3.454577078367e-03 0.0 
2.112165230142e-03 3.218116142193e-03 0.0 
2.798948643721e-03 3.777910141227e-03 0.0 
1.805916041487e-03 4.517186963237e-04 0.0 
1.909892662733e-03 4.706773522248e-04 0.0 
2.086515517491e-03 6.236884105316e-04 0.0 
3.202754272727e-04 2.292649397238e-03 0.0 
2.105821125960e-04 1.682493697104e-03 0.0 
1.438638207534e-03 1.248113539806e-04 0.0 
1.491981750057e-03 2.719312287531e-04 0.0 
1.187723210729e-03 -1.233321581502e-04 0.0 
4.147440526071e-04 1.940013520693e-03 0.0 
1.693895189473e-04 1.719489595920e-05 0.0 
2.524954926341e-04 1.905625311886e-05 0.0 
2.239315029985e-04 -5.623855743963e-04 0.0 
3.118769950447e-04 -4.982134049800e-04 0.0 
9.461786655493e-04 4.155274749912e-03 0.0 
6.124837817585e-04 3.503581383252e-03 0.0 
7.060936398508e-04 2.110896239386e-03 0.0 
9.151371523639e-04 2.574182563800e-03 0.0 
4.950653308607e-04 1.576058772892e-03 0.0 
1.226194966446e-04 -6.563440713006e-04 0.0 
2.483264376756e-03 1.893644609693e-03 0.0 
8.977696225228e-04 2.563012495809e-04 0.0 
1.116258040422e-03 3.420582902048e-04 0.0 
6.550324900590e-04 1.758152988925e-04 0.0 
1.874020497094e-03 1.185300596783e-03 0.0 
1.415919175725e-03 8.391711404412e-04 0.0 
1.435055746038e-03 9.912860054621e-04 0.0 
-6.850942002841e-05 1.479194325798e-03 0.0 
6.079186707247e-05 2.359650548084e-03 0.0 
5.965589184285e-04 7.662473169329e-03 0.0 
-2.150011755688e-04 1.201514705196e-03 0.0 
5.181653234729e-04 8.139948642064e-03 0.0 
4.276042394384e-04 7.548108700188e-03 0.0 
4.518470953718e-04 8.613986400845e-03 0.0 
1.074686460690e-04 -6.896628406028e-04 0.0 
9.970249440747e-04 8.036161505846e-03 0.0 
1.098003468619e-03 7.457457364007e-03 0.0 
1.580659038884e-04 -5.010228920764e-04 0.0 
2.766544672323e-04 1.427633610265e-03 0.0 
1.617220333160e-04 -6.084520322131e-04 0.0 
1.846600076457e-04 -6.447652128702e-04 0.0 
5.202038382924e-04 9.343842079209e-05 0.0 
5.689798671924e-04 8.254714265582e-05 0.0 
3.788731147749e-04 6.904440693319e-05 0.0 
4.413994408269e-04 6.457393383459e-05 0.0 
5.939803330377e-04 6.222554891008e-05 0.0 
4.617215362204e-04 4.757795158936e-05 0.0 
7.072921628864e-04 8.316694943678e-03 0.0 
3.021507652827e-04 4.764867034839e-05 0.0 
3.417313581717e-04 3.760091811847e-05 0.0 
1.994406999900e-04 3.226278769261e-05 0.0 
2.449153945121e-03 9.933251545608e-03 0.0 
2.728955544310e-03 6.916245408932e-03 0.0 
2.511749125074e-03 8.164662033461e-03 0.0 
1.997927632813e-03 8.914234192269e-03 0.0 
1.102987036317e-03 1.229861265329e-03 0.0 
1.349384243126e-03 1.732810111740e-03 0.0 
1.558217975907e-04 -4.615064726109e-05 0.0 
1.787257069959e-04 -9.131497855348e-05 0.0 
3.563458194324e-04 8.070529366795e-03 0.0 
2.605688921248e-04 8.102070706867e-03 0.0 
2.788202692394e-04 7.191202271566e-03 0.0 
2.016174950641e-04 7.294362176469e-03 0.0 
2.136881143769e-04 6.402524894975e-03 0.0 
1.378064352478e-04 6.511248938038e-03 0.0 
1.602566237862e-04 5.621766659508e-03 0.0 
1.156196658570e-03 8.476961926751e-04 0.0 
1.399654339004e-03 6.902169740199e-03 0.0 
2.285392460962e-03 9.451428187262e-03 0.0 
1.105435561845e-03 5.055484617349e-04 0.0 
1.343013758691e-03 5.826031623070e-04 0.0 
2.756258521201e-03 9.163357912670e-03 0.0 
2.508094886229e-03 1.008641674433e-02 0.0 
5.627317029196e-04 1.261336437141e-04 0.0 
2.918669663390e-03 4.023184982807e-03 0.0 
2.090190893764e-04 9.000969891644e-04 0.0 
-7.258158990396e-04 2.588556131810e-03 0.0 
-2.111211234462e-04 2.332795927533e-03 0.0 
3.118752039218e-03 4.506823111108e-03 0.0 
2.905777650992e-03 8.284380308966e-03 0.0 
2.883757774648e-03 7.471876696453e-03 0.0 
2.673821788160e-03 8.636843472844e-03 0.0 
1.651998145964e-03 4.230374201019e-04 0.0 
2.651446855133e-04 -4.259864631013e-04 0.0 
1.288783827654e-03 4.881396766195e-03 0.0 
2.336809701612e-04 5.528462928403e-03 0.0 
7.165775681684e-04 4.987797156104e-03 0.0 
8.174398403312e-05 -6.918763917903e-05 0.0 
2.898486764478e-03 3.315439261035e-03 0.0 
3.222079265438e-03 6.567913142247e-03 0.0 
1.839412573272e-03 4.703939645138e-03 0.0 
2.884661777766e-03 5.812547851656e-03 0.0 
2.343983030837e-03 6.602579371223e-03 0.0 
2.054997088082e-03 7.770553903529e-03 0.0 
2.207794035370e-03 8.163525595261e-03 0.0 
2.844484632159e-03 2.713970046999e-03 0.0 
2.756025871727e-03 8.934920770934e-03 0.0 
2.366783501927e-03 9.870737068539e-03 0.0 
2.835529055079e-03 6.452767918870e-03 0.0 
1.141651333795e-03 3.515121412332e-03 0.0 
1.142009129292e-03 3.044779950150e-03 0.0 
8.833429287398e-04 2.156845823307e-03 0.0 
1.118275344891e-03 2.590696666556e-03 0.0 
1.379446384790e-03 3.504887268647e-03 0.0 
1.370927801743e-03 3.028450857596e-03 0.0 
1.067076724540e-03 2.157146185241e-03 0.0 
1.334796158426e-03 2.565939668309e-03 0.0 
9.027791986470e-04 1.565344558105e-03 0.0 
1.254981314521e-03 2.101655759561e-03 0.0 
1.609175016809e-03 2.971203413759e-03 0.0 
1.557498485196e-03 2.522123736233e-03 0.0 
1.198083987882e-03 1.778904006937e-03 0.0 
1.890188512900e-03 3.392146497324e-03 0.0 
8.740856198746e-04 4.234795558547e-04 0.0 
3.246495874477e-03 4.140686515955e-03 0.0 
1.542286058109e-04 1.876165397108e-03 0.0 
4.006434101808e-05 2.824925227897e-03 0.0 
3.122919218300e-03 6.619090878355e-03 0.0 
4.383677980716e-04 7.498268616807e-04 0.0 
3.532996490112e-04 7.718805652322e-04 0.0 
2.386603386662e-03 3.017090658767e-03 0.0 
5.671757587873e-04 5.544235070889e-04 0.0 
2.375875527608e-03 7.542590189947e-03 0.0 
1.371847375723e-03 2.169753886832e-03 0.0 
6.000280968032e-04 4.814807296318e-04 0.0 
1.362387994186e-03 3.987151144739e-03 0.0 
1.587435345190e-03 4.459495527934e-03 0.0 
1.531009409692e-03 4.959621815526e-03 0.0 
2.656382651629e-04 7.388065008148e-04 0.0 
1.042290503681e-03 6.408204876777e-03 0.0 
5.481446029703e-04 3.048704102695e-04 0.0 
2.684758018923e-03 1.567837064752e-03 0.0 
2.862770904174e-03 1.931903312861e-03 0.0 
2.959491274205e-03 2.144550860887e-03 0.0 
1.631118818379e-03 3.469112615343e-03 0.0 
4.855241013218e-04 1.928180008815e-04 0.0 
8.702364835882e-04 3.341447288792e-04 0.0 
8.117659396255e-04 2.854556931454e-04 0.0 
1.210472867191e-03 4.448820330743e-04 0.0 
4.196029046352e-04 1.434910358900e-04 0.0 
4.645965845874e-04 6.259176887797e-04 0.0 
4.711047196350e-04 5.674172235930e-04 0.0 
1.303747845644e-03 2.528456283541e-04 0.0 
1.529936912967e-03 4.558215345911e-04 0.0 
1.709555076063e-03 4.681488881034e-04 0.0 
1.763649123559e-03 6.832184081893e-04 0.0 
1.547529755287e-03 6.840026054448e-04 0.0 
1.797435690113e-03 9.449947282707e-04 0.0 
1.998733626191e-03 9.315097045965e-04 0.0 
1.809010751205e-03 1.263129435260e-03 0.0 
1.756425732711e-03 2.453331286083e-03 0.0 
3.423174967146e-04 1.004716187415e-04 0.0 
1.475373805500e-03 1.721550784955e-04 0.0 
1.641758151729e-03 2.507588246890e-04 0.0 
1.682172501563e-03 2.322523172671e-04 0.0 
7.746209968891e-04 -3.187031248830e-04 0.0 
9.001330960456e-04 -2.491243705334e-04 0.0 
9.073179516331e-04 -1.896790087223e-04 0.0 
6.517627240173e-04 -3.823450516548e-04 0.0 
2.799473728296e-03 2.757900931750e-03 0.0 
3.119996848005e-04 8.479162252711e-05 0.0 
2.184526766718e-03 7.620768728674e-04 0.0 
1.005681459911e-03 -2.305242529195e-04 0.0 
1.342079397668e-03 9.037347137281e-03 0.0 
1.411411111815e-03 8.137854521775e-03 0.0 
1.557795099824e-03 8.069947058186e-03 0.0 
1.452357582201e-03 7.099674139135e-03 0.0 
1.247518013368e-03 8.049998298838e-03 0.0 
5.661362427334e-04 -2.508150667000e-04 0.0 
4.535415818752e-04 -2.387800348331e-04 0.0 
3.556988706092e-04 -2.868385379001e-04 0.0 
3.423692920555e-04 -2.226089681193e-04 0.0 
2.483955482333e-04 -2.667620965263e-04 0.0 
2.582599072957e-04 -3.309327510395e-04 0.0 
2.315780220509e-04 -2.032311616980e-04 0.0 
1.440797281941e-04 -2.506189777460e-04 0.0 
1.074300950320e-03 9.062224415870e-03 0.0 
-2.523695988195e-04 4.174292739848e-04 0.0 
3.764459593717e-05 2.633130046104e-04 0.0 
6.498229666926e-05 3.549434601421e-05 0.0 
2.696795536303e-04 1.324501207747e-04 0.0 
2.866334568722e-04 3.709128859522e-04 0.0 
5.484818317007e-04 2.333842704781e-04 0.0 
5.385466846042e-04 4.974192657679e-04 0.0 
7.721297229904e-07 5.520051043584e-04 0.0 
-1.111719131555e-04 -4.356285023954e-05 0.0 
9.423772411233e-05 -1.456803195177e-04 0.0 
-5.598956378868e-05 -2.093182084561e-04 0.0 
1.097508194644e-04 -2.882565580490e-04 0.0 
2.990108018473e-04 -2.292089293545e-04 0.0 
4.482641199348e-04 -4.857538114037e-04 0.0 
8.786866824276e-05 1.880266202410e-05 0.0 
9.528253434204e-05 -4.348881800914e-04 0.0 
1.814586077088e-04 -4.634567840353e-04 0.0 
1.694518427335e-04 -5.220898532062e-04 0.0 
2.704645501174e-04 -4.842136558611e-04 0.0 
1.831596403043e-04 -4.052902274633e-04 0.0 
8.078440604345e-05 -5.555587990509e-04 0.0 
1.529587790054e-04 -5.711698351171e-04 0.0 
4.611785261951e-05 -7.509578245998e-04 0.0 
5.363150235471e-05 -7.475189965102e-04 0.0 
2.384354036606e-05 -7.558573115888e-04 0.0 
5.456344767872e-05 -7.383539018695e-04 0.0 
8.805810993456e-05 -7.302004765769e-04 0.0 
7.798348184321e-05 -7.362274876161e-04 0.0 
9.971666658406e-05 -7.203132124294e-04 0.0 
7.140298460203e-05 -7.156682137901e-04 0.0 
1.178819897712e-04 -6.984167114838e-04 0.0 
1.528632930151e-04 -7.001080546934e-04 0.0 
7.574269735888e-05 -6.885371974705e-04 0.0 
5.047520186811e-05 4.329953953630e-03 0.0 
9.525152290929e-05 3.845917303060e-03 0.0 
2.686448564716e-04 6.308701667680e-05 0.0 
8.277043189942e-04 8.958356991006e-03 0.0 
2.601898150854e-05 -4.484583135358e-04 0.0 
7.463248450023e-05 9.720972252370e-04 0.0 
1.171540786040e-04 8.056792167911e-04 0.0 
9.293287156527e-05 7.803499399057e-04 0.0 
5.137252992183e-05 -1.985115329751e-07 0.0 
8.327883207007e-05 9.840715046806e-06 0.0 
4.051271557390e-05 9.445817683551e-04 0.0 
6.625529680980e-04 -4.641984571561e-04 0.0 
8.262616605485e-04 1.759272876076e-03 0.0 
2.167020033304e-04 2.593794683526e-03 0.0 
1.266370701974e-03 2.727596403606e-03 0.0 
8.844669704151e-04 -2.769267707923e-04 0.0 
2.841341997317e-04 -1.076032500971e-04 0.0 
8.501680901335e-04 -8.009120014755e-05 0.0 
3.352067129985e-04 -1.643183007565e-06 0.0 
5.148176414947e-04 -1.320716484362e-04 0.0 
5.671814813801e-04 -9.441594228114e-07 0.0 
7.711477116757e-04 2.456522447184e-04 0.0 
1.481587549499e-04 -6.937441572135e-04 0.0 
6.347888108023e-04 6.211185118172e-03 0.0 
4.065849293849e-04 6.544450711225e-03 0.0 
3.691141356850e-04 4.114015237268e-03 0.0 
4.475550815453e-04 -5.481710171090e-04 0.0 
3.636934199107e-04 -3.485518131806e-04 0.0 
3.440165803816e-04 -6.138172398803e-04 0.0 
1.076292643336e-03 9.670088052986e-04 0.0 
2.852042291872e-03 7.326768398991e-03 0.0 
1.546208201771e-03 1.147009402633e-04 0.0 
7.391933367526e-04 -3.785801293812e-04 0.0 
8.039192081517e-04 -3.874730041925e-04 0.0 
9.004002850825e-04 -1.924125235397e-04 0.0 
3.334132801736e-03 4.486687152977e-03 0.0 
1.142309659261e-03 -1.453924606200e-04 0.0 
1.038882366358e-03 9.467586101678e-05 0.0 
2.787881320529e-04 3.570740235131e-03 0.0 
7.633978502813e-05 -6.032076626168e-04 0.0 
1.064664628972e-03 1.463485782791e-04 0.0 
1.127273061533e-03 -4.320670968339e-05 0.0 
8.980227313664e-04 5.858555052547e-03 0.0 
2.029303645485e-03 9.375648470609e-04 0.0 
6.436009527715e-04 4.749357295557e-05 0.0 
5.422894050857e-04 3.776346979290e-03 0.0 
5.523409146328e-04 2.065816808114e-03 0.0 
1.187040501461e-03 6.949046628842e-03 0.0 
2.600413207880e-04 -6.364067089402e-04 0.0 
6.753032723144e-04 7.232347028769e-03 0.0 
7.776931489395e-04 1.827932344831e-04 0.0 
1.119009476234e-03 3.985926935809e-03 0.0 
3.445357825349e-04 -5.934150543537e-04 0.0 
2.421401716470e-03 1.043491281327e-03 0.0 
3.303927171918e-03 5.743001185347e-03 0.0 
1.971544921912e-03 9.688672840134e-03 0.0 
2.243013555348e-04 2.194562340181e-03 0.0 
3.151988090154e-03 2.842900768940e-03 0.0 
1.566801554316e-03 5.778653063164e-04 0.0 
2.254487383531e-03 8.919601281014e-04 0.0 
2.906757267914e-04 -5.864042716715e-04 0.0 
7.382732531438e-04 8.137205105005e-05 0.0 
2.856646819852e-03 1.907774862052e-03 0.0 
4.336963252469e-04 2.802177171018e-03 0.0 
2.528935775143e-03 3.118805371024e-03 0.0 
2.455790343962e-03 1.477710206083e-03 0.0 
7.301570329331e-04 3.416510697956e-03 0.0 
1.829597374179e-03 3.436164948676e-04 0.0 
1.938729739229e-03 9.649880142567e-04 0.0 
2.983598003516e-03 7.419234325160e-03 0.0 
3.002765821564e-03 4.444269260612e-03 0.0 
2.376533259554e-03 4.545765429747e-03 0.0 
3.208457452073e-03 3.751696857053e-03 0.0 
1.941284886932e-04 -1.458604812830e-04 0.0 
8.961741872590e-04 1.088458546341e-04 0.0 
9.021315055514e-04 1.016728860528e-03 0.0 
3.119038473989e-03 5.371881246281e-03 0.0 
1.121942442894e-03 5.925669980736e-03 0.0 
1.891998742758e-03 1.662866027800e-03 0.0 
3.033931077133e-04 1.832941001166e-03 0.0 
3.279125913919e-03 6.417314736457e-03 0.0 
7.300190869531e-04 4.626831670749e-05 0.0 
5.711158531266e-04 2.475458564490e-03 0.0 
1.026049644416e-03 -1.736868394492e-04 0.0 
5.207120058232e-05 -6.899755143972e-04 0.0 
7.934317404484e-04 2.826182799993e-03 0.0 
2.081517247983e-03 1.594738140329e-03 0.0 
3.094385268261e-03 2.610896128808e-03 0.0 
1.020334659605e-03 -1.183131138771e-04 0.0 
6.269987179407e-04 1.587233054614e-03 0.0 
5.911050087551e-04 3.308244153086e-05 0.0 
1.448240940120e-03 3.264757064775e-04 0.0 
-2.177027387244e-04 4.194472272001e-03 0.0 
2.173861510768e-03 9.102345317847e-03 0.0 
4.641911325249e-04 2.493170935011e-05 0.0 
2.258045295656e-03 8.130407970117e-04 0.0 
1.704609328903e-03 7.589271341545e-04 0.0 
1.561527006150e-04 -3.097113101714e-04 0.0 
1.106186422648e-03 8.978443812686e-04 0.0 
2.510365556783e-03 1.002842377792e-02 0.0 
3.502415685748e-04 2.052029508018e-05 0.0 
1.658266147306e-03 4.906593475815e-04 0.0 
2.673099745616e-03 3.515665515606e-03 0.0 
2.283632175494e-04 8.973309910402e-03 0.0 
2.212593916940e-04 3.029842731288e-05 0.0 
1.397442207028e-03 4.194556564298e-04 0.0 
3.036264879446e-03 3.253929802599e-03 0.0 
2.123790867266e-03 6.480660062349e-04 0.0 
2.137053572472e-03 1.041086962580e-02 0.0 
8.906119725487e-04 -1.329547127177e-04 0.0 
2.824225650657e-03 4.361536301023e-03 0.0 
2.263983520171e-04 7.277873473724e-04 0.0 
1.341366272022e-03 4.493036206216e-04 0.0 
1.740447667279e-03 5.442181764255e-03 0.0 
7.871025625018e-04 -1.968881586675e-04 0.0 
2.672769389680e-03 1.811267153405e-03 0.0 
1.200742613209e-04 -7.180334691072e-04 0.0 
2.376481263571e-03 9.717356985566e-03 0.0 
6.665237476421e-04 -1.963024041226e-04 0.0 
2.049505099715e-03 1.232427062601e-03 0.0 
1.966309507515e-03 4.828884426044e-04 0.0 
1.161683292539e-03 6.202559900559e-04 0.0 
5.478354747429e-04 -1.893941561676e-04 0.0 
2.231761085475e-03 1.196566342702e-03 0.0 
4.318166563787e-04 -1.777692805438e-04 0.0 
2.222235767492e-03 1.090842975955e-02 0.0 
1.811197222865e-03 4.904244800082e-03 0.0 
3.153633517071e-04 -1.629135274458e-04 0.0 
2.593353194098e-03 3.646593856241e-03 0.0 
1.859190978621e-04 -6.747061836342e-04 0.0 
2.923766492229e-03 2.736821974720e-03 0.0 
1.206402691781e-04 -1.084228038262e-05 0.0 
1.118887870863e-03 -1.979343048003e-04 0.0 
1.806195140641e-03 3.526321229761e-04 0.0 
1.621378767209e-03 3.959144030328e-03 0.0 
2.154120169433e-03 1.111653033730e-02 0.0 
1.735689164630e-03 3.538708728820e-04 0.0 
2.295638366627e-03 2.951651261912e-03 0.0 
2.778911370660e-03 2.280560369979e-03 0.0 
3.019214588327e-03 2.353671360742e-03 0.0 
1.616347431145e-03 3.455757922392e-04 0.0 
2.480673033265e-03 9.978207137338e-03 0.0 
6.924942884683e-04 -4.318998554703e-04 0.0 
5.777973691769e-04 -4.625680313201e-04 0.0 
2.144971860260e-03 9.110297052170e-04 0.0 
2.034429755033e-03 2.725913791351e-03 0.0 
9.519832874055e-05 -7.165674399271e-04 0.0 
1.889295434126e-03 3.873843112965e-03 0.0 
4.271606387340e-04 -4.217814079831e-04 0.0 
1.928883750657e-03 6.822805904887e-04 0.0 
2.256412514420e-03 1.518170656233e-03 0.0 
6.217825681415e-05 6.259691909511e-03 0.0 
1.843420897562e-03 4.775570286688e-04 0.0 
5.982366336246e-05 -6.519571659831e-04 0.0 
1.640332232451e-03 2.942204897086e-04 0.0 
2.877755461612e-03 2.085041383168e-03 0.0 
1.558494160927e-03 1.543625392243e-04 0.0 
1.370986246514e-03 8.483456230745e-06 0.0 
1.487632477712e-04 1.668376429595e-03 0.0 
1.291463834752e-03 -8.206379057736e-05 0.0 
2.022308336447e-05 7.812369460033e-04 0.0 
3.627174649139e-05 1.457076601183e-05 0.0 
8.440543113163e-05 8.212582255056e-03 0.0 
1.820136173569e-03 1.108244350734e-02 0.0 
-5.406654728393e-04 1.544259563285e-03 0.0 
2.303258356927e-03 9.242989768040e-03 0.0 
1.014169274070e-03 -2.390110460457e-04 0.0 
2.147917402440e-03 3.723156962138e-03 0.0 
1.752625180736e-04 8.171432971059e-03 0.0 
8.484998027821e-04 -3.419667554826e-04 0.0 
8.680647579623e-04 1.310396693718e-03 0.0 
5.637615410124e-04 3.733094740406e-04 0.0 
1.090681196349e-04 4.763888265272e-03 0.0 
1.486243578403e-03 5.996542566799e-04 0.0 
2.595317360670e-03 1.869515427891e-03 0.0 
3.023962165120e-05 2.455563817734e-03 0.0 
5.317587145790e-04 9.089887811232e-03 0.0 
1.234228221665e-04 -4.041423136244e-04 0.0 
9.313796879660e-05 -1.203552663570e-04 0.0 
1.338325929503e-03 1.033066849999e-02 0.0 
1.716628930237e-03 7.962512802120e-03 0.0 
9.969471443971e-04 5.844230023860e-03 0.0 
2.246243381745e-04 -5.787676286473e-04 0.0 
2.645369442519e-04 -6.394623415606e-05 0.0 
8.980554194558e-04 8.437640504708e-03 0.0 
9.461443723785e-04 3.951786444027e-04 0.0 
8.863559410203e-04 8.236958609657e-03 0.0 
2.128531114168e-03 1.519185804542e-03 0.0 
4.460887375368e-04 5.938130301656e-03 0.0 
3.924438265694e-04 1.587842740474e-03 0.0 
1.118882653125e-03 6.884015012964e-04 0.0 
1.855902022531e-04 3.842659660203e-05 0.0 
1.672486041037e-03 1.106862411944e-03 0.0 
4.025657862138e-04 4.206327530249e-03 0.0 
1.320033295269e-03 7.341663157072e-03 0.0 
1.042483392180e-03 1.033025672208e-03 0.0 
1.460528618301e-04 3.986269167557e-03 0.0 
1.344244684456e-04 2.688726671918e-05 0.0 
1.126631442687e-03 8.333922907882e-03 0.0 
8.916660300553e-05 1.553481024206e-03 0.0 
6.732681182467e-04 7.549362467833e-04 0.0 
4.526372055866e-05 1.506906583536e-03 0.0 
1.841296925964e-03 2.901880931071e-03 0.0 
3.510042195149e-04 6.990993363736e-03 0.0 
1.608778378183e-03 7.294751579760e-03 0.0 
1.001866836235e-04 1.707638850896e-05 0.0 
7.439599537901e-04 1.412672643182e-03 0.0 
2.404538574120e-05 3.402992653491e-03 0.0 
1.717125845255e-04 4.867072321131e-03 0.0 
3.648982115913e-04 -4.721184723120e-04 0.0 
-1.085243133436e-04 8.819753735651e-04 0.0 
4.652015578332e-04 9.693584142211e-05 0.0 
1.479096305466e-03 2.130298618648e-03 0.0 
1.678147392962e-04 2.374967647941e-05 0.0 
2.375771484536e-05 -7.424830605170e-04 0.0 
1.299001611366e-04 -5.654976627132e-04 0.0 
5.268687871642e-04 1.309580192573e-04 0.0 
9.061767953733e-04 1.102308882676e-03 0.0 
7.994697314238e-04 4.263068793400e-04 0.0 
1.274410496598e-04 6.273298975709e-04 0.0 
-3.988909964897e-04 2.887015591314e-03 0.0 
7.283968939227e-04 9.226398533352e-03 0.0 
1.251268976276e-04 -6.723908949276e-04 0.0 
1.064740615399e-04 2.166328260921e-05 0.0 
2.218443734496e-04 1.486792847724e-03 0.0 
2.568446960274e-04 -4.295626505331e-04 0.0 
1.622378063859e-03 8.842761882842e-03 0.0 
1.351301050957e-04 -6.183752192348e-04 0.0 
1.489088380816e-03 1.216278315715e-03 0.0 
2.436187669027e-04 -3.424489581377e-04 0.0 
1.485605857440e-04 1.402998359943e-03 0.0 
6.177127014575e-04 1.828564988641e-04 0.0 
4.904502814064e-04 1.355134214226e-03 0.0 
3.971755170466e-04 1.858453765699e-04 0.0 
-2.633295890818e-04 1.847012408160e-03 0.0 
9.792000121067e-04 6.468544992655e-04 0.0 
1.053794353955e-03 3.530244552442e-04 0.0 
3.990385271440e-04 9.111803317372e-03 0.0 
6.331392545003e-04 1.419966443527e-03 0.0 
2.343087352102e-04 -5.355013326847e-04 0.0 
2.047661827081e-04 -6.802416490150e-04 0.0 
8.514259037799e-06 6.917898554234e-04 0.0 
1.333371332458e-05 -7.648359991156e-04 0.0 
6.724257869772e-05 9.079967190618e-03 0.0 
1.408022692786e-05 1.086217662782e-05 0.0 
1.255067413247e-04 -7.124242509645e-04 0.0 
1.369657814065e-04 7.487160807544e-03 0.0 
8.253538421481e-04 1.110039024128e-03 0.0 
6.876377356598e-05 -3.010303916813e-04 0.0 
7.055481098913e-05 3.083387010160e-03 0.0 
4.384362464269e-04 3.176367792328e-05 0.0 
-5.034632156241e-04 1.084382390352e-03 0.0 
1.060479991685e-04 5.767576451030e-03 0.0 
9.879879137109e-04 5.556810989102e-04 0.0 
3.694252695606e-04 1.315920329952e-03 0.0 
2.782373072063e-04 6.444222587228e-03 0.0 
4.111237924964e-04 2.984217844714e-03 0.0 
1.161215807476e-03 1.569086424369e-03 0.0 
2.744913401403e-04 -3.792733775273e-04 0.0 
1.415028448833e-03 1.399185544134e-03 0.0 
1.195212901718e-03 4.782199866994e-04 0.0 
-7.477905455664e-04 3.036318699256e-03 0.0 
6.017405811317e-05 -2.370918420392e-04 0.0 
1.253303012378e-04 -6.406581263141e-04 0.0 
3.077009196369e-04 5.417664895403e-05 0.0 
1.825475052834e-04 -3.553205723430e-04 0.0 
-4.019723587514e-04 1.144547169286e-02 0.0 
7.271413942057e-05 1.638344393432e-02 0.0 
7.212045475357e-04 1.225125920870e-02 0.0 
6.354852425951e-05 1.535965337740e-02 0.0 
1.385732021636e-03 1.252083904051e-02 0.0 
5.692193272695e-05 1.434459742898e-02 0.0 
1.747424311289e-03 1.241739207554e-02 0.0 
5.362999326646e-05 1.333402098126e-02 0.0 
1.843040600600e-03 1.194391385594e-02 0.0 
5.062291755713e-05 1.232627149687e-02 0.0 
1.811477563780e-03 1.122489715609e-02 0.0 
4.870447060584e-05 1.132027105233e-02 0.0 
1.691697466294e-03 1.038564178477e-02 0.0 
4.663302470205e-05 1.031541317772e-02 0.0 

VECTORS node_materi_displacement float
0.0 6.655789047287e-02 0.0 
0.0 9.476189434172e-02 0.0 
0.0 0.0 0.0 
0.0 0.0 0.0 
0.0 6.744235869945e-02 0.0 
0.0 6.761927390491e-02 0.0 
0.0 6.712761526329e-02 0.0 
0.0 6.596342071442e-02 0.0 
0.0 6.414786965690e-02 0.0 
0.0 6.182850248426e-02 0.0 
0.0 5.909185652764e-02 0.0 
0.0 5.600378164133e-02 0.0 
0.0 5.262911211656e-02 0.0 
0.0 4.900978993243e-02 0.0 
0.0 4.516012863565e-02 0.0 
0.0 4.109812048312e-02 0.0 
0.0 3.681892661334e-02 0.0 
0.0 3.231752774852e-02 0.0 
0.0 2.757215407276e-02 0.0 
0.0 2.257119274530e-02 0.0 
0.0 1.731153612541e-02 0.0 
0.0 1.178896737239e-02 0.0 
0.0 6.017219066450e-03 0.0 
0.0 0.0 0.0 
0.0 0.0 0.0 
0.0 0.0 0.0 
0.0 0.0 0.0 
0.0 0.0 0.0 
0.0 0.0 0.0 
0.0 0.0 0.0 
0.0 0.0 0.0 
0.0 0.0 0.0 
0.0 0.0 0.0 
0.0 0.0 0.0 
0.0 0.0 0.0 
0.0 0.0 0.0 
0.0 0.0 0.0 
0.0 0.0 0.0 
0.0 0.0 0.0 
0.0 0.0 0.0 
0.0 0.0 0.0 
0.0 0.0 0.0 
0.0 0.0 0.0 
0.0 0.0 0.0 
0.0 0.0 0.0 
0.0 0.0 0.0 
0.0 0.0 0.0 
0.0 0.0 0.0 
0.0 0.0 0.0 
0.0 0.0 0.0 
0.0 0.0 0.0 
0.0 0.0 0.0 
0.0 0.0 0.0 
0.0 0.0 0.0 
0.0 0.0 0.0 
0.0 0.0 0.0 
0.0 0.0 0.0 
0.0 0.0 0.0 
0.0 0.0 0.0 
0.0 0.0 0.0 
0.0 0.0 0.0 
0.0 0.0 0.0 
0.0 0.0 0.0 
0.0 0.0 0.0 
0.0 0.0 0.0 
0.0 0.0 0.0 
0.0 0.0 0.0 
0.0 0.0 0.0 
0.0 0.0 0.0 
0.0 0.0 0.0 
0.0 0.0 0.0 
0.0 0.0 0.0 
0.0 8.688235661821e-02 0.0 
0.0 7.859827217606e-02 0.0 
0.0 6.992351519846e-02 0.0 
0.0 6.088444024485e-02 0.0 
0.0 5.149489444891e-02 0.0 
0.0 4.177815833748e-02 0.0 
0.0 3.175285818773e-02 0.0 
0.0 2.143647476668e-02 0.0 
0.0 1.085098723181e-02 0.0 
-6.944959954758e-03 -1.106486367212e-02 0.0 
2.301855515034e-02 8.622530278062e-02 0.0 
4.707726249225e-04 1.619470107105e-02 0.0 
7.515981287636e-03 3.809128522713e-02 0.0 
1.316315901129e-02 5.654391876628e-02 0.0 
1.888064699537e-02 7.006997429955e-02 0.0 
2.328541066939e-02 7.983467787678e-02 0.0 
2.600314943845e-02 8.646316088386e-02 0.0 
2.711156725994e-02 9.012142543889e-02 0.0 
2.681473367491e-02 9.106745690529e-02 0.0 
2.537287049899e-02 8.964121301126e-02 0.0 
0.0 1.373961901565e-01 0.0 
0.0 1.326718663550e-01 0.0 
0.0 1.275208532208e-01 0.0 
0.0 1.218671622560e-01 0.0 
0.0 1.157900505776e-01 0.0 
0.0 1.092123237216e-01 0.0 
0.0 1.022213883437e-01 0.0 
1.286535852793e-03 9.475331158082e-02 0.0 
2.565870163201e-03 9.472296882139e-02 0.0 
3.866693540738e-03 9.466622669464e-02 0.0 
5.191639068835e-03 9.457274233353e-02 0.0 
6.546301718808e-03 9.444317783506e-02 0.0 
7.932435222742e-03 9.424282727940e-02 0.0 
9.366553479203e-03 9.398348120863e-02 0.0 
1.084682449780e-02 9.362126872773e-02 0.0 
1.239118396017e-02 9.316233011263e-02 0.0 
1.400247467953e-02 9.255477913389e-02 0.0 
1.567881957582e-02 9.178085301914e-02 0.0 
1.742969897076e-02 9.079912416546e-02 0.0 
1.924227378750e-02 8.957504251135e-02 0.0 
2.110469207617e-02 8.806037320910e-02 0.0 
-3.760995243394e-03 -2.536653860949e-02 0.0 
9.528322275666e-04 -3.263327574560e-02 0.0 
6.113580177530e-03 -3.482360900497e-02 0.0 
1.175554114574e-02 -3.156237651818e-02 0.0 
1.593852404426e-02 -2.040609591248e-02 0.0 
1.834151788197e-02 -6.406636648167e-03 0.0 
1.914724293725e-02 4.459939543168e-03 0.0 
1.926626643740e-02 1.357460812748e-02 0.0 
1.923874034863e-02 2.163836468490e-02 0.0 
1.896047788761e-02 2.907338687118e-02 0.0 
1.834384413054e-02 3.588153515199e-02 0.0 
1.744750790606e-02 4.199833973946e-02 0.0 
1.620534333144e-02 4.758342289842e-02 0.0 
1.454453974545e-02 5.256097561898e-02 0.0 
1.256945719271e-02 5.683126088658e-02 0.0 
1.037020561642e-02 6.029909510951e-02 0.0 
7.980730695504e-03 6.304883455874e-02 0.0 
5.436396945740e-03 6.505434741334e-02 0.0 
2.732043087345e-03 6.619496347360e-02 0.0 
1.129142586286e-02 6.877482237877e-02 0.0 
1.078080448255e-02 7.892359885386e-02 0.0 
1.042164412817e-02 8.795441596423e-02 0.0 
1.022123373458e-02 9.592324223085e-02 0.0 
1.011359254031e-02 1.029707085987e-01 0.0 
1.004249149188e-02 1.091180035276e-01 0.0 
1.005399116859e-02 1.144173596434e-01 0.0 
1.003611684175e-02 1.189060082011e-01 0.0 
9.951343550833e-03 1.226740506314e-01 0.0 
9.835793437142e-03 1.257990140993e-01 0.0 
9.667470672750e-03 1.283545626288e-01 0.0 
9.434427940344e-03 1.304211749642e-01 0.0 
9.126288843939e-03 1.320708625334e-01 0.0 
8.740080487745e-03 1.333755288218e-01 0.0 
8.278288937390e-03 1.343981358162e-01 0.0 
7.746525197009e-03 1.351922202538e-01 0.0 
7.150957467562e-03 1.358027893788e-01 0.0 
6.498702901804e-03 1.362659490409e-01 0.0 
5.796897896464e-03 1.366123556993e-01 0.0 
5.053068217653e-03 1.368673086066e-01 0.0 
4.275225712815e-03 1.370506691320e-01 0.0 
3.471251599029e-03 1.371788417122e-01 0.0 
2.648666564405e-03 1.372656140229e-01 0.0 
1.812984981036e-03 1.373189369846e-01 0.0 
9.190995177170e-04 1.373452477237e-01 0.0 
1.004810759188e-03 1.326969153715e-01 0.0 
1.956643672206e-03 1.326460453964e-01 0.0 
2.895781989556e-03 1.325941837818e-01 0.0 
3.823110107161e-03 1.325112294228e-01 0.0 
4.737496227952e-03 1.323861036208e-01 0.0 
5.635968990670e-03 1.322047735608e-01 0.0 
6.514988631610e-03 1.319495635744e-01 0.0 
7.370983243986e-03 1.315984661117e-01 0.0 
8.200618204999e-03 1.311238085921e-01 0.0 
9.001234834132e-03 1.304919923870e-01 0.0 
9.771269962894e-03 1.296626098221e-01 0.0 
1.051003586740e-02 1.285866222321e-01 0.0 
1.121829242815e-02 1.272048157015e-01 0.0 
1.189922843679e-02 1.254466325833e-01 0.0 
1.256019894269e-02 1.232310888201e-01 0.0 
1.321169645476e-02 1.204843201576e-01 0.0 
1.384400183196e-02 1.171268100711e-01 0.0 
1.445963363738e-02 1.130879117544e-01 0.0 
1.507030949655e-02 1.082679517735e-01 0.0 
1.569361359917e-02 1.025793328423e-01 0.0 
1.635368035553e-02 9.599668824489e-02 0.0 
1.707364201419e-02 8.846725368622e-02 0.0 
1.785796372061e-02 7.990243467885e-02 0.0 
2.220232603915e-02 8.764508758837e-02 0.0 
2.119501983501e-02 9.446831361935e-02 0.0 
2.015602898413e-02 1.004022505943e-01 0.0 
1.911461671336e-02 1.055176388855e-01 0.0 
1.807649761844e-02 1.098535444597e-01 0.0 
1.704411464131e-02 1.134931933439e-01 0.0 
1.601388622170e-02 1.165150464800e-01 0.0 
1.498494554390e-02 1.189923729125e-01 0.0 
1.395995716754e-02 1.209913155149e-01 0.0 
1.295376053126e-02 1.225779840752e-01 0.0 
1.195972194868e-02 1.238269875800e-01 0.0 
1.097280365361e-02 1.248012728767e-01 0.0 
9.989046456513e-03 1.255529114907e-01 0.0 
9.005461830130e-03 1.261252860988e-01 0.0 
8.020012245193e-03 1.265548749075e-01 0.0 
7.031935266283e-03 1.268725470321e-01 0.0 
6.041208415732e-03 1.271033515236e-01 0.0 
5.048016343184e-03 1.272669922439e-01 0.0 
4.052962567225e-03 1.273795540157e-01 0.0 
3.056794707392e-03 1.274529916265e-01 0.0 
2.059423808405e-03 1.274937617074e-01 0.0 
1.034659564940e-03 1.274810042817e-01 0.0 
1.118245215091e-03 1.219004235042e-01 0.0 
2.227646427101e-03 1.218652174847e-01 0.0 
3.337689087789e-03 1.218212445225e-01 0.0 
4.450823796947e-03 1.217450290306e-01 0.0 
5.570633018758e-03 1.216269854013e-01 0.0 
6.700223658811e-03 1.214539776318e-01 0.0 
7.841984387850e-03 1.212082983247e-01 0.0 
8.998137671379e-03 1.208691566952e-01 0.0 
1.017151041582e-02 1.204086040977e-01 0.0 
1.136593505063e-02 1.197918083542e-01 0.0 
1.258613083059e-02 1.189791139774e-01 0.0 
1.383764903064e-02 1.179235339851e-01 0.0 
1.512697312789e-02 1.165686816467e-01 0.0 
1.646122793678e-02 1.148447769670e-01 0.0 
1.781670063707e-02 1.126831822370e-01 0.0 
1.918684593884e-02 1.100146193211e-01 0.0 
2.056740796584e-02 1.067673371220e-01 0.0 
2.195380928706e-02 1.028591015743e-01 0.0 
2.333499234464e-02 9.823112258737e-02 0.0 
2.466290968228e-02 9.279071803338e-02 0.0 
2.556742193592e-02 9.487630850079e-02 0.0 
2.403174834995e-02 9.892647808742e-02 0.0 
2.245188534752e-02 1.023281559018e-01 0.0 
2.087394031361e-02 1.051760799823e-01 0.0 
1.930741876294e-02 1.075177414229e-01 0.0 
1.775890704302e-02 1.094219693996e-01 0.0 
1.625116790476e-02 1.109500260675e-01 0.0 
1.479951111984e-02 1.121621556268e-01 0.0 
1.339891547644e-02 1.131128506911e-01 0.0 
1.204391878507e-02 1.138492926538e-01 0.0 
1.072846324235e-02 1.144107068730e-01 0.0 
9.449004404902e-03 1.148323083797e-01 0.0 
8.201134570539e-03 1.151458545302e-01 0.0 
6.978935443704e-03 1.153751467405e-01 0.0 
5.781936901153e-03 1.155387111756e-01 0.0 
4.605319438719e-03 1.156510712629e-01 0.0 
3.443104765474e-03 1.157233339919e-01 0.0 
2.290366072093e-03 1.157626693150e-01 0.0 
1.144425488979e-03 1.157511491443e-01 0.0 
1.224887336190e-03 1.092386639589e-01 0.0 
2.454975890682e-03 1.091960593244e-01 0.0 
3.695165016417e-03 1.091486259711e-01 0.0 
4.951745127257e-03 1.090673295112e-01 0.0 
6.229957529045e-03 1.089418171042e-01 0.0 
7.537901682787e-03 1.087590020175e-01 0.0 
8.881121938611e-03 1.085052277631e-01 0.0 
1.026872600509e-02 1.081585245573e-01 0.0 
1.170877988044e-02 1.076945860257e-01 0.0 
1.319895014254e-02 1.070803510706e-01 0.0 
1.474307294896e-02 1.062746009789e-01 0.0 
1.634660277958e-02 1.052383750661e-01 0.0 
1.801376531296e-02 1.039212374458e-01 0.0 
1.974491448227e-02 1.022743092761e-01 0.0 
2.151219912438e-02 1.002288622702e-01 0.0 
2.328971721482e-02 9.773540908579e-02 0.0 
2.504323576077e-02 9.470099830788e-02 0.0 
2.353837514372e-02 9.220570919009e-02 0.0 
2.173851407131e-02 9.432253138592e-02 0.0 
1.992994122608e-02 9.604705060501e-02 0.0 
1.817541973603e-02 9.746596257617e-02 0.0 
1.647985096347e-02 9.860807741223e-02 0.0 
1.484621226832e-02 9.951455560301e-02 0.0 
1.326859638261e-02 1.002271180316e-01 0.0 
1.175930207724e-02 1.007781097063e-01 0.0 
1.030751259983e-02 1.011996211289e-01 0.0 
8.910746672307e-03 1.015231600280e-01 0.0 
7.557074623164e-03 1.017596339498e-01 0.0 
6.243203140823e-03 1.019355726425e-01 0.0 
4.957969836255e-03 1.020543471102e-01 0.0 
3.698264520112e-03 1.021345358431e-01 0.0 
2.458116681629e-03 1.021796004294e-01 0.0 
1.225517514562e-03 1.021767938845e-01 0.0 
-2.895833346952e-03 3.968144676483e-03 0.0 
4.051970764509e-03 2.752932685979e-02 0.0 
1.061556593507e-02 4.774993661284e-02 0.0 
1.613321132323e-02 6.379732378577e-02 0.0 
2.132915436390e-02 7.535512703763e-02 0.0 
2.486293732712e-02 8.352340565603e-02 0.0 
2.674612221883e-02 8.864299549402e-02 0.0 
2.711525144328e-02 9.091102578916e-02 0.0 
2.621916653257e-02 9.062470828402e-02 0.0 
2.429146883246e-02 8.815908047439e-02 0.0 
1.200218244159e-02 2.634700616453e-02 0.0 
1.761378733069e-03 3.670393377604e-03 0.0 
1.296279758987e-02 2.526435192562e-02 0.0 
7.823506465089e-03 -2.492684603195e-02 0.0 
-5.011699169728e-04 3.891434840610e-03 0.0 
2.254225032643e-02 6.077033757453e-02 0.0 
-1.308262042349e-03 4.683634283296e-02 0.0 
3.832795076077e-03 4.290219269783e-03 0.0 
2.853921504203e-02 7.879878898897e-02 0.0 
5.030281266974e-03 5.259151374673e-03 0.0 
2.888162627459e-02 8.522067613422e-02 0.0 
-1.078122070150e-03 4.169968532660e-03 0.0 
1.140988547385e-02 5.104319489490e-02 0.0 
5.295423230018e-03 6.642612126758e-03 0.0 
2.462269679736e-02 8.150522322143e-02 0.0 
-9.534231100439e-04 6.015028010803e-02 0.0 
-1.152835496808e-03 3.537188981674e-02 0.0 
5.012156103980e-03 7.832114592644e-03 0.0 
3.693653040061e-03 8.333332004895e-03 0.0 
1.219353208625e-03 9.204591910295e-03 0.0 
2.164889306455e-03 9.818072159701e-03 0.0 
2.754665134788e-03 8.544255502396e-03 0.0 
2.005979974464e-02 8.211848453101e-02 0.0 
1.321310393426e-02 8.578122856361e-02 0.0 
8.657274861612e-03 8.682128843530e-02 0.0 
8.396942963575e-04 5.608217049326e-02 0.0 
-9.578577714976e-04 4.940877715944e-03 0.0 
3.532483961859e-03 -2.631614346278e-02 0.0 
6.935607943042e-03 6.242095530797e-02 0.0 
-7.303204896883e-04 2.031612969690e-02 0.0 
4.439501682370e-03 8.786409738957e-02 0.0 
2.568828972122e-04 6.631884568029e-02 0.0 
4.912314975895e-03 9.190932617154e-03 0.0 
4.220934516458e-03 4.363345490146e-03 0.0 
5.231670262529e-03 5.864089602459e-03 0.0 
3.073037252542e-03 4.145561584059e-03 0.0 
6.683772652422e-04 3.454983722748e-03 0.0 
1.056937602169e-02 -9.947466060877e-04 0.0 
1.653578834935e-02 8.476183666694e-02 0.0 
-1.129942977453e-03 4.777028075583e-03 0.0 
6.305840910690e-04 3.722560194326e-02 0.0 
1.286041203725e-02 3.910314525534e-02 0.0 
-1.286182726989e-03 5.410257358063e-02 0.0 
6.205051263703e-04 7.528116213022e-03 0.0 
2.634458507154e-02 7.078122314068e-02 0.0 
1.754172973091e-02 4.556625288329e-02 0.0 
2.938595260909e-02 8.338214237382e-02 0.0 
2.721648437164e-02 8.445820534375e-02 0.0 
4.946676661851e-03 3.711316053291e-03 0.0 
1.018773791623e-03 7.326518552448e-02 0.0 
-4.791608127903e-04 4.061675029748e-03 0.0 
3.227704447621e-03 6.645311712428e-02 0.0 
3.460880432385e-04 1.696232497268e-02 0.0 
2.334086017778e-02 7.898093356844e-02 0.0 
2.447812707872e-02 7.446525947556e-02 0.0 
2.242791767225e-02 7.272640955460e-02 0.0 
2.366570693715e-02 6.733661647523e-02 0.0 
2.169292088173e-02 6.451432824384e-02 0.0 
2.247936947816e-02 5.973514908148e-02 0.0 
2.458467963331e-02 6.231831140783e-02 0.0 
2.304998373175e-02 5.488969317616e-02 0.0 
2.524762122314e-02 5.731425426068e-02 0.0 
2.034116266574e-02 5.662143759381e-02 0.0 
2.335055363221e-02 5.002388644598e-02 0.0 
2.561501668472e-02 5.228256821120e-02 0.0 
2.336066385539e-02 4.519231277389e-02 0.0 
2.565157955255e-02 4.727851355776e-02 0.0 
2.781326137698e-02 5.398848494639e-02 0.0 
2.785668987158e-02 4.880666577471e-02 0.0 
2.986465377153e-02 5.506374018331e-02 0.0 
2.991735090455e-02 4.966701493422e-02 0.0 
2.752817776311e-02 4.374760049967e-02 0.0 
2.954570937330e-02 4.443240463214e-02 0.0 
3.171062623070e-02 4.981384635899e-02 0.0 
3.129255249914e-02 4.438581351318e-02 0.0 
3.319631778656e-02 4.919358320853e-02 0.0 
3.269667240240e-02 4.355577251687e-02 0.0 
3.433452400158e-02 4.775544197629e-02 0.0 
3.372254039145e-02 4.193163902053e-02 0.0 
3.168741692377e-02 3.825858045687e-02 0.0 
3.257050208823e-02 3.653590963140e-02 0.0 
3.430536090870e-02 3.951950956795e-02 0.0 
3.297977306209e-02 3.406069171610e-02 0.0 
3.440238650688e-02 3.635432909176e-02 0.0 
3.287445576780e-02 3.091127343724e-02 0.0 
3.110221205342e-02 2.923306295411e-02 0.0 
3.077190230081e-02 2.620723606737e-02 0.0 
3.219795120540e-02 2.712488344154e-02 0.0 
2.976483564175e-02 2.249809021660e-02 0.0 
3.085326556732e-02 2.257831922017e-02 0.0 
2.805570803507e-02 1.815728929015e-02 0.0 
2.883860954965e-02 1.746777314784e-02 0.0 
2.567234809285e-02 1.348051231697e-02 0.0 
2.473218129930e-02 1.478562574290e-02 0.0 
2.203884824589e-02 1.070094032414e-02 0.0 
2.270841678951e-02 8.791281555672e-03 0.0 
1.885240146697e-02 6.840281884779e-03 0.0 
1.814254139438e-02 9.127722899192e-03 0.0 
1.485156159352e-02 6.162129532218e-03 0.0 
1.418079041789e-02 8.647824882809e-03 0.0 
1.089823427834e-02 6.600406354229e-03 0.0 
1.136526444374e-02 3.880564765982e-03 0.0 
7.546112950550e-03 5.334436382927e-03 0.0 
7.216232482957e-03 7.934767863497e-03 0.0 
4.096328848232e-03 7.558502376618e-03 0.0 
4.290818679325e-03 4.975402829538e-03 0.0 
1.203907531398e-03 8.077262190568e-03 0.0 
1.252462498382e-03 1.006044659730e-02 0.0 
-1.244629432335e-03 1.119033402825e-02 0.0 
-1.354521241282e-03 9.478795409777e-03 0.0 
-3.386539455385e-03 1.311002096654e-02 0.0 
-3.185290525072e-03 1.430188536699e-02 0.0 
-5.026964708612e-03 1.674905237046e-02 0.0 
-5.155517395500e-03 1.583351452434e-02 0.0 
-6.466081814343e-03 1.986610116780e-02 0.0 
-6.259640055958e-03 2.024152552764e-02 0.0 
-7.386878015011e-03 2.363113560749e-02 0.0 
-7.049160230842e-03 2.339008664249e-02 0.0 
-7.485367508322e-03 2.364015514003e-02 0.0 
-8.093266406682e-03 2.751787399415e-02 0.0 
-8.029674608628e-03 2.793767678507e-02 0.0 
-8.363801525443e-03 3.179381274574e-02 0.0 
2.871840440137e-02 2.509296185670e-02 0.0 
-8.067744537118e-03 3.257828358835e-02 0.0 
-7.599422132287e-03 2.816794438697e-02 0.0 
-8.192821176784e-03 3.632711884414e-02 0.0 
-8.343703861655e-03 3.503100067201e-02 0.0 
-7.629496317391e-03 3.745314343880e-02 0.0 
-7.614519473521e-03 4.099159286831e-02 0.0 
-6.771826505514e-03 4.240018668106e-02 0.0 
3.139038921625e-02 2.257061967592e-02 0.0 
2.681724954775e-02 3.887284718391e-02 0.0 
-6.684394008624e-03 4.563557158927e-02 0.0 
-5.580609362518e-03 4.725646554236e-02 0.0 
-5.351535867364e-03 4.362409599459e-02 0.0 
-3.874682008484e-03 4.864051123204e-02 0.0 
1.964585956322e-02 6.138616064275e-02 0.0 
1.817097834523e-02 5.312390118325e-02 0.0 
1.759381536834e-02 5.787851900465e-02 0.0 
1.599166463456e-02 4.931608964156e-02 0.0 
1.553109955210e-02 5.397936861844e-02 0.0 
-4.169844763581e-03 5.186666340305e-02 0.0 
2.097023275733e-02 4.236285394303e-02 0.0 
1.623661022621e-02 4.456034945468e-02 0.0 
3.320120122270e-02 5.508117052648e-02 0.0 
3.533065954562e-02 4.246379044429e-02 0.0 
1.718927435128e-02 1.123322391992e-02 0.0 
-7.276490835585e-03 4.379533670475e-02 0.0 
-6.280676535761e-03 4.810878556736e-02 0.0 
-6.642641413164e-03 4.585123698649e-02 0.0 
-5.829955052353e-03 2.031926936121e-02 0.0 
-6.471074986723e-03 2.281634759725e-02 0.0 
-5.180364355095e-03 2.000816547809e-02 0.0 
-5.715153170099e-03 2.183700938858e-02 0.0 
-4.407690811228e-03 1.922786281613e-02 0.0 
-4.906625812234e-03 2.039633450211e-02 0.0 
-5.920291825609e-03 2.320504488317e-02 0.0 
-5.104087265440e-03 2.113339020023e-02 0.0 
-5.849402024080e-03 2.408549546285e-02 0.0 
-3.686009365559e-03 1.791239771465e-02 0.0 
-2.881406179200e-03 1.701483810587e-02 0.0 
-5.036318740234e-03 2.142670127791e-02 0.0 
-5.547298050044e-03 2.447062153489e-02 0.0 
-4.751413518579e-03 2.127053428599e-02 0.0 
-5.056682956233e-03 2.437465192430e-02 0.0 
-5.800996591899e-03 2.769792405698e-02 0.0 
-5.110775597758e-03 2.760913103152e-02 0.0 
-5.792275906494e-03 3.105312363973e-02 0.0 
1.336911729662e-02 1.083973636779e-02 0.0 
1.601242060176e-02 1.294995067574e-02 0.0 
1.244911145935e-02 1.250436455109e-02 0.0 
1.454720141258e-02 1.390860178208e-02 0.0 
1.136471505865e-02 1.318264182695e-02 0.0 
1.293781725358e-02 1.392270291670e-02 0.0 
1.002377211222e-02 1.302345945360e-02 0.0 
8.462758460443e-03 1.278526588855e-02 0.0 
2.306765413481e-02 4.036249360518e-02 0.0 
1.932086050887e-02 4.398146404742e-03 0.0 
2.305874559743e-02 6.771148744980e-03 0.0 
1.944962645247e-02 1.744498995728e-03 0.0 
2.291035969396e-02 4.654254273720e-03 0.0 
1.915469033355e-02 -1.025245094151e-03 0.0 
2.228028168511e-02 2.492918381232e-03 0.0 
1.850354408559e-02 -3.918420949233e-03 0.0 
1.524398635384e-02 -5.903151754502e-03 0.0 
1.456467984367e-02 -9.479697764126e-03 0.0 
1.135342771741e-02 -9.552140155209e-03 0.0 
1.080842120436e-02 -1.359052862460e-02 0.0 
7.746650205303e-03 -1.154253103122e-02 0.0 
3.017130675376e-02 3.340023523670e-02 0.0 
1.606732311730e-02 1.516551813167e-02 0.0 
1.396833433797e-02 1.446973640111e-02 0.0 
1.697687782695e-02 1.613084923398e-02 0.0 
-3.272069116366e-03 4.467045520609e-02 0.0 
-4.412613785410e-03 2.382045906155e-02 0.0 
-2.347343505016e-03 1.574542663654e-02 0.0 
-1.271109461793e-03 1.519188045531e-02 0.0 
7.373904187630e-03 1.236276178889e-02 0.0 
-2.248866162884e-03 5.330512902352e-02 0.0 
2.115824699076e-02 3.548331088583e-04 0.0 
2.468353248725e-02 7.951265884570e-03 0.0 
1.383496793920e-02 4.512206661395e-02 0.0 
1.349952831932e-02 4.975201267188e-02 0.0 
-9.790473380013e-04 1.387273025527e-02 0.0 
-2.676267660718e-03 5.609549630762e-02 0.0 
-4.340784135952e-03 1.858164223779e-02 0.0 
1.340208286981e-02 -1.324646499791e-02 0.0 
-4.303642147543e-03 2.704289409047e-02 0.0 
-3.654165843816e-03 2.284244166383e-02 0.0 
-6.653965708208e-03 2.630978943044e-02 0.0 
1.444655505947e-02 1.471627701476e-02 0.0 
1.735150777388e-02 1.672964066795e-02 0.0 
7.965671514950e-03 -7.587568108057e-03 0.0 
4.612489269535e-03 -7.739448103297e-03 0.0 
4.603171745039e-03 -1.154456811700e-02 0.0 
1.764104322455e-03 -5.780984248138e-03 0.0 
1.662047189023e-03 -2.756718010694e-03 0.0 
-6.057860348247e-04 1.147046245558e-04 0.0 
-1.102511312229e-04 -2.305866659431e-03 0.0 
-1.995245988767e-03 4.521844693071e-03 0.0 
-2.697989407755e-03 6.372670316738e-03 0.0 
-3.603720402246e-03 1.118514569477e-02 0.0 
-2.288720399618e-03 1.007865883717e-02 0.0 
-3.499245835672e-03 1.681238404194e-02 0.0 
-3.684995446086e-03 1.966580640452e-02 0.0 
9.956822840997e-03 -1.779010985992e-02 0.0 
2.941790834979e-02 6.052649837949e-02 0.0 
-1.930381153465e-03 1.384718243782e-02 0.0 
8.484897004110e-03 1.209210180301e-02 0.0 
1.172782050003e-02 4.061860299002e-02 0.0 
1.151740028921e-02 4.523101332462e-02 0.0 
1.298089815848e-02 5.437476384804e-02 0.0 
1.111829641557e-02 4.981516276501e-02 0.0 
9.607563351134e-03 4.044375645368e-02 0.0 
9.330515102781e-03 4.502725741614e-02 0.0 
1.055720285099e-02 5.435562792149e-02 0.0 
8.884203000719e-03 4.956244252455e-02 0.0 
9.857279009559e-03 5.882207926176e-02 0.0 
8.292189957139e-03 5.402862143273e-02 0.0 
7.299154223690e-03 4.456636231331e-02 0.0 
6.809878220158e-03 4.905834641339e-02 0.0 
7.577731104273e-03 5.842152278738e-02 0.0 
6.188664267697e-03 5.347926436233e-02 0.0 
6.760603764412e-03 6.272329781999e-02 0.0 
5.454620905257e-03 5.781820263674e-02 0.0 
4.892993435256e-03 4.838389001939e-02 0.0 
-7.309239341118e-04 5.735869856629e-02 0.0 
5.875180882318e-03 1.261451096606e-02 0.0 
5.030567651702e-03 1.185578287225e-02 0.0 
-5.616905498021e-03 4.972754928161e-02 0.0 
-5.801381508253e-03 4.708495493584e-02 0.0 
-6.687763300732e-03 4.333741070618e-02 0.0 
-5.682428117406e-03 4.426035301948e-02 0.0 
4.220938280970e-03 5.281309241958e-02 0.0 
3.705588846055e-03 4.315824259437e-02 0.0 
2.294915019921e-02 6.824186485726e-03 0.0 
2.611394626709e-02 1.521928119539e-02 0.0 
1.172274220682e-02 3.599353257420e-02 0.0 
-3.419268111274e-03 2.603790835759e-02 0.0 
-3.963672864844e-03 3.028395539351e-02 0.0 
3.512965270261e-02 3.864017252478e-02 0.0 
3.561284174254e-02 4.539576386839e-02 0.0 
3.514415306013e-02 4.100019182516e-02 0.0 
3.510498871329e-02 4.844009170682e-02 0.0 
3.545102299572e-02 5.262081651965e-02 0.0 
3.433125105856e-02 4.346358649953e-02 0.0 
-1.735630183282e-03 1.582627041011e-02 0.0 
5.822555161807e-03 3.939938323534e-02 0.0 
-4.831987692067e-03 3.927139316546e-02 0.0 
-2.389436923929e-03 4.006111058490e-02 0.0 
-2.851117306090e-03 2.148690341951e-02 0.0 
6.474855108318e-03 1.257473923261e-02 0.0 
2.902129719927e-02 3.441517494487e-02 0.0 
2.722826787415e-02 3.000960685481e-02 0.0 
2.589731077214e-02 3.029940384589e-02 0.0 
2.394595418398e-02 2.627526759357e-02 0.0 
2.241885617070e-02 2.584913778363e-02 0.0 
2.032477739328e-02 2.216627527343e-02 0.0 
2.170252398624e-02 2.265812335664e-02 0.0 
1.436011990136e-02 1.456190938772e-02 0.0 
1.799506996458e-02 1.882346850909e-02 0.0 
4.700237962044e-03 6.214402220672e-02 0.0 
1.935202326096e-02 1.682700705934e-02 0.0 
-4.430378681602e-03 1.245966719078e-02 0.0 
1.970598879738e-04 5.421598162860e-02 0.0 
-1.143568714630e-03 1.641620510266e-02 0.0 
-1.280349955105e-03 5.976973410321e-02 0.0 
-2.746876728021e-03 5.808176902102e-02 0.0 
-8.016969254171e-04 1.188176177264e-02 0.0 
1.853629982623e-02 2.102578458408e-02 0.0 
2.053295663076e-02 2.475947288784e-02 0.0 
3.438672406554e-02 5.638659394312e-02 0.0 
3.467377767051e-02 6.014267034143e-02 0.0 
1.167479409776e-02 1.259549121962e-02 0.0 
1.682430388109e-02 6.265112295368e-02 0.0 
1.148592055491e-02 6.341615915661e-02 0.0 
1.056065522176e-02 6.778823454134e-02 0.0 
8.220850138909e-04 6.071693818951e-02 0.0 
-6.599136281963e-05 9.303779140748e-03 0.0 
7.799279862492e-03 3.543438479183e-02 0.0 
2.777250612012e-02 1.553861763171e-02 0.0 
2.882890791579e-02 2.321676422166e-02 0.0 
1.192196715782e-02 -1.715466888551e-02 0.0 
8.819186455238e-03 -2.234064265935e-02 0.0 
3.137460570798e-03 4.752774910262e-02 0.0 
2.670629157666e-03 3.778989953288e-02 0.0 
-6.454762212178e-03 4.060057076625e-02 0.0 
-5.386872951767e-03 4.112248744327e-02 0.0 
3.289054951185e-04 1.221999226251e-02 0.0 
-2.372755435879e-03 2.291064927759e-02 0.0 
3.043807189223e-03 3.322599379475e-02 0.0 
4.025532648301e-03 1.294656912121e-02 0.0 
4.148494207705e-03 1.254806338082e-02 0.0 
-4.681915396788e-03 4.779513692240e-02 0.0 
2.360977807201e-02 1.518383862033e-02 0.0 
2.048527105700e-02 5.958765897754e-03 0.0 
-3.151285151638e-03 8.329063159095e-03 0.0 
-4.544500806169e-03 2.294849137815e-02 0.0 
-1.485953938278e-03 6.130701066733e-02 0.0 
2.066311143282e-04 1.005274215332e-02 0.0 
7.762213416560e-03 3.081743800893e-02 0.0 
1.925426862197e-02 1.948724296961e-02 0.0 
2.266960654045e-02 2.257669274744e-02 0.0 
1.551581838733e-02 1.585602742758e-02 0.0 
7.297287847933e-04 2.301823680140e-02 0.0 
-1.568238344983e-03 1.130683013302e-02 0.0 
-2.502922495742e-03 2.465537790392e-02 0.0 
1.656949881790e-02 1.954923968456e-02 0.0 
1.832080711283e-02 2.305520134377e-02 0.0 
3.039837191593e-02 2.281636509611e-02 0.0 
3.116524273789e-02 3.078981557505e-02 0.0 
2.884504497514e-02 3.212614995642e-02 0.0 
3.088554090027e-02 3.955840232467e-02 0.0 
2.666093446575e-02 6.446171291152e-02 0.0 
3.254414664258e-02 2.965156685814e-02 0.0 
3.120357430334e-02 6.116528726872e-02 0.0 
3.036617481116e-02 6.687465397023e-02 0.0 
3.184653420691e-02 6.712135272778e-02 0.0 
3.536929738243e-02 5.596755126914e-02 0.0 
3.452677241473e-02 6.312925150776e-02 0.0 
2.627730073714e-02 1.070199483692e-02 0.0 
1.975524056642e-02 1.404887911980e-02 0.0 
-7.341427639583e-03 3.942688002789e-02 0.0 
-6.528742464563e-03 3.064486633901e-02 0.0 
-4.248852293546e-03 1.777112261260e-02 0.0 
6.056569549717e-03 3.482380276204e-02 0.0 
4.613440908397e-03 2.946248878592e-02 0.0 
8.133737387539e-03 6.747064013077e-02 0.0 
7.151192842039e-03 7.163725583326e-02 0.0 
-4.239046104338e-04 4.551363832505e-02 0.0 
8.415314290697e-04 4.065269236721e-02 0.0 
-7.409252051628e-03 2.605106360495e-02 0.0 
-2.536052561005e-03 1.354482334725e-02 0.0 
9.561475516406e-03 3.122835475665e-02 0.0 
9.182369846690e-03 2.661551701509e-02 0.0 
1.147406063740e-02 3.136073032075e-02 0.0 
1.469019548289e-03 1.071372906933e-02 0.0 
1.562056500325e-02 5.577364035801e-04 0.0 
9.823878794838e-03 1.110421526539e-02 0.0 
6.987500279563e-03 -2.030804690467e-02 0.0 
2.870229705558e-02 2.737946915549e-02 0.0 
3.215657096674e-03 4.612873642353e-02 0.0 
2.470735904858e-02 3.766796378571e-02 0.0 
-2.038323196371e-03 1.979706836861e-02 0.0 
-2.264307340526e-03 1.660911258069e-02 0.0 
1.116771650890e-02 1.178240234091e-02 0.0 
2.616995067155e-02 7.650447724817e-02 0.0 
2.608731788394e-02 2.371437590003e-02 0.0 
2.588315385166e-02 2.166835440036e-02 0.0 
3.063934796857e-02 7.300047071147e-02 0.0 
3.178466284788e-02 7.289321272951e-02 0.0 
3.304398545420e-02 6.666100125295e-02 0.0 
3.262398863046e-02 7.211438589540e-02 0.0 
-4.927168963592e-03 1.373618298449e-02 0.0 
-5.787485467478e-03 1.805614115769e-02 0.0 
1.405943663576e-02 1.566285591104e-02 0.0 
1.403039261598e-02 1.463277983097e-02 0.0 
1.418883658570e-02 1.737280913077e-02 0.0 
1.580629253743e-02 2.068736716996e-02 0.0 
8.652838007075e-03 9.791754613205e-03 0.0 
9.106469934201e-03 1.085816626768e-02 0.0 
-2.460050375570e-03 5.927924243880e-02 0.0 
3.337155096261e-02 6.766351071308e-02 0.0 
5.957703345804e-03 2.557910417708e-02 0.0 
2.923918692397e-02 7.248022094907e-02 0.0 
-2.006642272132e-03 1.056104024494e-02 0.0 
-2.822895747787e-03 1.292924616885e-02 0.0 
6.324212654486e-03 -2.521243543937e-02 0.0 
4.432265394701e-03 -1.969276567842e-02 0.0 
2.093345300442e-03 2.790639157579e-02 0.0 
2.783077463474e-02 4.174989562671e-02 0.0 
2.968318851757e-02 4.873083511016e-02 0.0 
2.556627997681e-02 3.369845301452e-02 0.0 
-3.428274000163e-04 8.928415758562e-03 0.0 
1.917932156155e-03 8.808853543289e-02 0.0 
-1.544453513474e-03 1.464183625154e-02 0.0 
3.485007444046e-02 5.858592273438e-02 0.0 
2.234537711583e-03 2.283475622466e-02 0.0 
2.321769226864e-02 2.071023165005e-02 0.0 
3.444895912355e-02 3.414086248935e-02 0.0 
1.842244087535e-03 1.239360958090e-02 0.0 
1.715059900690e-03 3.335859934556e-02 0.0 
1.265040680711e-03 2.204397626837e-02 0.0 
1.209153045817e-02 7.203785281039e-02 0.0 
1.100661110944e-02 7.643379364259e-02 0.0 
1.316077915843e-02 6.778112600570e-02 0.0 
1.551387469767e-02 -9.948383721667e-03 0.0 
1.297462759941e-02 -1.264133917595e-02 0.0 
4.474055339929e-03 3.407512010678e-02 0.0 
-5.079901828506e-03 5.219773302454e-02 0.0 
-4.367836400723e-03 5.336501959692e-02 0.0 
-3.312479201015e-03 2.883777665578e-02 0.0 
-5.406693769336e-03 2.863435075445e-02 0.0 
-6.968842674199e-03 3.688623282833e-02 0.0 
-7.697077848927e-03 3.551853087946e-02 0.0 
2.366224791740e-02 3.309287510036e-02 0.0 
2.142747710859e-02 3.139591322166e-02 0.0 
2.751294070181e-02 3.472992193933e-02 0.0 
1.923748791771e-03 1.351319832789e-02 0.0 
1.628685289229e-03 1.287177205904e-02 0.0 
4.032866959383e-03 1.135597806257e-02 0.0 
4.621736061838e-03 2.513473392571e-02 0.0 
3.111149381976e-03 1.874763221117e-02 0.0 
-3.423720314442e-03 1.011095577681e-02 0.0 
-1.170008260297e-03 5.120530100901e-03 0.0 
-6.281823130328e-03 1.869768393474e-02 0.0 
5.613490431111e-03 2.111586780708e-02 0.0 
-1.644641190961e-03 1.155300055905e-02 0.0 
-2.299934960520e-03 1.359624856640e-02 0.0 
4.824470433174e-03 4.119519977792e-02 0.0 
2.156335165621e-03 3.525732073744e-02 0.0 
2.004129669111e-02 1.550408277716e-02 0.0 
1.672799606527e-02 5.521765846343e-03 0.0 
8.663381797818e-03 2.238405168571e-02 0.0 
1.098371799015e-02 2.682752031227e-02 0.0 
6.216481167561e-03 1.703095670783e-02 0.0 
-1.259955610201e-03 6.217313256135e-02 0.0 
2.004538976279e-02 1.959082794704e-02 0.0 
1.139752640013e-03 8.408729271825e-03 0.0 
2.498196231824e-03 9.367075676481e-03 0.0 
1.287938939345e-04 6.946555353058e-03 0.0 
1.385874745074e-02 1.408234615785e-02 0.0 
1.023005716153e-02 1.067802386623e-02 0.0 
1.137623878064e-02 1.171835290042e-02 0.0 
7.092417886395e-03 -2.671962792183e-02 0.0 
9.568930176978e-04 2.633030534230e-02 0.0 
8.483063924701e-03 7.619404520859e-02 0.0 
6.118812678021e-03 -2.902958579269e-02 0.0 
7.349733432231e-03 8.050599852441e-02 0.0 
6.146175902276e-03 7.575204362970e-02 0.0 
6.358728986102e-03 8.463378408581e-02 0.0 
-5.083431804556e-04 6.388632870365e-02 0.0 
1.379379954012e-02 7.757445458485e-02 0.0 
1.498933634503e-02 7.219559738724e-02 0.0 
7.391600845451e-03 3.572074813606e-02 0.0 
3.847895382124e-03 1.578634895430e-02 0.0 
7.064286948292e-03 4.614811813870e-02 0.0 
5.189157319789e-03 5.056237116270e-02 0.0 
-2.089104786287e-03 9.373698188973e-03 0.0 
-2.819987581965e-03 1.196258138263e-02 0.0 
-1.952564859622e-03 7.966987364295e-03 0.0 
-2.639590776692e-03 1.088537057959e-02 0.0 
-3.471554167198e-03 1.477062810276e-02 0.0 
-3.139208012308e-03 1.362990734074e-02 0.0 
9.939539261890e-03 8.126620513316e-02 0.0 
-2.099081338795e-03 8.638618666853e-03 0.0 
-2.644431661375e-03 1.204207417200e-02 0.0 
-1.600534537599e-03 6.926099994680e-03 0.0 
3.094765372456e-02 7.866308593342e-02 0.0 
3.236295447408e-02 4.598741842449e-02 0.0 
3.106586011346e-02 5.500795633796e-02 0.0 
2.757872065229e-02 5.871945382750e-02 0.0 
1.053081385383e-02 1.324797262443e-02 0.0 
1.331137351421e-02 1.811441723669e-02 0.0 
-1.593674473287e-03 2.283729640591e-02 0.0 
-1.870116580214e-03 2.768618632400e-02 0.0 
5.085410773398e-03 8.038874529335e-02 0.0 
3.718428791905e-03 8.084466391367e-02 0.0 
4.056400764270e-03 7.300941877934e-02 0.0 
2.932995605654e-03 7.404393908799e-02 0.0 
3.150508741696e-03 6.609895772340e-02 0.0 
2.032566243258e-03 6.718062513377e-02 0.0 
2.398707420484e-03 5.896979576198e-02 0.0 
9.517796402519e-03 9.940966320085e-03 0.0 
2.351534384545e-02 4.345364543497e-02 0.0 
2.913826059695e-02 7.879915948597e-02 0.0 
6.299997191707e-03 7.961154693592e-03 0.0 
6.987088928801e-03 9.545091347254e-03 0.0 
3.321503850480e-02 7.023097186250e-02 0.0 
3.159563185519e-02 7.517787343752e-02 0.0 
-1.155866068710e-03 7.739029796599e-03 0.0 
3.123806485955e-02 2.261877148165e-02 0.0 
2.836960615717e-03 1.002646765506e-02 0.0 
2.436524018969e-03 -1.713969776755e-02 0.0 
8.335082090402e-03 -1.801120362104e-02 0.0 
3.315438357860e-02 2.873855620946e-02 0.0 
3.395122990318e-02 6.537580911716e-02 0.0 
3.357039182565e-02 5.164971890091e-02 0.0 
3.239370827176e-02 6.032786226419e-02 0.0 
1.984008611111e-03 1.336590314475e-02 0.0 
3.734052396153e-03 2.936410631233e-02 0.0 
2.295548490094e-02 2.488103015076e-02 0.0 
3.481337275814e-03 5.797943333230e-02 0.0 
1.826685465384e-02 2.547814613260e-02 0.0 
-8.644393118105e-04 2.533969586536e-02 0.0 
2.912042705473e-02 1.674770785024e-02 0.0 
3.524045327167e-02 5.188576226667e-02 0.0 
2.641689390359e-02 2.389213722069e-02 0.0 
3.307272693324e-02 3.771892702876e-02 0.0 
2.741595847163e-02 5.923087241245e-02 0.0 
2.565556352614e-02 6.956939127795e-02 0.0 
2.748645584157e-02 7.144288228771e-02 0.0 
2.622167149627e-02 1.212307404772e-02 0.0 
3.312455575432e-02 6.443345437456e-02 0.0 
3.051835679197e-02 6.926328679794e-02 0.0 
3.168218062422e-02 5.544168330946e-02 0.0 
1.383796115333e-02 3.579140756258e-02 0.0 
1.344275969640e-02 3.115115018238e-02 0.0 
1.029943433749e-02 2.259361002682e-02 0.0 
1.278126717353e-02 2.666587740975e-02 0.0 
1.595335718365e-02 3.518141832598e-02 0.0 
1.538575205272e-02 3.060552922274e-02 0.0 
1.184808002420e-02 2.238912801706e-02 0.0 
1.452840747176e-02 2.616542037685e-02 0.0 
9.717196309150e-03 1.652835799344e-02 0.0 
1.325075224258e-02 2.170281947284e-02 0.0 
1.723654057823e-02 2.974493499111e-02 0.0 
1.619591897412e-02 2.555201502349e-02 0.0 
1.230137905246e-02 1.855623935612e-02 0.0 
1.999825902739e-02 3.327479728806e-02 0.0 
5.418822854270e-03 6.408828326778e-03 0.0 
3.301654381608e-02 2.794812401985e-02 0.0 
9.790657537359e-03 -2.109457583012e-02 0.0 
1.142504194277e-02 -7.530057391180e-03 0.0 
3.439872275071e-02 5.392514229784e-02 0.0 
4.776798906572e-03 8.140521096511e-03 0.0 
4.093832434675e-03 8.420649167359e-03 0.0 
2.574406077157e-02 9.265975611747e-03 0.0 
5.284045975248e-03 6.236225067065e-03 0.0 
2.859660393966e-02 6.602020321839e-02 0.0 
1.730858154684e-02 -6.915837988233e-03 0.0 
5.227903915578e-03 5.627774478811e-03 0.0 
1.623162046053e-02 3.982796941066e-02 0.0 
1.864519556637e-02 4.367076436838e-02 0.0 
1.853007347535e-02 4.840334100132e-02 0.0 
3.272379659642e-03 8.130170480414e-03 0.0 
1.411902757959e-02 6.332935345809e-02 0.0 
3.922402613666e-03 4.181475604914e-03 0.0 
1.801098808619e-02 1.505198145625e-02 0.0 
2.162593368167e-02 1.670861995157e-02 0.0 
2.341317932985e-02 1.593717361757e-02 0.0 
1.803043896689e-02 3.438546443164e-02 0.0 
2.281038955977e-03 3.680561991602e-03 0.0 
3.742808099761e-03 6.576890376741e-03 0.0 
2.750316811630e-03 6.470035817727e-03 0.0 
4.692653669167e-03 9.060075673018e-03 0.0 
1.207642863488e-03 3.576666882969e-03 0.0 
4.747080860117e-03 6.845478313391e-03 0.0 
4.670509837229e-03 6.252634875861e-03 0.0 
-9.217776357745e-04 2.659894437867e-03 0.0 
1.533647172516e-03 2.625552696444e-04 0.0 
1.386096542375e-03 3.050288987474e-03 0.0 
4.554765508916e-03 -8.510339984531e-04 0.0 
4.647321175210e-03 -4.155536867995e-03 0.0 
8.045610043273e-03 -3.955161690679e-03 0.0 
7.992385088442e-03 -6.110787540006e-04 0.0 
1.168237893444e-02 -5.805385736459e-03 0.0 
1.754285705076e-02 2.478040143480e-02 0.0 
2.528965230879e-04 3.505431643305e-03 0.0 
-3.573417859462e-03 1.766945173970e-02 0.0 
-2.362580729473e-03 1.579574220485e-02 0.0 
-2.872046800390e-03 1.524182594590e-02 0.0 
-7.988111908679e-03 3.757321257589e-02 0.0 
-8.164179001827e-03 3.350997486536e-02 0.0 
-7.717236701198e-03 3.172143928655e-02 0.0 
-7.467046488663e-03 4.172762849048e-02 0.0 
2.508942153037e-02 2.606000874228e-02 0.0 
-1.698597300366e-04 3.608870249985e-03 0.0 
6.782886808756e-03 1.171368427501e-02 0.0 
-8.313312224903e-03 3.083571484198e-02 0.0 
1.829208029621e-02 8.353886466381e-02 0.0 
1.887737781716e-02 7.610881068008e-02 0.0 
2.052888326869e-02 7.471997048492e-02 0.0 
1.895284517411e-02 6.743184957691e-02 0.0 
1.690477251813e-02 7.634666042822e-02 0.0 
-6.039408072661e-03 3.761265814464e-02 0.0 
-4.971629820158e-03 3.773744795970e-02 0.0 
-4.198679078290e-03 4.103554120117e-02 0.0 
-3.819480613824e-03 3.730947603747e-02 0.0 
-2.949362364038e-03 4.038530377353e-02 0.0 
-3.236459006776e-03 4.406051254198e-02 0.0 
-2.607236065435e-03 3.639683963694e-02 0.0 
-1.712033544775e-03 3.968853356831e-02 0.0 
1.482544188956e-02 8.541819874844e-02 0.0 
8.795544686263e-03 -1.357223721586e-02 0.0 
4.762323616564e-03 -7.412224674024e-03 0.0 
5.795780440321e-03 3.539256450465e-03 0.0 
2.258404662428e-03 -1.739623441505e-03 0.0 
2.613573780442e-03 -1.086563875235e-02 0.0 
6.271799686574e-04 -4.710892206013e-03 0.0 
2.463275448066e-03 -1.220748605884e-02 0.0 
4.334942827230e-03 -1.810616566720e-02 0.0 
1.170786098283e-02 8.922438889645e-03 0.0 
6.692496208212e-03 1.272552879863e-02 0.0 
1.246191254519e-02 1.749120310035e-02 0.0 
7.508381305118e-03 2.087334169460e-02 0.0 
2.473057470516e-03 1.635569759491e-02 0.0 
-1.439884018483e-03 3.483072333606e-02 0.0 
-8.962293032623e-04 5.748195884648e-03 0.0 
-1.320704203368e-03 5.061037192452e-02 0.0 
-2.544313321139e-03 5.172645167899e-02 0.0 
-2.427461467810e-03 5.488937225684e-02 0.0 
-3.775996371576e-03 5.195063590961e-02 0.0 
-2.461517950513e-03 4.858181202609e-02 0.0 
-1.167595555514e-03 5.728753333718e-02 0.0 
-2.163502672915e-03 5.757615544656e-02 0.0 
5.102391458659e-03 6.483562110607e-02 0.0 
2.867781013778e-03 6.603366453610e-02 0.0 
1.426525331267e-03 6.737115097265e-02 0.0 
1.280912668262e-03 6.652670954810e-02 0.0 
2.125683376404e-03 6.487831491182e-02 0.0 
4.195095388130e-03 6.395397409276e-02 0.0 
5.426251704896e-03 6.110272789152e-02 0.0 
8.638612436705e-03 5.924036334815e-02 0.0 
6.441593292819e-03 5.759262244416e-02 0.0 
3.379441904683e-03 5.929525725168e-02 0.0 
1.012207540811e-02 5.551039120831e-02 0.0 
7.695658897685e-04 4.660673614677e-02 0.0 
1.460506613302e-03 4.174642033902e-02 0.0 
-8.076456000871e-04 4.094614440488e-03 0.0 
1.151099683617e-02 8.595264274402e-02 0.0 
1.300963363554e-02 3.257595338295e-02 0.0 
1.164202836580e-03 1.108256295527e-02 0.0 
1.716927912330e-03 9.105204929469e-03 0.0 
1.404119607735e-03 8.859981485550e-03 0.0 
-5.431766116600e-04 1.473981462702e-02 0.0 
-8.766581274870e-04 1.195733653050e-02 0.0 
6.400892815094e-04 1.081373302906e-02 0.0 
-6.533345078204e-03 3.845710835089e-02 0.0 
9.350354853398e-03 1.854506458502e-02 0.0 
3.269865414707e-03 2.859252348255e-02 0.0 
1.938702021327e-02 -1.657654721507e-03 0.0 
-5.942908443122e-03 2.305909154560e-02 0.0 
-2.911322915255e-03 2.920212177248e-02 0.0 
-6.329665093118e-03 2.726284663192e-02 0.0 
-2.998475707248e-03 1.833741856296e-02 0.0 
-4.922049979304e-03 3.091232076185e-02 0.0 
-4.287531678898e-03 2.067176026968e-02 0.0 
1.776744644180e-03 6.662402875936e-03 0.0 
-1.749188447205e-04 6.269816686642e-02 0.0 
9.041475432167e-03 6.319545143471e-02 0.0 
5.913171350937e-03 6.695881183053e-02 0.0 
5.428562409797e-03 4.392534655290e-02 0.0 
-5.485833243601e-03 5.011858837562e-02 0.0 
-4.527475003858e-03 4.430704722224e-02 0.0 
-1.517300701907e-03 4.973481747721e-02 0.0 
9.623410838559e-03 1.077872440450e-02 0.0 
3.271078747221e-02 6.115752657981e-02 0.0 
-4.740087433826e-03 1.743044844507e-02 0.0 
-7.984703558599e-03 3.939112953420e-02 0.0 
-7.321378344186e-03 3.323542019577e-02 0.0 
-4.900667429879e-03 1.739760732791e-02 0.0 
3.400356158101e-02 3.251608160715e-02 0.0 
-7.881662463206e-03 2.692205655959e-02 0.0 
-4.161246442184e-03 1.844453552172e-02 0.0 
4.165902200242e-03 3.864728574381e-02 0.0 
1.166727837584e-02 4.572586744503e-02 0.0 
-3.078773764347e-03 1.602144911496e-02 0.0 
-6.721549250792e-03 2.482465786056e-02 0.0 
1.230450337880e-02 5.894820874806e-02 0.0 
1.110832945221e-02 1.314604237226e-02 0.0 
-1.026621585259e-03 3.117293141499e-03 0.0 
7.639401226068e-03 4.003423932913e-02 0.0 
7.135458515467e-03 2.218189320258e-02 0.0 
1.593301124904e-02 6.741802977526e-02 0.0 
1.674534118793e-03 5.058793610520e-02 0.0 
9.578445950963e-03 7.217034450574e-02 0.0 
-6.679993173623e-04 9.198640181882e-03 0.0 
1.395493030974e-02 4.044488159891e-02 0.0 
-4.129970660008e-03 5.431279621800e-02 0.0 
1.036736340984e-02 9.085963150716e-03 0.0 
3.505857774193e-02 4.549262549812e-02 0.0 
2.607041218739e-02 8.316806421056e-02 0.0 
3.354210905087e-03 2.429420979515e-02 0.0 
2.814596265818e-02 2.224647132481e-02 0.0 
6.113284370537e-03 1.114778404288e-02 0.0 
9.284559613708e-03 1.239050987901e-02 0.0 
-3.784728650039e-03 5.589568899270e-02 0.0 
-3.601444591107e-03 1.553264826703e-02 0.0 
2.103572248109e-02 1.249049415200e-02 0.0 
6.121973560215e-03 3.027376147269e-02 0.0 
2.422701414605e-02 2.989512065358e-02 0.0 
1.534662118513e-02 3.502133239576e-03 0.0 
9.693239491582e-03 3.584282971433e-02 0.0 
-1.018636581404e-03 1.259639849470e-02 0.0 
1.165960272394e-02 1.302883443770e-02 0.0 
3.394590921046e-02 6.029011484294e-02 0.0 
3.038984388547e-02 3.923020225834e-02 0.0 
2.537971763966e-02 4.242370132908e-02 0.0 
3.088489320939e-02 3.165455449055e-02 0.0 
-2.102389738311e-03 3.232488591138e-02 0.0 
-3.486820929770e-03 1.595924116718e-02 0.0 
7.589069680794e-03 -1.580731609940e-02 0.0 
3.417194137613e-02 3.584961011172e-02 0.0 
1.489052953599e-02 5.865759619494e-02 0.0 
1.644349332383e-02 1.776598205066e-02 0.0 
4.306739057999e-03 2.018577160818e-02 0.0 
3.564754811151e-02 4.903678999423e-02 0.0 
-4.263571047297e-03 1.832299890752e-02 0.0 
7.560807535905e-03 2.649472738450e-02 0.0 
-7.974110219834e-03 2.963668849001e-02 0.0 
-3.109666861971e-04 6.475769957229e-02 0.0 
1.711417966431e-02 -3.375856620007e-03 0.0 
1.558621363561e-02 -2.581529225709e-03 0.0 
2.680382334349e-02 1.875568400743e-02 0.0 
-7.394256904536e-03 2.814152885281e-02 0.0 
7.449450567887e-03 1.697178451991e-02 0.0 
-3.971679635024e-03 1.766136700189e-02 0.0 
3.279117177438e-04 1.368223880461e-02 0.0 
8.720069568240e-03 1.537639810537e-02 0.0 
2.781571201410e-02 7.784116027283e-02 0.0 
-3.509915023866e-03 1.660735914657e-02 0.0 
6.925013500508e-03 1.008740748696e-02 0.0 
9.073657513881e-03 1.162717717634e-02 0.0 
-1.960565991646e-03 4.328018896811e-02 0.0 
9.510515042994e-03 1.024159643512e-02 0.0 
3.154838402508e-02 7.709285463766e-02 0.0 
-2.929133307839e-03 1.519397931295e-02 0.0 
3.654934171894e-03 1.253957620985e-02 0.0 
2.875268227050e-02 1.606290725281e-02 0.0 
3.181160948975e-03 8.803321056295e-02 0.0 
-1.931654703858e-03 9.559802678211e-03 0.0 
3.090979943219e-03 1.125866730531e-02 0.0 
2.818942284628e-02 2.903570924946e-02 0.0 
4.008281980825e-03 9.712417918943e-03 0.0 
2.822320549927e-02 8.507846507209e-02 0.0 
-7.078894013587e-03 2.966424663197e-02 0.0 
2.875033819433e-02 3.944453714143e-02 0.0 
2.893754054497e-03 8.045146455105e-03 0.0 
4.122311148010e-03 1.031100271560e-02 0.0 
2.083410279766e-02 5.202727018978e-02 0.0 
-7.184954629321e-03 3.321446427518e-02 0.0 
2.014772298886e-02 1.821227769724e-02 0.0 
2.871392358205e-03 6.246710606573e-02 0.0 
3.016333606511e-02 7.903538960981e-02 0.0 
-6.427890561271e-03 3.410120316939e-02 0.0 
1.178162901595e-02 -2.329490804358e-03 0.0 
1.405857573313e-03 1.163331796076e-02 0.0 
7.842896193333e-03 8.530898518501e-03 0.0 
-5.510453208762e-03 3.439215839207e-02 0.0 
1.166871732132e-02 9.430703838200e-04 0.0 
-4.485198688591e-03 3.414252802212e-02 0.0 
2.935575878173e-02 8.443804123519e-02 0.0 
2.101727861736e-02 4.706650020684e-02 0.0 
-3.357964835325e-03 3.342954350556e-02 0.0 
2.571543019610e-02 3.425006498480e-02 0.0 
3.635581071418e-03 5.521162923632e-02 0.0 
2.582316545032e-02 2.521312702425e-02 0.0 
-1.239122721534e-03 1.748669973908e-02 0.0 
-7.332004621171e-03 2.351497824691e-02 0.0 
-7.159832951485e-04 1.371406607577e-02 0.0 
1.847616620505e-02 3.896912080100e-02 0.0 
2.908942848197e-02 8.145568946736e-02 0.0 
-2.351819142591e-04 1.440998022973e-02 0.0 
2.226974900447e-02 2.881866450274e-02 0.0 
2.320243735408e-02 2.194314128544e-02 0.0 
2.504572381814e-02 1.907475112499e-02 0.0 
1.528723343899e-04 1.442465785561e-02 0.0 
3.139134558869e-02 7.231400230253e-02 0.0 
-6.005462373098e-03 3.400234988886e-02 0.0 
-4.133660367992e-03 3.436457796229e-02 0.0 
7.847293138381e-03 2.511024975371e-03 0.0 
2.001217359307e-02 2.708135591421e-02 0.0 
6.377270833955e-04 6.493631378277e-02 0.0 
2.060350204429e-02 3.764928443035e-02 0.0 
-3.632488363049e-04 2.913162140629e-02 0.0 
4.441412429647e-03 2.178530911754e-03 0.0 
1.709540384663e-02 1.682481866250e-02 0.0 
9.218125039661e-04 6.494076822234e-02 0.0 
1.294161678600e-03 5.679879276542e-03 0.0 
-6.696206936493e-04 6.268361190505e-02 0.0 
-1.321936354835e-03 7.369242263135e-03 0.0 
2.270695241391e-02 1.896100649025e-02 0.0 
-3.489262797856e-03 1.172209461123e-02 0.0 
-5.162473287138e-03 1.479971027300e-02 0.0 
2.263157634109e-03 1.871343778028e-02 0.0 
-6.495977827984e-03 1.931477854990e-02 0.0 
3.177011570106e-04 8.974586104053e-03 0.0 
-4.006678575781e-04 5.370031560008e-03 0.0 
1.203798082871e-03 8.197079611010e-02 0.0 
2.693979488637e-02 7.658027210408e-02 0.0 
5.153394140648e-03 -3.142408389631e-02 0.0 
2.984478091515e-02 6.294159000159e-02 0.0 
-6.820319836787e-03 2.322232351457e-02 0.0 
2.245650009058e-02 3.582373494003e-02 0.0 
2.501450787571e-03 8.154463689358e-02 0.0 
-6.741704820200e-03 2.840312991704e-02 0.0 
9.031926718324e-03 1.393278082950e-02 0.0 
4.509570353560e-03 4.654452471638e-03 0.0 
1.654502482853e-03 5.083621459996e-02 0.0 
6.855601158926e-03 1.050027803977e-02 0.0 
2.029905616297e-02 1.911420969422e-02 0.0 
4.744375509724e-04 2.736690762393e-02 0.0 
7.388939428842e-03 8.822156029772e-02 0.0 
8.130451905924e-03 2.844387175936e-02 0.0 
-1.006585016752e-03 3.024760327391e-02 0.0 
2.360728972103e-02 6.723168755602e-02 0.0 
2.558719416508e-02 5.123329422014e-02 0.0 
2.080670547164e-02 3.478463792381e-02 0.0 
-3.075878080508e-03 5.696865558510e-02 0.0 
2.710762340355e-03 7.686796840403e-03 0.0 
2.025072340440e-02 5.363945305596e-02 0.0 
4.744388963224e-03 6.949524267256e-03 0.0 
1.235034071767e-02 7.977456131191e-02 0.0 
1.675128491456e-02 1.678355395781e-02 0.0 
1.497550484070e-02 3.628927806488e-02 0.0 
5.188823071052e-03 1.733145833459e-02 0.0 
8.408801293913e-03 8.720247620854e-03 0.0 
-1.004209401892e-03 3.937926571237e-03 0.0 
1.282840794440e-02 1.310661373037e-02 0.0 
1.516806932012e-02 1.522868431756e-02 0.0 
1.756834807478e-02 7.009218295653e-02 0.0 
9.621681063647e-03 1.132474165773e-02 0.0 
2.228973081624e-03 4.310771070771e-02 0.0 
-1.010647488229e-03 4.037974821087e-03 0.0 
1.545353748152e-02 7.930356687241e-02 0.0 
1.395213989060e-03 1.754548976781e-02 0.0 
4.988096536816e-03 -1.588167851732e-02 0.0 
7.125476444409e-04 1.707112848972e-02 0.0 
1.891242130861e-02 2.884758191488e-02 0.0 
5.100315464338e-03 7.108486325182e-02 0.0 
2.071512247513e-02 6.824161721913e-02 0.0 
-1.037458280424e-03 9.254768285020e-03 0.0 
8.211127734733e-03 1.501264731327e-02 0.0 
1.189039644899e-02 2.937857933688e-03 0.0 
2.588778265740e-03 5.174959842804e-02 0.0 
-4.917978569650e-03 5.012900246551e-02 0.0 
5.505351438916e-03 -2.598669799256e-02 0.0 
-1.472682799871e-03 7.408746717725e-03 0.0 
1.497821204518e-02 2.187593772410e-02 0.0 
-1.576201215979e-03 9.141138814042e-03 0.0 
6.158086082895e-04 6.727071417299e-02 0.0 
8.857520095693e-03 4.180947471184e-02 0.0 
-4.958963581202e-04 6.357435189766e-03 0.0 
8.893101978917e-03 1.186842629579e-02 0.0 
1.744559763016e-03 -8.105658662013e-03 0.0 
1.775934607376e-03 7.047287556674e-03 0.0 
6.993048471254e-03 -8.486845511699e-03 0.0 
1.009746744561e-02 8.853591500297e-02 0.0 
7.512657232025e-03 5.383379878927e-02 0.0 
-9.322947232066e-04 4.259356387036e-03 0.0 
3.215118393134e-03 1.654606311837e-02 0.0 
-3.470304112678e-03 4.935628657742e-02 0.0 
2.163465481007e-02 8.018857406511e-02 0.0 
-1.748156314226e-03 6.015962458023e-02 0.0 
1.271025558533e-02 1.357372106443e-02 0.0 
4.168618202514e-03 2.366937707399e-02 0.0 
2.238336791511e-03 1.576237557018e-02 0.0 
8.365640218056e-04 5.868699064478e-03 0.0 
5.966902501695e-03 1.463028534108e-02 0.0 
2.410027261403e-03 2.953127127926e-03 0.0 
6.792575059243e-03 -2.553133950772e-02 0.0 
7.701211173855e-03 7.957677285368e-03 0.0 
3.163902380845e-03 8.436361079875e-03 0.0 
5.541350864610e-03 8.879295067946e-02 0.0 
7.308877047968e-03 1.517102334914e-02 0.0 
-3.304123255864e-03 5.486077802725e-02 0.0 
1.293886217315e-03 5.769566950220e-02 0.0 
1.360105147525e-04 7.961187094221e-03 0.0 
1.615883012962e-03 6.700499340562e-02 0.0 
9.330075537460e-04 8.902578857410e-02 0.0 
-1.551559365245e-04 4.411528366832e-03 0.0 
1.218156357438e-03 6.335814578576e-02 0.0 
1.986549289435e-03 7.577637424793e-02 0.0 
8.339790978770e-03 1.190672093725e-02 0.0 
-8.534923319463e-04 4.294881349365e-02 0.0 
1.099732562271e-03 3.394494615214e-02 0.0 
6.103157627553e-04 2.964983067822e-03 0.0 
7.119790263084e-03 -3.177393038739e-02 0.0 
1.586799264344e-03 6.037947144451e-02 0.0 
7.007229266667e-03 7.454820819106e-03 0.0 
4.771284337489e-03 1.437291872558e-02 0.0 
4.088576060775e-03 6.634757235593e-02 0.0 
1.456985385215e-02 -2.929151804182e-03 0.0 
1.165159846560e-02 1.650958155265e-02 0.0 
-3.579647219275e-03 4.657732614329e-02 0.0 
1.292529520614e-02 1.505055341002e-02 0.0 
5.488733589546e-03 8.699116456112e-03 0.0 
1.775489118686e-03 -6.412958204381e-03 0.0 
-7.190781059150e-04 3.891878319705e-02 0.0 
8.454005204124e-03 4.977658971542e-02 0.0 
-1.837502417782e-03 7.367406825107e-03 0.0 
-2.359030335167e-03 4.580721153493e-02 0.0 
1.459465241698e-02 7.052827707037e-02 0.0 
4.820224158700e-04 1.350903632129e-01 0.0 
2.016808137817e-02 8.079492306109e-02 0.0 
4.949751339435e-04 1.301547605510e-01 0.0 
2.374685779730e-02 8.798813864240e-02 0.0 
5.427192021941e-04 1.247554823021e-01 0.0 
2.562131866909e-02 9.226790299588e-02 0.0 
5.481931046309e-04 1.188895324788e-01 0.0 
2.595837924615e-02 9.382034080821e-02 0.0 
5.942043524902e-04 1.125598233703e-01 0.0 
2.505025285238e-02 9.292942129646e-02 0.0 
5.932287316115e-04 1.057721148062e-01 0.0 
2.314784124805e-02 9.003670826132e-02 0.0 
6.241399073524e-04 9.853654442951e-02 0.0 

TENSORS node_materi_stress float
-1.134333289686e+01 4.021116565933e-02 0.0 
4.021116565933e-02 -8.486900862346e+00 0.0 
0.0 0.0 -4.714801705066e+00 
-6.789059078516e+01 4.668627346168e-01 0.0 
4.668627346168e-01 -1.375702173855e+02 0.0 
0.0 0.0 -6.123824245119e+01 
-1.673930219372e+02 -2.674449060073e-01 0.0 
-2.674449060073e-01 -3.924698714356e+02 0.0 
0.0 0.0 -1.675588680119e+02 
-1.405989047163e+02 6.563861564616e-01 0.0 
6.563861564616e-01 -3.277683996661e+02 0.0 
0.0 0.0 -1.401101913147e+02 
-1.103085218664e+01 -1.346417255256e-01 0.0 
-1.346417255256e-01 -2.073048423572e+01 0.0 
0.0 0.0 -7.307508659695e+00 
-1.382001330917e+01 -5.080522799498e-01 0.0 
-5.080522799498e-01 -4.019285523076e+01 0.0 
0.0 0.0 -1.352610255122e+01 
-1.721014614703e+01 -5.862099745213e-01 0.0 
-5.862099745213e-01 -5.834382415150e+01 0.0 
0.0 0.0 -2.147378873566e+01 
-2.799501822038e+01 -7.252435869941e-01 0.0 
-7.252435869941e-01 -7.931654285377e+01 0.0 
0.0 0.0 -3.104012100258e+01 
-4.388056151872e+01 -7.045289484613e-01 0.0 
-7.045289484613e-01 -9.982372963144e+01 0.0 
0.0 0.0 -4.028175790252e+01 
-5.783354728728e+01 -7.155728297557e-01 0.0 
-7.155728297557e-01 -1.202778158509e+02 0.0 
0.0 0.0 -4.943049131900e+01 
-7.010216405232e+01 -7.538531137967e-01 0.0 
-7.538531137967e-01 -1.408566484669e+02 0.0 
0.0 0.0 -5.851017751441e+01 
-8.086130682467e+01 -7.291843600553e-01 0.0 
-7.291843600553e-01 -1.614824348120e+02 0.0 
0.0 0.0 -6.750899477149e+01 
-9.020457493739e+01 -7.011841986739e-01 0.0 
-7.011841986739e-01 -1.821278749143e+02 0.0 
0.0 0.0 -7.645424170641e+01 
-9.849561665470e+01 -7.063420209735e-01 0.0 
-7.063420209735e-01 -2.028963671883e+02 0.0 
0.0 0.0 -8.536234298505e+01 
-1.057939852859e+02 -7.761127290151e-01 0.0 
-7.761127290151e-01 -2.240916864215e+02 0.0 
0.0 0.0 -9.436859237188e+01 
-1.123501040808e+02 -6.836989552806e-01 0.0 
-6.836989552806e-01 -2.444714370624e+02 0.0 
0.0 0.0 -1.031597507395e+02 
-1.179452228935e+02 -8.273536551402e-01 0.0 
-8.273536551402e-01 -2.628493148089e+02 0.0 
0.0 0.0 -1.111125914167e+02 
-1.233044252441e+02 -3.878043631723e-01 0.0 
-3.878043631723e-01 -2.829425595601e+02 0.0 
0.0 0.0 -1.197063902775e+02 
-1.285579351441e+02 -2.991780527040e-01 0.0 
-2.991780527040e-01 -3.033583831221e+02 0.0 
0.0 0.0 -1.285286679379e+02 
-1.351830429300e+02 -2.583929472309e-01 0.0 
-2.583929472309e-01 -3.230018808345e+02 0.0 
0.0 0.0 -1.370493216762e+02 
-1.440396334536e+02 -1.930338510163e-01 0.0 
-1.930338510163e-01 -3.426653158992e+02 0.0 
0.0 0.0 -1.456114848058e+02 
-1.531437223599e+02 -2.233969577084e-01 0.0 
-2.233969577084e-01 -3.624193674076e+02 0.0 
0.0 0.0 -1.542689269303e+02 
-1.619957057754e+02 -2.970960330271e-01 0.0 
-2.970960330271e-01 -3.812531732126e+02 0.0 
0.0 0.0 -1.625746636964e+02 
-1.409867191175e+02 7.190908469621e-01 0.0 
7.190908469621e-01 -3.289337461842e+02 0.0 
0.0 0.0 -1.405761395905e+02 
-1.404461238079e+02 1.275153545293e+00 0.0 
1.275153545293e+00 -3.279368686466e+02 0.0 
0.0 0.0 -1.401148977364e+02 
-1.406071223073e+02 2.125930319484e+00 0.0 
2.125930319484e+00 -3.282845683002e+02 0.0 
0.0 0.0 -1.402675071822e+02 
-1.406078903261e+02 2.377302375342e+00 0.0 
2.377302375342e+00 -3.284269363871e+02 0.0 
0.0 0.0 -1.403104480140e+02 
-1.405263099462e+02 3.148529769657e+00 0.0 
3.148529769657e+00 -3.279937788836e+02 0.0 
0.0 0.0 -1.401560266489e+02 
-1.409218705637e+02 3.810249957205e+00 0.0 
3.810249957205e+00 -3.288924401882e+02 0.0 
0.0 0.0 -1.405442932255e+02 
-1.413959127799e+02 4.536697044642e+00 0.0 
4.536697044642e+00 -3.295341108866e+02 0.0 
0.0 0.0 -1.408790071000e+02 
-1.412726917011e+02 5.371586531283e+00 0.0 
5.371586531283e+00 -3.296548361747e+02 0.0 
0.0 0.0 -1.408782583627e+02 
-1.419153385136e+02 6.271539122137e+00 0.0 
6.271539122137e+00 -3.309673624840e+02 0.0 
0.0 0.0 -1.414648102993e+02 
-1.420853272964e+02 6.793907727507e+00 0.0 
6.793907727507e+00 -3.315829872827e+02 0.0 
0.0 0.0 -1.417004943737e+02 
-1.422878253263e+02 7.737004542683e+00 0.0 
7.737004542683e+00 -3.317206535084e+02 0.0 
0.0 0.0 -1.418025436504e+02 
-1.428703307458e+02 8.621839437426e+00 0.0 
8.621839437426e+00 -3.332176177243e+02 0.0 
0.0 0.0 -1.424263845410e+02 
-1.437597000605e+02 9.511739921645e+00 0.0 
9.511739921645e+00 -3.348181673679e+02 0.0 
0.0 0.0 -1.431733602285e+02 
-1.439034071111e+02 1.041522452978e+01 0.0 
1.041522452978e+01 -3.356407105356e+02 0.0 
0.0 0.0 -1.434632352940e+02 
-1.445877844763e+02 1.133431023610e+01 0.0 
1.133431023610e+01 -3.367923272628e+02 0.0 
0.0 0.0 -1.440140335218e+02 
-1.447653318471e+02 1.210638965278e+01 0.0 
1.210638965278e+01 -3.376573757834e+02 0.0 
0.0 0.0 -1.443268122891e+02 
-1.455073958310e+02 1.302338230807e+01 0.0 
1.302338230807e+01 -3.393282668145e+02 0.0 
0.0 0.0 -1.450506987936e+02 
-1.468857525290e+02 1.388897725703e+01 0.0 
1.388897725703e+01 -3.421790600679e+02 0.0 
0.0 0.0 -1.463194437791e+02 
-1.478247309488e+02 1.470204311777e+01 0.0 
1.470204311777e+01 -3.448083366980e+02 0.0 
0.0 0.0 -1.473899202940e+02 
-1.488774919527e+02 1.541952783233e+01 0.0 
1.541952783233e+01 -3.475754418541e+02 0.0 
0.0 0.0 -1.485358801420e+02 
-1.498070721491e+02 1.591293823098e+01 0.0 
1.591293823098e+01 -3.500704783096e+02 0.0 
0.0 0.0 -1.495632651376e+02 
-1.509503231196e+02 1.646050027976e+01 0.0 
1.646050027976e+01 -3.526674471504e+02 0.0 
0.0 0.0 -1.506853310810e+02 
-1.519587913298e+02 1.676831661658e+01 0.0 
1.676831661658e+01 -3.554868827668e+02 0.0 
0.0 0.0 -1.518337022290e+02 
-1.530636968183e+02 1.694716467202e+01 0.0 
1.694716467202e+01 -3.583562251421e+02 0.0 
0.0 0.0 -1.530259765881e+02 
-1.542986785484e+02 1.695019199823e+01 0.0 
1.695019199823e+01 -3.615095536679e+02 0.0 
0.0 0.0 -1.543424696649e+02 
-1.556189718568e+02 1.683635771397e+01 0.0 
1.683635771397e+01 -3.646893095285e+02 0.0 
0.0 0.0 -1.556924844156e+02 
-1.566776146742e+02 1.653206594581e+01 0.0 
1.653206594581e+01 -3.676695275980e+02 0.0 
0.0 0.0 -1.569041426817e+02 
-1.579119519313e+02 1.608889640526e+01 0.0 
1.608889640526e+01 -3.705505485976e+02 0.0 
0.0 0.0 -1.581387501587e+02 
-1.588010699568e+02 1.552587739971e+01 0.0 
1.552587739971e+01 -3.730430869024e+02 0.0 
0.0 0.0 -1.591532470577e+02 
-1.602727103593e+02 1.502545600883e+01 0.0 
1.502545600883e+01 -3.762811765166e+02 0.0 
0.0 0.0 -1.605661660628e+02 
-1.610239340174e+02 1.396731865657e+01 0.0 
1.396731865657e+01 -3.786452615895e+02 0.0 
0.0 0.0 -1.615007586821e+02 
-1.615865512498e+02 1.321310153457e+01 0.0 
1.321310153457e+01 -3.801429069118e+02 0.0 
0.0 0.0 -1.621188374485e+02 
-1.626018386044e+02 1.223812501767e+01 0.0 
1.223812501767e+01 -3.825604558666e+02 0.0 
0.0 0.0 -1.631486883413e+02 
-1.635800493923e+02 1.125885991448e+01 0.0 
1.125885991448e+01 -3.849350693999e+02 0.0 
0.0 0.0 -1.641545356377e+02 
-1.644403997688e+02 1.016541680214e+01 0.0 
1.016541680214e+01 -3.870033852467e+02 0.0 
0.0 0.0 -1.650331355047e+02 
-1.651745042139e+02 9.080089110453e+00 0.0 
9.080089110453e+00 -3.887289483541e+02 0.0 
0.0 0.0 -1.657710357704e+02 
-1.658260031526e+02 7.963457537633e+00 0.0 
7.963457537633e+00 -3.901838947265e+02 0.0 
0.0 0.0 -1.664029693637e+02 
-1.661746265278e+02 6.866690025523e+00 0.0 
6.866690025523e+00 -3.910227880559e+02 0.0 
0.0 0.0 -1.667592243751e+02 
-1.664702192692e+02 5.897767435646e+00 0.0 
5.897767435646e+00 -3.915735574550e+02 0.0 
0.0 0.0 -1.670131330173e+02 
-1.665242878893e+02 4.907400289563e+00 0.0 
4.907400289563e+00 -3.917581964025e+02 0.0 
0.0 0.0 -1.670847452875e+02 
-1.669517858949e+02 4.176138417068e+00 0.0 
4.176138417068e+00 -3.924597865266e+02 0.0 
0.0 0.0 -1.674234717265e+02 
-1.676145653042e+02 3.337958241259e+00 0.0 
3.337958241259e+00 -3.935476117327e+02 0.0 
0.0 0.0 -1.679486531111e+02 
-1.678908863457e+02 2.806043031200e+00 0.0 
2.806043031200e+00 -3.939319237385e+02 0.0 
0.0 0.0 -1.681468430253e+02 
-1.665894059783e+02 2.178840442931e+00 0.0 
2.178840442931e+00 -3.914785913954e+02 0.0 
0.0 0.0 -1.670203992121e+02 
-1.677969540508e+02 1.619508787332e+00 0.0 
1.619508787332e+00 -3.934883400990e+02 0.0 
0.0 0.0 -1.679855882449e+02 
-1.673053196723e+02 1.233587233109e+00 0.0 
1.233587233109e+00 -3.926056766850e+02 0.0 
0.0 0.0 -1.675732989072e+02 
-1.675892580184e+02 1.070874757364e+00 0.0 
1.070874757364e+00 -3.930482192671e+02 0.0 
0.0 0.0 -1.677912431857e+02 
-1.679051879729e+02 5.183930441972e-01 0.0 
5.183930441972e-01 -3.936501408326e+02 0.0 
0.0 0.0 -1.680665986417e+02 
-1.678244186162e+02 3.244525728683e-01 0.0 
3.244525728683e-01 -3.935157080355e+02 0.0 
0.0 0.0 -1.680020379955e+02 
-7.644162201898e+01 3.524580133349e-01 0.0 
3.524580133349e-01 -1.574481653016e+02 0.0 
0.0 0.0 -6.976693619617e+01 
-8.440838172702e+01 4.200044597135e-01 0.0 
4.200044597135e-01 -1.772880134351e+02 0.0 
0.0 0.0 -7.810891854862e+01 
-9.235777390771e+01 4.280794080137e-01 0.0 
4.280794080137e-01 -1.969883638264e+02 0.0 
0.0 0.0 -8.640384132025e+01 
-9.995060744244e+01 4.778522966573e-01 0.0 
4.778522966573e-01 -2.163370352455e+02 0.0 
0.0 0.0 -9.448629280637e+01 
-1.075613457100e+02 4.543092912921e-01 0.0 
4.543092912921e-01 -2.361783734910e+02 0.0 
0.0 0.0 -1.027219157603e+02 
-1.152779089322e+02 5.143570516547e-01 0.0 
5.143570516547e-01 -2.561729134173e+02 0.0 
0.0 0.0 -1.110352467049e+02 
-1.225018889809e+02 4.852226684093e-01 0.0 
4.852226684093e-01 -2.759619942076e+02 0.0 
0.0 0.0 -1.191391649566e+02 
-1.295232466243e+02 5.723203340712e-01 0.0 
5.723203340712e-01 -2.956233450713e+02 0.0 
0.0 0.0 -1.271439775087e+02 
-1.368505209455e+02 6.242816811669e-01 0.0 
6.242816811669e-01 -3.159570619916e+02 0.0 
0.0 0.0 -1.354422748811e+02 
-6.588183927034e+01 3.135297533179e+01 0.0 
3.135297533179e+01 -6.946048190894e+01 0.0 
0.0 0.0 -4.102608050969e+01 
-7.632051132412e+01 4.355214963314e+00 0.0 
4.355214963314e+00 -1.411237334701e+02 0.0 
0.0 0.0 -6.433121398719e+01 
-4.466074445827e+01 3.251067941244e+01 0.0 
3.251067941244e+01 -3.200171635495e+01 0.0 
0.0 0.0 -2.159506773033e+01 
-4.048022938000e+01 2.704744536721e+01 0.0 
2.704744536721e+01 -2.843388708886e+01 0.0 
0.0 0.0 -1.680324355570e+01 
-4.110503071657e+01 1.808767691631e+01 0.0 
1.808767691631e+01 -2.144180705541e+01 0.0 
0.0 0.0 -1.517252389204e+01 
-3.071747380626e+01 1.000727260169e+01 0.0 
1.000727260169e+01 -2.266467794911e+01 0.0 
0.0 0.0 -1.293894356683e+01 
-3.641329039320e+01 9.063371012476e+00 0.0 
9.063371012476e+00 -4.246718823375e+01 0.0 
0.0 0.0 -2.016721484571e+01 
-4.526347324107e+01 7.425874835577e+00 0.0 
7.425874835577e+00 -6.299182621214e+01 0.0 
0.0 0.0 -2.766664045678e+01 
-5.434424595871e+01 5.675079564467e+00 0.0 
5.675079564467e+00 -8.295267861669e+01 0.0 
0.0 0.0 -3.633224617489e+01 
-6.256328918752e+01 4.670963937841e+00 0.0 
4.670963937841e+00 -1.021398558426e+02 0.0 
0.0 0.0 -4.612856418494e+01 
-6.970190153455e+01 4.316996101038e+00 0.0 
4.316996101038e+00 -1.210788772982e+02 0.0 
0.0 0.0 -5.525177766317e+01 
-1.262247924205e+01 6.584263988666e-01 0.0 
6.584263988666e-01 -7.211336720404e+00 0.0 
0.0 0.0 -5.365236369563e+00 
-1.835795039525e+01 7.861147999447e-01 0.0 
7.861147999447e-01 -1.962610272566e+01 0.0 
0.0 0.0 -1.079674950860e+01 
-2.601531554631e+01 6.474525300740e-01 0.0 
6.474525300740e-01 -3.919919317319e+01 0.0 
0.0 0.0 -1.916435261585e+01 
-3.435187227351e+01 7.821105345153e-01 0.0 
7.821105345153e-01 -5.875438833721e+01 0.0 
0.0 0.0 -2.753187818322e+01 
-4.273406006733e+01 6.319105673696e-01 0.0 
6.319105673696e-01 -7.828870385150e+01 0.0 
0.0 0.0 -3.590682917565e+01 
-5.116744422611e+01 7.720938284356e-01 0.0 
7.720938284356e-01 -9.780462406288e+01 0.0 
0.0 0.0 -4.429162048670e+01 
-5.957928296318e+01 5.598661200870e-01 0.0 
5.598661200870e-01 -1.172385316538e+02 0.0 
0.0 0.0 -5.264534438508e+01 
-6.704269184678e+01 -1.720930562356e-01 0.0 
-1.720930562356e-01 -1.349425293533e+02 0.0 
0.0 0.0 -6.019556636003e+01 
-6.773820138357e+01 9.000211567676e-02 0.0 
9.000211567676e-02 -1.361259853436e+02 0.0 
0.0 0.0 -6.075925601816e+01 
-6.782449654201e+01 1.567792476141e-01 0.0 
1.567792476141e-01 -1.361566130085e+02 0.0 
0.0 0.0 -6.079433286514e+01 
-6.796370344490e+01 2.821811103386e-01 0.0 
2.821811103386e-01 -1.359325771486e+02 0.0 
0.0 0.0 -6.076888417804e+01 
-6.944472632700e+01 3.858486685484e-01 0.0 
3.858486685484e-01 -1.386144675084e+02 0.0 
0.0 0.0 -6.201775815062e+01 
-6.869347048346e+01 4.778193932705e-01 0.0 
4.778193932705e-01 -1.362716454623e+02 0.0 
0.0 0.0 -6.108953478373e+01 
-6.915637262840e+01 6.785902859989e-01 0.0 
6.785902859989e-01 -1.361481465500e+02 0.0 
0.0 0.0 -6.119135575352e+01 
-6.961604574333e+01 8.137321000606e-01 0.0 
8.137321000606e-01 -1.364105445455e+02 0.0 
0.0 0.0 -6.140797708665e+01 
-7.025181383432e+01 1.121699735101e+00 0.0 
1.121699735101e+00 -1.369651176687e+02 0.0 
0.0 0.0 -6.176507945090e+01 
-7.082413213287e+01 1.408744902179e+00 0.0 
1.408744902179e+00 -1.370728354970e+02 0.0 
0.0 0.0 -6.196909028895e+01 
-7.156899168558e+01 1.848234696197e+00 0.0 
1.848234696197e+00 -1.372911388891e+02 0.0 
0.0 0.0 -6.225803917241e+01 
-7.225141167099e+01 2.344472964627e+00 0.0 
2.344472964627e+00 -1.376038152616e+02 0.0 
0.0 0.0 -6.253366299249e+01 
-7.324315860092e+01 2.853115295716e+00 0.0 
2.853115295716e+00 -1.382390192852e+02 0.0 
0.0 0.0 -6.294673245756e+01 
-7.431916733194e+01 3.454198382927e+00 0.0 
3.454198382927e+00 -1.392426279373e+02 0.0 
0.0 0.0 -6.344695082878e+01 
-9.109648734602e+01 1.508148467435e+01 0.0 
1.508148467435e+01 -9.634425933389e+01 0.0 
0.0 0.0 -5.659335702054e+01 
-1.082140797276e+02 3.243738880171e+00 0.0 
3.243738880171e+00 -1.044068399010e+02 0.0 
0.0 0.0 -6.415335067712e+01 
-1.146669914214e+02 -2.166612734677e+00 0.0 
-2.166612734677e+00 -1.039780564590e+02 0.0 
0.0 0.0 -6.592768471297e+01 
-1.041865301853e+02 -1.018969793786e+01 0.0 
-1.018969793786e+01 -9.508806988572e+01 0.0 
0.0 0.0 -6.011599758611e+01 
-6.876900263644e+01 -2.121869507411e+01 0.0 
-2.121869507411e+01 -5.667728322725e+01 0.0 
0.0 0.0 -3.801277600254e+01 
-3.638288222500e+01 -1.497009377384e+01 0.0 
-1.497009377384e+01 -1.984592804489e+01 0.0 
0.0 0.0 -1.659450214045e+01 
-1.986173145047e+01 -3.813390581242e+00 0.0 
-3.813390581242e+00 -1.080495730505e+01 0.0 
0.0 0.0 -8.631825302232e+00 
-1.397976278210e+01 -6.965785428071e-01 0.0 
-6.965785428071e-01 -9.206915576737e+00 0.0 
0.0 0.0 -6.329423207215e+00 
-1.175695952917e+01 3.240432509211e-01 0.0 
3.240432509211e-01 -8.538516885875e+00 0.0 
0.0 0.0 -5.717944876105e+00 
-1.136450398439e+01 6.250519889617e-01 0.0 
6.250519889617e-01 -7.874611683903e+00 0.0 
0.0 0.0 -5.339440453267e+00 
-1.126780896591e+01 3.952172166528e-01 0.0 
3.952172166528e-01 -7.954586129529e+00 0.0 
0.0 0.0 -5.112698289326e+00 
-1.161042487392e+01 8.876420542769e-02 0.0 
8.876420542769e-02 -8.716524679998e+00 0.0 
0.0 0.0 -5.236290873890e+00 
-1.160837008218e+01 -6.894035389692e-02 0.0 
-6.894035389692e-02 -8.518224821853e+00 0.0 
0.0 0.0 -4.716934995966e+00 
-1.127425772578e+01 -2.205226270094e-02 0.0 
-2.205226270094e-02 -7.855021435104e+00 0.0 
0.0 0.0 -4.424517234367e+00 
-1.094515964510e+01 4.762525901724e-03 0.0 
4.762525901724e-03 -7.936812899811e+00 0.0 
0.0 0.0 -4.340957344410e+00 
-1.088767036753e+01 1.703903771970e-02 0.0 
1.703903771970e-02 -8.196997670653e+00 0.0 
0.0 0.0 -4.382946881869e+00 
-1.086059195088e+01 6.402731817903e-02 0.0 
6.402731817903e-02 -8.241831687125e+00 0.0 
0.0 0.0 -4.362071940422e+00 
-1.092987148118e+01 6.221833496061e-03 0.0 
6.221833496061e-03 -7.788247219787e+00 0.0 
0.0 0.0 -4.286203619211e+00 
-1.127537302067e+01 -1.054675272173e-01 0.0 
-1.054675272173e-01 -7.120192393492e+00 0.0 
0.0 0.0 -4.271387378725e+00 
-2.589404700138e+01 6.129064028771e+00 0.0 
6.129064028771e+00 -5.415024469191e+00 0.0 
0.0 0.0 -6.034985623018e+00 
-1.697613904614e+01 4.187628827966e+00 0.0 
4.187628827966e+00 -9.884162677797e+00 0.0 
0.0 0.0 -4.831686494387e+00 
-1.054830763211e+01 2.379441638565e+00 0.0 
2.379441638565e+00 -1.026252718621e+01 0.0 
0.0 0.0 -3.034982460503e+00 
-6.949846418918e+00 1.449636881505e+00 0.0 
1.449636881505e+00 -9.880549340929e+00 0.0 
0.0 0.0 -2.415487400189e+00 
-4.586462677179e+00 7.939148241221e-01 0.0 
7.939148241221e-01 -9.864171087555e+00 0.0 
0.0 0.0 -2.319902515645e+00 
-3.395279398669e+00 3.370896292358e-01 0.0 
3.370896292358e-01 -9.759177219722e+00 0.0 
0.0 0.0 -2.200310088129e+00 
-3.011399509830e+00 2.058492285795e-02 0.0 
2.058492285795e-02 -9.716809166908e+00 0.0 
0.0 0.0 -2.225758089917e+00 
-3.109413546228e+00 -2.088260370670e-01 0.0 
-2.088260370670e-01 -9.744376687228e+00 0.0 
0.0 0.0 -2.540051058446e+00 
-3.666196699365e+00 -4.036970171387e-01 0.0 
-4.036970171387e-01 -9.704337661500e+00 0.0 
0.0 0.0 -2.985495328274e+00 
-4.545877180237e+00 -4.936373312734e-01 0.0 
-4.936373312734e-01 -9.657053235520e+00 0.0 
0.0 0.0 -3.335532475488e+00 
-5.456876953074e+00 -5.127213135697e-01 0.0 
-5.127213135697e-01 -9.665317399425e+00 0.0 
0.0 0.0 -3.686784213266e+00 
-6.446590489705e+00 -5.251319018434e-01 0.0 
-5.251319018434e-01 -9.678986640047e+00 0.0 
0.0 0.0 -4.041857250547e+00 
-7.462461897089e+00 -5.100885267319e-01 0.0 
-5.100885267319e-01 -9.683312428199e+00 0.0 
0.0 0.0 -4.386925072885e+00 
-8.441662212948e+00 -4.684564574523e-01 0.0 
-4.684564574523e-01 -9.697044631401e+00 0.0 
0.0 0.0 -4.712340256687e+00 
-9.344376020672e+00 -4.162473595615e-01 0.0 
-4.162473595615e-01 -9.717180156410e+00 0.0 
0.0 0.0 -5.008934115627e+00 
-1.015425810915e+01 -3.633598874284e-01 0.0 
-3.633598874284e-01 -9.738755553343e+00 0.0 
0.0 0.0 -5.272392267234e+00 
-1.086729177701e+01 -3.132490809865e-01 0.0 
-3.132490809865e-01 -9.759149187433e+00 0.0 
0.0 0.0 -5.502415632229e+00 
-1.148390709604e+01 -2.658278445128e-01 0.0 
-2.658278445128e-01 -9.777643321890e+00 0.0 
0.0 0.0 -5.700160005664e+00 
-1.200506021187e+01 -2.205619902372e-01 0.0 
-2.205619902372e-01 -9.793887488369e+00 0.0 
0.0 0.0 -5.866848898190e+00 
-1.243385648543e+01 -1.766053848250e-01 0.0 
-1.766053848250e-01 -9.806397433932e+00 0.0 
0.0 0.0 -6.003681148669e+00 
-1.277399258018e+01 -1.305000317959e-01 0.0 
-1.305000317959e-01 -9.812627475776e+00 0.0 
0.0 0.0 -6.111104614907e+00 
-1.302698229082e+01 -7.669991930064e-02 0.0 
-7.669991930064e-02 -9.808222446436e+00 0.0 
0.0 0.0 -6.188000516187e+00 
-1.319608296975e+01 -7.519219086901e-03 0.0 
-7.519219086901e-03 -9.773781619898e+00 0.0 
0.0 0.0 -6.228706459537e+00 
-1.333037218401e+01 9.160479668558e-02 0.0 
9.160479668558e-02 -9.145268708659e+00 0.0 
0.0 0.0 -6.071770303097e+00 
-1.258017016469e+01 -3.791714964225e-01 0.0 
-3.791714964225e-01 -6.861970031765e+00 0.0 
0.0 0.0 -5.364727386155e+00 
-1.810570481588e+01 -3.084610543751e-01 0.0 
-3.084610543751e-01 -1.963641396463e+01 0.0 
0.0 0.0 -1.073014534487e+01 
-1.793298411671e+01 -1.576833211451e-01 0.0 
-1.576833211451e-01 -1.955665205591e+01 0.0 
0.0 0.0 -1.050438190637e+01 
-1.779337371095e+01 -1.781412391441e-01 0.0 
-1.781412391441e-01 -1.955182421045e+01 0.0 
0.0 0.0 -1.045950421539e+01 
-1.763824764732e+01 -2.585641817324e-01 0.0 
-2.585641817324e-01 -1.955972194442e+01 0.0 
0.0 0.0 -1.040966958314e+01 
-1.744067947046e+01 -3.458380889607e-01 0.0 
-3.458380889607e-01 -1.956632382559e+01 0.0 
0.0 0.0 -1.034373780573e+01 
-1.718991681478e+01 -4.357969832428e-01 0.0 
-4.357969832428e-01 -1.956987009358e+01 0.0 
0.0 0.0 -1.025831424557e+01 
-1.688163615626e+01 -5.294615342010e-01 0.0 
-5.294615342010e-01 -1.957110767520e+01 0.0 
0.0 0.0 -1.015224189832e+01 
-1.651341255957e+01 -6.266788191421e-01 0.0 
-6.266788191421e-01 -1.957266730498e+01 0.0 
0.0 0.0 -1.002498641926e+01 
-1.608700302018e+01 -7.254587716928e-01 0.0 
-7.254587716928e-01 -1.957470017958e+01 0.0 
0.0 0.0 -9.875647298837e+00 
-1.560788364227e+01 -8.246783078291e-01 0.0 
-8.246783078291e-01 -1.957749027688e+01 0.0 
0.0 0.0 -9.704172531903e+00 
-1.508341700775e+01 -9.209467614252e-01 0.0 
-9.209467614252e-01 -1.958496849299e+01 0.0 
0.0 0.0 -9.511761451000e+00 
-1.452709496379e+01 -1.004309790495e+00 0.0 
-1.004309790495e+00 -1.960369910028e+01 0.0 
0.0 0.0 -9.301726139699e+00 
-1.396178036986e+01 -1.055486374168e+00 0.0 
-1.055486374168e+00 -1.964164600984e+01 0.0 
0.0 0.0 -9.079350471294e+00 
-1.342609842851e+01 -1.047351881317e+00 0.0 
-1.047351881317e+00 -1.969310670177e+01 0.0 
0.0 0.0 -8.848336283839e+00 
-1.289946149718e+01 -9.799955111289e-01 0.0 
-9.799955111289e-01 -1.974438342376e+01 0.0 
0.0 0.0 -8.591895001484e+00 
-1.250242020838e+01 -8.086725089244e-01 0.0 
-8.086725089244e-01 -1.981725250618e+01 0.0 
0.0 0.0 -8.291341887512e+00 
-1.233897806018e+01 -5.110561573347e-01 0.0 
-5.110561573347e-01 -1.995682454627e+01 0.0 
0.0 0.0 -7.955761790819e+00 
-1.251604075478e+01 -5.175040103077e-02 0.0 
-5.175040103077e-02 -2.002851569741e+01 0.0 
0.0 0.0 -7.611829016436e+00 
-1.312308353722e+01 5.900661275580e-01 0.0 
5.900661275580e-01 -2.015452361729e+01 0.0 
0.0 0.0 -7.578428241266e+00 
-1.431361742843e+01 1.462222934624e+00 0.0 
1.462222934624e+00 -2.031681673692e+01 0.0 
0.0 0.0 -7.761734398525e+00 
-1.621490676265e+01 2.540631333815e+00 0.0 
2.540631333815e+00 -2.062550080453e+01 0.0 
0.0 0.0 -8.100332183045e+00 
-2.042723564489e+01 4.435022027483e+00 0.0 
4.435022027483e+00 -2.210815385451e+01 0.0 
0.0 0.0 -9.604914886198e+00 
-2.244824682891e+01 5.761485227148e+00 0.0 
5.761485227148e+00 -1.885804307017e+01 0.0 
0.0 0.0 -9.369298310071e+00 
-3.171698879355e+01 6.035631192347e+00 0.0 
6.035631192347e+00 -3.926625557794e+01 0.0 
0.0 0.0 -1.745646097661e+01 
-3.147868864450e+01 4.560954393084e+00 0.0 
4.560954393084e+00 -4.263435257231e+01 0.0 
0.0 0.0 -1.817369641803e+01 
-2.879923676963e+01 2.592422379873e+00 0.0 
2.592422379873e+00 -4.107887953740e+01 0.0 
0.0 0.0 -1.725289747197e+01 
-2.758577277881e+01 1.343600379288e+00 0.0 
1.343600379288e+00 -4.050359939166e+01 0.0 
0.0 0.0 -1.716774780683e+01 
-2.663715431674e+01 3.976894456333e-01 0.0 
3.976894456333e-01 -4.018954449679e+01 0.0 
0.0 0.0 -1.740122968458e+01 
-2.598540414086e+01 -2.462580783601e-01 0.0 
-2.462580783601e-01 -3.984921082517e+01 0.0 
0.0 0.0 -1.767523227301e+01 
-2.556611563989e+01 -7.126661834319e-01 0.0 
-7.126661834319e-01 -3.960012838223e+01 0.0 
0.0 0.0 -1.792245198544e+01 
-2.539300330297e+01 -1.010481599141e+00 0.0 
-1.010481599141e+00 -3.940802019303e+01 0.0 
0.0 0.0 -1.811215170747e+01 
-2.533683867124e+01 -1.166208999589e+00 0.0 
-1.166208999589e+00 -3.928313842314e+01 0.0 
0.0 0.0 -1.825020801599e+01 
-2.529586849762e+01 -1.205094858072e+00 0.0 
-1.205094858072e+00 -3.916070726854e+01 0.0 
0.0 0.0 -1.831352989591e+01 
-2.531671959464e+01 -1.171024429465e+00 0.0 
-1.171024429465e+00 -3.909369904109e+01 0.0 
0.0 0.0 -1.839209346718e+01 
-2.538052550175e+01 -1.094464070332e+00 0.0 
-1.094464070332e+00 -3.906301496360e+01 0.0 
0.0 0.0 -1.847856858888e+01 
-2.546789197213e+01 -9.944601904595e-01 0.0 
-9.944601904595e-01 -3.905263715800e+01 0.0 
0.0 0.0 -1.856487655763e+01 
-2.556405711068e+01 -8.826430055850e-01 0.0 
-8.826430055850e-01 -3.904984136448e+01 0.0 
0.0 0.0 -1.864471900142e+01 
-2.565763780196e+01 -7.627336012528e-01 0.0 
-7.627336012528e-01 -3.904984801072e+01 0.0 
0.0 0.0 -1.871536465675e+01 
-2.574082211952e+01 -6.401093464983e-01 0.0 
-6.401093464983e-01 -3.905493137661e+01 0.0 
0.0 0.0 -1.877723331276e+01 
-2.580958639873e+01 -5.198132398078e-01 0.0 
-5.198132398078e-01 -3.906005862324e+01 0.0 
0.0 0.0 -1.882865145303e+01 
-2.586195505572e+01 -4.017088565505e-01 0.0 
-4.017088565505e-01 -3.906005374298e+01 0.0 
0.0 0.0 -1.886762190995e+01 
-2.589847364303e+01 -2.874633350911e-01 0.0 
-2.874633350911e-01 -3.905702282719e+01 0.0 
0.0 0.0 -1.889552129974e+01 
-2.591689382202e+01 -1.802507485570e-01 0.0 
-1.802507485570e-01 -3.905255240111e+01 0.0 
0.0 0.0 -1.891496619297e+01 
-2.591813587880e+01 -6.863972842151e-02 0.0 
-6.863972842151e-02 -3.909583171697e+01 0.0 
0.0 0.0 -1.899259017058e+01 
-2.599522292008e+01 -4.559508612427e-01 0.0 
-4.559508612427e-01 -3.920327019982e+01 0.0 
0.0 0.0 -1.914298734773e+01 
-3.433023592970e+01 -3.666568078304e-01 0.0 
-3.666568078304e-01 -5.870983221262e+01 0.0 
0.0 0.0 -2.749768193105e+01 
-3.422418433733e+01 -2.057710400035e-01 0.0 
-2.057710400035e-01 -5.860070714851e+01 0.0 
0.0 0.0 -2.741005151049e+01 
-3.421623543601e+01 -2.403245453010e-01 0.0 
-2.403245453010e-01 -5.858166424454e+01 0.0 
0.0 0.0 -2.739759273392e+01 
-3.424299531851e+01 -3.537897301644e-01 0.0 
-3.537897301644e-01 -5.857232752661e+01 0.0 
0.0 0.0 -2.738986198288e+01 
-3.429859209602e+01 -4.756188308276e-01 0.0 
-4.756188308276e-01 -5.856739439964e+01 0.0 
0.0 0.0 -2.738702985099e+01 
-3.438679712256e+01 -6.037701390223e-01 0.0 
-6.037701390223e-01 -5.856538778878e+01 0.0 
0.0 0.0 -2.738475164136e+01 
-3.452149719699e+01 -7.335086347608e-01 0.0 
-7.335086347608e-01 -5.856223172010e+01 0.0 
0.0 0.0 -2.737632312365e+01 
-3.468642290581e+01 -8.579448301446e-01 0.0 
-8.579448301446e-01 -5.856730498609e+01 0.0 
0.0 0.0 -2.737110133410e+01 
-3.488303565330e+01 -9.692829068146e-01 0.0 
-9.692829068146e-01 -5.858572043485e+01 0.0 
0.0 0.0 -2.737015412921e+01 
-3.511436158659e+01 -1.059057316114e+00 0.0 
-1.059057316114e+00 -5.861372905849e+01 0.0 
0.0 0.0 -2.736888662136e+01 
-3.540265061216e+01 -1.113461609551e+00 0.0 
-1.113461609551e+00 -5.866883526311e+01 0.0 
0.0 0.0 -2.737894617762e+01 
-3.576826290902e+01 -1.112741142566e+00 0.0 
-1.112741142566e+00 -5.877282204409e+01 0.0 
0.0 0.0 -2.741212604461e+01 
-3.623597344241e+01 -1.030111606573e+00 0.0 
-1.030111606573e+00 -5.895773372905e+01 0.0 
0.0 0.0 -2.748282553231e+01 
-3.675953774655e+01 -8.285953064553e-01 0.0 
-8.285953064553e-01 -5.922492683327e+01 0.0 
0.0 0.0 -2.751702573694e+01 
-3.741600514756e+01 -4.554744790465e-01 0.0 
-4.554744790465e-01 -5.952571399105e+01 0.0 
0.0 0.0 -2.743590082653e+01 
-3.821319517506e+01 8.548556949284e-02 0.0 
8.548556949284e-02 -5.997301906391e+01 0.0 
0.0 0.0 -2.734724665160e+01 
-3.918355366726e+01 8.685748808540e-01 0.0 
8.685748808540e-01 -6.045182217112e+01 0.0 
0.0 0.0 -2.719799092321e+01 
-4.025453936300e+01 1.872386707380e+00 0.0 
1.872386707380e+00 -6.114040798086e+01 0.0 
0.0 0.0 -2.705603647296e+01 
-4.235737205482e+01 3.534862220255e+00 0.0 
3.534862220255e+00 -6.301630564443e+01 0.0 
0.0 0.0 -2.733784973212e+01 
-4.205999706897e+01 4.878104876216e+00 0.0 
4.878104876216e+00 -5.993417036337e+01 0.0 
0.0 0.0 -2.578380259475e+01 
-5.171659228792e+01 3.816936257039e+00 0.0 
3.816936257039e+00 -7.964211994597e+01 0.0 
0.0 0.0 -3.560597031147e+01 
-5.201302331220e+01 2.941033497368e+00 0.0 
2.941033497368e+00 -8.259113647904e+01 0.0 
0.0 0.0 -3.726386105918e+01 
-5.008723536908e+01 1.650253353007e+00 0.0 
1.650253353007e+00 -8.070882037563e+01 0.0 
0.0 0.0 -3.678840036225e+01 
-4.900825675151e+01 8.728547482885e-01 0.0 
8.728547482885e-01 -7.990540514603e+01 0.0 
0.0 0.0 -3.671889673432e+01 
-4.798151807249e+01 2.819988615065e-01 0.0 
2.819988615065e-01 -7.938891469385e+01 0.0 
0.0 0.0 -3.672965534267e+01 
-4.703524381069e+01 -9.039378860916e-02 0.0 
-9.039378860916e-02 -7.893271073964e+01 0.0 
0.0 0.0 -3.664245415779e+01 
-4.618731074642e+01 -3.471644009498e-01 0.0 
-3.471644009498e-01 -7.860624519671e+01 0.0 
0.0 0.0 -3.647720319572e+01 
-4.545721077168e+01 -5.050123340121e-01 0.0 
-5.050123340121e-01 -7.838559382178e+01 0.0 
0.0 0.0 -3.632660618246e+01 
-4.483535936598e+01 -5.766859940297e-01 0.0 
-5.766859940297e-01 -7.824794627034e+01 0.0 
0.0 0.0 -3.621649128812e+01 
-4.430720967391e+01 -5.836534185052e-01 0.0 
-5.836534185052e-01 -7.816372027779e+01 0.0 
0.0 0.0 -3.613865365818e+01 
-4.386063167156e+01 -5.356978147054e-01 0.0 
-5.356978147054e-01 -7.812212839780e+01 0.0 
0.0 0.0 -3.607564609071e+01 
-4.351130696253e+01 -4.743915545506e-01 0.0 
-4.743915545506e-01 -7.810798920019e+01 0.0 
0.0 0.0 -3.601451277991e+01 
-4.324154068029e+01 -4.144241998375e-01 0.0 
-4.144241998375e-01 -7.810756631871e+01 0.0 
0.0 0.0 -3.597543693044e+01 
-4.303566574483e+01 -3.473752058234e-01 0.0 
-3.473752058234e-01 -7.810609990101e+01 0.0 
0.0 0.0 -3.593761148261e+01 
-4.289423256418e+01 -2.786316150311e-01 0.0 
-2.786316150311e-01 -7.811032652959e+01 0.0 
0.0 0.0 -3.590136772813e+01 
-4.280204221842e+01 -2.122592251522e-01 0.0 
-2.122592251522e-01 -7.811660856686e+01 0.0 
0.0 0.0 -3.587559523559e+01 
-4.275378122424e+01 -1.418520448963e-01 0.0 
-1.418520448963e-01 -7.813818264188e+01 0.0 
0.0 0.0 -3.586758915983e+01 
-4.271774801201e+01 -6.798402196816e-02 0.0 
-6.798402196816e-02 -7.819673690402e+01 0.0 
0.0 0.0 -3.587434547481e+01 
-4.273375895511e+01 -4.781984055948e-01 0.0 
-4.781984055948e-01 -7.827390212754e+01 0.0 
0.0 0.0 -3.590229832480e+01 
-5.115770769520e+01 -3.469767715282e-01 0.0 
-3.469767715282e-01 -9.781611635589e+01 0.0 
0.0 0.0 -4.429214721533e+01 
-5.125182331962e+01 -1.271362004472e-01 0.0 
-1.271362004472e-01 -9.770990464929e+01 0.0 
0.0 0.0 -4.428851839067e+01 
-5.134574120863e+01 -1.108895471939e-01 0.0 
-1.108895471939e-01 -9.766916259438e+01 0.0 
0.0 0.0 -4.430447114090e+01 
-5.146954275321e+01 -1.329276958134e-01 0.0 
-1.329276958134e-01 -9.766898894987e+01 0.0 
0.0 0.0 -4.434155951092e+01 
-5.166216540838e+01 -1.520754470921e-01 0.0 
-1.520754470921e-01 -9.765951863421e+01 0.0 
0.0 0.0 -4.439650521278e+01 
-5.188136691622e+01 -1.615352612238e-01 0.0 
-1.615352612238e-01 -9.766479320313e+01 0.0 
0.0 0.0 -4.446384803580e+01 
-5.215259936235e+01 -1.526917592500e-01 0.0 
-1.526917592500e-01 -9.768971320323e+01 0.0 
0.0 0.0 -4.455269376967e+01 
-5.249530179518e+01 -1.060673210816e-01 0.0 
-1.060673210816e-01 -9.770878690244e+01 0.0 
0.0 0.0 -4.466122660929e+01 
-5.296374151130e+01 -7.849834276711e-02 0.0 
-7.849834276711e-02 -9.773248644707e+01 0.0 
0.0 0.0 -4.478182678714e+01 
-5.353092991552e+01 -1.969148056659e-02 0.0 
-1.969148056659e-02 -9.786455980776e+01 0.0 
0.0 0.0 -4.492547352473e+01 
-5.429226760175e+01 1.203614158694e-01 0.0 
1.203614158694e-01 -9.804556091739e+01 0.0 
0.0 0.0 -4.508535685377e+01 
-5.518004873453e+01 3.415913171602e-01 0.0 
3.415913171602e-01 -9.830664014380e+01 0.0 
0.0 0.0 -4.529645729125e+01 
-5.616642063750e+01 6.623519355397e-01 0.0 
6.623519355397e-01 -9.871054173208e+01 0.0 
0.0 0.0 -4.555553869152e+01 
-5.733572622598e+01 1.090281231767e+00 0.0 
1.090281231767e+00 -9.917772301882e+01 0.0 
0.0 0.0 -4.578003614239e+01 
-5.846160614688e+01 1.611145238392e+00 0.0 
1.611145238392e+00 -9.995674742420e+01 0.0 
0.0 0.0 -4.598479026425e+01 
-6.031959499653e+01 2.669827714420e+00 0.0 
2.669827714420e+00 -1.019129451874e+02 0.0 
0.0 0.0 -4.663718309366e+01 
-6.015617837467e+01 3.311946905313e+00 0.0 
3.311946905313e+00 -9.897497922497e+01 0.0 
0.0 0.0 -4.520126498348e+01 
-6.740384602483e+01 3.221664289422e+00 0.0 
3.221664289422e+00 -1.180243335283e+02 0.0 
0.0 0.0 -5.419988595531e+01 
-6.742308901216e+01 2.816960555639e+00 0.0 
2.816960555639e+00 -1.208571010595e+02 0.0 
0.0 0.0 -5.539186822730e+01 
-6.568243130415e+01 2.043701586536e+00 0.0 
2.043701586536e+00 -1.190625663896e+02 0.0 
0.0 0.0 -5.459818186951e+01 
-6.462033096724e+01 1.576785860815e+00 0.0 
1.576785860815e+00 -1.184612726571e+02 0.0 
0.0 0.0 -5.427572752603e+01 
-6.365252556810e+01 1.229300960880e+00 0.0 
1.229300960880e+00 -1.180832578097e+02 0.0 
0.0 0.0 -5.399251870476e+01 
-6.283843537066e+01 8.996771951920e-01 0.0 
8.996771951920e-01 -1.178340804462e+02 0.0 
0.0 0.0 -5.375967488748e+01 
-6.215578812856e+01 6.381905116670e-01 0.0 
6.381905116670e-01 -1.175730459124e+02 0.0 
0.0 0.0 -5.351865021229e+01 
-6.160677949695e+01 4.849709173368e-01 0.0 
4.849709173368e-01 -1.174429171133e+02 0.0 
0.0 0.0 -5.331490898308e+01 
-6.122693402938e+01 3.086792131602e-01 0.0 
3.086792131602e-01 -1.174578358325e+02 0.0 
0.0 0.0 -5.320543095855e+01 
-6.077471986351e+01 2.073472867303e-01 0.0 
2.073472867303e-01 -1.173762390424e+02 0.0 
0.0 0.0 -5.304528767177e+01 
-6.045134828602e+01 1.226076706180e-01 0.0 
1.226076706180e-01 -1.173384469237e+02 0.0 
0.0 0.0 -5.293693856291e+01 
-6.019641706607e+01 1.044832638784e-01 0.0 
1.044832638784e-01 -1.173265905353e+02 0.0 
0.0 0.0 -5.285690228040e+01 
-5.995878166219e+01 4.339817290839e-02 0.0 
4.339817290839e-02 -1.173391532326e+02 0.0 
0.0 0.0 -5.278938046843e+01 
-5.978746490958e+01 4.582405554518e-02 0.0 
4.582405554518e-02 -1.172787554184e+02 0.0 
0.0 0.0 -5.271986609839e+01 
-5.968986758613e+01 1.282531499501e-01 0.0 
1.282531499501e-01 -1.174276426964e+02 0.0 
0.0 0.0 -5.273525308476e+01 
-5.956505371614e+01 -4.593728347729e-01 0.0 
-4.593728347729e-01 -1.175147428519e+02 0.0 
0.0 0.0 -5.272393897042e+01 
-4.872271659921e+01 3.738328764977e+01 0.0 
3.738328764977e+01 -4.045469874704e+01 0.0 
0.0 0.0 -2.734163258530e+01 
-4.130375556790e+01 2.917454352400e+01 0.0 
2.917454352400e+01 -3.052000995958e+01 0.0 
0.0 0.0 -1.829509043420e+01 
-4.282246204525e+01 2.535809606692e+01 0.0 
2.535809606692e+01 -2.687485162935e+01 0.0 
0.0 0.0 -1.705707044897e+01 
-3.469816621659e+01 1.197228404389e+01 0.0 
1.197228404389e+01 -1.748370049015e+01 0.0 
0.0 0.0 -1.233616213632e+01 
-3.475790935683e+01 1.039642442139e+01 0.0 
1.039642442139e+01 -3.506109199918e+01 0.0 
0.0 0.0 -1.772035583473e+01 
-4.201928541656e+01 8.562710379777e+00 0.0 
8.562710379777e+00 -5.495663919427e+01 0.0 
0.0 0.0 -2.488728874699e+01 
-5.119219187862e+01 6.533528087999e+00 0.0 
6.533528087999e+00 -7.525848494833e+01 0.0 
0.0 0.0 -3.247989832575e+01 
-5.975066533871e+01 5.120375184574e+00 0.0 
5.120375184574e+00 -9.465587905627e+01 0.0 
0.0 0.0 -4.235158605461e+01 
-6.732482395045e+01 4.472238279699e+00 0.0 
4.472238279699e+00 -1.136018069192e+02 0.0 
0.0 0.0 -5.173144460306e+01 
-7.387535811248e+01 4.302226063547e+00 0.0 
4.302226063547e+00 -1.326565834133e+02 0.0 
0.0 0.0 -6.067486784669e+01 
-4.261276065362e+01 3.015043687886e+01 0.0 
3.015043687886e+01 -4.096517814769e+01 0.0 
0.0 0.0 -2.143216653934e+01 
-1.581185064770e+02 1.154319134032e+01 0.0 
1.154319134032e+01 -3.758003461054e+02 0.0 
0.0 0.0 -1.597756557747e+02 
-1.500785294303e+01 -7.628005826606e-01 0.0 
-7.628005826606e-01 -1.719276682655e+01 0.0 
0.0 0.0 -8.778915658257e+00 
-6.253624352671e+01 -2.094905884221e+01 0.0 
-2.094905884221e+01 -8.568185060277e+01 0.0 
0.0 0.0 -4.528647473537e+01 
-1.613481211827e+02 6.120862764657e+00 0.0 
6.120862764657e+00 -3.833197913772e+02 0.0 
0.0 0.0 -1.630003737680e+02 
-4.126940658121e+01 1.756318723920e+01 0.0 
1.756318723920e+01 -4.123775377495e+01 0.0 
0.0 0.0 -2.155672343290e+01 
-1.025235514237e+02 -7.814633361492e-01 0.0 
-7.814633361492e-01 -2.143497694453e+02 0.0 
0.0 0.0 -9.020904769733e+01 
-1.543552584880e+02 1.480820534972e+01 0.0 
1.480820534972e+01 -3.653430657000e+02 0.0 
0.0 0.0 -1.555094972564e+02 
-5.157102026752e+01 1.101220996244e+01 0.0 
1.101220996244e+01 -7.317068098753e+01 0.0 
0.0 0.0 -3.304317263089e+01 
-1.511709813222e+02 1.661103854793e+01 0.0 
1.661103854793e+01 -3.549105726246e+02 0.0 
0.0 0.0 -1.514244661841e+02 
-6.787888513109e+01 6.585631792497e+00 0.0 
6.585631792497e+00 -1.123841976085e+02 0.0 
0.0 0.0 -5.025688863601e+01 
-1.635955339573e+02 2.872648725809e+00 0.0 
2.872648725809e+00 -3.861414429501e+02 0.0 
0.0 0.0 -1.645210930722e+02 
-1.171407077189e+01 -1.189366579495e-01 0.0 
-1.189366579495e-01 -1.621035145821e+01 0.0 
0.0 0.0 -6.615972316695e+00 
-1.475333560011e+02 1.597033212827e+01 0.0 
1.597033212827e+01 -3.431373703461e+02 0.0 
0.0 0.0 -1.468012179042e+02 
-8.051872408859e+01 5.523358160485e+00 0.0 
5.523358160485e+00 -1.502553042211e+02 0.0 
0.0 0.0 -6.824364903287e+01 
-6.477635804161e+01 -9.436429702472e-01 0.0 
-9.436429702472e-01 -1.316221128623e+02 0.0 
0.0 0.0 -5.439414168334e+01 
-1.196641490246e+02 -4.596083788407e-01 0.0 
-4.596083788407e-01 -2.698836302652e+02 0.0 
0.0 0.0 -1.140453268378e+02 
-1.448958815125e+02 1.410477025188e+01 0.0 
1.410477025188e+01 -3.347555851149e+02 0.0 
0.0 0.0 -1.434954399882e+02 
-1.420790859998e+02 1.054912220190e+01 0.0 
1.054912220190e+01 -3.280387332106e+02 0.0 
0.0 0.0 -1.406353457631e+02 
-1.383899509523e+02 3.499628490785e+00 0.0 
3.499628490785e+00 -3.205956807340e+02 0.0 
0.0 0.0 -1.372956895059e+02 
-1.387175742136e+02 5.553019488858e+00 0.0 
5.553019488858e+00 -3.202581598428e+02 0.0 
0.0 0.0 -1.372927202169e+02 
-1.405627828469e+02 8.136191525237e+00 0.0 
8.136191525237e+00 -3.248435847705e+02 0.0 
0.0 0.0 -1.392219102852e+02 
-8.113266187193e+01 4.099369777604e+00 0.0 
4.099369777604e+00 -1.571775479604e+02 0.0 
0.0 0.0 -7.108277972906e+01 
-7.818456108928e+01 1.847261495531e+00 0.0 
1.847261495531e+00 -1.551920624240e+02 0.0 
0.0 0.0 -6.961298705400e+01 
-7.722303413986e+01 1.057424948092e+00 0.0 
1.057424948092e+00 -1.560303347227e+02 0.0 
0.0 0.0 -6.957601065878e+01 
-1.038860016358e+02 4.353082881563e-01 0.0 
4.353082881563e-01 -2.263735055482e+02 0.0 
0.0 0.0 -9.867785215519e+01 
-1.634417913364e+02 1.467120603461e+00 0.0 
1.467120603461e+00 -3.849808299139e+02 0.0 
0.0 0.0 -1.641267863751e+02 
-7.277613331725e+01 1.184986547341e+01 0.0 
1.184986547341e+01 -1.060930370677e+02 0.0 
0.0 0.0 -5.448027975263e+01 
-1.100710582966e+01 -4.238333145685e-02 0.0 
-4.238333145685e-02 -1.723579201019e+01 0.0 
0.0 0.0 -6.380962427344e+00 
-1.392115587326e+02 1.011647083003e-01 0.0 
1.011647083003e-01 -3.321667628983e+02 0.0 
0.0 0.0 -1.410134964893e+02 
-7.509654340543e+01 3.074823587578e-01 0.0 
3.074823587578e-01 -1.535467934994e+02 0.0 
0.0 0.0 -6.819300107144e+01 
-2.233796036872e+01 -5.137732153052e-01 0.0 
-5.137732153052e-01 -6.876619232547e+01 0.0 
0.0 0.0 -2.616849415467e+01 
-1.421571558929e+02 1.222233592097e+01 0.0 
1.222233592097e+01 -3.276816803277e+02 0.0 
0.0 0.0 -1.405516508662e+02 
-1.534004356952e+02 1.599902953317e+01 0.0 
1.599902953317e+01 -3.615812825525e+02 0.0 
0.0 0.0 -1.540945154743e+02 
-1.492917652990e+02 1.660627362385e+01 0.0 
1.660627362385e+01 -3.488758923881e+02 0.0 
0.0 0.0 -1.490502973061e+02 
-1.554939905118e+02 1.340199299316e+01 0.0 
1.340199299316e+01 -3.693997967195e+02 0.0 
0.0 0.0 -1.570681361694e+02 
-1.599146475878e+02 9.449508913306e+00 0.0 
9.449508913306e+00 -3.802257592987e+02 0.0 
0.0 0.0 -1.616421220659e+02 
-3.258800491170e+01 -1.283321472687e+01 0.0 
-1.283321472687e+01 -2.557210682306e+01 0.0 
0.0 0.0 -1.531117986820e+01 
-7.933684021007e+01 2.779084399438e+00 0.0 
2.779084399438e+00 -1.552433910200e+02 0.0 
0.0 0.0 -6.997406936901e+01 
-1.606941964482e+02 4.234516107679e+00 0.0 
4.234516107679e+00 -3.816182165222e+02 0.0 
0.0 0.0 -1.622937238911e+02 
-1.186092117030e+02 5.322123216609e-01 0.0 
5.322123216609e-01 -2.655990015688e+02 0.0 
0.0 0.0 -1.148624639815e+02 
-1.238696808921e+01 5.199633704093e-02 0.0 
5.199633704093e-02 -1.678893719873e+01 0.0 
0.0 0.0 -7.866031072734e+00 
-8.570741000751e+01 -9.543905768593e-01 0.0 
-9.543905768593e-01 -1.720224998402e+02 0.0 
0.0 0.0 -7.201024133612e+01 
-1.391006646831e+02 2.190225570284e+00 0.0 
2.190225570284e+00 -3.230282332662e+02 0.0 
0.0 0.0 -1.382386693848e+02 
-4.561985027259e+01 1.454915195432e+01 0.0 
1.454915195432e+01 -5.751471845650e+01 0.0 
0.0 0.0 -2.747615636982e+01 
-4.419308777830e+01 2.518106085611e+01 0.0 
2.518106085611e+01 -3.763762457353e+01 0.0 
0.0 0.0 -2.076869252559e+01 
-6.010285954485e+01 8.251986440661e+00 0.0 
8.251986440661e+00 -9.309323820399e+01 0.0 
0.0 0.0 -4.037087324281e+01 
-7.453912649395e+01 5.886975185561e+00 0.0 
5.886975185561e+00 -1.310333645500e+02 0.0 
0.0 0.0 -5.936296494620e+01 
-4.610406987841e+01 3.633421486231e+01 0.0 
3.633421486231e+01 -4.765766091408e+01 0.0 
0.0 0.0 -2.790453610125e+01 
-8.916399545043e+01 2.238766224242e-01 0.0 
2.238766224242e-01 -1.887026259545e+02 0.0 
0.0 0.0 -8.295998642149e+01 
-1.650266694942e+02 7.723632870729e-01 0.0 
7.723632870729e-01 -3.880031320329e+02 0.0 
0.0 0.0 -1.655089404581e+02 
-1.080801007117e+01 -5.669242384886e-02 0.0 
-5.669242384886e-02 -1.635352708851e+01 0.0 
0.0 0.0 -6.101461560976e+00 
-1.327445617616e+02 5.487281541730e-01 0.0 
5.487281541730e-01 -3.046265273424e+02 0.0 
0.0 0.0 -1.308113267312e+02 
-8.337212211673e+01 5.508743716894e+00 0.0 
5.508743716894e+00 -1.591481406188e+02 0.0 
0.0 0.0 -7.217132671071e+01 
-8.699472084766e+01 6.714864605483e+00 0.0 
6.714864605483e+00 -1.683845086136e+02 0.0 
0.0 0.0 -7.602646589988e+01 
-8.970599631416e+01 6.230410742507e+00 0.0 
6.230410742507e+00 -1.770000096637e+02 0.0 
0.0 0.0 -7.961164922939e+01 
-9.388657593721e+01 7.761948196854e+00 0.0 
7.761948196854e+00 -1.880528484294e+02 0.0 
0.0 0.0 -8.418182730998e+01 
-9.731882998239e+01 7.262080107277e+00 0.0 
7.262080107277e+00 -1.976159665866e+02 0.0 
0.0 0.0 -8.808043897069e+01 
-1.010098173498e+02 8.456274996409e+00 0.0 
8.456274996409e+00 -2.076840139792e+02 0.0 
0.0 0.0 -9.220814939869e+01 
-9.763361587175e+01 9.013349213547e+00 0.0 
9.013349213547e+00 -1.982686895028e+02 0.0 
0.0 0.0 -8.837069161236e+01 
-1.046965989551e+02 9.622685151941e+00 0.0 
9.622685151941e+00 -2.180196953179e+02 0.0 
0.0 0.0 -9.641488828192e+01 
-1.011435117520e+02 1.025181342066e+01 0.0 
1.025181342066e+01 -2.086524844789e+02 0.0 
0.0 0.0 -9.253879886928e+01 
-1.046966245342e+02 8.015943282916e+00 0.0 
8.015943282916e+00 -2.175114628142e+02 0.0 
0.0 0.0 -9.626242620451e+01 
-1.081994487339e+02 1.075286808533e+01 0.0 
1.075286808533e+01 -2.285348241785e+02 0.0 
0.0 0.0 -1.006202818737e+02 
-1.045288849516e+02 1.143257979159e+01 0.0 
1.143257979159e+01 -2.193159129805e+02 0.0 
0.0 0.0 -9.675343937964e+01 
-1.115887558739e+02 1.180255210342e+01 0.0 
1.180255210342e+01 -2.392471107179e+02 0.0 
0.0 0.0 -1.048507599775e+02 
-1.077995573034e+02 1.251402429325e+01 0.0 
1.251402429325e+01 -2.302469965718e+02 0.0 
0.0 0.0 -1.010139661626e+02 
-1.010957327268e+02 1.219060706948e+01 0.0 
1.219060706948e+01 -2.103704209033e+02 0.0 
0.0 0.0 -9.286606529632e+01 
-1.041199021878e+02 1.331765354019e+01 0.0 
1.331765354019e+01 -2.215423997937e+02 0.0 
0.0 0.0 -9.719773538433e+01 
-9.821183552140e+01 1.287448343092e+01 0.0 
1.287448343092e+01 -2.016923774933e+02 0.0 
0.0 0.0 -8.891262813852e+01 
-1.009641373601e+02 1.410556736516e+01 0.0 
1.410556736516e+01 -2.131330740083e+02 0.0 
0.0 0.0 -9.331827292883e+01 
-1.070851547252e+02 1.423219683988e+01 0.0 
1.423219683988e+01 -2.329390480990e+02 0.0 
0.0 0.0 -1.015671846107e+02 
-1.035087717886e+02 1.506937433088e+01 0.0 
1.506937433088e+01 -2.247908791531e+02 0.0 
0.0 0.0 -9.775235551454e+01 
-9.810220429023e+01 1.487560917156e+01 0.0 
1.487560917156e+01 -2.049426020966e+02 0.0 
0.0 0.0 -8.931304221458e+01 
-1.003232238036e+02 1.585095069671e+01 0.0 
1.585095069671e+01 -2.169225460748e+02 0.0 
0.0 0.0 -9.386808949618e+01 
-9.531497750800e+01 1.583696552764e+01 0.0 
1.583696552764e+01 -1.970525945216e+02 0.0 
0.0 0.0 -8.523574340223e+01 
-9.728437666025e+01 1.672116683046e+01 0.0 
1.672116683046e+01 -2.093761886210e+02 0.0 
0.0 0.0 -8.990228109747e+01 
-9.219541096624e+01 1.702190081180e+01 0.0 
1.702190081180e+01 -1.894433533917e+02 0.0 
0.0 0.0 -8.129982224230e+01 
-9.405544037569e+01 1.779066431680e+01 0.0 
1.779066431680e+01 -2.021657128596e+02 0.0 
0.0 0.0 -8.636220211339e+01 
-9.900616152328e+01 1.718961941012e+01 0.0 
1.718961941012e+01 -2.217692230534e+02 0.0 
0.0 0.0 -9.461582352455e+01 
-9.550060490632e+01 1.801769853742e+01 0.0 
1.801769853742e+01 -2.148001336257e+02 0.0 
0.0 0.0 -9.139917037253e+01 
-9.027608685092e+01 1.905188059413e+01 0.0 
1.905188059413e+01 -1.952978193051e+02 0.0 
0.0 0.0 -8.345658022731e+01 
-9.160762243971e+01 1.899167535592e+01 0.0 
1.899167535592e+01 -2.081363213751e+02 0.0 
0.0 0.0 -8.868246192070e+01 
-8.588326703913e+01 2.043238787626e+01 0.0 
2.043238787626e+01 -1.888445776987e+02 0.0 
0.0 0.0 -8.102852032856e+01 
-8.687577036482e+01 2.003872874116e+01 0.0 
2.003872874116e+01 -2.017243918926e+02 0.0 
0.0 0.0 -8.627721679645e+01 
-9.262900668805e+01 1.836323658402e+01 0.0 
1.836323658402e+01 -2.204325337910e+02 0.0 
0.0 0.0 -9.374813819648e+01 
-8.793154251299e+01 1.902019240943e+01 0.0 
1.902019240943e+01 -2.136831088820e+02 0.0 
0.0 0.0 -9.130815639259e+01 
-8.182947710581e+01 2.077525036489e+01 0.0 
2.077525036489e+01 -1.951207222846e+02 0.0 
0.0 0.0 -8.353565860549e+01 
-8.313214942914e+01 1.928267453553e+01 0.0 
1.928267453553e+01 -2.071093711266e+02 0.0 
0.0 0.0 -8.857570766790e+01 
-7.689332672275e+01 2.109877355651e+01 0.0 
2.109877355651e+01 -1.892606641381e+02 0.0 
0.0 0.0 -8.048869011352e+01 
-7.828116881982e+01 1.893737228952e+01 0.0 
1.893737228952e+01 -2.014918389673e+02 0.0 
0.0 0.0 -8.531326667387e+01 
-7.209336840419e+01 2.049231455133e+01 0.0 
2.049231455133e+01 -1.844658140508e+02 0.0 
0.0 0.0 -7.664623430852e+01 
-7.372702860089e+01 1.762202676714e+01 0.0 
1.762202676714e+01 -1.965996698698e+02 0.0 
0.0 0.0 -8.129037075894e+01 
-7.984259044520e+01 1.632830030949e+01 0.0 
1.632830030949e+01 -2.129717999868e+02 0.0 
0.0 0.0 -9.012439378563e+01 
-7.562363838569e+01 1.448657693415e+01 0.0 
1.448657693415e+01 -2.077795297209e+02 0.0 
0.0 0.0 -8.609085811815e+01 
-6.952326525140e+01 1.541765879288e+01 0.0 
1.541765879288e+01 -1.919477237892e+02 0.0 
0.0 0.0 -7.735623915408e+01 
-7.182434686850e+01 1.177375933291e+01 0.0 
1.177375933291e+01 -2.024261420818e+02 0.0 
0.0 0.0 -8.201329294437e+01 
-7.783295537171e+01 1.128999736139e+01 0.0 
1.128999736139e+01 -2.180061416918e+02 0.0 
0.0 0.0 -9.101939418912e+01 
-7.445703501549e+01 8.235387728072e+00 0.0 
8.235387728072e+00 -2.117889005110e+02 0.0 
0.0 0.0 -8.687140126882e+01 
-8.044390584665e+01 8.193198654376e+00 0.0 
8.193198654376e+00 -2.272767678108e+02 0.0 
0.0 0.0 -9.591684622779e+01 
-7.747774333361e+01 4.970092299654e+00 0.0 
4.970092299654e+00 -2.203284872612e+02 0.0 
0.0 0.0 -9.191573308221e+01 
-7.157729361344e+01 4.545831018423e+00 0.0 
4.545831018423e+00 -2.052115857671e+02 0.0 
0.0 0.0 -8.307292744126e+01 
-7.499807691616e+01 1.314889381084e+00 0.0 
1.314889381084e+00 -2.127090043184e+02 0.0 
0.0 0.0 -8.801854201088e+01 
-8.102851005257e+01 2.313788791460e+00 0.0 
2.313788791460e+00 -2.281100419425e+02 0.0 
0.0 0.0 -9.658059963348e+01 
-7.896094149823e+01 -1.174635189885e+00 0.0 
-1.174635189885e+00 -2.198711619368e+02 0.0 
0.0 0.0 -9.261644480772e+01 
-7.290089939047e+01 -2.588512690815e+00 0.0 
-2.588512690815e+00 -2.043304087767e+02 0.0 
0.0 0.0 -8.423150389415e+01 
-7.715480687568e+01 -4.689236215325e+00 0.0 
-4.689236215325e+00 -2.109695315556e+02 0.0 
0.0 0.0 -8.848602115664e+01 
-8.364376158338e+01 -2.674633960232e+00 0.0 
-2.674633960232e+00 -2.279282068676e+02 0.0 
0.0 0.0 -9.655529900787e+01 
-8.203989652807e+01 -5.751191307861e+00 0.0 
-5.751191307861e+00 -2.183327451382e+02 0.0 
0.0 0.0 -9.212057693232e+01 
-7.536858227556e+01 -8.107892823988e+00 0.0 
-8.107892823988e+00 -2.013092769363e+02 0.0 
0.0 0.0 -8.415757577593e+01 
-8.051271793774e+01 -8.401614322754e+00 0.0 
-8.401614322754e+00 -2.076615248414e+02 0.0 
0.0 0.0 -8.733836828094e+01 
-8.788905709058e+01 -5.458621777818e+00 0.0 
-5.458621777818e+00 -2.256278637783e+02 0.0 
0.0 0.0 -9.559071782236e+01 
-8.636400131076e+01 -7.535668360961e+00 0.0 
-7.535668360961e+00 -2.145725490396e+02 0.0 
0.0 0.0 -9.062993095350e+01 
-7.902724796303e+01 -1.038692359344e+01 0.0 
-1.038692359344e+01 -1.959142011540e+02 0.0 
0.0 0.0 -8.230202870884e+01 
-8.459454456378e+01 -9.091193040877e+00 0.0 
-9.091193040877e+00 -2.029140699561e+02 0.0 
0.0 0.0 -8.543970613625e+01 
-9.193780292785e+01 -6.453636390895e+00 0.0 
-6.453636390895e+00 -2.220998255030e+02 0.0 
0.0 0.0 -9.372766002399e+01 
-8.993841492482e+01 -7.700522282834e+00 0.0 
-7.700522282834e+00 -2.103574750823e+02 0.0 
0.0 0.0 -8.844037112235e+01 
-9.699904560067e+01 -5.436421522536e+00 0.0 
-5.436421522536e+00 -2.297254260001e+02 0.0 
0.0 0.0 -9.643861859223e+01 
-8.240682649774e+01 -1.009397346997e+01 0.0 
-1.009397346997e+01 -1.906579883827e+02 0.0 
0.0 0.0 -8.003380226207e+01 
-8.752326255592e+01 -8.465969329436e+00 0.0 
-8.465969329436e+00 -1.981675198773e+02 0.0 
0.0 0.0 -8.298191523873e+01 
-7.965439358104e+01 -1.047669798870e+01 0.0 
-1.047669798870e+01 -1.779914918777e+02 0.0 
0.0 0.0 -7.443212831170e+01 
-8.460888230467e+01 -8.744277717711e+00 0.0 
-8.744277717711e+00 -1.857164949896e+02 0.0 
0.0 0.0 -7.741702247185e+01 
-9.373201149337e+01 1.741857073095e+01 0.0 
1.741857073095e+01 -2.320713229639e+02 0.0 
0.0 0.0 -9.860811703753e+01 
-7.624621335453e+01 -1.031987040858e+01 0.0 
-1.031987040858e+01 -1.652178776958e+02 0.0 
0.0 0.0 -6.877526051894e+01 
-7.150055158470e+01 -1.226853182059e+01 0.0 
-1.226853182059e+01 -1.577130787021e+02 0.0 
0.0 0.0 -6.586696270964e+01 
-8.108457477202e+01 -8.558800426745e+00 0.0 
-8.558800426745e+00 -1.732150743204e+02 0.0 
0.0 0.0 -7.179651126833e+01 
-8.931641772139e+01 -7.223807629377e+00 0.0 
-7.223807629377e+00 -1.937107859119e+02 0.0 
0.0 0.0 -8.029362443095e+01 
-7.209765361171e+01 -9.711843476088e+00 0.0 
-9.711843476088e+00 -1.524624695705e+02 0.0 
0.0 0.0 -6.306847096348e+01 
-7.686896048710e+01 -8.022116081890e+00 0.0 
-8.022116081890e+00 -1.607310336672e+02 0.0 
0.0 0.0 -6.613957540619e+01 
-6.716952036199e+01 -8.756001458137e+00 0.0 
-8.756001458137e+00 -1.398315168753e+02 0.0 
0.0 0.0 -5.730343035991e+01 
-7.049475087424e+01 2.282923245817e+01 0.0 
2.282923245817e+01 -1.710417676993e+02 0.0 
0.0 0.0 -7.183899250124e+01 
-1.100130464300e+02 1.491406460538e+01 0.0 
1.491406460538e+01 -2.444860843779e+02 0.0 
0.0 0.0 -1.059482902052e+02 
-7.191537340177e+01 -7.214579257944e+00 0.0 
-7.214579257944e+00 -1.483044974136e+02 0.0 
0.0 0.0 -6.045208062567e+01 
-6.143721446392e+01 -7.554362142982e+00 0.0 
-7.554362142982e+00 -1.273488545702e+02 0.0 
0.0 0.0 -5.152214988203e+01 
-5.696569670061e+01 -8.900414590063e+00 0.0 
-8.900414590063e+00 -1.187715129467e+02 0.0 
0.0 0.0 -4.831388257009e+01 
-5.030154445476e+01 -7.283675558560e+00 0.0 
-7.283675558560e+00 -1.063710569762e+02 0.0 
0.0 0.0 -4.246370822271e+01 
-1.010572366437e+02 6.995546884195e+00 0.0 
6.995546884195e+00 -2.075845431040e+02 0.0 
0.0 0.0 -9.219253392433e+01 
-1.081318047452e+02 7.574314746178e+00 0.0 
7.574314746178e+00 -2.274362958185e+02 0.0 
0.0 0.0 -1.002704301691e+02 
-1.041589923989e+02 6.547949766440e+00 0.0 
6.547949766440e+00 -2.169461629003e+02 0.0 
0.0 0.0 -9.593154658974e+01 
-1.115184650122e+02 7.237912340151e+00 0.0 
7.237912340151e+00 -2.373685462247e+02 0.0 
0.0 0.0 -1.042661033711e+02 
-1.077313569771e+02 6.256115145309e+00 0.0 
6.256115145309e+00 -2.273858061831e+02 0.0 
0.0 0.0 -1.001351489480e+02 
-5.483930192422e+01 -6.166623509750e+00 0.0 
-6.166623509750e+00 -1.150407426743e+02 0.0 
0.0 0.0 -4.575117160453e+01 
-1.153256111004e+02 1.121535637673e+01 0.0 
1.121535637673e+01 -2.486361524630e+02 0.0 
0.0 0.0 -1.087885290690e+02 
-1.152561041832e+02 8.235233481983e+00 0.0 
8.235233481983e+00 -2.474813006831e+02 0.0 
0.0 0.0 -1.084212214599e+02 
-9.289910709645e+01 1.456035127803e+01 0.0 
1.456035127803e+01 -1.849467054588e+02 0.0 
0.0 0.0 -8.063262273135e+01 
-8.437237120851e+01 2.014418011663e+01 0.0 
2.014418011663e+01 -1.753553071405e+02 0.0 
0.0 0.0 -7.549718853603e+01 
-8.409486995233e+01 1.072058386435e+01 0.0 
1.072058386435e+01 -2.340402674469e+02 0.0 
0.0 0.0 -9.987932290314e+01 
-8.151043228227e+01 -6.572823697673e+00 0.0 
-6.572823697673e+00 -1.690181151378e+02 0.0 
0.0 0.0 -6.917994614552e+01 
-7.659675153814e+01 -5.878229102157e+00 0.0 
-5.878229102157e+00 -1.567914802934e+02 0.0 
0.0 0.0 -6.359861467171e+01 
-8.591183758326e+01 -5.321484648647e+00 0.0 
-5.321484648647e+00 -1.773762025150e+02 0.0 
0.0 0.0 -7.256226363390e+01 
-9.871583192791e+01 -3.983856183079e+00 0.0 
-3.983856183079e+00 -2.410973794136e+02 0.0 
0.0 0.0 -1.015317358667e+02 
-1.031407850731e+02 -3.371378010900e+00 0.0 
-3.371378010900e+00 -2.488160122880e+02 0.0 
0.0 0.0 -1.039536583907e+02 
-1.043776680465e+02 -1.765214422679e+00 0.0 
-1.765214422679e+00 -2.598507730337e+02 0.0 
0.0 0.0 -1.087448232441e+02 
-1.084301680322e+02 -1.452839627327e+00 0.0 
-1.452839627327e+00 -2.676984007621e+02 0.0 
0.0 0.0 -1.115026977268e+02 
-1.098997459312e+02 1.615988921186e-01 0.0 
1.615988921186e-01 -2.784594451680e+02 0.0 
0.0 0.0 -1.160082220939e+02 
-1.141595692636e+02 2.756012427822e-01 0.0 
2.756012427822e-01 -2.864541367216e+02 0.0 
0.0 0.0 -1.194160923023e+02 
-1.123327442449e+02 -1.104701998379e+00 0.0 
-1.104701998379e+00 -2.755610817883e+02 0.0 
0.0 0.0 -1.148248686731e+02 
-1.183919176817e+02 4.212730674344e-01 0.0 
4.212730674344e-01 -2.944608973476e+02 0.0 
0.0 0.0 -1.232055130554e+02 
-1.161679892469e+02 -7.472143600262e-01 0.0 
-7.472143600262e-01 -2.834714898595e+02 0.0 
0.0 0.0 -1.185765850002e+02 
-1.173414342007e+02 1.545776484831e+00 0.0 
1.545776484831e+00 -2.970935904404e+02 0.0 
0.0 0.0 -1.238599602604e+02 
-1.126447917307e+02 1.641341757513e+00 0.0 
1.641341757513e+00 -2.888828326978e+02 0.0 
0.0 0.0 -1.202189761369e+02 
-1.226012471020e+02 5.613698726297e-01 0.0 
5.613698726297e-01 -3.024763383887e+02 0.0 
0.0 0.0 -1.269614654365e+02 
-1.198970362686e+02 -4.042687190377e-01 0.0 
-4.042687190377e-01 -2.914180684149e+02 0.0 
0.0 0.0 -1.222898661373e+02 
-1.268091185096e+02 6.660697996239e-01 0.0 
6.660697996239e-01 -3.105043882703e+02 0.0 
0.0 0.0 -1.306906744386e+02 
-1.235504613601e+02 -1.028901598194e-01 0.0 
-1.028901598194e-01 -2.994265855525e+02 0.0 
0.0 0.0 -1.260144631045e+02 
-1.179272491226e+02 -1.243476160075e+00 0.0 
-1.243476160075e+00 -2.801233945572e+02 0.0 
0.0 0.0 -1.175654612081e+02 
-1.212910852879e+02 -7.969096890703e-01 0.0 
-7.969096890703e-01 -2.881434468386e+02 0.0 
0.0 0.0 -1.212783186299e+02 
-1.159374574917e+02 -1.883200394892e+00 0.0 
-1.883200394892e+00 -2.687404554274e+02 0.0 
0.0 0.0 -1.127948347618e+02 
-8.700587478723e+01 8.155384953451e+00 0.0 
8.155384953451e+00 -2.434447700842e+02 0.0 
0.0 0.0 -1.044686803482e+02 
-9.104999247121e+01 1.025486605543e+01 0.0 
1.025486605543e+01 -2.509874708512e+02 0.0 
0.0 0.0 -1.076421019394e+02 
-9.455245490267e+01 8.476767130710e+00 0.0 
8.476767130710e+00 -2.606656818208e+02 0.0 
0.0 0.0 -1.113981376227e+02 
-9.915683260834e+01 1.030140467112e+01 0.0 
1.030140467112e+01 -2.682472028864e+02 0.0 
0.0 0.0 -1.136198452818e+02 
-1.040258603309e+02 9.120203098939e+00 0.0 
9.120203098939e+00 -2.783948795514e+02 0.0 
0.0 0.0 -1.172448233023e+02 
-1.093453209275e+02 1.062674179052e+01 0.0 
1.062674179052e+01 -2.861623355626e+02 0.0 
0.0 0.0 -1.197482644378e+02 
-1.143488595263e+02 9.762744216855e+00 0.0 
9.762744216855e+00 -2.964357750261e+02 0.0 
0.0 0.0 -1.236737649775e+02 
-1.093335830683e+02 8.237007139622e+00 0.0 
8.237007139622e+00 -2.884335590934e+02 0.0 
0.0 0.0 -1.207996168941e+02 
-1.148595775636e+02 1.276368771751e+01 0.0 
1.276368771751e+01 -2.501035474430e+02 0.0 
0.0 0.0 -1.090889375020e+02 
-6.566512491740e+01 1.233141929148e+01 0.0 
1.233141929148e+01 -1.873412590074e+02 0.0 
0.0 0.0 -7.393910685125e+01 
-6.325494418504e+01 1.641059866237e+01 0.0 
1.641059866237e+01 -1.765087626838e+02 0.0 
0.0 0.0 -6.945172880401e+01 
-5.939034834010e+01 1.283373145057e+01 0.0 
1.283373145057e+01 -1.728711728720e+02 0.0 
0.0 0.0 -6.649845202510e+01 
-5.709127007828e+01 1.741081004126e+01 0.0 
1.741081004126e+01 -1.615606321507e+02 0.0 
0.0 0.0 -6.195283116603e+01 
-5.319869875401e+01 1.354024429746e+01 0.0 
1.354024429746e+01 -1.589204199021e+02 0.0 
0.0 0.0 -5.964561265044e+01 
-5.124651522258e+01 1.869156409518e+01 0.0 
1.869156409518e+01 -1.469433394829e+02 0.0 
0.0 0.0 -5.505135392209e+01 
-4.734741241722e+01 1.455087959277e+01 0.0 
1.455087959277e+01 -1.455561833980e+02 0.0 
0.0 0.0 -5.380182412147e+01 
-4.983792800853e+01 8.459849977694e+00 0.0 
8.459849977694e+00 -1.557463881603e+02 0.0 
0.0 0.0 -5.794056603927e+01 
-4.403008378972e+01 8.770109247881e+00 0.0 
8.770109247881e+00 -1.436905624055e+02 0.0 
0.0 0.0 -5.337142598399e+01 
-4.725309315516e+01 2.216382844044e+00 0.0 
2.216382844044e+00 -1.511693951773e+02 0.0 
0.0 0.0 -5.634786661400e+01 
-4.130281202409e+01 1.612900318620e+00 0.0 
1.612900318620e+00 -1.400402105271e+02 0.0 
0.0 0.0 -5.268960135294e+01 
-4.539497568510e+01 -4.674499359006e+00 0.0 
-4.674499359006e+00 -1.438799536341e+02 0.0 
0.0 0.0 -5.373004044079e+01 
-1.007170098107e+02 1.723332462348e+01 0.0 
1.723332462348e+01 -2.340407261994e+02 0.0 
0.0 0.0 -9.936422472460e+01 
-1.044513241448e+02 1.174642868438e+01 0.0 
1.174642868438e+01 -2.757691453816e+02 0.0 
0.0 0.0 -1.157553817404e+02 
-1.148845963355e+02 1.177540254401e+01 0.0 
1.177540254401e+01 -2.939779034750e+02 0.0 
0.0 0.0 -1.227824592045e+02 
-1.102720021000e+02 1.268801167505e+01 0.0 
1.268801167505e+01 -2.832891741745e+02 0.0 
0.0 0.0 -1.184637582764e+02 
-4.630587841567e+01 -8.165120129395e+00 0.0 
-8.165120129395e+00 -9.775820747264e+01 0.0 
0.0 0.0 -3.924537786351e+01 
-1.271958824940e+02 1.220373808223e-01 0.0 
1.220373808223e-01 -3.075109106212e+02 0.0 
0.0 0.0 -1.297663122351e+02 
-1.212925854567e+02 2.836643572625e+00 0.0 
2.836643572625e+00 -3.074656023357e+02 0.0 
0.0 0.0 -1.282274563377e+02 
-1.162894057848e+02 3.146837020722e+00 0.0 
3.146837020722e+00 -2.988907695348e+02 0.0 
0.0 0.0 -1.242508175509e+02 
-1.193610844707e+02 8.971053003674e+00 0.0 
8.971053003674e+00 -3.065626750602e+02 0.0 
0.0 0.0 -1.276525934525e+02 
-4.281394691103e+01 -5.490683608848e+00 0.0 
-5.490683608848e+00 -9.431466659196e+01 0.0 
0.0 0.0 -3.687142460321e+01 
-4.586734015781e+01 2.034809837064e+01 0.0 
2.034809837064e+01 -1.326188634440e+02 0.0 
0.0 0.0 -4.898046933486e+01 
-5.001554907841e+01 2.323264386986e+01 0.0 
2.323264386986e+01 -1.329117192866e+02 0.0 
0.0 0.0 -5.023129901323e+01 
-1.149227570370e+02 6.928654032627e+00 0.0 
6.928654032627e+00 -2.474404731463e+02 0.0 
0.0 0.0 -1.083089690550e+02 
-1.111617837322e+02 5.982064728639e+00 0.0 
5.982064728639e+00 -2.375436146783e+02 0.0 
0.0 0.0 -1.042116195232e+02 
-1.256453663791e+02 4.173675715458e+00 0.0 
4.173675715458e+00 -3.175088850649e+02 0.0 
0.0 0.0 -1.325462754332e+02 
-4.724690563773e+01 -4.596602562060e+00 0.0 
-4.596602562060e+00 -1.030526759856e+02 0.0 
0.0 0.0 -4.050318575061e+01 
-1.265138616802e+02 1.479997516936e+00 0.0 
1.479997516936e+00 -3.133475044713e+02 0.0 
0.0 0.0 -1.315514217847e+02 
-3.846610347825e+01 9.627626568985e+00 0.0 
9.627626568985e+00 -1.329086097729e+02 0.0 
0.0 0.0 -5.008347075542e+01 
-1.244902386810e+02 -4.414423474044e-01 0.0 
-4.414423474044e-01 -2.962426444998e+02 0.0 
0.0 0.0 -1.249898774114e+02 
-1.309266793518e+02 2.647931535786e-01 0.0 
2.647931535786e-01 -3.156214449500e+02 0.0 
0.0 0.0 -1.334681502837e+02 
-1.108328094019e+02 -2.273299697916e+00 0.0 
-2.273299697916e+00 -2.643766256239e+02 0.0 
0.0 0.0 -1.101010155772e+02 
-1.203650027373e+02 1.264221638041e+01 0.0 
1.264221638041e+01 -3.018712606946e+02 0.0 
0.0 0.0 -1.262924834588e+02 
-1.158745440004e+02 1.336286784613e+01 0.0 
1.336286784613e+01 -2.909567612990e+02 0.0 
0.0 0.0 -1.217622175465e+02 
-5.116957383560e+01 -3.164264398059e+00 0.0 
-3.164264398059e+00 -1.563554467085e+02 0.0 
0.0 0.0 -5.879335731147e+01 
-4.992403831756e+01 -9.195581055959e+00 0.0 
-9.195581055959e+00 -1.463504346294e+02 0.0 
0.0 0.0 -5.484056050328e+01 
-4.450309365616e+01 -1.141384398639e+01 0.0 
-1.141384398639e+01 -1.328763449873e+02 0.0 
0.0 0.0 -4.907300274427e+01 
-4.977512750225e+01 -1.432869755306e+01 0.0 
-1.432869755306e+01 -1.338728407408e+02 0.0 
0.0 0.0 -5.024206343048e+01 
-5.458573090763e+01 -1.181956855065e+01 0.0 
-1.181956855065e+01 -1.490533308331e+02 0.0 
0.0 0.0 -5.703591214542e+01 
-5.400714098133e+01 -1.538311259269e+01 0.0 
-1.538311259269e+01 -1.356845832248e+02 0.0 
0.0 0.0 -5.225504053283e+01 
-4.988630995050e+01 -1.782911599795e+01 0.0 
-1.782911599795e+01 -1.187864862282e+02 0.0 
0.0 0.0 -4.495017790943e+01 
-5.332892385996e+01 -1.739005872993e+01 0.0 
-1.739005872993e+01 -1.199168367883e+02 0.0 
0.0 0.0 -4.640413238045e+01 
-5.765680233816e+01 -1.569743031246e+01 0.0 
-1.569743031246e+01 -1.381308239411e+02 0.0 
0.0 0.0 -5.473215880208e+01 
-5.610667520904e+01 -1.648606270129e+01 0.0 
-1.648606270129e+01 -1.226089940933e+02 0.0 
0.0 0.0 -4.912908997948e+01 
-5.207969880908e+01 -1.704617938448e+01 0.0 
-1.704617938448e+01 -1.026177236436e+02 0.0 
0.0 0.0 -4.092193592579e+01 
-5.334209759797e+01 -1.540369704808e+01 0.0 
-1.540369704808e+01 -1.061265203988e+02 0.0 
0.0 0.0 -4.340617273772e+01 
-1.352804839920e+02 7.506849302780e-01 0.0 
7.506849302780e-01 -3.266865450454e+02 0.0 
0.0 0.0 -1.381901087112e+02 
-3.538113630321e+01 1.197991617884e+00 0.0 
1.197991617884e+00 -1.305063911184e+02 0.0 
0.0 0.0 -5.015367318807e+01 
-9.521565024989e+01 1.149191700984e+01 0.0 
1.149191700984e+01 -1.905468186487e+02 0.0 
0.0 0.0 -8.454553284994e+01 
-1.306183723924e+02 3.767078254848e+00 0.0 
3.767078254848e+00 -3.260864935256e+02 0.0 
0.0 0.0 -1.366114597754e+02 
-1.243634215125e+02 1.026352628110e+01 0.0 
1.026352628110e+01 -3.145015256872e+02 0.0 
0.0 0.0 -1.312925939738e+02 
-1.183336605232e+02 6.623300779771e+00 0.0 
6.623300779771e+00 -2.576443368933e+02 0.0 
0.0 0.0 -1.123933992250e+02 
-1.146078392516e+02 5.708701788044e+00 0.0 
5.708701788044e+00 -2.478709179611e+02 0.0 
0.0 0.0 -1.083436271638e+02 
-1.072782437430e+02 5.034634267462e+00 0.0 
5.034634267462e+00 -2.277313180276e+02 0.0 
0.0 0.0 -1.001028685312e+02 
-1.108071683843e+02 4.817755408233e+00 0.0 
4.817755408233e+00 -2.382582611898e+02 0.0 
0.0 0.0 -1.043196288722e+02 
-1.180607606556e+02 5.446706332409e+00 0.0 
5.446706332409e+00 -2.583815810688e+02 0.0 
0.0 0.0 -1.125327025173e+02 
-1.143392544152e+02 4.593123317666e+00 0.0 
4.593123317666e+00 -2.488330317931e+02 0.0 
0.0 0.0 -1.085516858625e+02 
-1.069480109646e+02 4.004682915626e+00 0.0 
4.004682915626e+00 -2.287422448111e+02 0.0 
0.0 0.0 -1.003070767327e+02 
-1.105834551253e+02 3.808936525969e+00 0.0 
3.808936525969e+00 -2.393500000797e+02 0.0 
0.0 0.0 -1.045800365615e+02 
-1.030811725842e+02 3.261862653568e+00 0.0 
3.261862653568e+00 -2.192862606210e+02 0.0 
0.0 0.0 -9.631022996156e+01 
-1.067971857372e+02 3.092132628542e+00 0.0 
3.092132628542e+00 -2.299656265150e+02 0.0 
0.0 0.0 -1.006288436756e+02 
-1.142325023955e+02 3.594324149596e+00 0.0 
3.594324149596e+00 -2.500195039747e+02 0.0 
0.0 0.0 -1.088756019111e+02 
-1.105322182317e+02 2.922359508594e+00 0.0 
2.922359508594e+00 -2.407280580782e+02 0.0 
0.0 0.0 -1.049780828930e+02 
-1.029701608762e+02 2.445390591772e+00 0.0 
2.445390591772e+00 -2.207228022473e+02 0.0 
0.0 0.0 -9.670788893704e+01 
-1.068004189138e+02 2.321440086212e+00 0.0 
2.321440086212e+00 -2.315002055270e+02 0.0 
0.0 0.0 -1.010901873322e+02 
-9.911938662033e+01 1.899247590092e+00 0.0 
1.899247590092e+00 -2.115170715036e+02 0.0 
0.0 0.0 -9.279093743717e+01 
-1.030639390107e+02 1.809502896168e+00 0.0 
1.809502896168e+00 -2.222428769529e+02 0.0 
0.0 0.0 -9.719204478907e+01 
-1.106592211120e+02 2.118015615512e+00 0.0 
2.118015615512e+00 -2.423362791619e+02 0.0 
0.0 0.0 -1.054986500822e+02 
-3.410524621164e+01 -3.648255646887e+00 0.0 
-3.648255646887e+00 -8.302345994206e+01 0.0 
0.0 0.0 -3.205351875139e+01 
-1.144915526956e+02 7.455461235654e+00 0.0 
7.455461235654e+00 -2.982919406680e+02 0.0 
0.0 0.0 -1.242099847404e+02 
-1.244557371882e+02 8.206171728484e+00 0.0 
8.206171728484e+00 -3.165882131645e+02 0.0 
0.0 0.0 -1.319131851058e+02 
-8.130429041481e+01 -4.655279687685e+00 0.0 
-4.655279687685e+00 -1.658338566620e+02 0.0 
0.0 0.0 -6.772348318110e+01 
-9.007651480847e+01 -4.198084026198e+00 0.0 
-4.198084026198e+00 -1.855071665546e+02 0.0 
0.0 0.0 -7.659916488947e+01 
-9.409430318981e+01 -4.692664310405e+00 0.0 
-4.692664310405e+00 -1.976658477236e+02 0.0 
0.0 0.0 -8.154959865824e+01 
-9.797695643434e+01 -3.679938776814e+00 0.0 
-3.679938776814e+00 -2.060664705692e+02 0.0 
0.0 0.0 -8.579514306516e+01 
-1.069698721468e+02 1.618105161834e+00 0.0 
1.618105161834e+00 -2.329946976576e+02 0.0 
0.0 0.0 -1.015893709413e+02 
-1.144468993969e+02 1.855735703436e+00 0.0 
1.855735703436e+00 -2.532016533033e+02 0.0 
0.0 0.0 -1.098945658100e+02 
-4.550894766265e+01 2.523546202298e+01 0.0 
2.523546202298e+01 -1.175012159852e+02 0.0 
0.0 0.0 -4.391631899584e+01 
-4.929206289363e+01 2.674551161431e+01 0.0 
2.674551161431e+01 -1.170364799287e+02 0.0 
0.0 0.0 -4.528387474862e+01 
-1.219828531037e+02 7.568169327993e+00 0.0 
7.568169327993e+00 -2.675540122806e+02 0.0 
0.0 0.0 -1.164610596153e+02 
-1.276095570250e+02 -1.589197542747e-01 0.0 
-1.589197542747e-01 -3.044773170463e+02 0.0 
0.0 0.0 -1.287154560012e+02 
-1.222357335546e+02 -8.474694020600e-01 0.0 
-8.474694020600e-01 -2.849606847101e+02 0.0 
0.0 0.0 -1.202337840978e+02 
-7.964093121839e+01 2.190396375448e+01 0.0 
2.190396375448e+01 -1.691856411602e+02 0.0 
0.0 0.0 -7.304829942830e+01 
-7.796545758733e+01 2.118608466621e+01 0.0 
2.118608466621e+01 -1.549047352529e+02 0.0 
0.0 0.0 -6.733733959023e+01 
-7.306835878131e+01 2.327111521633e+01 0.0 
2.327111521633e+01 -1.489590030739e+02 0.0 
0.0 0.0 -6.474766803639e+01 
-7.100551965672e+01 2.201088520340e+01 0.0 
2.201088520340e+01 -1.335512989364e+02 0.0 
0.0 0.0 -5.872872572570e+01 
-7.568180794567e+01 1.958043411221e+01 0.0 
1.958043411221e+01 -1.406940742846e+02 0.0 
0.0 0.0 -6.148534911768e+01 
-6.609555335961e+01 2.453922310754e+01 0.0 
2.453922310754e+01 -1.277718867180e+02 0.0 
0.0 0.0 -5.615050128092e+01 
-1.077994529660e+02 1.816125180592e+00 0.0 
1.816125180592e+00 -2.804024611052e+02 0.0 
0.0 0.0 -1.171236823525e+02 
-1.178956590619e+02 3.369546833526e+00 0.0 
3.369546833526e+00 -2.608023202517e+02 0.0 
0.0 0.0 -1.132093937941e+02 
-5.312299071520e+01 -1.012964956413e+01 0.0 
-1.012964956413e+01 -1.102722972735e+02 0.0 
0.0 0.0 -4.516120465226e+01 
-4.339607389728e+01 -8.792021538743e+00 0.0 
-8.792021538743e+00 -8.927470389390e+01 0.0 
0.0 0.0 -3.617135634895e+01 
-1.347864699894e+02 3.391464846387e-01 0.0 
3.391464846387e-01 -3.238613228662e+02 0.0 
0.0 0.0 -1.371751003305e+02 
-1.047255352736e+02 6.438504341088e+00 0.0 
6.438504341088e+00 -2.802304654609e+02 0.0 
0.0 0.0 -1.180723818631e+02 
-1.045922096058e+02 1.664919907865e+01 0.0 
1.664919907865e+01 -2.410951531006e+02 0.0 
0.0 0.0 -1.029855173368e+02 
-1.069699808075e+02 1.641801930570e+01 0.0 
1.641801930570e+01 -2.529486742278e+02 0.0 
0.0 0.0 -1.074504919125e+02 
-1.115340511470e+02 1.599584977430e+01 0.0 
1.599584977430e+01 -2.602313497123e+02 0.0 
0.0 0.0 -1.111296202578e+02 
-1.146430340956e+02 1.578238845322e+01 0.0 
1.578238845322e+01 -2.718583875973e+02 0.0 
0.0 0.0 -1.155504265079e+02 
-1.194425560787e+02 1.564602497935e+01 0.0 
1.564602497935e+01 -2.794358814346e+02 0.0 
0.0 0.0 -1.192635312540e+02 
-1.228086348279e+02 1.550301325721e+01 0.0 
1.550301325721e+01 -2.908110586218e+02 0.0 
0.0 0.0 -1.236859080349e+02 
-1.179716213596e+02 1.540144282948e+01 0.0 
1.540144282948e+01 -2.832809705882e+02 0.0 
0.0 0.0 -1.199757775843e+02 
-1.256709649802e+02 1.336768732224e+01 0.0 
1.336768732224e+01 -3.097951725340e+02 0.0 
0.0 0.0 -1.302398412543e+02 
-1.264319555962e+02 1.526370919645e+01 0.0 
1.526370919645e+01 -3.020567517307e+02 0.0 
0.0 0.0 -1.281466121981e+02 
-9.929382441659e+01 1.280778469322e+00 0.0 
1.280778469322e+00 -2.127321238289e+02 0.0 
0.0 0.0 -9.320778447366e+01 
-1.003570500118e+02 1.308754239264e+01 0.0 
1.308754239264e+01 -2.650683564056e+02 0.0 
0.0 0.0 -1.117723976748e+02 
-6.057095245761e+01 -1.560370440762e+01 0.0 
-1.560370440762e+01 -1.413737454181e+02 0.0 
0.0 0.0 -5.777185969103e+01 
-3.013245312438e+01 -4.054534929074e+00 0.0 
-4.054534929074e+00 -7.400370615032e+01 0.0 
0.0 0.0 -2.820444479074e+01 
-4.721186557315e+01 -1.382789105979e+01 0.0 
-1.382789105979e+01 -8.415596575289e+01 0.0 
0.0 0.0 -3.423664029779e+01 
-3.866703527880e+01 -3.125708901895e+00 0.0 
-3.125708901895e+00 -9.087636053273e+01 0.0 
0.0 0.0 -3.557890912172e+01 
-5.235093655039e+01 -3.751401993515e+00 0.0 
-3.751401993515e+00 -1.115892732186e+02 0.0 
0.0 0.0 -4.449052764956e+01 
-1.353211054805e+02 5.044102670073e+00 0.0 
5.044102670073e+00 -3.360850737385e+02 0.0 
0.0 0.0 -1.410218537657e+02 
-1.274444877578e+02 1.554105889803e+01 0.0 
1.554105889803e+01 -2.985688600517e+02 0.0 
0.0 0.0 -1.274040043429e+02 
-1.239271154439e+02 1.544847462097e+01 0.0 
1.544847462097e+01 -2.870566576157e+02 0.0 
0.0 0.0 -1.228951319179e+02 
-6.832385520460e+01 1.968833373054e+01 0.0 
1.968833373054e+01 -1.189617453037e+02 0.0 
0.0 0.0 -5.273820135992e+01 
-7.273681195482e+01 1.726241774897e+01 0.0 
1.726241774897e+01 -1.270331515808e+02 0.0 
0.0 0.0 -5.570985611087e+01 
-1.302623703830e+02 1.285878208949e+01 0.0 
1.285878208949e+01 -3.205202799560e+02 0.0 
0.0 0.0 -1.348347951017e+02 
-1.004442943077e+02 5.520917006327e+00 0.0 
5.520917006327e+00 -2.072940314624e+02 0.0 
0.0 0.0 -9.192149773103e+01 
-9.940941871867e+01 3.395256187910e+00 0.0 
3.395256187910e+00 -2.087353303683e+02 0.0 
0.0 0.0 -9.204342472609e+01 
-9.534650814161e+01 2.680042618286e+00 0.0 
2.680042618286e+00 -1.992259630563e+02 0.0 
0.0 0.0 -8.797174135939e+01 
-2.421697228860e+01 -1.925909919348e+00 0.0 
-1.925909919348e+00 -6.883843602790e+01 0.0 
0.0 0.0 -2.616740887476e+01 
-4.715504054354e+01 -1.627683251381e+01 0.0 
-1.627683251381e+01 -8.112696326030e+01 0.0 
0.0 0.0 -3.236515164716e+01 
-1.215425530094e+02 5.158543163938e+00 0.0 
5.158543163938e+00 -2.689749981565e+02 0.0 
0.0 0.0 -1.167552653498e+02 
-5.406075537864e+01 2.506506906882e+01 0.0 
2.506506906882e+01 -1.337280195629e+02 0.0 
0.0 0.0 -5.242899748962e+01 
-5.311187063013e+01 2.741868958255e+01 0.0 
2.741868958255e+01 -1.178325577954e+02 0.0 
0.0 0.0 -4.753737548017e+01 
-3.333621744631e+01 1.175567643874e+01 0.0 
1.175567643874e+01 -1.235055376431e+02 0.0 
0.0 0.0 -4.820817610066e+01 
-3.000629887527e+01 1.043499547516e+00 0.0 
1.043499547516e+00 -1.236712691823e+02 0.0 
0.0 0.0 -4.838581530779e+01 
-1.108613416893e+02 1.287414617100e+00 0.0 
1.287414617100e+00 -2.435840459051e+02 0.0 
0.0 0.0 -1.059336162783e+02 
-1.182652336335e+02 1.533384469554e+00 0.0 
1.533384469554e+00 -2.636611039488e+02 0.0 
0.0 0.0 -1.141779012747e+02 
-1.014409569587e+02 -3.934358710281e+00 0.0 
-3.934358710281e+00 -2.178699859843e+02 0.0 
0.0 0.0 -9.066030488634e+01 
-1.050008776679e+02 -3.018944562328e+00 0.0 
-3.018944562328e+00 -2.261581305853e+02 0.0 
0.0 0.0 -9.465720443852e+01 
-1.302772593049e+02 5.568151386448e+00 0.0 
5.568151386448e+00 -3.272207027945e+02 0.0 
0.0 0.0 -1.368493886298e+02 
-4.814528666658e+01 -1.262406432867e+01 0.0 
-1.262406432867e+01 -8.989375357767e+01 0.0 
0.0 0.0 -3.710387261330e+01 
-1.218740130677e+02 2.146001750775e+00 0.0 
2.146001750775e+00 -2.733449957465e+02 0.0 
0.0 0.0 -1.181657026443e+02 
-1.099640500101e+02 5.740194598590e+00 0.0 
5.740194598590e+00 -2.897584589086e+02 0.0 
0.0 0.0 -1.210644559650e+02 
-1.007638517181e+02 4.513714685797e+00 0.0 
4.513714685797e+00 -2.717456221542e+02 0.0 
0.0 0.0 -1.152583430415e+02 
-9.392534023757e+01 -3.234016009304e+00 0.0 
-3.234016009304e+00 -1.937963944099e+02 0.0 
0.0 0.0 -8.079639550443e+01 
-4.593039105940e+01 2.869975993775e+01 0.0 
2.869975993775e+01 -1.001139176917e+02 0.0 
0.0 0.0 -3.907056078309e+01 
-4.268753726620e+01 2.784767438539e+01 0.0 
2.784767438539e+01 -1.019996048209e+02 0.0 
0.0 0.0 -3.894873870751e+01 
-6.238544136759e+01 -1.415341150281e+01 0.0 
-1.415341150281e+01 -1.557177814623e+02 0.0 
0.0 0.0 -6.331065230011e+01 
-5.456297337319e+01 -1.441416082155e+01 0.0 
-1.441416082155e+01 -1.109480369456e+02 0.0 
0.0 0.0 -4.606295069928e+01 
-4.397918232424e+01 -2.444656973974e+00 0.0 
-2.444656973974e+00 -9.942331558148e+01 0.0 
0.0 0.0 -3.965181006609e+01 
-1.401941020263e+02 6.340711190844e+00 0.0 
6.340711190844e+00 -3.456977786373e+02 0.0 
0.0 0.0 -1.453675641991e+02 
-1.251241047396e+02 6.008790837338e+00 0.0 
6.008790837338e+00 -2.784496777663e+02 0.0 
0.0 0.0 -1.206721347517e+02 
-1.216233356299e+02 1.497842903909e+01 0.0 
1.497842903909e+01 -2.944605530059e+02 0.0 
0.0 0.0 -1.244251665908e+02 
-1.128651637183e+02 1.524466427582e+01 0.0 
1.524466427582e+01 -2.757321656446e+02 0.0 
0.0 0.0 -1.161791988089e+02 
-1.305769348857e+02 1.496786952645e+01 0.0 
1.496786952645e+01 -3.132840874313e+02 0.0 
0.0 0.0 -1.327583066951e+02 
-4.086688881936e+01 -9.856164865864e+00 0.0 
-9.856164865864e+00 -6.841000491875e+01 0.0 
0.0 0.0 -2.814558184248e+01 
-1.403840625069e+02 4.576700727207e+00 0.0 
4.576700727207e+00 -3.449601742356e+02 0.0 
0.0 0.0 -1.452032710228e+02 
-1.307923866287e+02 2.423485653402e-02 0.0 
2.423485653402e-02 -3.128791730147e+02 0.0 
0.0 0.0 -1.324827263763e+02 
-1.313982793077e+02 1.545953786838e+01 0.0 
1.545953786838e+01 -3.055895033313e+02 0.0 
0.0 0.0 -1.306963347917e+02 
-1.281843433112e+02 1.521606505635e+01 0.0 
1.521606505635e+01 -2.949213465061e+02 0.0 
0.0 0.0 -1.265317069452e+02 
-5.816964243687e+01 2.597185712917e+01 0.0 
2.597185712917e+01 -1.354403774918e+02 0.0 
0.0 0.0 -5.520922677715e+01 
-5.704917477798e+01 2.738730459812e+01 0.0 
2.738730459812e+01 -1.198123692819e+02 0.0 
0.0 0.0 -5.048221885991e+01 
-5.215063888619e+01 2.832842659564e+01 0.0 
2.832842659564e+01 -1.006917418553e+02 0.0 
0.0 0.0 -4.250241027136e+01 
-5.552033092405e+01 2.722155199131e+01 0.0 
2.722155199131e+01 -1.028301361126e+02 0.0 
0.0 0.0 -4.484866698474e+01 
-9.443874774616e+01 9.545157296006e+00 0.0 
9.545157296006e+00 -1.888499663499e+02 0.0 
0.0 0.0 -8.434894089684e+01 
-6.266898169326e+01 2.600708732891e+01 0.0 
2.600708732891e+01 -1.384807778250e+02 0.0 
0.0 0.0 -5.863276370738e+01 
-9.269275648758e+01 1.214633480968e+01 0.0 
1.214633480968e+01 -1.817572585203e+02 0.0 
0.0 0.0 -8.036820798441e+01 
-8.935661951532e+01 1.054380409254e+01 0.0 
1.054380409254e+01 -1.706934154646e+02 0.0 
0.0 0.0 -7.600846471572e+01 
-8.669226481990e+01 1.123635530162e+01 0.0 
1.123635530162e+01 -1.618640480185e+02 0.0 
0.0 0.0 -7.171425668860e+01 
-7.990037624792e+01 1.739455332029e+01 0.0 
1.739455332029e+01 -1.482823531742e+02 0.0 
0.0 0.0 -6.415602892972e+01 
-7.679618880269e+01 1.515120360802e+01 0.0 
1.515120360802e+01 -1.354883042389e+02 0.0 
0.0 0.0 -5.871677063960e+01 
-6.125274271386e+01 2.023650823617e+01 0.0 
2.023650823617e+01 -1.641517536490e+02 0.0 
0.0 0.0 -6.485145612716e+01 
-8.831713426999e+01 1.253587631956e+01 0.0 
1.253587631956e+01 -2.407810696307e+02 0.0 
0.0 0.0 -1.032364601733e+02 
-9.767394064082e+01 -4.896293154801e+00 0.0 
-4.896293154801e+00 -2.097608484334e+02 0.0 
0.0 0.0 -8.661118203948e+01 
-1.125863946753e+02 -2.500464038544e+00 0.0 
-2.500464038544e+00 -2.607921733465e+02 0.0 
0.0 0.0 -1.090640200812e+02 
-9.998266247055e+01 -2.092787231970e+00 0.0 
-2.092787231970e+00 -2.519313030014e+02 0.0 
0.0 0.0 -1.063472427925e+02 
-1.214232425579e+02 4.075608099625e+00 0.0 
4.075608099625e+00 -2.700142533562e+02 0.0 
0.0 0.0 -1.170312487742e+02 
-1.250476806823e+02 3.797896334303e+00 0.0 
3.797896334303e+00 -2.809282253668e+02 0.0 
0.0 0.0 -1.213927718147e+02 
-9.522372011853e+01 1.961749909344e+00 0.0 
1.961749909344e+00 -2.007536824413e+02 0.0 
0.0 0.0 -8.839322076796e+01 
-9.137313800866e+01 1.485254411289e+00 0.0 
1.485254411289e+00 -1.915086680092e+02 0.0 
0.0 0.0 -8.446454180536e+01 
-3.566409970091e+01 -6.324110492288e+00 0.0 
-6.324110492288e+00 -7.687515958685e+01 0.0 
0.0 0.0 -3.031841605242e+01 
-3.380839572274e+01 -6.294850105702e+00 0.0 
-6.294850105702e+00 -6.848768565544e+01 0.0 
0.0 0.0 -2.733397577610e+01 
-1.014448552363e+02 -4.580414902645e+00 0.0 
-4.580414902645e+00 -2.373931512005e+02 0.0 
0.0 0.0 -9.893733930596e+01 
-1.354728500095e+02 3.410944126097e+00 0.0 
3.410944126097e+00 -3.344696205382e+02 0.0 
0.0 0.0 -1.405827411643e+02 
-1.252094501288e+02 7.200342670636e+00 0.0 
7.200342670636e+00 -2.775545534395e+02 0.0 
0.0 0.0 -1.204292010705e+02 
-1.287629682695e+02 8.185355137690e+00 0.0 
8.185355137690e+00 -2.875091348430e+02 0.0 
0.0 0.0 -1.244816309338e+02 
-1.255436133074e+02 8.550325208102e+00 0.0 
8.550325208102e+00 -2.774725771408e+02 0.0 
0.0 0.0 -1.205048571345e+02 
-1.350383726320e+02 6.953481487270e+00 0.0 
6.953481487270e+00 -3.363564623890e+02 0.0 
0.0 0.0 -1.410184505063e+02 
-6.228026289315e+01 8.303057176763e+00 0.0 
8.303057176763e+00 -1.824944069890e+02 0.0 
0.0 0.0 -7.093141078957e+01 
-9.075109773603e+01 6.273955215320e+00 0.0 
6.273955215320e+00 -2.527380882881e+02 0.0 
0.0 0.0 -1.085364985350e+02 
-3.440375961462e+01 -9.095648112067e+00 0.0 
-9.095648112067e+00 -1.232604134418e+02 0.0 
0.0 0.0 -4.821366102898e+01 
-9.827862628225e+01 1.709374535790e+01 0.0 
1.709374535790e+01 -2.390321654178e+02 0.0 
0.0 0.0 -1.011814678421e+02 
-2.535446412755e+01 -3.522853737221e+00 0.0 
-3.522853737221e+00 -5.652852290459e+01 0.0 
0.0 0.0 -2.182782620623e+01 
-1.141162867611e+02 1.419199275584e+01 0.0 
1.419199275584e+01 -2.525985354617e+02 0.0 
0.0 0.0 -1.096144466668e+02 
-1.389566674460e+02 3.326533631348e-01 0.0 
3.326533631348e-01 -3.322933517327e+02 0.0 
0.0 0.0 -1.409750057536e+02 
-1.436922146986e+02 6.418970062630e-01 0.0 
6.418970062630e-01 -3.430578550267e+02 0.0 
0.0 0.0 -1.456250209176e+02 
-1.352181928322e+02 1.366144023578e+01 0.0 
1.366144023578e+01 -3.283589630143e+02 0.0 
0.0 0.0 -1.386731467539e+02 
-8.449394737839e+01 6.937177474858e+00 0.0 
6.937177474858e+00 -1.595033174491e+02 0.0 
0.0 0.0 -7.206538934397e+01 
-9.992913422691e+01 1.606766214951e+01 0.0 
1.606766214951e+01 -2.502078650417e+02 0.0 
0.0 0.0 -1.056250222103e+02 
-9.516632533294e+01 1.611237741576e+01 0.0 
1.611237741576e+01 -2.431013516361e+02 0.0 
0.0 0.0 -1.032179879625e+02 
-8.293838162560e+01 9.414304910329e+00 0.0 
9.414304910329e+00 -1.510189278177e+02 0.0 
0.0 0.0 -6.742175147152e+01 
-7.997129811222e+01 1.014219026037e+01 0.0 
1.014219026037e+01 -1.420403750988e+02 0.0 
0.0 0.0 -6.295084754017e+01 
-8.375469054809e+01 1.214304218298e+01 0.0 
1.214304218298e+01 -1.530805361151e+02 0.0 
0.0 0.0 -6.724254678019e+01 
-7.676967721764e+01 1.117977279801e+01 0.0 
1.117977279801e+01 -1.330189665969e+02 0.0 
0.0 0.0 -5.822441085875e+01 
-6.565262304556e+01 -1.459328625742e+01 0.0 
-1.459328625742e+01 -1.597111956361e+02 0.0 
0.0 0.0 -6.614000717796e+01 
-6.346855814879e+01 -1.537012316712e+01 0.0 
-1.537012316712e+01 -1.456497820851e+02 0.0 
0.0 0.0 -6.046534592102e+01 
-1.361260912804e+02 1.573442332570e+01 0.0 
1.573442332570e+01 -3.190343361500e+02 0.0 
0.0 0.0 -1.361481282291e+02 
-1.349200558282e+02 1.533254447696e+01 0.0 
1.533254447696e+01 -3.206402643750e+02 0.0 
0.0 0.0 -1.362680960610e+02 
-1.355815180272e+02 1.551510420677e+01 0.0 
1.551510420677e+01 -3.138159181605e+02 0.0 
0.0 0.0 -1.344192308563e+02 
-1.325661719381e+02 1.503251900589e+01 0.0 
1.503251900589e+01 -3.035400528405e+02 0.0 
0.0 0.0 -1.304318674336e+02 
-1.400669089848e+02 1.327569935149e+01 0.0 
1.327569935149e+01 -3.390442113688e+02 0.0 
0.0 0.0 -1.433333361061e+02 
-1.348928062773e+02 1.235875028412e+01 0.0 
1.235875028412e+01 -3.308861909704e+02 0.0 
0.0 0.0 -1.393336991743e+02 
-5.719578417536e+01 -2.817305939780e+00 0.0 
-2.817305939780e+00 -1.194545639614e+02 0.0 
0.0 0.0 -4.841381072459e+01 
-6.914746293878e+01 1.444389978867e+01 0.0 
1.444389978867e+01 -1.144311115719e+02 0.0 
0.0 0.0 -5.019174930680e+01 
-1.286394857413e+02 5.687119295460e+00 0.0 
5.687119295460e+00 -2.890323505412e+02 0.0 
0.0 0.0 -1.249015508848e+02 
-8.566497308159e+01 8.866115581108e+00 0.0 
8.866115581108e+00 -1.600000507161e+02 0.0 
0.0 0.0 -7.173491694062e+01 
-1.450785460310e+02 4.122834817202e+00 0.0 
4.122834817202e+00 -3.529247322704e+02 0.0 
0.0 0.0 -1.490009834904e+02 
-1.402987299914e+02 3.111911166867e+00 0.0 
3.111911166867e+00 -3.428137713818e+02 0.0 
0.0 0.0 -1.445337504120e+02 
-3.261773455745e+01 -1.098625686201e+01 0.0 
-1.098625686201e+01 -1.188441222279e+02 0.0 
0.0 0.0 -4.755125337731e+01 
-3.671971924430e+01 -1.979173607479e+01 0.0 
-1.979173607479e+01 -1.076203761173e+02 0.0 
0.0 0.0 -4.280288348247e+01 
-1.256441328073e+02 1.795351681112e+00 0.0 
1.795351681112e+00 -2.841039814352e+02 0.0 
0.0 0.0 -1.225244342727e+02 
-5.022789616968e+01 2.716761163404e+01 0.0 
2.716761163404e+01 -8.174834073841e+01 0.0 
0.0 0.0 -3.636073510963e+01 
-5.272690042465e+01 2.488764715787e+01 0.0 
2.488764715787e+01 -8.373298130179e+01 0.0 
0.0 0.0 -3.807438955985e+01 
-4.784798570260e+01 2.864726249448e+01 0.0 
2.864726249448e+01 -8.093953032732e+01 0.0 
0.0 0.0 -3.485467956498e+01 
-1.574425888775e+02 1.927785370940e-01 0.0 
1.927785370940e-01 -3.715006304952e+02 0.0 
0.0 0.0 -1.582829658118e+02 
-7.470384098295e+01 1.645507406617e-01 0.0 
1.645507406617e-01 -1.530559452557e+02 0.0 
0.0 0.0 -6.792793587160e+01 
-1.480159879737e+02 5.221865038746e-01 0.0 
5.221865038746e-01 -3.516350808948e+02 0.0 
0.0 0.0 -1.494953206606e+02 
-8.374266036602e+01 1.553473122455e+01 0.0 
1.553473122455e+01 -1.563940431234e+02 0.0 
0.0 0.0 -6.748073045972e+01 
-1.292922665325e+02 2.396685184074e+00 0.0 
2.396685184074e+00 -2.938828516987e+02 0.0 
0.0 0.0 -1.265525354694e+02 
-1.023830224034e+02 1.490438827400e+01 0.0 
1.490438827400e+01 -2.610666922336e+02 0.0 
0.0 0.0 -1.098320712761e+02 
-7.413746699046e+01 2.353988590370e+01 0.0 
2.353988590370e+01 -1.633280884928e+02 0.0 
0.0 0.0 -7.019252049034e+01 
-1.251141602631e+02 6.158170374329e+00 0.0 
6.158170374329e+00 -3.180012767708e+02 0.0 
0.0 0.0 -1.325346311102e+02 
-1.217012674931e+02 1.266422170811e+00 0.0 
1.266422170811e+00 -2.732907800401e+02 0.0 
0.0 0.0 -1.180976142600e+02 
-1.294373807152e+02 1.348775737520e+00 0.0 
1.348775737520e+00 -2.953447624178e+02 0.0 
0.0 0.0 -1.270346429399e+02 
-9.169515879325e+01 2.737526937389e+00 0.0 
2.737526937389e+00 -1.886906404846e+02 0.0 
0.0 0.0 -8.371573978335e+01 
-8.719152112241e+01 2.191256388644e+00 0.0 
2.191256388644e+00 -1.786712359769e+02 0.0 
0.0 0.0 -7.935882712979e+01 
-9.550789823129e+01 3.496227319939e+00 0.0 
3.496227319939e+00 -1.976657962055e+02 0.0 
0.0 0.0 -8.755210833103e+01 
-3.723263816589e+01 1.827300408094e+01 0.0 
1.827300408094e+01 -1.207231525132e+02 0.0 
0.0 0.0 -4.515412457880e+01 
-3.411010745642e+01 2.322286772651e+01 0.0 
2.322286772651e+01 -1.068738753932e+02 0.0 
0.0 0.0 -4.243587982708e+01 
-1.215033375507e+02 3.080986531371e+00 0.0 
3.080986531371e+00 -2.715414809133e+02 0.0 
0.0 0.0 -1.175134455392e+02 
-7.116507936610e+01 -4.976431803982e+00 0.0 
-4.976431803982e+00 -1.446981587945e+02 0.0 
0.0 0.0 -5.849122405379e+01 
-7.678824794333e+01 -3.870458274968e+00 0.0 
-3.870458274968e+00 -1.551479757325e+02 0.0 
0.0 0.0 -6.361988348078e+01 
-4.892467166961e+01 -1.191706338123e+01 0.0 
-1.191706338123e+01 -9.581698955932e+01 0.0 
0.0 0.0 -3.964546149656e+01 
-5.629645390567e+01 -1.332774907091e+01 0.0 
-1.332774907091e+01 -1.167168089727e+02 0.0 
0.0 0.0 -4.853211388825e+01 
-1.044350202921e+02 -3.948094086829e+00 0.0 
-3.948094086829e+00 -2.296945342849e+02 0.0 
0.0 0.0 -9.554750788802e+01 
-1.007244556715e+02 -4.838013107919e+00 0.0 
-4.838013107919e+00 -2.217332242875e+02 0.0 
0.0 0.0 -9.174593922087e+01 
-1.173398716386e+02 1.478674066664e+01 0.0 
1.478674066664e+01 -2.641078390682e+02 0.0 
0.0 0.0 -1.140343132120e+02 
-1.213860497157e+02 1.426149192856e+01 0.0 
1.426149192856e+01 -2.722988194608e+02 0.0 
0.0 0.0 -1.177054607530e+02 
-1.087180930700e+02 1.601246493171e+01 0.0 
1.601246493171e+01 -2.484284465457e+02 0.0 
0.0 0.0 -1.066740344288e+02 
-1.059257891908e+02 3.947520302035e+00 0.0 
3.947520302035e+00 -2.808641802911e+02 0.0 
0.0 0.0 -1.179479491658e+02 
-9.787016017903e+01 2.492942291559e+00 0.0 
2.492942291559e+00 -2.627741593897e+02 0.0 
0.0 0.0 -1.119850800580e+02 
-9.247100001117e+01 2.802524999525e+00 0.0 
2.802524999525e+00 -2.538701557528e+02 0.0 
0.0 0.0 -1.086599556008e+02 
-1.281866309222e+02 4.529251438597e+00 0.0 
4.529251438597e+00 -2.896715707809e+02 0.0 
0.0 0.0 -1.249574605110e+02 
-1.326229125944e+02 4.161065658082e+00 0.0 
4.161065658082e+00 -3.028568085992e+02 0.0 
0.0 0.0 -1.302439163581e+02 
-6.755475658061e+01 -1.272727393789e+01 0.0 
-1.272727393789e+01 -1.729687862313e+02 0.0 
0.0 0.0 -7.149709753653e+01 
-6.377100516149e+01 -1.153685651150e+01 0.0 
-1.153685651150e+01 -1.686498176010e+02 0.0 
0.0 0.0 -6.830524713960e+01 
-6.980144435778e+01 -1.392286415651e+01 0.0 
-1.392286415651e+01 -1.646149825014e+02 0.0 
0.0 0.0 -6.876167251431e+01 
-1.320649947781e+02 6.537077644790e+00 0.0 
6.537077644790e+00 -2.985593706845e+02 0.0 
0.0 0.0 -1.287873096388e+02 
-1.526201616948e+02 7.793054456492e-01 0.0 
7.793054456492e-01 -3.620319443291e+02 0.0 
0.0 0.0 -1.539956318072e+02 
-1.483769378995e+02 1.051527287064e+00 0.0 
1.051527287064e+00 -3.537067308626e+02 0.0 
0.0 0.0 -1.502251006286e+02 
-2.408675424188e+01 -3.034587255921e+00 0.0 
-3.034587255921e+00 -4.849740519043e+01 0.0 
0.0 0.0 -1.902042251957e+01 
-3.237775809495e+01 -5.941882882851e+00 0.0 
-5.941882882851e+00 -6.017023288031e+01 0.0 
0.0 0.0 -2.411966251660e+01 
-4.344175912700e+01 3.049730441073e+01 0.0 
3.049730441073e+01 -8.237360316216e+01 0.0 
0.0 0.0 -3.284459883252e+01 
-4.086543138620e+01 3.054115397042e+01 0.0 
3.054115397042e+01 -8.598955209600e+01 0.0 
0.0 0.0 -3.383432585887e+01 
-1.320133620346e+02 9.153016565777e+00 0.0 
9.153016565777e+00 -2.970572548266e+02 0.0 
0.0 0.0 -1.283211850584e+02 
-1.291485438712e+02 9.563218701940e+00 0.0 
9.563218701940e+00 -2.877783054636e+02 0.0 
0.0 0.0 -1.246780548004e+02 
-1.358824876758e+02 8.818395806993e+00 0.0 
8.818395806993e+00 -3.088603827643e+02 0.0 
0.0 0.0 -1.330228611320e+02 
-4.788825636276e+01 -1.718316968714e+00 0.0 
-1.718316968714e+00 -1.060770683960e+02 0.0 
0.0 0.0 -4.286117918195e+01 
-1.166242330950e+02 1.454850111266e+01 0.0 
1.454850111266e+01 -2.869440475627e+02 0.0 
0.0 0.0 -1.206704841973e+02 
-1.448022259568e+02 7.674335164717e+00 0.0 
7.674335164717e+00 -3.539563393234e+02 0.0 
0.0 0.0 -1.492275695840e+02 
-1.395092754702e+02 8.307923947128e+00 0.0 
8.307923947128e+00 -3.445138957446e+02 0.0 
0.0 0.0 -1.448069513644e+02 
-1.512364521945e+02 7.135808567619e+00 0.0 
7.135808567619e+00 -3.656193783364e+02 0.0 
0.0 0.0 -1.546567491593e+02 
-1.305446627801e+02 1.407732934240e+01 0.0 
1.407732934240e+01 -3.173658636750e+02 0.0 
0.0 0.0 -1.339731579365e+02 
-1.396285469611e+02 1.438981369794e+01 0.0 
1.438981369794e+01 -3.355673648057e+02 0.0 
0.0 0.0 -1.421587735300e+02 
-1.394024732286e+02 1.518081289628e+01 0.0 
1.518081289628e+01 -3.318016776254e+02 0.0 
0.0 0.0 -1.409612452562e+02 
-3.718451644244e+01 1.390542926382e+00 0.0 
1.390542926382e+00 -1.212281422330e+02 0.0 
0.0 0.0 -4.939657012278e+01 
-1.268781085715e+02 9.642035547725e-01 0.0 
9.642035547725e-01 -2.882333903275e+02 0.0 
0.0 0.0 -1.241334496697e+02 
-8.693371490510e+01 1.520663918160e+00 0.0 
1.520663918160e+00 -1.798517147810e+02 0.0 
0.0 0.0 -7.963562890583e+01 
-4.843360082605e+01 -6.928405930454e+00 0.0 
-6.928405930454e+00 -1.159805193609e+02 0.0 
0.0 0.0 -5.076653458998e+01 
-8.305444780008e+01 1.090733675103e+00 0.0 
1.090733675103e+00 -1.708184398480e+02 0.0 
0.0 0.0 -7.576186629442e+01 
-8.732964510249e+01 1.081989745496e+00 0.0 
1.081989745496e+00 -1.821838860595e+02 0.0 
0.0 0.0 -8.045405934861e+01 
-7.855125115695e+01 7.566765916823e-01 0.0 
7.566765916823e-01 -1.606111086269e+02 0.0 
0.0 0.0 -7.134870793516e+01 
-3.364666174804e+01 -1.420998362486e+00 0.0 
-1.420998362486e+00 -8.612539793787e+01 0.0 
0.0 0.0 -3.395464621752e+01 
-8.647343453447e+01 2.814401006942e+00 0.0 
2.814401006942e+00 -1.745775393084e+02 0.0 
0.0 0.0 -7.791529215286e+01 
-9.188997556826e+01 3.755342016481e+00 0.0 
3.755342016481e+00 -1.871215580244e+02 0.0 
0.0 0.0 -8.330346007781e+01 
-2.100101073168e+01 -2.402416773805e+00 0.0 
-2.402416773805e+00 -3.666915066845e+01 0.0 
0.0 0.0 -1.507367463436e+01 
-1.351634205374e+02 6.060870797508e+00 0.0 
6.060870797508e+00 -3.087390061996e+02 0.0 
0.0 0.0 -1.327707280211e+02 
-1.698659810885e+01 -8.104363979322e-01 0.0 
-8.104363979322e-01 -3.772813658625e+01 0.0 
0.0 0.0 -1.468496368308e+01 
-1.861802185963e+01 -1.109180430307e+00 0.0 
-1.109180430307e+00 -4.548941741602e+01 0.0 
0.0 0.0 -1.723277005263e+01 
-1.499864502241e+02 3.674811887127e+00 0.0 
3.674811887127e+00 -3.614731356158e+02 0.0 
0.0 0.0 -1.530378757520e+02 
-1.449638252922e+02 2.819524422407e+00 0.0 
2.819524422407e+00 -3.509396209686e+02 0.0 
0.0 0.0 -1.483710338782e+02 
-1.542727220787e+02 3.324470096040e+00 0.0 
3.324470096040e+00 -3.690900840207e+02 0.0 
0.0 0.0 -1.566088418298e+02 
-1.492034916862e+02 2.486720592972e+00 0.0 
2.486720592972e+00 -3.584104048001e+02 0.0 
0.0 0.0 -1.518841689459e+02 
-1.401555461528e+02 2.052266547553e+00 0.0 
2.052266547553e+00 -3.401980572038e+02 0.0 
0.0 0.0 -1.437060810070e+02 
-1.448065738033e+02 1.852423181540e+00 0.0 
1.852423181540e+00 -3.486233887514e+02 0.0 
0.0 0.0 -1.476289887664e+02 
-8.276464155175e+01 1.611040259615e+00 0.0 
1.611040259615e+00 -1.687108002743e+02 0.0 
0.0 0.0 -7.504263254781e+01 
-1.551971418095e+02 2.293903592787e+00 0.0 
2.293903592787e+00 -3.694818372664e+02 0.0 
0.0 0.0 -1.570036937228e+02 
-1.495311754114e+02 1.656811351395e+00 0.0 
1.656811351395e+00 -3.572819248474e+02 0.0 
0.0 0.0 -1.516439300777e+02 
-1.596782348992e+02 1.958475001554e+00 0.0 
1.958475001554e+00 -3.782429983870e+02 0.0 
0.0 0.0 -1.609763699859e+02 
-7.262090441139e+01 8.851181765612e+00 0.0 
8.851181765612e+00 -1.225023952182e+02 0.0 
0.0 0.0 -5.421508409327e+01 
-5.918669356158e+01 2.519216070479e+01 0.0 
2.519216070479e+01 -1.058104014411e+02 0.0 
0.0 0.0 -4.708319887506e+01 
-5.615049181662e+01 2.214190133875e+01 0.0 
2.214190133875e+01 -8.849265052186e+01 0.0 
0.0 0.0 -4.061440345594e+01 
-4.824351496546e+01 2.000245856349e+01 0.0 
2.000245856349e+01 -6.439727683046e+01 0.0 
0.0 0.0 -3.074997423802e+01 
-1.407521397951e+02 1.550423697743e+01 0.0 
1.550423697743e+01 -3.252993766969e+02 0.0 
0.0 0.0 -1.394154549476e+02 
-1.357965368196e+02 1.471621000864e+01 0.0 
1.471621000864e+01 -3.108323664520e+02 0.0 
0.0 0.0 -1.335886709815e+02 
-1.345243650969e+02 9.639569057955e-02 0.0 
9.639569057955e-02 -3.219055698439e+02 0.0 
0.0 0.0 -1.364896095180e+02 
-1.278649407841e+02 -1.830153396601e-01 0.0 
-1.830153396601e-01 -3.022242446293e+02 0.0 
0.0 0.0 -1.279307132828e+02 
-8.280919777334e+01 6.702691847923e-01 0.0 
6.702691847923e-01 -1.718458631767e+02 0.0 
0.0 0.0 -7.599651828502e+01 
-8.215488945573e+01 5.207774739420e-01 0.0 
5.207774739420e-01 -1.707564309655e+02 0.0 
0.0 0.0 -7.547339612638e+01 
-8.946938720826e+01 6.094284583973e-01 0.0 
6.094284583973e-01 -1.887297225543e+02 0.0 
0.0 0.0 -8.305973292878e+01 
-8.829947287893e+01 5.410261363476e-01 0.0 
5.410261363476e-01 -1.862634510038e+02 0.0 
0.0 0.0 -8.196887716483e+01 
-9.553438630300e+01 6.258043459919e-01 0.0 
6.258043459919e-01 -2.043754908450e+02 0.0 
0.0 0.0 -8.957296314441e+01 
-9.441019828746e+01 5.298634016890e-01 0.0 
5.298634016890e-01 -2.015902282737e+02 0.0 
0.0 0.0 -8.840012796836e+01 
-1.016952806704e+02 8.464184994464e-01 0.0 
8.464184994464e-01 -2.200791238246e+02 0.0 
0.0 0.0 -9.613232134848e+01 
-1.437638163948e+02 1.576110343286e+01 0.0 
1.576110343286e+01 -3.396370367048e+02 0.0 
0.0 0.0 -1.446202559299e+02 
-4.560308912543e+01 2.621758812761e+01 0.0 
2.621758812761e+01 -6.022889730526e+01 0.0 
0.0 0.0 -2.809138492469e+01 
-7.890044908339e+01 7.591401915082e+00 0.0 
7.591401915082e+00 -1.407306185235e+02 0.0 
0.0 0.0 -6.330709929058e+01 
-1.446933694524e+02 1.285420078212e+01 0.0 
1.285420078212e+01 -3.492157401783e+02 0.0 
0.0 0.0 -1.477727328892e+02 
-1.388489779867e+02 1.180049065744e+01 0.0 
1.180049065744e+01 -3.397380545870e+02 0.0 
0.0 0.0 -1.431761097721e+02 
-7.304614981725e+01 1.259297576622e+01 0.0 
1.259297576622e+01 -1.235329611858e+02 0.0 
0.0 0.0 -5.362291236608e+01 
-6.490292910250e+01 1.132238259965e+01 0.0 
1.132238259965e+01 -1.031980138424e+02 0.0 
0.0 0.0 -4.495714070548e+01 
-1.515008004146e+02 5.214851878767e+00 0.0 
5.214851878767e+00 -3.656842116907e+02 0.0 
0.0 0.0 -1.547555036316e+02 
-6.405651859239e+01 2.445778936381e+01 0.0 
2.445778936381e+01 -1.529998356550e+02 0.0 
0.0 0.0 -6.326591114654e+01 
-1.392676004942e+02 7.076232358744e+00 0.0 
7.076232358744e+00 -3.210098134317e+02 0.0 
0.0 0.0 -1.376832241778e+02 
-6.047109906000e+01 2.730187025923e+01 0.0 
2.730187025923e+01 -8.596760857608e+01 0.0 
0.0 0.0 -4.474681838297e+01 
-3.985835038174e+01 2.566301654216e+01 0.0 
2.566301654216e+01 -1.010599106745e+02 0.0 
0.0 0.0 -4.380280984596e+01 
-6.893358967007e+01 2.439041057642e+01 0.0 
2.439041057642e+01 -1.571644628907e+02 0.0 
0.0 0.0 -6.690520019190e+01 
-8.053939696264e+01 1.343500984149e+01 0.0 
1.343500984149e+01 -1.443038300529e+02 0.0 
0.0 0.0 -6.264521853119e+01 
-6.351625333208e+01 2.246942394314e+01 0.0 
2.246942394314e+01 -1.111131257809e+02 0.0 
0.0 0.0 -4.968548081872e+01 
-6.072397016166e+01 1.944963354537e+01 0.0 
1.944963354537e+01 -9.710173467032e+01 0.0 
0.0 0.0 -4.401600563848e+01 
-1.152393731468e+02 5.132983907721e+00 0.0 
5.132983907721e+00 -2.992727489763e+02 0.0 
0.0 0.0 -1.244719291654e+02 
-3.168668406979e+01 -5.984639060798e+00 0.0 
-5.984639060798e+00 -5.321472855320e+01 0.0 
0.0 0.0 -2.162263720782e+01 
-4.604113886450e+01 2.981470177759e+01 0.0 
2.981470177759e+01 -8.120535528840e+01 0.0 
0.0 0.0 -3.379692611689e+01 
-1.028293168996e+02 9.776330695531e-01 0.0 
9.776330695531e-01 -2.224069191637e+02 0.0 
0.0 0.0 -9.717087081898e+01 
-4.414121035112e+01 3.061613109061e+01 0.0 
3.061613109061e+01 -6.155005971131e+01 0.0 
0.0 0.0 -2.729806280863e+01 
-1.312188638457e+02 -3.268598014440e-02 0.0 
-3.268598014440e-02 -3.124268072075e+02 0.0 
0.0 0.0 -1.324235939131e+02 
-6.575299933352e+01 2.201061823209e+01 0.0 
2.201061823209e+01 -1.672007034592e+02 0.0 
0.0 0.0 -6.808865765201e+01 
-8.640496719807e+01 1.726432874132e+01 0.0 
1.726432874132e+01 -1.690854257156e+02 0.0 
0.0 0.0 -7.269761079179e+01 
-4.898450420407e+01 2.879413038603e+01 0.0 
2.879413038603e+01 -9.986558025409e+01 0.0 
0.0 0.0 -4.047690135951e+01 
-6.135226060177e+01 2.661705303224e+01 0.0 
2.661705303224e+01 -1.234843053258e+02 0.0 
0.0 0.0 -5.356122306321e+01 
-9.787469345630e+01 1.091052823607e+01 0.0 
1.091052823607e+01 -1.994525194704e+02 0.0 
0.0 0.0 -8.857559223141e+01 
-9.080057577488e+01 8.170277506000e+00 0.0 
8.170277506000e+00 -1.786182068804e+02 0.0 
0.0 0.0 -8.019633964121e+01 
-8.827035938066e+01 8.460940476657e+00 0.0 
8.460940476657e+00 -1.693516561409e+02 0.0 
0.0 0.0 -7.606322316676e+01 
-6.753963637878e+01 1.891809569374e+01 0.0 
1.891809569374e+01 -1.802074970473e+02 0.0 
0.0 0.0 -7.276493107926e+01 
-6.484734240354e+01 1.668379790928e+01 0.0 
1.668379790928e+01 -1.053181135792e+02 0.0 
0.0 0.0 -4.695903916328e+01 
-5.520976399341e+01 1.524025644436e+01 0.0 
1.524025644436e+01 -8.114775366573e+01 0.0 
0.0 0.0 -3.719966826717e+01 
-9.560437167209e+01 1.361534559385e+01 0.0 
1.361534559385e+01 -1.931848639024e+02 0.0 
0.0 0.0 -8.480086739814e+01 
-1.222633704607e+02 8.874947224131e+00 0.0 
8.874947224131e+00 -2.675963783926e+02 0.0 
0.0 0.0 -1.165579246560e+02 
-1.257665454074e+02 9.871804097551e+00 0.0 
9.871804097551e+00 -2.778117399050e+02 0.0 
0.0 0.0 -1.206734855937e+02 
-1.323386441178e+02 1.053776334882e+01 0.0 
1.053776334882e+01 -2.973103594241e+02 0.0 
0.0 0.0 -1.284947010626e+02 
-1.292886249619e+02 1.089090235822e+01 0.0 
1.089090235822e+01 -2.881685364985e+02 0.0 
0.0 0.0 -1.248371484381e+02 
-1.224816378653e+02 1.028409637070e+01 0.0 
1.028409637070e+01 -2.682047399430e+02 0.0 
0.0 0.0 -1.168059133425e+02 
-1.260154774142e+02 1.131696825801e+01 0.0 
1.131696825801e+01 -2.786722746633e+02 0.0 
0.0 0.0 -1.210063256233e+02 
-1.326765452421e+02 1.182885437336e+01 0.0 
1.182885437336e+01 -2.985608727583e+02 0.0 
0.0 0.0 -1.289712254001e+02 
-1.297835832064e+02 1.227676829120e+01 0.0 
1.227676829120e+01 -2.899091541540e+02 0.0 
0.0 0.0 -1.255078212081e+02 
-1.376025428977e+02 1.303349071749e+01 0.0 
1.303349071749e+01 -3.131451193480e+02 0.0 
0.0 0.0 -1.348242986737e+02 
-1.331365307759e+02 1.328199196390e+01 0.0 
1.328199196390e+01 -3.006022393135e+02 0.0 
0.0 0.0 -1.297216310268e+02 
-1.259269179672e+02 1.264416857357e+01 0.0 
1.264416857357e+01 -2.799552707545e+02 0.0 
0.0 0.0 -1.213646566165e+02 
-1.290769875677e+02 1.347990909710e+01 0.0 
1.347990909710e+01 -2.903339700532e+02 0.0 
0.0 0.0 -1.254232872863e+02 
-1.358726874116e+02 1.407002126041e+01 0.0 
1.407002126041e+01 -3.093968327304e+02 0.0 
0.0 0.0 -1.331808560426e+02 
-1.220304464351e+02 1.309133168681e+01 0.0 
1.309133168681e+01 -2.702407219986e+02 0.0 
0.0 0.0 -1.172813505301e+02 
-1.496503218129e+02 1.379737301366e+01 0.0 
1.379737301366e+01 -3.571355612965e+02 0.0 
0.0 0.0 -1.516357649328e+02 
-7.543989410909e+01 2.258381720491e+01 0.0 
2.258381720491e+01 -1.762446986775e+02 0.0 
0.0 0.0 -7.539001233614e+01 
-3.166831535080e+01 1.371080775792e+01 0.0 
1.371080775792e+01 -1.177663480915e+02 0.0 
0.0 0.0 -4.714513237038e+01 
-3.771919496494e+01 3.202625489727e+01 0.0 
3.202625489727e+01 -8.915182324364e+01 0.0 
0.0 0.0 -3.834528574066e+01 
-8.987199816499e+01 1.574748982845e+01 0.0 
1.574748982845e+01 -1.769073292947e+02 0.0 
0.0 0.0 -7.636024390822e+01 
-1.437595786154e+02 1.326634997433e+01 0.0 
1.326634997433e+01 -3.321506471358e+02 0.0 
0.0 0.0 -1.423730677253e+02 
-1.425721208954e+02 1.142036332239e+01 0.0 
1.142036332239e+01 -3.288955726664e+02 0.0 
0.0 0.0 -1.410403080686e+02 
-5.534964908517e+01 2.163162613744e+01 0.0 
2.163162613744e+01 -1.484485165907e+02 0.0 
0.0 0.0 -5.728467901799e+01 
-1.483627261549e+02 1.638417452584e+01 0.0 
1.638417452584e+01 -3.456795457394e+02 0.0 
0.0 0.0 -1.478126815683e+02 
-9.189326155541e+01 1.000498292602e+01 0.0 
1.000498292602e+01 -1.797101707493e+02 0.0 
0.0 0.0 -8.023989876970e+01 
-4.195432389361e+01 1.592188353306e+01 0.0 
1.592188353306e+01 -1.328525375894e+02 0.0 
0.0 0.0 -4.901982347054e+01 
-1.502677119021e+02 1.674002527776e+01 0.0 
1.674002527776e+01 -3.518707085203e+02 0.0 
0.0 0.0 -1.502415261267e+02 
-1.189164622806e+02 9.243301545689e+00 0.0 
9.243301545689e+00 -2.577519241030e+02 0.0 
0.0 0.0 -1.126005159151e+02 
-1.154228244247e+02 9.682338126570e+00 0.0 
9.682338126570e+00 -2.478435790000e+02 0.0 
0.0 0.0 -1.085799210274e+02 
-1.118281508053e+02 8.618224897629e+00 0.0 
8.618224897629e+00 -2.375289249879e+02 0.0 
0.0 0.0 -1.044071227380e+02 
-1.418383252754e+02 9.815961553651e+00 0.0 
9.815961553651e+00 -3.272511776228e+02 0.0 
0.0 0.0 -1.403268508695e+02 
-9.959606656045e+01 4.345650255966e+00 0.0 
4.345650255966e+00 -2.074567587670e+02 0.0 
0.0 0.0 -9.171584759823e+01 
-1.541996527379e+02 1.561707248614e+01 0.0 
1.561707248614e+01 -3.639411555251e+02 0.0 
0.0 0.0 -1.550422424789e+02 
-9.541317601815e+01 1.199135510093e+01 0.0 
1.199135510093e+01 -2.580697112946e+02 0.0 
0.0 0.0 -1.099018737147e+02 
-9.270268529783e+01 1.382188786358e+01 0.0 
1.382188786358e+01 -2.473219164740e+02 0.0 
0.0 0.0 -1.057068468349e+02 
-8.615306978380e+01 1.496279921730e+01 0.0 
1.496279921730e+01 -2.298848208868e+02 0.0 
0.0 0.0 -9.840214018088e+01 
-1.224789451410e+02 1.171752896143e+01 0.0 
1.171752896143e+01 -2.690478605016e+02 0.0 
0.0 0.0 -1.170580416928e+02 
-1.571575678300e+02 1.245726769588e+01 0.0 
1.245726769588e+01 -3.734026867628e+02 0.0 
0.0 0.0 -1.587680763778e+02 
-1.490163826831e+02 1.135937891148e+01 0.0 
1.135937891148e+01 -3.595870181034e+02 0.0 
0.0 0.0 -1.521810202359e+02 
-1.497592428036e+02 1.045771478887e+01 0.0 
1.045771478887e+01 -3.616629879143e+02 0.0 
0.0 0.0 -1.530266692154e+02 
-1.400677722025e+02 1.028404316162e+01 0.0 
1.028404316162e+01 -3.442030082748e+02 0.0 
0.0 0.0 -1.448812341432e+02 
-1.588976650039e+02 1.044395113658e+01 0.0 
1.044395113658e+01 -3.779418010332e+02 0.0 
0.0 0.0 -1.606518398111e+02 
-1.460810366892e+02 1.484846098565e+01 0.0 
1.484846098565e+01 -3.385159512136e+02 0.0 
0.0 0.0 -1.449790963708e+02 
-1.470459998893e+02 1.551318189238e+01 0.0 
1.551318189238e+01 -3.415155409182e+02 0.0 
0.0 0.0 -1.461684622422e+02 
-5.875959591113e+01 -1.334904621361e+01 0.0 
-1.334904621361e+01 -1.523650466147e+02 0.0 
0.0 0.0 -6.014455105669e+01 
-5.980076818867e+01 -9.724190229641e+00 0.0 
-9.724190229641e+00 -1.645549062944e+02 0.0 
0.0 0.0 -6.467674037695e+01 
-6.524429893554e+01 -8.012112560641e+00 0.0 
-8.012112560641e+00 -1.798180723911e+02 0.0 
0.0 0.0 -7.256415705488e+01 
-6.119000254250e+01 -5.281867531959e+00 0.0 
-5.281867531959e+00 -1.750255960846e+02 0.0 
0.0 0.0 -6.867781591453e+01 
-5.553280142071e+01 -7.059341077904e+00 0.0 
-7.059341077904e+00 -1.605483465382e+02 0.0 
0.0 0.0 -6.140925326496e+01 
-5.706976576012e+01 -1.703335823931e+00 0.0 
-1.703335823931e+00 -1.697231312786e+02 0.0 
0.0 0.0 -6.501098551393e+01 
-6.315088692302e+01 -5.454122474894e-01 0.0 
-5.454122474894e-01 -1.836020015620e+02 0.0 
0.0 0.0 -7.210534203724e+01 
-5.314239782491e+01 2.880901414076e+00 0.0 
2.880901414076e+00 -1.635132324726e+02 0.0 
0.0 0.0 -6.151080762267e+01 
-1.287613215267e+02 1.446094309929e+01 0.0 
1.446094309929e+01 -2.919466228292e+02 0.0 
0.0 0.0 -1.258123833068e+02 
-1.606057656072e+02 8.253914301562e+00 0.0 
8.253914301562e+00 -3.818534888197e+02 0.0 
0.0 0.0 -1.623377763281e+02 
-1.055969128546e+02 8.103784781926e-02 0.0 
8.103784781926e-02 -2.703938424864e+02 0.0 
0.0 0.0 -1.131738296382e+02 
-1.011153303880e+02 2.777315863414e-03 0.0 
2.777315863414e-03 -2.621381885791e+02 0.0 
0.0 0.0 -1.107273485730e+02 
-9.493800979676e+01 -2.508838683338e+00 0.0 
-2.508838683338e+00 -2.438940643861e+02 0.0 
0.0 0.0 -1.035825263318e+02 
-9.366763401793e+01 -5.955504541797e+00 0.0 
-5.955504541797e+00 -2.017394247418e+02 0.0 
0.0 0.0 -8.319790290177e+01 
-9.672714173375e+01 -5.839220124788e+00 0.0 
-5.839220124788e+00 -2.138235874752e+02 0.0 
0.0 0.0 -8.852910740373e+01 
-1.032997648503e+02 -4.492784997300e+00 0.0 
-4.492784997300e+00 -2.335598268917e+02 0.0 
0.0 0.0 -9.684115726091e+01 
-9.006702942351e+01 -5.761999829907e+00 0.0 
-5.761999829907e+00 -1.895596519945e+02 0.0 
0.0 0.0 -7.782508733170e+01 
-1.096492428864e+02 1.586654962975e+01 0.0 
1.586654962975e+01 -2.644775170754e+02 0.0 
0.0 0.0 -1.118291345186e+02 
-1.611335932386e+02 7.273982079837e+00 0.0 
7.273982079837e+00 -3.828772171652e+02 0.0 
0.0 0.0 -1.628032431211e+02 
-9.544234944787e+01 5.143208998385e+00 0.0 
5.143208998385e+00 -2.624098100882e+02 0.0 
0.0 0.0 -1.121392056164e+02 
-9.233033104404e+01 -7.035338357083e+00 0.0 
-7.035338357083e+00 -2.059249610072e+02 0.0 
0.0 0.0 -8.577088272725e+01 
-8.022987841866e+01 3.484289982264e+00 0.0 
3.484289982264e+00 -1.561984516100e+02 0.0 
0.0 0.0 -7.052849900860e+01 
-8.767723504919e+01 4.487476867332e+00 0.0 
4.487476867332e+00 -1.741594797756e+02 0.0 
0.0 0.0 -7.815101444744e+01 
-8.865337170490e+01 5.426075360445e+00 0.0 
5.426075360445e+00 -1.752862862103e+02 0.0 
0.0 0.0 -7.878189737457e+01 
-9.573070160339e+01 5.781170592695e+00 0.0 
5.781170592695e+00 -1.940177421955e+02 0.0 
0.0 0.0 -8.652453313968e+01 
-8.768422516396e+01 3.981546697707e+00 0.0 
3.981546697707e+00 -1.752399623864e+02 0.0 
0.0 0.0 -7.847725626512e+01 
-1.079232370079e+02 -3.117858381747e+00 0.0 
-3.117858381747e+00 -2.377776436720e+02 0.0 
0.0 0.0 -9.947371185707e+01 
-1.112163914594e+02 -2.333903026150e+00 0.0 
-2.333903026150e+00 -2.459643562971e+02 0.0 
0.0 0.0 -1.033052334514e+02 
-1.083423617246e+02 -2.207723887406e+00 0.0 
-2.207723887406e+00 -2.345618495823e+02 0.0 
0.0 0.0 -9.857249116677e+01 
-1.143357688079e+02 -1.608059207644e+00 0.0 
-1.608059207644e+00 -2.542467696429e+02 0.0 
0.0 0.0 -1.070934779614e+02 
-1.113282420913e+02 -1.389689863562e+00 0.0 
-1.389689863562e+00 -2.425324039204e+02 0.0 
0.0 0.0 -1.022075159839e+02 
-1.054673593133e+02 -1.820944432631e+00 0.0 
-1.820944432631e+00 -2.241542982370e+02 0.0 
0.0 0.0 -9.428826746765e+01 
-1.171908241988e+02 -9.362345002857e-01 0.0 
-9.362345002857e-01 -2.622523320770e+02 0.0 
0.0 0.0 -1.107063131882e+02 
-1.136709835310e+02 -8.045664538614e-01 0.0 
-8.045664538614e-01 -2.493500718184e+02 0.0 
0.0 0.0 -1.052331955159e+02 
-7.876416634162e+01 2.369616422032e+00 0.0 
2.369616422032e+00 -1.549990370581e+02 0.0 
0.0 0.0 -6.972896101992e+01 
-4.560278949666e+01 -2.377762468728e+01 0.0 
-2.377762468728e+01 -4.730865359661e+01 0.0 
0.0 0.0 -2.783593501754e+01 
-4.272180991113e+01 -2.375501366953e+01 0.0 
-2.375501366953e+01 -5.900675756539e+01 0.0 
0.0 0.0 -2.671705996364e+01 
-3.772949582213e+01 -1.489544449451e+01 0.0 
-1.489544449451e+01 -4.469429337021e+01 0.0 
0.0 0.0 -1.942727732990e+01 
-4.510891787933e+01 -2.104914510767e+01 0.0 
-2.104914510767e+01 -7.239130746508e+01 0.0 
0.0 0.0 -2.874588850547e+01 
-4.269221592694e+01 -2.366113281424e+01 0.0 
-2.366113281424e+01 -8.866512743531e+01 0.0 
0.0 0.0 -3.570687674252e+01 
-4.656111951499e+01 -2.053148254929e+01 0.0 
-2.053148254929e+01 -9.937843175819e+01 0.0 
0.0 0.0 -3.813890475637e+01 
-4.215305011918e+01 -1.986373561335e+01 0.0 
-1.986373561335e+01 -1.084699439608e+02 0.0 
0.0 0.0 -4.080072243678e+01 
-4.142230479675e+01 -2.760429672513e+01 0.0 
-2.760429672513e+01 -8.234347214889e+01 0.0 
0.0 0.0 -3.716934046973e+01 
-2.384397228370e+01 -5.761184518557e+00 0.0 
-5.761184518557e+00 -2.017101105267e+01 0.0 
0.0 0.0 -1.148258906819e+01 
-3.170029922491e+01 -8.870007084758e+00 0.0 
-8.870007084758e+00 -3.904889405082e+01 0.0 
0.0 0.0 -1.719327065494e+01 
-1.817099842822e+01 -2.485372682238e+00 0.0 
-2.485372682238e+00 -1.835669472948e+01 0.0 
0.0 0.0 -9.534576974085e+00 
-2.649731459094e+01 -5.274827976379e+00 0.0 
-5.274827976379e+00 -3.601193124690e+01 0.0 
0.0 0.0 -1.542730008265e+01 
-3.895926719213e+01 -1.070626581544e+01 0.0 
-1.070626581544e+01 -5.910183657313e+01 0.0 
0.0 0.0 -2.426005975378e+01 
-4.176914624121e+01 -9.069071614912e+00 0.0 
-9.069071614912e+00 -8.148918394875e+01 0.0 
0.0 0.0 -3.324147889216e+01 
-1.622830718077e+02 9.360172033386e-01 0.0 
9.360172033386e-01 -3.824473366928e+02 0.0 
0.0 0.0 -1.630191225502e+02 
-9.435358330740e+01 -9.224397539250e-01 0.0 
-9.224397539250e-01 -1.924486803848e+02 0.0 
0.0 0.0 -8.082441035548e+01 
-9.005625043457e+01 -1.917925803490e+00 0.0 
-1.917925803490e+00 -1.827517027991e+02 0.0 
0.0 0.0 -7.644897914929e+01 
-8.134294181931e+01 -2.007566909620e+00 0.0 
-2.007566909620e+00 -1.629443622841e+02 0.0 
0.0 0.0 -6.788314790898e+01 
-8.595128160657e+01 -2.860748739784e+00 0.0 
-2.860748739784e+00 -1.741092685068e+02 0.0 
0.0 0.0 -7.237639506869e+01 
-9.743432172471e+01 -1.720470160901e+00 0.0 
-1.720470160901e+00 -2.007893022714e+02 0.0 
0.0 0.0 -8.427097942595e+01 
-7.592382047263e+01 -1.021784966650e+00 0.0 
-1.021784966650e+00 -1.517174802198e+02 0.0 
0.0 0.0 -6.318287205038e+01 
-7.170054627235e+01 -1.994697319657e+00 0.0 
-1.994697319657e+00 -1.445726903147e+02 0.0 
0.0 0.0 -5.985205323042e+01 
-1.089332004242e+01 6.623595422002e-02 0.0 
6.623595422002e-02 -1.719128706017e+01 0.0 
0.0 0.0 -6.356195337641e+00 
-1.298270239298e+01 -3.717471966856e-02 0.0 
-3.717471966856e-02 -3.359666543433e+01 0.0 
0.0 0.0 -1.128613604082e+01 
-1.272013427373e+01 -1.594986730212e-01 0.0 
-1.594986730212e-01 -3.191389063189e+01 0.0 
0.0 0.0 -1.073410791120e+01 
-1.588202606629e+01 -3.195020193064e-01 0.0 
-3.195020193064e-01 -5.028338519907e+01 0.0 
0.0 0.0 -1.779401641157e+01 
-1.624446131354e+01 -3.645138506719e-01 0.0 
-3.645138506719e-01 -5.003635279936e+01 0.0 
0.0 0.0 -1.779610866818e+01 
-1.349199947071e+01 -1.701203020695e-01 0.0 
-1.701203020695e-01 -3.402711682435e+01 0.0 
0.0 0.0 -1.154313159542e+01 
-1.371567159393e+01 -3.666547979712e-01 0.0 
-3.666547979712e-01 -3.405117588670e+01 0.0 
0.0 0.0 -1.169466362763e+01 
-1.110209534823e+01 -9.868457802719e-02 0.0 
-9.868457802719e-02 -1.702861565645e+01 0.0 
0.0 0.0 -6.364211823924e+00 
-1.407867784929e+01 -4.217518013013e-01 0.0 
-4.217518013013e-01 -3.380594222758e+01 0.0 
0.0 0.0 -1.189420302046e+01 
-1.776242195296e+01 -9.741822164383e-01 0.0 
-9.741822164383e-01 -5.095333770709e+01 0.0 
0.0 0.0 -1.854640305575e+01 
-1.119333462472e+01 -1.344953309212e-01 0.0 
-1.344953309212e-01 -1.643164984509e+01 0.0 
0.0 0.0 -6.291271880882e+00 
-1.115305134026e+02 4.779367885116e-01 0.0 
4.779367885116e-01 -2.463698408230e+02 0.0 
0.0 0.0 -1.069701062677e+02 
-1.155157964699e+02 8.650792456616e-01 0.0 
8.650792456616e-01 -2.572425442431e+02 0.0 
0.0 0.0 -1.114275022139e+02 
-1.614807834649e+02 5.298883437539e+00 0.0 
5.298883437539e+00 -3.834500802477e+02 0.0 
0.0 0.0 -1.630792591138e+02 
-7.833598011672e+01 1.657875804267e+00 0.0 
1.657875804267e+00 -1.566323360657e+02 0.0 
0.0 0.0 -7.009049485471e+01 
-1.338679240923e+01 -1.995195353619e-01 0.0 
-1.995195353619e-01 -1.689211755160e+01 0.0 
0.0 0.0 -8.399544334815e+00 
-1.371494196211e+02 2.690800985328e+00 0.0 
2.690800985328e+00 -3.171002621308e+02 0.0 
0.0 0.0 -1.358749045256e+02 
-1.390322635087e+02 4.841517712603e+00 0.0 
4.841517712603e+00 -3.214188632123e+02 0.0 
0.0 0.0 -1.377353380163e+02 
-1.389092996834e+02 4.066958042351e+00 0.0 
4.066958042351e+00 -3.213566395703e+02 0.0 
0.0 0.0 -1.376797817761e+02 
-1.483529177424e+02 1.357805715026e-01 0.0 
1.357805715026e-01 -3.520515670661e+02 0.0 
0.0 0.0 -1.497213454425e+02 
-1.528517303430e+02 3.700122660174e-01 0.0 
3.700122660174e-01 -3.617627875902e+02 0.0 
0.0 0.0 -1.539843553800e+02 
-1.370289475711e+02 1.501234802167e+00 0.0 
1.501234802167e+00 -3.173209481144e+02 0.0 
0.0 0.0 -1.359049687056e+02 
-6.267696927855e+01 -1.035261104490e+01 0.0 
-1.035261104490e+01 -1.313832014870e+02 0.0 
0.0 0.0 -5.414239972007e+01 
-1.360257266715e+02 1.151992147931e+01 0.0 
1.151992147931e+01 -3.076130857173e+02 0.0 
0.0 0.0 -1.326916437166e+02 
-1.251576646441e+02 2.746400294025e+00 0.0 
2.746400294025e+00 -2.823766869116e+02 0.0 
0.0 0.0 -1.218603054667e+02 
-4.151737977418e+01 2.266874401023e+01 0.0 
2.266874401023e+01 -1.186398028167e+02 0.0 
0.0 0.0 -4.358908117445e+01 
-6.060617712163e+01 -1.486961948350e+01 0.0 
-1.486961948350e+01 -1.312477417110e+02 0.0 
0.0 0.0 -5.462869046427e+01 
-1.251595694917e+02 -4.458429247810e-01 0.0 
-4.458429247810e-01 -2.933680408795e+02 0.0 
0.0 0.0 -1.240147621906e+02 
-1.144392091896e+02 -1.742764631108e+00 0.0 
-1.742764631108e+00 -2.722300089136e+02 0.0 
0.0 0.0 -1.138628863106e+02 
-1.394484109648e+02 7.187431558408e-01 0.0 
7.187431558408e-01 -3.347612444402e+02 0.0 
0.0 0.0 -1.418628966215e+02 
-1.191585075558e+02 -1.320740726187e+00 0.0 
-1.320740726187e+00 -2.768153441818e+02 0.0 
0.0 0.0 -1.165168381446e+02 
-1.310322928727e+02 7.300902547194e-01 0.0 
7.300902547194e-01 -3.185741212993e+02 0.0 
0.0 0.0 -1.344371737410e+02 
-1.497866595814e+02 9.105608694364e+00 0.0 
9.105608694364e+00 -3.626445751723e+02 0.0 
0.0 0.0 -1.533293704261e+02 
-2.950421101103e+01 -1.891085628595e+00 0.0 
-1.891085628595e+00 -7.963338611635e+01 0.0 
0.0 0.0 -3.095675801228e+01 
-9.914419637080e+01 2.558492188802e+00 0.0 
2.558492188802e+00 -2.098892817573e+02 0.0 
0.0 0.0 -9.231004343842e+01 
-9.532073884329e+01 1.399132409546e+00 0.0 
1.399132409546e+00 -2.022739222355e+02 0.0 
0.0 0.0 -8.887839832363e+01 
-1.142805371682e+02 2.710712349252e+00 0.0 
2.710712349252e+00 -2.515394777344e+02 0.0 
0.0 0.0 -1.093460044708e+02 
-6.621338570178e+01 -6.199493738533e+00 0.0 
-6.199493738533e+00 -1.359827581411e+02 0.0 
0.0 0.0 -5.474121277493e+01 
-1.018699857259e+02 -2.691089098194e+00 0.0 
-2.691089098194e+00 -2.152549784894e+02 0.0 
0.0 0.0 -9.017329258313e+01 
-3.855855338073e+01 -6.102725009566e+00 0.0 
-6.102725009566e+00 -8.558812515988e+01 0.0 
0.0 0.0 -3.347405545391e+01 
-1.433430479042e+02 1.608589635856e+01 0.0 
1.608589635856e+01 -3.348980420652e+02 0.0 
0.0 0.0 -1.430723269908e+02 
-9.001395369709e+01 1.297993467525e+01 0.0 
1.297993467525e+01 -1.731660985846e+02 0.0 
0.0 0.0 -7.611632440302e+01 
-9.359872855710e+01 -4.713681145105e+00 0.0 
-4.713681145105e+00 -2.333447849786e+02 0.0 
0.0 0.0 -9.880145499236e+01 
-8.572792345387e+01 -7.045191953446e+00 0.0 
-7.045191953446e+00 -1.813702205143e+02 0.0 
0.0 0.0 -7.475053708598e+01 
-6.751565270226e+01 -1.154498475212e+01 0.0 
-1.154498475212e+01 -1.444317081370e+02 0.0 
0.0 0.0 -6.002576085952e+01 
-5.813404525501e+01 -1.582052549611e+01 0.0 
-1.582052549611e+01 -1.262680796871e+02 0.0 
0.0 0.0 -5.199484854157e+01 
-8.063315914367e+01 2.176532098220e+01 0.0 
2.176532098220e+01 -1.826703225363e+02 0.0 
0.0 0.0 -7.836945389809e+01 
-9.486958210177e+01 -6.449422787017e+00 0.0 
-6.449422787017e+00 -2.179542082744e+02 0.0 
0.0 0.0 -9.116348115825e+01 
-1.219565561472e+02 1.498189878381e+00 0.0 
1.498189878381e+00 -3.052290850555e+02 0.0 
0.0 0.0 -1.277163502412e+02 
-1.180108150621e+02 2.458814762997e+00 0.0 
2.458814762997e+00 -2.623949847329e+02 0.0 
0.0 0.0 -1.137217399385e+02 
-1.261895189928e+01 -1.356938449279e-01 0.0 
-1.356938449279e-01 -1.885926567023e+01 0.0 
0.0 0.0 -8.111743772461e+00 
-1.261554884791e+02 2.582215452704e+00 0.0 
2.582215452704e+00 -3.158049489756e+02 0.0 
0.0 0.0 -1.321881312364e+02 
-1.071025384807e+02 -2.818463835247e+00 0.0 
-2.818463835247e+00 -2.565598406994e+02 0.0 
0.0 0.0 -1.067542049849e+02 
-1.033154507956e+02 4.163213178740e+00 0.0 
4.163213178740e+00 -2.181582909385e+02 0.0 
0.0 0.0 -9.604212252023e+01 
-1.195929080307e+02 1.099406828301e+01 0.0 
1.099406828301e+01 -3.043875909721e+02 0.0 
0.0 0.0 -1.270142192067e+02 
-5.036415814306e+01 -1.899551874806e+01 0.0 
-1.899551874806e+01 -1.012334626966e+02 0.0 
0.0 0.0 -3.937542896574e+01 
-1.178983054226e+02 4.329731247771e+00 0.0 
4.329731247771e+00 -2.594437232428e+02 0.0 
0.0 0.0 -1.128026085996e+02 
-1.315488079662e+02 7.709903674745e+00 0.0 
7.709903674745e+00 -2.966980083657e+02 0.0 
0.0 0.0 -1.280740448996e+02 
-9.599919278805e+01 4.666229705565e+00 0.0 
4.666229705565e+00 -1.969269631484e+02 0.0 
0.0 0.0 -8.747784678094e+01 
-2.706413585431e+01 -3.769539692266e+00 0.0 
-3.769539692266e+00 -6.508039522731e+01 0.0 
0.0 0.0 -2.481005408663e+01 
-9.110079138786e+01 2.032794866686e+00 0.0 
2.032794866686e+00 -1.896025178299e+02 0.0 
0.0 0.0 -8.381099276533e+01 
-1.453108060756e+02 5.752707555248e+00 0.0 
5.752707555248e+00 -3.545500307781e+02 0.0 
0.0 0.0 -1.495582510561e+02 
-1.186191762151e+02 7.892117258890e+00 0.0 
7.892117258890e+00 -2.574430357602e+02 0.0 
0.0 0.0 -1.124186635926e+02 
-5.976463879907e+01 -5.002783030223e+00 0.0 
-5.002783030223e+00 -1.237985779759e+02 0.0 
0.0 0.0 -4.944128128288e+01 
-8.364936267714e+01 5.488787561675e+00 0.0 
5.488787561675e+00 -2.359684928862e+02 0.0 
0.0 0.0 -1.005475093709e+02 
-8.857312668004e+01 1.845879782493e+01 0.0 
1.845879782493e+01 -1.821812563091e+02 0.0 
0.0 0.0 -7.809454866578e+01 
-7.760309028945e+01 5.706073868134e+00 0.0 
5.706073868134e+00 -1.404983858821e+02 0.0 
0.0 0.0 -6.384401747191e+01 
-1.282814709555e+02 3.344578557029e+00 0.0 
3.344578557029e+00 -2.910916312591e+02 0.0 
0.0 0.0 -1.254119306644e+02 
-8.915292989549e+01 1.753067128241e+01 0.0 
1.753067128241e+01 -2.250251478872e+02 0.0 
0.0 0.0 -9.621031839172e+01 
-1.293757490188e+02 9.570888359049e+00 0.0 
9.570888359049e+00 -3.248229302977e+02 0.0 
0.0 0.0 -1.358596037949e+02 
-9.934646391299e+01 7.264187414979e+00 0.0 
7.264187414979e+00 -2.705048164620e+02 0.0 
0.0 0.0 -1.148362786471e+02 
-6.482772046426e+01 -3.963677430043e+00 0.0 
-3.963677430043e+00 -1.324641042958e+02 0.0 
0.0 0.0 -5.359331558630e+01 
-1.356148703857e+02 2.230608887443e+00 0.0 
2.230608887443e+00 -3.322547058145e+02 0.0 
0.0 0.0 -1.399608728600e+02 
-8.176328310210e+01 1.350717299596e+01 0.0 
1.350717299596e+01 -2.239118253309e+02 0.0 
0.0 0.0 -9.503594750062e+01 
-1.250361765072e+02 4.836762906327e+00 0.0 
4.836762906327e+00 -2.795582698166e+02 0.0 
0.0 0.0 -1.209783338971e+02 
-1.161903253702e+02 1.560757517165e+01 0.0 
1.560757517165e+01 -2.677910053827e+02 0.0 
0.0 0.0 -1.147943992259e+02 
-6.844997968034e+01 8.277389290616e+00 0.0 
8.277389290616e+00 -1.967873933474e+02 0.0 
0.0 0.0 -7.841954718183e+01 
-1.216732963927e+02 6.315724394136e+00 0.0 
6.315724394136e+00 -2.678949133293e+02 0.0 
0.0 0.0 -1.164704629166e+02 
-8.910437101722e+01 -2.964862258985e+00 0.0 
-2.964862258985e+00 -2.358936912676e+02 0.0 
0.0 0.0 -1.002171982395e+02 
-1.249446068328e+02 1.198651547424e+01 0.0 
1.198651547424e+01 -3.124342206976e+02 0.0 
0.0 0.0 -1.308136482591e+02 
-8.707487923686e+01 1.406797847130e+01 0.0 
1.406797847130e+01 -1.647411115010e+02 0.0 
0.0 0.0 -7.169606751890e+01 
-1.024537147322e+02 1.647177177091e+01 0.0 
1.647177177091e+01 -2.290310686020e+02 0.0 
0.0 0.0 -9.844437988877e+01 
-1.109527408459e+02 1.343506015890e+01 0.0 
1.343506015890e+01 -2.413142529994e+02 0.0 
0.0 0.0 -1.052800981536e+02 
-9.681640613747e+01 1.775825361222e+01 0.0 
1.775825361222e+01 -2.271589193084e+02 0.0 
0.0 0.0 -9.637414295335e+01 
-1.227247333384e+02 -5.940885240564e-01 0.0 
-5.940885240564e-01 -2.823200176980e+02 0.0 
0.0 0.0 -1.193376134916e+02 
-1.309232328618e+02 2.392540778233e+00 0.0 
2.392540778233e+00 -3.240690506955e+02 0.0 
0.0 0.0 -1.360976850672e+02 
-3.972955055154e+01 -6.539623403737e+00 0.0 
-6.539623403737e+00 -1.330050319966e+02 0.0 
0.0 0.0 -5.038881944804e+01 
-6.766109538347e+01 2.522567017894e+01 0.0 
2.522567017894e+01 -1.436514380977e+02 0.0 
0.0 0.0 -6.196659802123e+01 
-1.037543268005e+02 5.278281795764e+00 0.0 
5.278281795764e+00 -2.173572486138e+02 0.0 
0.0 0.0 -9.593347262429e+01 
-1.308216599692e+02 1.550502469926e+01 0.0 
1.550502469926e+01 -3.093016076698e+02 0.0 
0.0 0.0 -1.316369802917e+02 
-1.319778704364e+02 5.236266279261e+00 0.0 
5.236266279261e+00 -2.994878619001e+02 0.0 
0.0 0.0 -1.290397197010e+02 
-8.241136468944e+01 1.910121915060e+01 0.0 
1.910121915060e+01 -1.617307256099e+02 0.0 
0.0 0.0 -6.982696432745e+01 
-1.310497783170e+02 1.443813323596e+00 0.0 
1.443813323596e+00 -3.214107284681e+02 0.0 
0.0 0.0 -1.353381520355e+02 
-1.283421571917e+02 6.840770086782e+00 0.0 
6.840770086782e+00 -2.875221053709e+02 0.0 
0.0 0.0 -1.243592787688e+02 
-9.930944459811e+01 -5.391407970320e+00 0.0 
-5.391407970320e+00 -2.257125640808e+02 0.0 
0.0 0.0 -9.378631581055e+01 
-3.759852838833e+01 -7.275485708617e-01 0.0 
-7.275485708617e-01 -9.118127531164e+01 0.0 
0.0 0.0 -3.637462502862e+01 
-3.913481584571e+01 2.620937824188e+01 0.0 
2.620937824188e+01 -1.050613460694e+02 0.0 
0.0 0.0 -4.019771232540e+01 
-5.592724742122e+01 8.317592447617e+00 0.0 
8.317592447617e+00 -1.687304527762e+02 0.0 
0.0 0.0 -6.388723904941e+01 
-8.447378322101e+01 1.729896435736e+01 0.0 
1.729896435736e+01 -2.186908383151e+02 0.0 
0.0 0.0 -9.349675694660e+01 
-1.054222450940e+02 -3.833515720853e+00 0.0 
-3.833515720853e+00 -2.451618355994e+02 0.0 
0.0 0.0 -1.018482010723e+02 
-1.363418429996e+02 1.029264741455e+01 0.0 
1.029264741455e+01 -3.097222252956e+02 0.0 
0.0 0.0 -1.334192204886e+02 
-1.355486911032e+02 1.376156026870e+00 0.0 
1.376156026870e+00 -3.294834167920e+02 0.0 
0.0 0.0 -1.391096323686e+02 
-1.205380766409e+02 4.640655532955e+00 0.0 
4.640655532955e+00 -3.086126768037e+02 0.0 
0.0 0.0 -1.283452260334e+02 
-4.371177528523e+01 3.285291868012e+01 0.0 
3.285291868012e+01 -4.376819984217e+01 0.0 
0.0 0.0 -2.374754391488e+01 
-8.172655877444e+01 7.202678583788e+00 0.0 
7.202678583788e+00 -1.499987170484e+02 0.0 
0.0 0.0 -6.770172621753e+01 
-1.400079436430e+02 1.289393138025e+00 0.0 
1.289393138025e+00 -3.376628679223e+02 0.0 
0.0 0.0 -1.429012434696e+02 
-8.764919447533e+01 3.648592323536e+00 0.0 
3.648592323536e+00 -2.446664613014e+02 0.0 
0.0 0.0 -1.047463132056e+02 
-1.294709882625e+02 1.134982936198e+01 0.0 
1.134982936198e+01 -3.224664272524e+02 0.0 
0.0 0.0 -1.351812246544e+02 
-1.077564524111e+02 -1.110206119612e+00 0.0 
-1.110206119612e+00 -2.303034285115e+02 0.0 
0.0 0.0 -9.708320007941e+01 
-1.437836151963e+02 1.612069937946e+01 0.0 
1.612069937946e+01 -3.375148103540e+02 0.0 
0.0 0.0 -1.439895276651e+02 
-6.888215963940e+01 9.901983220958e+00 0.0 
9.901983220958e+00 -1.129195028884e+02 0.0 
0.0 0.0 -4.923411122995e+01 
-1.444426250133e+02 1.158698340648e+00 0.0 
1.158698340648e+00 -3.461729426609e+02 0.0 
0.0 0.0 -1.467846703023e+02 
-1.197338598701e+02 6.743391233026e+00 0.0 
6.743391233026e+00 -3.081979757933e+02 0.0 
0.0 0.0 -1.281474751098e+02 
-5.956816654588e+01 2.351069525753e+01 0.0 
2.351069525753e+01 -1.503530948174e+02 0.0 
0.0 0.0 -6.006717346665e+01 
-7.508425400685e+01 2.512774074286e-01 0.0 
2.512774074286e-01 -1.536708442388e+02 0.0 
0.0 0.0 -6.822652947369e+01 
-1.549553828757e+02 1.422846116794e+00 0.0 
1.422846116794e+00 -3.679120862683e+02 0.0 
0.0 0.0 -1.564602407432e+02 
-1.297817888811e+02 7.581819226529e+00 0.0 
7.581819226529e+00 -3.267245375570e+02 0.0 
0.0 0.0 -1.365518979314e+02 
-1.025434743631e+02 1.678179152638e+01 0.0 
1.678179152638e+01 -2.459315467518e+02 0.0 
0.0 0.0 -1.040201943120e+02 
-8.536284726811e+01 5.487292536791e-01 0.0 
5.487292536791e-01 -2.365584501652e+02 0.0 
0.0 0.0 -1.006895341616e+02 
-7.135040229249e+01 6.169582779657e+00 0.0 
6.169582779657e+00 -1.216557461826e+02 0.0 
0.0 0.0 -5.489565843443e+01 
-1.091007869884e+02 -3.147576667364e+00 0.0 
-3.147576667364e+00 -2.529799566509e+02 0.0 
0.0 0.0 -1.052884376417e+02 
-1.060665817006e+02 1.572826467255e+01 0.0 
1.572826467255e+01 -2.365663233456e+02 0.0 
0.0 0.0 -1.021895892881e+02 
-1.413343384809e+02 8.909351485953e+00 0.0 
8.909351485953e+00 -3.263494305528e+02 0.0 
0.0 0.0 -1.399051307101e+02 
-1.343368946652e+02 8.918715463847e+00 0.0 
8.918715463847e+00 -3.344967127195e+02 0.0 
0.0 0.0 -1.402500822154e+02 
-1.082663917141e+02 9.092186835322e+00 0.0 
9.092186835322e+00 -2.275624299259e+02 0.0 
0.0 0.0 -1.003486464920e+02 
-1.069691756404e+02 -3.695940604931e+00 0.0 
-3.695940604931e+00 -2.413877193575e+02 0.0 
0.0 0.0 -1.004195614793e+02 
-1.058507270729e+02 1.374166913137e+01 0.0 
1.374166913137e+01 -2.721469859206e+02 0.0 
0.0 0.0 -1.140939071355e+02 
-1.678438956363e+01 -5.369408098777e-01 0.0 
-5.369408098777e-01 -5.026638074038e+01 0.0 
0.0 0.0 -1.802941563102e+01 
-7.585079972372e+01 8.094715118274e+00 0.0 
8.094715118274e+00 -1.316358212765e+02 0.0 
0.0 0.0 -5.887234761885e+01 
-1.104298908982e+02 -2.947626718063e+00 0.0 
-2.947626718063e+00 -2.493180538308e+02 0.0 
0.0 0.0 -1.042701570614e+02 
-5.936633151300e+01 3.551524576230e+00 0.0 
3.551524576230e+00 -1.768094783836e+02 0.0 
0.0 0.0 -6.797832680572e+01 
-9.056393790660e+01 -7.748107278129e-02 0.0 
-7.748107278129e-02 -2.452005778661e+02 0.0 
0.0 0.0 -1.045703676349e+02 
-1.445106799412e+02 1.410038756848e+01 0.0 
1.410038756848e+01 -3.464750356048e+02 0.0 
0.0 0.0 -1.468957146638e+02 
-1.137326956033e+02 -2.241736048610e+00 0.0 
-2.241736048610e+00 -2.573888469547e+02 0.0 
0.0 0.0 -1.080574194024e+02 
-6.556779825039e+01 4.080560459544e+00 0.0 
4.080560459544e+00 -1.907919425798e+02 0.0 
0.0 0.0 -7.527968781548e+01 
-1.168747143906e+02 -1.594411096067e+00 0.0 
-1.594411096067e+00 -2.655393308051e+02 0.0 
0.0 0.0 -1.118004924722e+02 
-6.412316069549e+01 7.289788713258e+00 0.0 
7.289788713258e+00 -1.027875697820e+02 0.0 
0.0 0.0 -4.537681470439e+01 
-1.118529585668e+02 1.019025946834e+01 0.0 
1.019025946834e+01 -2.380667562192e+02 0.0 
0.0 0.0 -1.045759144358e+02 
-1.198616769672e+02 -1.009887524442e+00 0.0 
-1.009887524442e+00 -2.737406545718e+02 0.0 
0.0 0.0 -1.155259097244e+02 
-1.130291484766e+02 1.537082474349e+01 0.0 
1.537082474349e+01 -2.560942134160e+02 0.0 
0.0 0.0 -1.103370085678e+02 
-1.954520338702e+01 -1.335666724454e+00 0.0 
-1.335666724454e+00 -5.266668135455e+01 0.0 
0.0 0.0 -1.953765036185e+01 
-1.047800843875e+02 1.597954769275e+01 0.0 
1.597954769275e+01 -2.572891030761e+02 0.0 
0.0 0.0 -1.084425439200e+02 
-1.434956532055e+02 2.486919258563e-01 0.0 
2.486919258563e-01 -3.416752622955e+02 0.0 
0.0 0.0 -1.451512746503e+02 
-7.462167276759e+01 -1.232723342580e+01 0.0 
-1.232723342580e+01 -1.707959524444e+02 0.0 
0.0 0.0 -7.153446991388e+01 
-9.615904973331e+01 -4.123716325699e-02 0.0 
-4.123716325699e-02 -2.536960249318e+02 0.0 
0.0 0.0 -1.079920163321e+02 
-1.189779677547e+02 1.073788730097e+01 0.0 
1.073788730097e+01 -2.584056939153e+02 0.0 
0.0 0.0 -1.128150985010e+02 
-5.588687079363e+01 9.495586551883e+00 0.0 
9.495586551883e+00 -8.310775871671e+01 0.0 
0.0 0.0 -3.643961475772e+01 
-1.028817171559e+02 2.122968787530e+00 0.0 
2.122968787530e+00 -2.716477405601e+02 0.0 
0.0 0.0 -1.146027435441e+02 
-1.206116282376e+02 1.520480287945e+01 0.0 
1.520480287945e+01 -2.756239568331e+02 0.0 
0.0 0.0 -1.184706755212e+02 
-1.076497786508e+02 1.501169282191e+01 0.0 
1.501169282191e+01 -2.683295725066e+02 0.0 
0.0 0.0 -1.127135994247e+02 
-9.069816823562e+01 1.580306245355e+01 0.0 
1.580306245355e+01 -2.363031075099e+02 0.0 
0.0 0.0 -1.010417059292e+02 
-1.111169328081e+02 3.498536709197e+00 0.0 
3.498536709197e+00 -2.899588126349e+02 0.0 
0.0 0.0 -1.207914239223e+02 
-6.083093482333e+01 1.311007196540e+01 0.0 
1.311007196540e+01 -9.375772699996e+01 0.0 
0.0 0.0 -4.174749998059e+01 
-5.891778729893e+01 -1.192875917968e+01 0.0 
-1.192875917968e+01 -1.234140816765e+02 0.0 
0.0 0.0 -5.113957299515e+01 
-5.034497122645e+01 -1.115631979091e+01 0.0 
-1.115631979091e+01 -1.024836538166e+02 0.0 
0.0 0.0 -4.225722738444e+01 
-6.908855512263e+01 3.873201729949e-01 0.0 
3.873201729949e-01 -1.978788228155e+02 0.0 
0.0 0.0 -7.962587158070e+01 
-1.248415218309e+02 1.480821817633e+01 0.0 
1.480821817633e+01 -2.837513032160e+02 0.0 
0.0 0.0 -1.221778475141e+02 
-2.118707963568e+01 -8.588850704867e-01 0.0 
-8.588850704867e-01 -6.678577178213e+01 0.0 
0.0 0.0 -2.524581140456e+01 
-1.187496401736e+02 1.221441027091e+01 0.0 
1.221441027091e+01 -2.594525510618e+02 0.0 
0.0 0.0 -1.130606573706e+02 
-4.091670241112e+01 -9.144722564188e+00 0.0 
-9.144722564188e+00 -7.450858936559e+01 0.0 
0.0 0.0 -3.047083699974e+01 
-6.703865205355e+01 -3.969424835361e+00 0.0 
-3.969424835361e+00 -1.895709743993e+02 0.0 
0.0 0.0 -7.625018502533e+01 
-1.211247664178e+02 1.393433411878e+01 0.0 
1.393433411878e+01 -2.986299541455e+02 0.0 
0.0 0.0 -1.255264161690e+02 
-9.678804091206e+01 4.391915499241e-01 0.0 
4.391915499241e-01 -2.078608404969e+02 0.0 
0.0 0.0 -9.099466442269e+01 
-7.110481299361e+01 -6.440601225921e+00 0.0 
-6.440601225921e+00 -1.950629305081e+02 0.0 
0.0 0.0 -8.048388284256e+01 
-5.205908011520e+01 -8.687736774036e-01 0.0 
-8.687736774036e-01 -1.114508416206e+02 0.0 
0.0 0.0 -4.545845299695e+01 
-6.938883632371e+01 -9.876048370374e+00 0.0 
-9.876048370374e+00 -1.846566694472e+02 0.0 
0.0 0.0 -7.632773227704e+01 
-9.727856814849e+01 1.461991752956e+01 0.0 
1.461991752956e+01 -2.540588110931e+02 0.0 
0.0 0.0 -1.076431974788e+02 
-7.371652732978e+01 -1.091570135396e+01 0.0 
-1.091570135396e+01 -1.902072750996e+02 0.0 
0.0 0.0 -7.940768000934e+01 
-7.189560021579e+01 -1.291379102791e+01 0.0 
-1.291379102791e+01 -1.778198991089e+02 0.0 
0.0 0.0 -7.422505540814e+01 
-1.321043219291e+02 3.070667864289e+00 0.0 
3.070667864289e+00 -3.022571707439e+02 0.0 
0.0 0.0 -1.299084478019e+02 
-7.715206537583e+01 -1.170676816105e+01 0.0 
-1.170676816105e+01 -1.836387415500e+02 0.0 
0.0 0.0 -7.705808404947e+01 
-1.384553442493e+02 9.425145241860e-01 0.0 
9.425145241860e-01 -3.206963055273e+02 0.0 
0.0 0.0 -1.373454949330e+02 
-1.630011558921e+02 4.564810174605e-01 0.0 
4.564810174605e-01 -3.834945690147e+02 0.0 
0.0 0.0 -1.635487174720e+02 
-8.108737049846e+01 2.910793380721e-01 0.0 
2.910793380721e-01 -1.686853929948e+02 0.0 
0.0 0.0 -7.453182904799e+01 
-4.625281081264e+01 1.151082443651e+01 0.0 
1.151082443651e+01 -6.198339819100e+01 0.0 
0.0 0.0 -2.854279414643e+01 
-7.549762914317e+01 2.199841975989e+00 0.0 
2.199841975989e+00 -1.114925941028e+02 0.0 
0.0 0.0 -5.697681553699e+01 
-5.384593462578e+01 1.883515387987e+01 0.0 
1.883515387987e+01 -7.722073581572e+01 0.0 
0.0 0.0 -3.625693205632e+01 
-6.723334940841e+01 -1.405294959347e+01 0.0 
-1.405294959347e+01 -1.510752630046e+02 0.0 
0.0 0.0 -6.312475289199e+01 
-1.180836662868e+02 1.358414292698e+01 0.0 
1.358414292698e+01 -2.610823445147e+02 0.0 
0.0 0.0 -1.133498032405e+02 
-8.152551252601e+01 2.844072807065e-01 0.0 
2.844072807065e-01 -1.694457317708e+02 0.0 
0.0 0.0 -7.489137328906e+01 
-6.372119133192e+01 -1.336984714487e+01 0.0 
-1.336984714487e+01 -1.372918853202e+02 0.0 
0.0 0.0 -5.724605111709e+01 
-1.400231421568e+02 1.395215667940e+01 0.0 
1.395215667940e+01 -3.205655409512e+02 0.0 
0.0 0.0 -1.377766049324e+02 
-1.523890381367e+02 1.649118161554e+01 0.0 
1.649118161554e+01 -3.584563711148e+02 0.0 
0.0 0.0 -1.528536227754e+02 
-1.079025953914e+02 7.162030023692e-01 0.0 
7.162030023692e-01 -2.366601499508e+02 0.0 
0.0 0.0 -1.029688236027e+02 
-1.339266401453e+02 1.069716155997e+01 0.0 
1.069716155997e+01 -3.318389876550e+02 0.0 
0.0 0.0 -1.393296883401e+02 
-1.115051430814e+02 1.415236013281e+01 0.0 
1.415236013281e+01 -2.796932231230e+02 0.0 
0.0 0.0 -1.171868520223e+02 
-1.251667538074e+02 5.304295294475e-01 0.0 
5.304295294475e-01 -2.838780192157e+02 0.0 
0.0 0.0 -1.223134319069e+02 
-7.539226166026e+01 9.688703527431e-01 0.0 
9.688703527431e-01 -1.523545717795e+02 0.0 
0.0 0.0 -6.792405003194e+01 
-2.290513484021e+01 -3.294588675141e+00 0.0 
-3.294588675141e+00 -3.425675090554e+01 0.0 
0.0 0.0 -1.486585337480e+01 
-1.256273236467e+02 -2.158981106382e-01 0.0 
-2.158981106382e-01 -2.923040461162e+02 0.0 
0.0 0.0 -1.237142756866e+02 
-4.034882853536e+01 1.476318665675e+01 0.0 
1.476318665675e+01 -4.328924355390e+01 0.0 
0.0 0.0 -2.192767215326e+01 
-4.666312025737e+01 2.362484245552e+01 0.0 
2.362484245552e+01 -6.115521649084e+01 0.0 
0.0 0.0 -2.914217563611e+01 
-4.524451789395e+01 2.851920055061e+01 0.0 
2.851920055061e+01 -6.031640166703e+01 0.0 
0.0 0.0 -2.757980452747e+01 
-6.870051615255e+01 -2.927456041522e+00 0.0 
-2.927456041522e+00 -1.391647439594e+02 0.0 
0.0 0.0 -5.706306816426e+01 
-4.224922450049e+01 -1.513556816135e+01 0.0 
-1.513556816135e+01 -6.117033422843e+01 0.0 
0.0 0.0 -2.458594627521e+01 
-4.156042454886e+01 2.069718232642e+01 0.0 
2.069718232642e+01 -3.737763750488e+01 0.0 
0.0 0.0 -2.025942703348e+01 
-1.477814933762e+02 1.222863003891e+01 0.0 
1.222863003891e+01 -3.562274776074e+02 0.0 
0.0 0.0 -1.508026912951e+02 
-8.452387614799e+01 2.424420439889e+00 0.0 
2.424420439889e+00 -1.707004170491e+02 0.0 
0.0 0.0 -7.616728795911e+01 
-1.258342009395e+02 1.450760256308e+01 0.0 
1.450760256308e+01 -3.057052947226e+02 0.0 
0.0 0.0 -1.290618486986e+02 
-4.274577748677e+01 2.789063433561e+01 0.0 
2.789063433561e+01 -3.846051121407e+01 0.0 
0.0 0.0 -2.038260243745e+01 
-1.347836616749e+02 7.452106801633e+00 0.0 
7.452106801633e+00 -3.068996941663e+02 0.0 
0.0 0.0 -1.321050067524e+02 
-1.451836256778e+02 1.515218861108e+01 0.0 
1.515218861108e+01 -3.454645642792e+02 0.0 
0.0 0.0 -1.467944569871e+02 
-1.630213870418e+02 3.609486487194e+00 0.0 
3.609486487194e+00 -3.856597480156e+02 0.0 
0.0 0.0 -1.642043405172e+02 
-1.351357150714e+02 1.466720045488e+01 0.0 
1.466720045488e+01 -3.247844060318e+02 0.0 
0.0 0.0 -1.375760363310e+02 
-4.307338062098e+01 3.243180587926e+01 0.0 
3.243180587926e+01 -6.410660241606e+01 0.0 
0.0 0.0 -2.775037991634e+01 
-9.362603109943e+01 5.035060756718e+00 0.0 
5.035060756718e+00 -1.893333827330e+02 0.0 
0.0 0.0 -8.448782414972e+01 
-1.425160343165e+02 1.598697910783e+01 0.0 
1.598697910783e+01 -3.316719418111e+02 0.0 
0.0 0.0 -1.418563928383e+02 
-1.140940009620e+02 1.100127062013e+00 0.0 
1.100127062013e+00 -2.524761963849e+02 0.0 
0.0 0.0 -1.095710592041e+02 
-1.641363901275e+02 2.259035311082e+00 0.0 
2.259035311082e+00 -3.869109401402e+02 0.0 
0.0 0.0 -1.649141990803e+02 
-8.484603428120e+01 3.088366414473e+00 0.0 
3.088366414473e+00 -1.689778595671e+02 0.0 
0.0 0.0 -7.574716815450e+01 
-1.326938967567e+02 1.947623348608e+00 0.0 
1.947623348608e+00 -3.045305912813e+02 0.0 
0.0 0.0 -1.307673464114e+02 
-3.967575668161e+01 -1.444716452111e+01 0.0 
-1.444716452111e+01 -1.213086955165e+02 0.0 
0.0 0.0 -4.524831373594e+01 
-1.326133862561e+02 9.544033205618e-01 0.0 
9.544033205618e-01 -3.045717501827e+02 0.0 
0.0 0.0 -1.307555409316e+02 
-1.253131802399e+02 1.385736336110e+01 0.0 
1.385736336110e+01 -2.810520716779e+02 0.0 
0.0 0.0 -1.215095755753e+02 
-9.178207542312e+01 9.121426017667e-01 0.0 
9.121426017667e-01 -1.936968910618e+02 0.0 
0.0 0.0 -8.524368994547e+01 
-9.452934336355e+01 6.262586113111e+00 0.0 
6.262586113111e+00 -1.900486049140e+02 0.0 
0.0 0.0 -8.497338448326e+01 
-1.570712787481e+02 6.247317139991e-01 0.0 
6.247317139991e-01 -3.709300719328e+02 0.0 
0.0 0.0 -1.580004052043e+02 
-1.384131614423e+02 1.249563665649e+01 0.0 
1.249563665649e+01 -3.158675893815e+02 0.0 
0.0 0.0 -1.358842252471e+02 
-4.155842620394e+01 3.420182803683e+01 0.0 
3.420182803683e+01 -7.073154316526e+01 0.0 
0.0 0.0 -3.137192508562e+01 
-1.078112184966e+02 8.333355353609e-01 0.0 
8.333355353609e-01 -2.356308258277e+02 0.0 
0.0 0.0 -1.026326132973e+02 
-8.587587935452e+01 -3.773374549892e+00 0.0 
-3.773374549892e+00 -1.748683382758e+02 0.0 
0.0 0.0 -7.223505005940e+01 
-4.062105015012e+01 -1.980015023762e+01 0.0 
-1.980015023762e+01 -1.051301421410e+02 0.0 
0.0 0.0 -4.506227291748e+01 
-1.536401994270e+02 4.407005558400e+00 0.0 
4.407005558400e+00 -3.690261356930e+02 0.0 
0.0 0.0 -1.563999005360e+02 
-1.320492036710e+02 1.418061354077e+01 0.0 
1.418061354077e+01 -2.999179051649e+02 0.0 
0.0 0.0 -1.291901326508e+02 
-1.561337151384e+02 1.014640695112e+00 0.0 
1.014640695112e+00 -3.699123032068e+02 0.0 
0.0 0.0 -1.574138055036e+02 
-1.537354535125e+01 -2.194768370599e-01 0.0 
-2.194768370599e-01 -4.955081124614e+01 0.0 
0.0 0.0 -1.739736547429e+01 
-1.637960530254e+01 -7.712085282360e-01 0.0 
-7.712085282360e-01 -3.118224506838e+01 0.0 
0.0 0.0 -1.277299598745e+01 
-1.539969278375e+02 6.300084485706e+00 0.0 
6.300084485706e+00 -3.705653409242e+02 0.0 
0.0 0.0 -1.569686806285e+02 
-1.419803651054e+02 1.515665466569e+01 0.0 
1.515665466569e+01 -3.274574339385e+02 0.0 
0.0 0.0 -1.404313397132e+02 
-4.559848628990e+01 -1.712805512082e+01 0.0 
-1.712805512082e+01 -1.190034213437e+02 0.0 
0.0 0.0 -4.384081049124e+01 
-1.408788474935e+02 6.447091753183e+00 0.0 
6.447091753183e+00 -3.263164700506e+02 0.0 
0.0 0.0 -1.397585952632e+02 
-4.298054963015e+01 3.674723839142e+01 0.0 
3.674723839142e+01 -7.648497379334e+01 0.0 
0.0 0.0 -3.677028965224e+01 
-7.538239953129e+01 1.087367001342e+00 0.0 
1.087367001342e+00 -1.504012428388e+02 0.0 
0.0 0.0 -6.733509271102e+01 
-1.447265578602e+01 -3.462814254775e-01 0.0 
-3.462814254775e-01 -3.220554443774e+01 0.0 
0.0 0.0 -1.177312261607e+01 
-1.641283931674e+02 1.952528514240e+00 0.0 
1.952528514240e+00 -3.864727625559e+02 0.0 
0.0 0.0 -1.647803467170e+02 
-1.340146527154e+02 4.752206902512e+00 0.0 
4.752206902512e+00 -3.067656653010e+02 0.0 
0.0 0.0 -1.318340954049e+02 
-9.378527991282e+01 -2.524508346151e+00 0.0 
-2.524508346151e+00 -1.920129010147e+02 0.0 
0.0 0.0 -8.032955506713e+01 
-8.230920949447e+01 4.777885470093e+00 0.0 
4.777885470093e+00 -1.586270129926e+02 0.0 
0.0 0.0 -7.181882189107e+01 
-6.061552328709e+01 -1.903993225808e+00 0.0 
-1.903993225808e+00 -1.255105479677e+02 0.0 
0.0 0.0 -5.145137121183e+01 
-1.378709340718e+02 1.554945324314e+01 0.0 
1.554945324314e+01 -3.254789752240e+02 0.0 
0.0 0.0 -1.386049727887e+02 
-3.286078168797e+01 -7.065386404736e+00 0.0 
-7.065386404736e+00 -4.969754381749e+01 0.0 
0.0 0.0 -2.064191826616e+01 
-1.341844217235e+02 3.676810679170e+00 0.0 
3.676810679170e+00 -3.080208549838e+02 0.0 
0.0 0.0 -1.322615830122e+02 
-1.531678562904e+02 8.411831480369e+00 0.0 
8.411831480369e+00 -3.690446432148e+02 0.0 
0.0 0.0 -1.562637498515e+02 
-1.376610319339e+02 9.707425598120e+00 0.0 
9.707425598120e+00 -3.141972959311e+02 0.0 
0.0 0.0 -1.351574983595e+02 
-1.577443882137e+02 1.443030955689e+01 0.0 
1.443030955689e+01 -3.727520044173e+02 0.0 
0.0 0.0 -1.587489177893e+02 
-4.684156484886e+01 1.214505362331e+01 0.0 
1.214505362331e+01 -1.156926865324e+02 0.0 
0.0 0.0 -5.029155176768e+01 
-1.469013440554e+02 1.579766595328e+01 0.0 
1.579766595328e+01 -3.477459119892e+02 0.0 
0.0 0.0 -1.479941768134e+02 
-1.426989680238e+02 9.346152118525e+00 0.0 
9.346152118525e+00 -3.497604614089e+02 0.0 
0.0 0.0 -1.473378288298e+02 
-7.480521475181e+01 3.001344361810e-01 0.0 
3.001344361810e-01 -1.521016048644e+02 0.0 
0.0 0.0 -6.767204588487e+01 
-1.378169701027e+02 1.099858186501e+01 0.0 
1.099858186501e+01 -3.140664028618e+02 0.0 
0.0 0.0 -1.351650118894e+02 
-7.731429534688e+01 -2.864629711728e+00 0.0 
-2.864629711728e+00 -1.555364202001e+02 0.0 
0.0 0.0 -6.434640534989e+01 
-2.378822981397e+01 -2.138803724079e+00 0.0 
-2.138803724079e+00 -6.607883633650e+01 0.0 
0.0 0.0 -2.496542217697e+01 
-1.391151000723e+02 5.573493437838e-01 0.0 
5.573493437838e-01 -3.227192438239e+02 0.0 
0.0 0.0 -1.381503031689e+02 
-1.114904204458e+01 -4.136692644049e-02 0.0 
-4.136692644049e-02 -1.410843197126e+01 0.0 
0.0 0.0 -5.741041225806e+00 
-7.371913856929e+01 1.579170489683e-01 0.0 
1.579170489683e-01 -1.509757649241e+02 0.0 
0.0 0.0 -6.700847104803e+01 
-1.650124523791e+02 3.366298626043e-02 0.0 
3.366298626043e-02 -3.876471561627e+02 0.0 
0.0 0.0 -1.653978825625e+02 
-1.971015933572e+01 -1.130552018719e+00 0.0 
-1.130552018719e+00 -6.293155627800e+01 0.0 
0.0 0.0 -2.357246011974e+01 
-8.707633200206e+01 4.364488729123e-01 0.0 
4.364488729123e-01 -1.831322366815e+02 0.0 
0.0 0.0 -8.066257060506e+01 
-1.417407375053e+02 1.471056928295e+01 0.0 
1.471056928295e+01 -3.259133442656e+02 0.0 
0.0 0.0 -1.398962245313e+02 
-1.095523583018e+02 -5.276876554379e-01 0.0 
-5.276876554379e-01 -2.354080536535e+02 0.0 
0.0 0.0 -9.928124943797e+01 
-1.210838950887e+02 1.020884372715e+00 0.0 
1.020884372715e+00 -2.724549846294e+02 0.0 
0.0 0.0 -1.176616639154e+02 
-4.736968260475e+01 -1.934806672446e+01 0.0 
-1.934806672446e+01 -8.232135905542e+01 0.0 
0.0 0.0 -3.233464190613e+01 
-7.878357201745e+01 -6.812783467421e+00 0.0 
-6.812783467421e+00 -1.074681609031e+02 0.0 
0.0 0.0 -5.662104279388e+01 
-1.009094546648e+02 6.598539555743e-01 0.0 
6.598539555743e-01 -2.182696307468e+02 0.0 
0.0 0.0 -9.535372562349e+01 
-1.474741454619e+02 1.466813705631e+01 0.0 
1.466813705631e+01 -3.514597652848e+02 0.0 
0.0 0.0 -1.492801732240e+02 
-1.369765391451e+02 8.255127290998e+00 0.0 
8.255127290998e+00 -3.130908204861e+02 0.0 
0.0 0.0 -1.346202078894e+02 
-9.592744055451e+01 8.112983130021e-01 0.0 
8.112983130021e-01 -2.045638113740e+02 0.0 
0.0 0.0 -8.974737557854e+01 
-3.869892193886e+01 3.014553268515e+01 0.0 
3.014553268515e+01 -9.147236835878e+01 0.0 
0.0 0.0 -3.682527508527e+01 
-1.376996629862e+02 1.454919861423e+01 0.0 
1.454919861423e+01 -3.153264464258e+02 0.0 
0.0 0.0 -1.355078328236e+02 
-9.971701144576e+01 -2.218916798689e+00 0.0 
-2.218916798689e+00 -2.075830253641e+02 0.0 
0.0 0.0 -8.712098007619e+01 
-1.378272332800e+02 1.585027277715e+01 0.0 
1.585027277715e+01 -3.211536228907e+02 0.0 
0.0 0.0 -1.372942568512e+02 
-1.417474512209e+02 1.130223794788e+01 0.0 
1.130223794788e+01 -3.461646421093e+02 0.0 
0.0 0.0 -1.459736279991e+02 
-5.204068037282e+01 3.705153527386e+01 0.0 
3.705153527386e+01 -6.002378981289e+01 0.0 
0.0 0.0 -3.445382678141e+01 
-1.149383491934e+02 -4.115890147626e-01 0.0 
-4.115890147626e-01 -2.529735660658e+02 0.0 
0.0 0.0 -1.067995189047e+02 
-1.455892722521e+01 -1.462764625780e-01 0.0 
-1.462764625780e-01 -3.016465849802e+01 0.0 
0.0 0.0 -1.158960322686e+01 
-1.568983810378e+02 3.002919646732e+00 0.0 
3.002919646732e+00 -3.736766518804e+02 0.0 
0.0 0.0 -1.587725098755e+02 
-1.029686683733e+02 -1.459911625579e+00 0.0 
-1.459911625579e+00 -2.160873255292e+02 0.0 
0.0 0.0 -9.090288468676e+01 
-2.354563025418e+01 5.961465601842e+00 0.0 
5.961465601842e+00 -7.792665317229e+00 0.0 
0.0 0.0 -6.085497306156e+00 
-1.413570865434e+01 -1.663858751948e-03 0.0 
-1.663858751948e-03 -9.326575935920e+00 0.0 
0.0 0.0 -6.389282944820e+00 
-2.978675834348e+01 7.600418683215e+00 0.0 
7.600418683215e+00 -3.011438597681e+01 0.0 
0.0 0.0 -1.450319531462e+01 
-2.212213037478e+01 2.632728380453e-02 0.0 
2.632728380453e-02 -2.998446582423e+01 0.0 
0.0 0.0 -1.523197885970e+01 
-3.854846965880e+01 6.840544699425e+00 0.0 
6.840544699425e+00 -5.073223494090e+01 0.0 
0.0 0.0 -2.224041773320e+01 
-2.993518599738e+01 -2.100390891622e-02 0.0 
-2.100390891622e-02 -4.844028721336e+01 0.0 
0.0 0.0 -2.311264196322e+01 
-4.823087456370e+01 5.316932274996e+00 0.0 
5.316932274996e+00 -7.126066906076e+01 0.0 
0.0 0.0 -3.078930706542e+01 
-3.877572963541e+01 -2.152366261234e-02 0.0 
-2.152366261234e-02 -6.906212572740e+01 0.0 
0.0 0.0 -3.195135660884e+01 
-5.714327678653e+01 4.345872039174e+00 0.0 
4.345872039174e+00 -9.078786961018e+01 0.0 
0.0 0.0 -4.089307179020e+01 
-4.670295293424e+01 -1.947727917039e-02 0.0 
-1.947727917039e-02 -8.750295471011e+01 0.0 
0.0 0.0 -3.986177229330e+01 
-6.495710351158e+01 3.910092435389e+00 0.0 
3.910092435389e+00 -1.098469931214e+02 0.0 
0.0 0.0 -5.023747957799e+01 
-5.563462675559e+01 -5.845499143793e-02 0.0 
-5.845499143793e-02 -1.081463278189e+02 0.0 
0.0 0.0 -4.873428637236e+01 
-7.173700030642e+01 3.899459072751e+00 0.0 
3.899459072751e+00 -1.290214814055e+02 0.0 
0.0 0.0 -5.916983159746e+01 
-6.336810196206e+01 -1.365464710989e-01 0.0 
-1.365464710989e-01 -1.265637070451e+02 0.0 
0.0 0.0 -5.657954270215e+01 

TENSORS node_materi_strain_total float
2.469690166297e-03 -2.798385487572e-05 0.0 
-2.798385487572e-05 -9.290745950439e-04 0.0 
0.0 0.0 0.0 
-1.283422550414e-03 -1.345331162744e-05 0.0 
-1.345331162744e-05 7.680936416061e-03 0.0 
0.0 0.0 0.0 
-1.059734754200e-04 -5.072654966834e-05 0.0 
-5.072654966834e-05 6.021739442524e-03 0.0 
0.0 0.0 0.0 
-9.289690916697e-05 4.039930879377e-05 0.0 
4.039930879377e-05 1.086308552339e-02 0.0 
0.0 0.0 0.0 
1.911127684739e-03 -4.325353387513e-05 0.0 
-4.325353387513e-05 -5.191356472547e-04 0.0 
0.0 0.0 0.0 
1.265301107501e-03 -2.687370376118e-05 0.0 
-2.687370376118e-05 1.776996988249e-04 0.0 
0.0 0.0 0.0 
5.771713080965e-04 -5.081102459876e-05 0.0 
-5.081102459876e-05 8.325633053004e-04 0.0 
0.0 0.0 0.0 
-3.574108904033e-05 -6.923839541362e-05 0.0 
-6.923839541362e-05 1.505971083676e-03 0.0 
0.0 0.0 0.0 
-5.768007202584e-04 -9.584817986919e-05 0.0 
-9.584817986919e-05 2.071920943824e-03 0.0 
0.0 0.0 0.0 
-9.694232518619e-04 -1.055472749176e-04 0.0 
-1.055472749176e-04 2.531819861542e-03 0.0 
0.0 0.0 0.0 
-1.248527888696e-03 -1.141534150081e-04 0.0 
-1.141534150081e-04 2.914472277096e-03 0.0 
0.0 0.0 0.0 
-1.423889594315e-03 -1.225307288895e-04 0.0 
-1.225307288895e-04 3.227838529048e-03 0.0 
0.0 0.0 0.0 
-1.505215411294e-03 -1.244172335558e-04 0.0 
-1.244172335558e-04 3.491529640817e-03 0.0 
0.0 0.0 0.0 
-1.518844335010e-03 -1.184739091116e-04 0.0 
-1.184739091116e-04 3.726100428216e-03 0.0 
0.0 0.0 0.0 
-1.476348593117e-03 -9.974361347449e-05 0.0 
-9.974361347449e-05 3.945594080486e-03 0.0 
0.0 0.0 0.0 
-1.402436939615e-03 -6.979084973220e-05 0.0 
-6.979084973220e-05 4.166448806836e-03 0.0 
0.0 0.0 0.0 
-1.303001321996e-03 -7.337573979744e-05 0.0 
-7.337573979744e-05 4.382790894823e-03 0.0 
0.0 0.0 0.0 
-1.177077183235e-03 -8.208997881231e-05 0.0 
-8.208997881231e-05 4.605611753202e-03 0.0 
0.0 0.0 0.0 
-1.035294769093e-03 -6.924228848525e-05 0.0 
-6.924228848525e-05 4.858656395765e-03 0.0 
0.0 0.0 0.0 
-8.817256461123e-04 -5.873623621667e-05 0.0 
-5.873623621667e-05 5.116084581818e-03 0.0 
0.0 0.0 0.0 
-7.095863225110e-04 -4.940340649054e-05 0.0 
-4.940340649054e-05 5.380337657715e-03 0.0 
0.0 0.0 0.0 
-5.116919298614e-04 -4.440431395938e-05 0.0 
-4.440431395938e-05 5.643414358016e-03 0.0 
0.0 0.0 0.0 
-3.007323792837e-04 -4.003901548245e-05 0.0 
-4.003901548245e-05 5.881940516476e-03 0.0 
0.0 0.0 0.0 
-6.735895517692e-05 1.423605010438e-04 0.0 
1.423605010438e-04 1.086418886687e-02 0.0 
0.0 0.0 0.0 
-7.312588312240e-05 2.604695249020e-04 0.0 
2.604695249020e-04 1.083725553077e-02 0.0 
0.0 0.0 0.0 
-7.255977016718e-05 3.764582207124e-04 0.0 
3.764582207124e-04 1.082772996048e-02 0.0 
0.0 0.0 0.0 
-7.001754789830e-05 5.201027126771e-04 0.0 
5.201027126771e-04 1.079887107495e-02 0.0 
0.0 0.0 0.0 
-8.588510415027e-05 6.409447044860e-04 0.0 
6.409447044860e-04 1.075912558859e-02 0.0 
0.0 0.0 0.0 
-7.784315255466e-05 7.858438212697e-04 0.0 
7.858438212697e-04 1.072653430039e-02 0.0 
0.0 0.0 0.0 
-8.643752263619e-05 9.360649283351e-04 0.0 
9.360649283351e-04 1.066977372069e-02 0.0 
0.0 0.0 0.0 
-8.725733554119e-05 1.093571441531e-03 0.0 
1.093571441531e-03 1.059340225566e-02 0.0 
0.0 0.0 0.0 
-8.871355440062e-05 1.244141549518e-03 0.0 
1.244141549518e-03 1.052239653214e-02 0.0 
0.0 0.0 0.0 
-8.052617515120e-05 1.417063235921e-03 0.0 
1.417063235921e-03 1.042103321853e-02 0.0 
0.0 0.0 0.0 
-1.027582161983e-04 1.573541629936e-03 0.0 
1.573541629936e-03 1.030615816476e-02 0.0 
0.0 0.0 0.0 
-9.302101548070e-05 1.752759256310e-03 0.0 
1.752759256310e-03 1.018155755641e-02 0.0 
0.0 0.0 0.0 
-9.894099004352e-05 1.934138924479e-03 0.0 
1.934138924479e-03 1.002580583254e-02 0.0 
0.0 0.0 0.0 
-9.194830664294e-05 2.108878039897e-03 0.0 
2.108878039897e-03 9.848696420735e-03 0.0 
0.0 0.0 0.0 
-1.011632256227e-04 2.280382973491e-03 0.0 
2.280382973491e-03 9.652450028205e-03 0.0 
0.0 0.0 0.0 
-9.308205760783e-05 2.446075294675e-03 0.0 
2.446075294675e-03 9.420749900116e-03 0.0 
0.0 0.0 0.0 
-9.760634646668e-05 2.606932431634e-03 0.0 
2.606932431634e-03 9.171887741544e-03 0.0 
0.0 0.0 0.0 
-9.012937489846e-05 2.768889783066e-03 0.0 
2.768889783066e-03 8.894611372586e-03 0.0 
0.0 0.0 0.0 
-7.387275483628e-05 2.905737973119e-03 0.0 
2.905737973119e-03 8.599175030479e-03 0.0 
0.0 0.0 0.0 
-5.387086993828e-05 3.022503923241e-03 0.0 
3.022503923241e-03 8.281490805672e-03 0.0 
0.0 0.0 0.0 
-3.157803476905e-05 3.109748203436e-03 0.0 
3.109748203436e-03 7.929882110247e-03 0.0 
0.0 0.0 0.0 
-2.107354705646e-05 3.160761772271e-03 0.0 
3.160761772271e-03 7.565496162645e-03 0.0 
0.0 0.0 0.0 
4.288810350417e-06 3.176871883417e-03 0.0 
3.176871883417e-03 7.185326803240e-03 0.0 
0.0 0.0 0.0 
2.713356630120e-05 3.147672463213e-03 0.0 
3.147672463213e-03 6.800457513632e-03 0.0 
0.0 0.0 0.0 
4.814051081992e-05 3.077801639869e-03 0.0 
3.077801639869e-03 6.425672301312e-03 0.0 
0.0 0.0 0.0 
7.609289576549e-05 2.967134671969e-03 0.0 
2.967134671969e-03 6.061364185459e-03 0.0 
0.0 0.0 0.0 
8.794568857740e-05 2.808528953783e-03 0.0 
2.808528953783e-03 5.710486122327e-03 0.0 
0.0 0.0 0.0 
1.224477025559e-04 2.608702687878e-03 0.0 
2.608702687878e-03 5.387882795716e-03 0.0 
0.0 0.0 0.0 
1.306725814372e-04 2.369922174508e-03 0.0 
2.369922174508e-03 5.092536755917e-03 0.0 
0.0 0.0 0.0 
1.301981568561e-04 2.108927745141e-03 0.0 
2.108927745141e-03 4.866765131056e-03 0.0 
0.0 0.0 0.0 
1.470447309876e-04 1.829149161495e-03 0.0 
1.829149161495e-03 4.631580988004e-03 0.0 
0.0 0.0 0.0 
1.800814953121e-04 1.528139026005e-03 0.0 
1.528139026005e-03 4.415132419787e-03 0.0 
0.0 0.0 0.0 
1.791469321416e-04 1.186263149410e-03 0.0 
1.186263149410e-03 4.278781019944e-03 0.0 
0.0 0.0 0.0 
1.744696407815e-04 8.690664237564e-04 0.0 
8.690664237564e-04 4.230122288730e-03 0.0 
0.0 0.0 0.0 
1.705784883506e-04 5.624834408597e-04 0.0 
5.624834408597e-04 4.207552418415e-03 0.0 
0.0 0.0 0.0 
1.371172672423e-04 2.683562435939e-04 0.0 
2.683562435939e-04 4.242096488020e-03 0.0 
0.0 0.0 0.0 
1.409979391348e-04 1.467369130455e-05 0.0 
1.467369130455e-05 4.327600069002e-03 0.0 
0.0 0.0 0.0 
1.054108229546e-04 -2.143927193021e-04 0.0 
-2.143927193021e-04 4.431404015442e-03 0.0 
0.0 0.0 0.0 
1.012796430842e-04 -3.969870463191e-04 0.0 
-3.969870463191e-04 4.568508160355e-03 0.0 
0.0 0.0 0.0 
6.471737803896e-05 -5.398451173035e-04 0.0 
-5.398451173035e-04 4.730317158784e-03 0.0 
0.0 0.0 0.0 
4.213643470659e-05 -6.369377470240e-04 0.0 
-6.369377470240e-04 4.923921593651e-03 0.0 
0.0 0.0 0.0 
1.807177657883e-05 -6.857005660102e-04 0.0 
-6.857005660102e-04 5.141134234748e-03 0.0 
0.0 0.0 0.0 
-2.441138173751e-06 -6.986523814101e-04 0.0 
-6.986523814101e-04 5.314281252938e-03 0.0 
0.0 0.0 0.0 
-3.329961402496e-05 -6.657374032521e-04 0.0 
-6.657374032521e-04 5.449194913172e-03 0.0 
0.0 0.0 0.0 
-4.004032944723e-05 -6.022740831473e-04 0.0 
-6.022740831473e-04 5.649330276075e-03 0.0 
0.0 0.0 0.0 
-5.880830839607e-05 -5.188591174936e-04 0.0 
-5.188591174936e-04 5.760128205129e-03 0.0 
0.0 0.0 0.0 
-5.977217895303e-05 -4.230981238262e-04 0.0 
-4.230981238262e-04 5.871691504209e-03 0.0 
0.0 0.0 0.0 
-6.895541703563e-05 -2.873539142391e-04 0.0 
-2.873539142391e-04 5.961648997845e-03 0.0 
0.0 0.0 0.0 
-7.643524620264e-05 -1.662346501060e-04 0.0 
-1.662346501060e-04 6.006246725975e-03 0.0 
0.0 0.0 0.0 
-1.266594914743e-03 -4.299998475806e-06 0.0 
-4.299998475806e-06 8.098181257191e-03 0.0 
0.0 0.0 0.0 
-1.236935760493e-03 -7.668481174898e-07 0.0 
-7.668481174898e-07 8.496305229244e-03 0.0 
0.0 0.0 0.0 
-1.177503722363e-03 3.174118069345e-06 0.0 
3.174118069345e-06 8.870769960800e-03 0.0 
0.0 0.0 0.0 
-1.091512183630e-03 7.720393956487e-06 0.0 
7.720393956487e-06 9.219278668585e-03 0.0 
0.0 0.0 0.0 
-9.782188592214e-04 1.366567390450e-05 0.0 
1.366567390450e-05 9.554740044190e-03 0.0 
0.0 0.0 0.0 
-8.375570149644e-04 1.835177338403e-05 0.0 
1.835177338403e-05 9.870809790202e-03 0.0 
0.0 0.0 0.0 
-6.725914598423e-04 2.221261059491e-05 0.0 
2.221261059491e-05 1.016616821177e-02 0.0 
0.0 0.0 0.0 
-4.748788307537e-04 2.841940438099e-05 0.0 
2.841940438099e-05 1.044356644015e-02 0.0 
0.0 0.0 0.0 
-2.728570483656e-04 2.999309986892e-05 0.0 
2.999309986892e-05 1.070692149372e-02 0.0 
0.0 0.0 0.0 
-2.147359242238e-03 2.878981968824e-03 0.0 
2.878981968824e-03 -2.104188369835e-03 0.0 
0.0 0.0 0.0 
-1.935330328999e-03 9.226500790924e-04 0.0 
9.226500790924e-04 7.356168948781e-03 0.0 
0.0 0.0 0.0 
-1.769550990360e-03 3.373269828195e-03 0.0 
3.373269828195e-03 7.392249367918e-04 0.0 
0.0 0.0 0.0 
-1.399058287445e-03 3.201436937973e-03 0.0 
3.201436937973e-03 2.107463747675e-03 0.0 
0.0 0.0 0.0 
-1.620705653644e-03 2.486653211193e-03 0.0 
2.486653211193e-03 3.641399725701e-03 0.0 
0.0 0.0 0.0 
-1.122268571687e-03 1.685563146477e-03 0.0 
1.685563146477e-03 4.205370070480e-03 0.0 
0.0 0.0 0.0 
-1.112551643359e-03 1.577592308908e-03 0.0 
1.577592308908e-03 4.518442624041e-03 0.0 
0.0 0.0 0.0 
-1.305148670050e-03 1.436264339153e-03 0.0 
1.436264339153e-03 5.006651695714e-03 0.0 
0.0 0.0 0.0 
-1.541916513916e-03 1.264765294231e-03 0.0 
1.264765294231e-03 5.589293029789e-03 0.0 
0.0 0.0 0.0 
-1.742551447996e-03 1.101088637528e-03 0.0 
1.101088637528e-03 6.191361186649e-03 0.0 
0.0 0.0 0.0 
-1.874797597270e-03 9.877185153492e-04 0.0 
9.877185153492e-04 6.783413320463e-03 0.0 
0.0 0.0 0.0 
-9.600343742235e-04 -2.697078460194e-05 0.0 
-2.697078460194e-05 4.642517627919e-03 0.0 
0.0 0.0 0.0 
-1.001129588168e-03 -3.910001771571e-05 0.0 
-3.910001771571e-05 4.936619856875e-03 0.0 
0.0 0.0 0.0 
-1.059203104995e-03 -3.238720502952e-05 0.0 
-3.238720502952e-05 5.400815149200e-03 0.0 
0.0 0.0 0.0 
-1.117637091049e-03 -4.147182757746e-05 0.0 
-4.147182757746e-05 5.865648457271e-03 0.0 
0.0 0.0 0.0 
-1.172729715947e-03 -3.218508102665e-05 0.0 
-3.218508102665e-05 6.328564187862e-03 0.0 
0.0 0.0 0.0 
-1.222766528773e-03 -3.628489227070e-05 0.0 
-3.628489227070e-05 6.785990788848e-03 0.0 
0.0 0.0 0.0 
-1.258456503304e-03 -2.204060938650e-05 0.0 
-2.204060938650e-05 7.230392533295e-03 0.0 
0.0 0.0 0.0 
-1.277790772048e-03 1.502240063416e-05 0.0 
1.502240063416e-05 7.621930938989e-03 0.0 
0.0 0.0 0.0 
-1.287632008815e-03 1.647003692673e-05 0.0 
1.647003692673e-05 7.650755536942e-03 0.0 
0.0 0.0 0.0 
-1.309186280924e-03 2.706812122634e-05 0.0 
2.706812122634e-05 7.657033113966e-03 0.0 
0.0 0.0 0.0 
-1.336836885945e-03 3.895148495457e-05 0.0 
3.895148495457e-05 7.655384741560e-03 0.0 
0.0 0.0 0.0 
-1.367681400240e-03 6.907665047137e-05 0.0 
6.907665047137e-05 7.713429916907e-03 0.0 
0.0 0.0 0.0 
-1.407876642673e-03 8.593715439180e-05 0.0 
8.593715439180e-05 7.668715944310e-03 0.0 
0.0 0.0 0.0 
-1.457728931281e-03 1.150538720719e-04 0.0 
1.150538720719e-04 7.665308099588e-03 0.0 
0.0 0.0 0.0 
-1.506286879052e-03 1.587179319527e-04 0.0 
1.587179319527e-04 7.665458684113e-03 0.0 
0.0 0.0 0.0 
-1.573344250162e-03 2.129173718746e-04 0.0 
2.129173718746e-04 7.670446825564e-03 0.0 
0.0 0.0 0.0 
-1.641261356383e-03 2.820825283955e-04 0.0 
2.820825283955e-04 7.654654374013e-03 0.0 
0.0 0.0 0.0 
-1.708003533754e-03 3.683996135358e-04 0.0 
3.683996135358e-04 7.627633232318e-03 0.0 
0.0 0.0 0.0 
-1.773609602171e-03 4.721838191497e-04 0.0 
4.721838191497e-04 7.587164626309e-03 0.0 
0.0 0.0 0.0 
-1.830602338184e-03 5.992177973557e-04 0.0 
5.992177973557e-04 7.526359506834e-03 0.0 
0.0 0.0 0.0 
-1.877472658523e-03 7.466907489860e-04 0.0 
7.466907489860e-04 7.450725473780e-03 0.0 
0.0 0.0 0.0 
-2.990271294875e-03 1.307062005111e-03 0.0 
1.307062005111e-03 -3.132096252797e-03 0.0 
0.0 0.0 0.0 
-3.818596517709e-03 2.811240362815e-04 0.0 
2.811240362815e-04 -3.170504249352e-03 0.0 
0.0 0.0 0.0 
-4.224073248067e-03 -1.877731036720e-04 0.0 
-1.877731036720e-04 -3.008084582342e-03 0.0 
0.0 0.0 0.0 
-3.819446158596e-03 -8.831071546149e-04 0.0 
-8.831071546149e-04 -2.741777709803e-03 0.0 
0.0 0.0 0.0 
-2.665539641605e-03 -1.838953573089e-03 0.0 
-1.838953573089e-03 -1.289219081831e-03 0.0 
0.0 0.0 0.0 
-1.606287179503e-03 -1.375253258418e-03 0.0 
-1.375253258418e-03 1.362469635435e-04 0.0 
0.0 0.0 0.0 
-6.806627469268e-04 -4.217827921720e-04 0.0 
-4.217827921720e-04 2.211949611125e-04 0.0 
0.0 0.0 0.0 
-2.699052570084e-04 -1.351206514441e-04 0.0 
-1.351206514441e-04 2.079502846804e-04 0.0 
0.0 0.0 0.0 
-4.252879579162e-05 -8.552521643420e-05 0.0 
-8.552521643420e-05 1.763215054537e-04 0.0 
0.0 0.0 0.0 
2.490867738315e-04 -1.357629371187e-04 0.0 
-1.357629371187e-04 7.772652013993e-05 0.0 
0.0 0.0 0.0 
5.523094665004e-04 -1.510805655177e-04 0.0 
-1.510805655177e-04 -6.332548031718e-05 0.0 
0.0 0.0 0.0 
9.068312825624e-04 -1.723436625662e-04 0.0 
-1.723436625662e-04 -2.296656799754e-04 0.0 
0.0 0.0 0.0 
1.293730238393e-03 -1.627621975598e-04 0.0 
-1.627621975598e-04 -4.101840276422e-04 0.0 
0.0 0.0 0.0 
1.635115315419e-03 -1.565329315534e-04 0.0 
-1.565329315534e-04 -5.617120209008e-04 0.0 
0.0 0.0 0.0 
1.881696210807e-03 -1.240696674429e-04 0.0 
-1.240696674429e-04 -6.633576382857e-04 0.0 
0.0 0.0 0.0 
2.096858842719e-03 -9.327863028845e-05 0.0 
-9.327863028845e-05 -7.514543156070e-04 0.0 
0.0 0.0 0.0 
2.262558236394e-03 -7.406271117341e-05 0.0 
-7.406271117341e-05 -8.218433761281e-04 0.0 
0.0 0.0 0.0 
2.405208478323e-03 -4.479622437917e-05 0.0 
-4.479622437917e-05 -8.981709865131e-04 0.0 
0.0 0.0 0.0 
2.513043659454e-03 1.973679336054e-05 0.0 
1.973679336054e-05 -9.409090052954e-04 0.0 
0.0 0.0 0.0 
-1.276612370967e-03 1.330698494667e-03 0.0 
1.330698494667e-03 4.281194074694e-03 0.0 
0.0 0.0 0.0 
-7.170183142580e-04 1.087038545620e-03 0.0 
1.087038545620e-03 4.090714017808e-03 0.0 
0.0 0.0 0.0 
-4.516214766134e-04 7.946797674082e-04 0.0 
7.946797674082e-04 4.087137148083e-03 0.0 
0.0 0.0 0.0 
-3.446844912446e-04 5.551055799322e-04 0.0 
5.551055799322e-04 4.120345540791e-03 0.0 
0.0 0.0 0.0 
-2.807712496392e-04 3.739333326452e-04 0.0 
3.739333326452e-04 4.171911293562e-03 0.0 
0.0 0.0 0.0 
-2.280247095591e-04 2.174137482289e-04 0.0 
2.174137482289e-04 4.217948354521e-03 0.0 
0.0 0.0 0.0 
-2.057251674831e-04 9.481480331657e-05 0.0 
9.481480331657e-05 4.265758044999e-03 0.0 
0.0 0.0 0.0 
-2.400973738571e-04 -5.756166516037e-06 0.0 
-5.756166516037e-06 4.315036740535e-03 0.0 
0.0 0.0 0.0 
-2.788522305670e-04 -8.405376959292e-05 0.0 
-8.405376959292e-05 4.358377565164e-03 0.0 
0.0 0.0 0.0 
-3.136455083422e-04 -1.366087621073e-04 0.0 
-1.366087621073e-04 4.391896495979e-03 0.0 
0.0 0.0 0.0 
-3.567353048010e-04 -1.696296706432e-04 0.0 
-1.696296706432e-04 4.421151189683e-03 0.0 
0.0 0.0 0.0 
-4.109097486234e-04 -1.914010381268e-04 0.0 
-1.914010381268e-04 4.451320219302e-03 0.0 
0.0 0.0 0.0 
-4.720728897598e-04 -2.022319497511e-04 0.0 
-2.022319497511e-04 4.482686574017e-03 0.0 
0.0 0.0 0.0 
-5.344644200667e-04 -2.038398349536e-04 0.0 
-2.038398349536e-04 4.512497249777e-03 0.0 
0.0 0.0 0.0 
-5.943572985924e-04 -1.987024575380e-04 0.0 
-1.987024575380e-04 4.539856139856e-03 0.0 
0.0 0.0 0.0 
-6.500175458579e-04 -1.886226155842e-04 0.0 
-1.886226155842e-04 4.564827693530e-03 0.0 
0.0 0.0 0.0 
-7.006414533448e-04 -1.751927848857e-04 0.0 
-1.751927848857e-04 4.587630750355e-03 0.0 
0.0 0.0 0.0 
-7.455347903762e-04 -1.592969482168e-04 0.0 
-1.592969482168e-04 4.607848160411e-03 0.0 
0.0 0.0 0.0 
-7.843333677323e-04 -1.414260348624e-04 0.0 
-1.414260348624e-04 4.625407877874e-03 0.0 
0.0 0.0 0.0 
-8.166605519449e-04 -1.220659683898e-04 0.0 
-1.220659683898e-04 4.640247307267e-03 0.0 
0.0 0.0 0.0 
-8.424062505096e-04 -1.010657556698e-04 0.0 
-1.010657556698e-04 4.652227570400e-03 0.0 
0.0 0.0 0.0 
-8.619268608782e-04 -7.765691758419e-05 0.0 
-7.765691758419e-05 4.661705570149e-03 0.0 
0.0 0.0 0.0 
-8.766399890173e-04 -5.130757496885e-05 0.0 
-5.130757496885e-05 4.668521568024e-03 0.0 
0.0 0.0 0.0 
-9.051043463451e-04 -2.567592533680e-05 0.0 
-2.567592533680e-05 4.663183999187e-03 0.0 
0.0 0.0 0.0 
-9.361330504336e-04 6.158265090797e-06 0.0 
6.158265090797e-06 4.618065194143e-03 0.0 
0.0 0.0 0.0 
-9.852027821603e-04 -1.154809591433e-05 0.0 
-1.154809591433e-05 4.928057084995e-03 0.0 
0.0 0.0 0.0 
-9.422574423732e-04 -5.190799753314e-05 0.0 
-5.190799753314e-05 4.910556553555e-03 0.0 
0.0 0.0 0.0 
-9.316586577061e-04 -8.326560383738e-05 0.0 
-8.326560383738e-05 4.904257776244e-03 0.0 
0.0 0.0 0.0 
-9.200554784951e-04 -1.100390093854e-04 0.0 
-1.100390093854e-04 4.897434440336e-03 0.0 
0.0 0.0 0.0 
-9.056791821938e-04 -1.354718790560e-04 0.0 
-1.354718790560e-04 4.889302498434e-03 0.0 
0.0 0.0 0.0 
-8.876903974281e-04 -1.596580171183e-04 0.0 
-1.596580171183e-04 4.879285410881e-03 0.0 
0.0 0.0 0.0 
-8.659381065882e-04 -1.825687384196e-04 0.0 
-1.825687384196e-04 4.867347944265e-03 0.0 
0.0 0.0 0.0 
-8.406085803908e-04 -2.035849663716e-04 0.0 
-2.035849663716e-04 4.853521890202e-03 0.0 
0.0 0.0 0.0 
-8.121984618126e-04 -2.217813112471e-04 0.0 
-2.217813112471e-04 4.837934416230e-03 0.0 
0.0 0.0 0.0 
-7.815187440531e-04 -2.362364780476e-04 0.0 
-2.362364780476e-04 4.820923495388e-03 0.0 
0.0 0.0 0.0 
-7.495496943195e-04 -2.453720729656e-04 0.0 
-2.453720729656e-04 4.802522557367e-03 0.0 
0.0 0.0 0.0 
-7.173257214048e-04 -2.469746728242e-04 0.0 
-2.469746728242e-04 4.782249122571e-03 0.0 
0.0 0.0 0.0 
-6.868537899627e-04 -2.379727181658e-04 0.0 
-2.379727181658e-04 4.760046635463e-03 0.0 
0.0 0.0 0.0 
-6.615318537762e-04 -2.145230321622e-04 0.0 
-2.145230321622e-04 4.736933249914e-03 0.0 
0.0 0.0 0.0 
-6.413942121493e-04 -1.745726749822e-04 0.0 
-1.745726749822e-04 4.712681596168e-03 0.0 
0.0 0.0 0.0 
-6.230906608720e-04 -1.123599005154e-04 0.0 
-1.123599005154e-04 4.682709687581e-03 0.0 
0.0 0.0 0.0 
-6.062724497681e-04 -2.393025737419e-05 0.0 
-2.393025737419e-05 4.643112057166e-03 0.0 
0.0 0.0 0.0 
-5.886714235288e-04 9.328421242735e-05 0.0 
9.328421242735e-05 4.594475610880e-03 0.0 
0.0 0.0 0.0 
-5.867982547810e-04 2.425277281733e-04 0.0 
2.425277281733e-04 4.535975194729e-03 0.0 
0.0 0.0 0.0 
-6.168860735057e-04 4.223106129815e-04 0.0 
4.223106129815e-04 4.465438192074e-03 0.0 
0.0 0.0 0.0 
-6.499165704042e-04 6.450386304230e-04 0.0 
6.450386304230e-04 4.387911233986e-03 0.0 
0.0 0.0 0.0 
-7.608323965070e-04 9.607079475978e-04 0.0 
9.607079475978e-04 4.322038566590e-03 0.0 
0.0 0.0 0.0 
-8.584312107603e-04 1.181559834629e-03 0.0 
1.181559834629e-03 4.259430208762e-03 0.0 
0.0 0.0 0.0 
-1.046447380913e-03 1.181827661838e-03 0.0 
1.181827661838e-03 4.667807497543e-03 0.0 
0.0 0.0 0.0 
-1.055614988939e-03 9.607052919982e-04 0.0 
9.607052919982e-04 4.817697548966e-03 0.0 
0.0 0.0 0.0 
-1.034081674087e-03 6.518194755293e-04 0.0 
6.518194755293e-04 4.953663016412e-03 0.0 
0.0 0.0 0.0 
-1.040557544065e-03 4.221079859319e-04 0.0 
4.221079859319e-04 5.063627508333e-03 0.0 
0.0 0.0 0.0 
-1.039176597503e-03 2.368799914588e-04 0.0 
2.368799914588e-04 5.144703703200e-03 0.0 
0.0 0.0 0.0 
-1.038293635880e-03 8.986924684377e-05 0.0 
8.986924684377e-05 5.204897188044e-03 0.0 
0.0 0.0 0.0 
-1.038583272534e-03 -2.489479312623e-05 0.0 
-2.489479312623e-05 5.252418375908e-03 0.0 
0.0 0.0 0.0 
-1.035931175037e-03 -1.099927440704e-04 0.0 
-1.099927440704e-04 5.285876809825e-03 0.0 
0.0 0.0 0.0 
-1.027972622037e-03 -1.684310770161e-04 0.0 
-1.684310770161e-04 5.308379642668e-03 0.0 
0.0 0.0 0.0 
-1.014491739792e-03 -2.038939129792e-04 0.0 
-2.038939129792e-04 5.323828974364e-03 0.0 
0.0 0.0 0.0 
-1.006706731288e-03 -2.216139754362e-04 0.0 
-2.216139754362e-04 5.335832676734e-03 0.0 
0.0 0.0 0.0 
-1.003194578416e-03 -2.263451956408e-04 0.0 
-2.263451956408e-04 5.345194396069e-03 0.0 
0.0 0.0 0.0 
-1.002860387550e-03 -2.215998986089e-04 0.0 
-2.215998986089e-04 5.353139646330e-03 0.0 
0.0 0.0 0.0 
-1.004764793287e-03 -2.098347622146e-04 0.0 
-2.098347622146e-04 5.360413010676e-03 0.0 
0.0 0.0 0.0 
-1.007818885890e-03 -1.925942122877e-04 0.0 
-1.925942122877e-04 5.366993893024e-03 0.0 
0.0 0.0 0.0 
-1.011055810964e-03 -1.713370481192e-04 0.0 
-1.713370481192e-04 5.372462791538e-03 0.0 
0.0 0.0 0.0 
-1.014012570558e-03 -1.475617638192e-04 0.0 
-1.475617638192e-04 5.376965932300e-03 0.0 
0.0 0.0 0.0 
-1.016508920298e-03 -1.219840493234e-04 0.0 
-1.219840493234e-04 5.380867772104e-03 0.0 
0.0 0.0 0.0 
-1.018567472955e-03 -9.514517731605e-05 0.0 
-9.514517731605e-05 5.384321005341e-03 0.0 
0.0 0.0 0.0 
-1.020810036385e-03 -6.786209652611e-05 0.0 
-6.786209652611e-05 5.387870151288e-03 0.0 
0.0 0.0 0.0 
-1.032562847158e-03 -4.210357153205e-05 0.0 
-4.210357153205e-05 5.393138122060e-03 0.0 
0.0 0.0 0.0 
-1.054560665958e-03 -4.534624709438e-07 0.0 
-4.534624709438e-07 5.398597519288e-03 0.0 
0.0 0.0 0.0 
-1.113988022743e-03 -1.555020512523e-05 0.0 
-1.555020512523e-05 5.865397857112e-03 0.0 
0.0 0.0 0.0 
-1.106786422996e-03 -5.339151380858e-05 0.0 
-5.339151380858e-05 5.865451231106e-03 0.0 
0.0 0.0 0.0 
-1.109445785437e-03 -8.198192514940e-05 0.0 
-8.198192514940e-05 5.864980856353e-03 0.0 
0.0 0.0 0.0 
-1.114973514175e-03 -1.070681829901e-04 0.0 
-1.070681829901e-04 5.864947322321e-03 0.0 
0.0 0.0 0.0 
-1.123625590693e-03 -1.309912410534e-04 0.0 
-1.309912410534e-04 5.865477329303e-03 0.0 
0.0 0.0 0.0 
-1.134830551169e-03 -1.533558805679e-04 0.0 
-1.533558805679e-04 5.866099448749e-03 0.0 
0.0 0.0 0.0 
-1.147621461182e-03 -1.731608181785e-04 0.0 
-1.731608181785e-04 5.866211408716e-03 0.0 
0.0 0.0 0.0 
-1.163110999150e-03 -1.884923972017e-04 0.0 
-1.884923972017e-04 5.865364448095e-03 0.0 
0.0 0.0 0.0 
-1.181703665518e-03 -1.971257731964e-04 0.0 
-1.971257731964e-04 5.863581436094e-03 0.0 
0.0 0.0 0.0 
-1.204099915668e-03 -1.970623595866e-04 0.0 
-1.970623595866e-04 5.861120704555e-03 0.0 
0.0 0.0 0.0 
-1.231464354151e-03 -1.859157985396e-04 0.0 
-1.859157985396e-04 5.857019792663e-03 0.0 
0.0 0.0 0.0 
-1.264448612855e-03 -1.601139470119e-04 0.0 
-1.601139470119e-04 5.849376085996e-03 0.0 
0.0 0.0 0.0 
-1.303685581647e-03 -1.145461303262e-04 0.0 
-1.145461303262e-04 5.835396231638e-03 0.0 
0.0 0.0 0.0 
-1.335906343785e-03 -4.309657696808e-05 0.0 
-4.309657696808e-05 5.809904942744e-03 0.0 
0.0 0.0 0.0 
-1.351621800022e-03 5.767356124510e-05 0.0 
5.767356124510e-05 5.768008760240e-03 0.0 
0.0 0.0 0.0 
-1.362157034150e-03 1.903907431720e-04 0.0 
1.903907431720e-04 5.709359104811e-03 0.0 
0.0 0.0 0.0 
-1.368270637929e-03 3.577599893327e-04 0.0 
3.577599893327e-04 5.629059040475e-03 0.0 
0.0 0.0 0.0 
-1.361901166242e-03 5.695773074745e-04 0.0 
5.695773074745e-04 5.524423309044e-03 0.0 
0.0 0.0 0.0 
-1.360992743783e-03 8.603576489189e-04 0.0 
8.603576489189e-04 5.384377095853e-03 0.0 
0.0 0.0 0.0 
-1.319865469649e-03 1.078562786414e-03 0.0 
1.078562786414e-03 5.201097468737e-03 0.0 
0.0 0.0 0.0 
-1.570111840275e-03 9.524217690087e-04 0.0 
9.524217690087e-04 5.770965519668e-03 0.0 
0.0 0.0 0.0 
-1.605869168643e-03 7.641899450552e-04 0.0 
7.641899450552e-04 5.956093629288e-03 0.0 
0.0 0.0 0.0 
-1.601939253208e-03 5.171140688638e-04 0.0 
5.171140688638e-04 6.083726369516e-03 0.0 
0.0 0.0 0.0 
-1.599641876330e-03 3.390856508148e-04 0.0 
3.390856508148e-04 6.180464054927e-03 0.0 
0.0 0.0 0.0 
-1.585428196577e-03 1.996920373146e-04 0.0 
1.996920373146e-04 6.253777170124e-03 0.0 
0.0 0.0 0.0 
-1.555772751292e-03 9.134704051322e-05 0.0 
9.134704051322e-05 6.302553560140e-03 0.0 
0.0 0.0 0.0 
-1.504507061745e-03 1.109534638619e-05 0.0 
1.109534638619e-05 6.332050767297e-03 0.0 
0.0 0.0 0.0 
-1.450970373763e-03 -4.507307423884e-05 0.0 
-4.507307423884e-05 6.346772843331e-03 0.0 
0.0 0.0 0.0 
-1.402802613890e-03 -8.154841881244e-05 0.0 
-8.154841881244e-05 6.353732159769e-03 0.0 
0.0 0.0 0.0 
-1.360407605588e-03 -1.030052876099e-04 0.0 
-1.030052876099e-04 6.356262139348e-03 0.0 
0.0 0.0 0.0 
-1.322721318740e-03 -1.120158636922e-04 0.0 
-1.120158636922e-04 6.356317741086e-03 0.0 
0.0 0.0 0.0 
-1.288003548698e-03 -1.116820026451e-04 0.0 
-1.116820026451e-04 6.353803753671e-03 0.0 
0.0 0.0 0.0 
-1.258631518401e-03 -1.056441300168e-04 0.0 
-1.056441300168e-04 6.349950020274e-03 0.0 
0.0 0.0 0.0 
-1.233331925253e-03 -9.552040742834e-05 0.0 
-9.552040742834e-05 6.345608071306e-03 0.0 
0.0 0.0 0.0 
-1.211162921879e-03 -8.251790803120e-05 0.0 
-8.251790803120e-05 6.341183752715e-03 0.0 
0.0 0.0 0.0 
-1.194553200148e-03 -6.739571899450e-05 0.0 
-6.739571899450e-05 6.337918248910e-03 0.0 
0.0 0.0 0.0 
-1.183142346158e-03 -5.101624492792e-05 0.0 
-5.101624492792e-05 6.335689288944e-03 0.0 
0.0 0.0 0.0 
-1.175788218006e-03 -3.503327535433e-05 0.0 
-3.503327535433e-05 6.333284322515e-03 0.0 
0.0 0.0 0.0 
-1.174229238260e-03 7.126160072624e-07 0.0 
7.126160072624e-07 6.330479795745e-03 0.0 
0.0 0.0 0.0 
-1.225009702627e-03 -5.214670308250e-06 0.0 
-5.214670308250e-06 6.788526019495e-03 0.0 
0.0 0.0 0.0 
-1.233429922035e-03 -3.059371313978e-05 0.0 
-3.059371313978e-05 6.792775604748e-03 0.0 
0.0 0.0 0.0 
-1.247238621186e-03 -4.270689278802e-05 0.0 
-4.270689278802e-05 6.796352350228e-03 0.0 
0.0 0.0 0.0 
-1.266758655755e-03 -5.006770312280e-05 0.0 
-5.006770312280e-05 6.800610488625e-03 0.0 
0.0 0.0 0.0 
-1.292281615598e-03 -5.361800882128e-05 0.0 
-5.361800882128e-05 6.805847552358e-03 0.0 
0.0 0.0 0.0 
-1.325093133225e-03 -5.400799091197e-05 0.0 
-5.400799091197e-05 6.812352664384e-03 0.0 
0.0 0.0 0.0 
-1.363434551520e-03 -4.871764014854e-05 0.0 
-4.871764014854e-05 6.818416989006e-03 0.0 
0.0 0.0 0.0 
-1.410560742648e-03 -3.796034932730e-05 0.0 
-3.796034932730e-05 6.824055261242e-03 0.0 
0.0 0.0 0.0 
-1.460777323899e-03 -1.812424306316e-05 0.0 
-1.812424306316e-05 6.825600329059e-03 0.0 
0.0 0.0 0.0 
-1.513958126843e-03 1.345748988614e-05 0.0 
1.345748988614e-05 6.822657041221e-03 0.0 
0.0 0.0 0.0 
-1.569159420723e-03 5.905859231955e-05 0.0 
5.905859231955e-05 6.813107437098e-03 0.0 
0.0 0.0 0.0 
-1.629535521043e-03 1.242761218249e-04 0.0 
1.242761218249e-04 6.794162033330e-03 0.0 
0.0 0.0 0.0 
-1.691785221585e-03 2.122170527279e-04 0.0 
2.122170527279e-04 6.761653771133e-03 0.0 
0.0 0.0 0.0 
-1.741410475745e-03 3.255120403028e-04 0.0 
3.255120403028e-04 6.705029220096e-03 0.0 
0.0 0.0 0.0 
-1.758449425348e-03 4.729843660475e-04 0.0 
4.729843660475e-04 6.622285446901e-03 0.0 
0.0 0.0 0.0 
-1.774717532960e-03 6.809674021242e-04 0.0 
6.809674021242e-04 6.516975225721e-03 0.0 
0.0 0.0 0.0 
-1.758324818708e-03 8.389750111019e-04 0.0 
8.389750111019e-04 6.344794440590e-03 0.0 
0.0 0.0 0.0 
-1.870524343392e-03 7.726828943423e-04 0.0 
7.726828943423e-04 6.895755899602e-03 0.0 
0.0 0.0 0.0 
-1.865823710717e-03 6.455004682081e-04 0.0 
6.455004682081e-04 7.053711047840e-03 0.0 
0.0 0.0 0.0 
-1.822616873324e-03 4.787465968204e-04 0.0 
4.787465968204e-04 7.138087767014e-03 0.0 
0.0 0.0 0.0 
-1.764835709173e-03 3.611643590604e-04 0.0 
3.611643590604e-04 7.194536831980e-03 0.0 
0.0 0.0 0.0 
-1.702432385113e-03 2.657803910656e-04 0.0 
2.657803910656e-04 7.231914002851e-03 0.0 
0.0 0.0 0.0 
-1.639599725720e-03 1.903034219491e-04 0.0 
1.903034219491e-04 7.253893974787e-03 0.0 
0.0 0.0 0.0 
-1.577061138315e-03 1.309703072703e-04 0.0 
1.309703072703e-04 7.264227610314e-03 0.0 
0.0 0.0 0.0 
-1.514340087754e-03 8.429388111078e-05 0.0 
8.429388111078e-05 7.267181860523e-03 0.0 
0.0 0.0 0.0 
-1.456270936065e-03 5.202886314505e-05 0.0 
5.202886314505e-05 7.265434828742e-03 0.0 
0.0 0.0 0.0 
-1.407484612702e-03 2.670031757789e-05 0.0 
2.670031757789e-05 7.259753451396e-03 0.0 
0.0 0.0 0.0 
-1.365139004244e-03 1.178103551570e-05 0.0 
1.178103551570e-05 7.254649041824e-03 0.0 
0.0 0.0 0.0 
-1.331434354617e-03 8.541602512704e-08 0.0 
8.541602512704e-08 7.248544970032e-03 0.0 
0.0 0.0 0.0 
-1.304273597422e-03 -4.875651591906e-06 0.0 
-4.875651591906e-06 7.245023293504e-03 0.0 
0.0 0.0 0.0 
-1.282037510702e-03 -7.194000940293e-06 0.0 
-7.194000940293e-06 7.239511282266e-03 0.0 
0.0 0.0 0.0 
-1.267463388462e-03 -1.004297353823e-05 0.0 
-1.004297353823e-05 7.238709111813e-03 0.0 
0.0 0.0 0.0 
-1.265488511986e-03 1.439492453948e-05 0.0 
1.439492453948e-05 7.240237920071e-03 0.0 
0.0 0.0 0.0 
-1.939732293005e-03 3.938998229485e-03 0.0 
3.938998229485e-03 -3.411615536543e-04 0.0 
0.0 0.0 0.0 
-1.464483105448e-03 3.227850218420e-03 0.0 
3.227850218420e-03 1.414799948861e-03 0.0 
0.0 0.0 0.0 
-1.548118005129e-03 3.116929242052e-03 0.0 
3.116929242052e-03 2.807104445892e-03 0.0 
0.0 0.0 0.0 
-1.422029121222e-03 1.906141078117e-03 0.0 
1.906141078117e-03 4.140848837493e-03 0.0 
0.0 0.0 0.0 
-1.102752689246e-03 1.733214013015e-03 0.0 
1.733214013015e-03 4.331745055721e-03 0.0 
0.0 0.0 0.0 
-1.212544393690e-03 1.570600812842e-03 0.0 
1.570600812842e-03 4.768924096677e-03 0.0 
0.0 0.0 0.0 
-1.444868093109e-03 1.391298344854e-03 0.0 
1.391298344854e-03 5.326951031829e-03 0.0 
0.0 0.0 0.0 
-1.664053280508e-03 1.214531019302e-03 0.0 
1.214531019302e-03 5.924534930934e-03 0.0 
0.0 0.0 0.0 
-1.829470548409e-03 1.069525436927e-03 0.0 
1.069525436927e-03 6.526657522329e-03 0.0 
0.0 0.0 0.0 
-1.921413919575e-03 9.797927651039e-04 0.0 
9.797927651039e-04 7.100775365952e-03 0.0 
0.0 0.0 0.0 
-1.078560275176e-03 3.468214149294e-03 0.0 
3.468214149294e-03 1.381548903553e-03 0.0 
0.0 0.0 0.0 
5.244350510959e-04 9.965173884070e-04 0.0 
9.965173884070e-04 3.889544228315e-03 0.0 
0.0 0.0 0.0 
-2.245477442598e-04 -3.775516277318e-04 0.0 
-3.775516277318e-04 3.545159653584e-04 0.0 
0.0 0.0 0.0 
-1.488628684904e-03 -1.867294745392e-03 0.0 
-1.867294745392e-03 -2.795710221865e-03 0.0 
0.0 0.0 0.0 
3.034312965331e-04 -3.126412538072e-04 0.0 
-3.126412538072e-04 4.215636643594e-03 0.0 
0.0 0.0 0.0 
-1.077263665926e-03 2.510998832076e-03 0.0 
2.510998832076e-03 3.693738431920e-03 0.0 
0.0 0.0 0.0 
-1.485041148041e-03 -2.485220100687e-04 0.0 
-2.485220100687e-04 3.819644201404e-03 0.0 
0.0 0.0 0.0 
4.530428116773e-04 2.202742256155e-03 0.0 
2.202742256155e-03 4.575725486333e-03 0.0 
0.0 0.0 0.0 
-1.257606067746e-03 1.927252492028e-03 0.0 
1.927252492028e-03 4.773484737739e-03 0.0 
0.0 0.0 0.0 
1.914815720376e-04 2.979055698792e-03 0.0 
2.979055698792e-03 5.983047773510e-03 0.0 
0.0 0.0 0.0 
-1.706639439828e-03 1.462275322002e-03 0.0 
1.462275322002e-03 6.066547133469e-03 0.0 
0.0 0.0 0.0 
1.994517556851e-05 -6.975486031562e-04 0.0 
-6.975486031562e-04 5.068515754061e-03 0.0 
0.0 0.0 0.0 
1.124375653423e-03 -2.749693948004e-04 0.0 
-2.749693948004e-04 -2.329993259915e-04 0.0 
0.0 0.0 0.0 
-8.003899104593e-05 3.088561985087e-03 0.0 
3.088561985087e-03 7.599556844394e-03 0.0 
0.0 0.0 0.0 
-1.929536520036e-03 1.181661762574e-03 0.0 
1.181661762574e-03 7.326449650889e-03 0.0 
0.0 0.0 0.0 
-1.128186801498e-03 -1.979857502481e-04 0.0 
-1.979857502481e-04 2.733949129979e-03 0.0 
0.0 0.0 0.0 
-1.234997516052e-03 -2.197182406604e-04 0.0 
-2.197182406604e-04 4.417650483207e-03 0.0 
0.0 0.0 0.0 
-2.325290722050e-04 2.787552416540e-03 0.0 
2.787552416540e-03 8.636089439662e-03 0.0 
0.0 0.0 0.0 
-2.795511905850e-04 2.148347792717e-03 0.0 
2.148347792717e-03 9.678945915668e-03 0.0 
0.0 0.0 0.0 
-2.342236716823e-04 7.024036369039e-04 0.0 
7.024036369039e-04 1.064559828173e-02 0.0 
0.0 0.0 0.0 
-2.866843166141e-04 1.146543722152e-03 0.0 
1.146543722152e-03 1.044668277212e-02 0.0 
0.0 0.0 0.0 
-2.769744903120e-04 1.635335448502e-03 0.0 
1.635335448502e-03 1.016366734364e-02 0.0 
0.0 0.0 0.0 
-1.841607284137e-03 8.325396022036e-04 0.0 
8.325396022036e-04 7.792820061132e-03 0.0 
0.0 0.0 0.0 
-1.599518341036e-03 3.655483772074e-04 0.0 
3.655483772074e-04 8.014501668342e-03 0.0 
0.0 0.0 0.0 
-1.433929899640e-03 1.867595969991e-04 0.0 
1.867595969991e-04 8.075598298271e-03 0.0 
0.0 0.0 0.0 
-1.037670889921e-03 5.346090719820e-05 0.0 
5.346090719820e-05 9.393105476280e-03 0.0 
0.0 0.0 0.0 
-1.380718763067e-04 -5.750970729101e-04 0.0 
-5.750970729101e-04 5.566601148064e-03 0.0 
0.0 0.0 0.0 
-1.585640642267e-03 1.026988341029e-03 0.0 
1.026988341029e-03 -3.762847481796e-03 0.0 
0.0 0.0 0.0 
1.787231026940e-03 -1.411732088909e-04 0.0 
-1.411732088909e-04 -4.932033973222e-04 0.0 
0.0 0.0 0.0 
-7.856466375746e-04 -1.443996009384e-04 0.0 
-1.443996009384e-04 5.217019654998e-03 0.0 
0.0 0.0 0.0 
-1.316518510838e-03 7.292620667448e-05 0.0 
7.292620667448e-05 8.025461754247e-03 0.0 
0.0 0.0 0.0 
2.654552433420e-04 -9.813327324714e-05 0.0 
-9.813327324714e-05 1.177548492118e-03 0.0 
0.0 0.0 0.0 
-3.084243804807e-04 2.453388316343e-03 0.0 
2.453388316343e-03 9.195083776022e-03 0.0 
0.0 0.0 0.0 
3.069659909841e-04 2.679597918619e-03 0.0 
2.679597918619e-03 5.276256809520e-03 0.0 
0.0 0.0 0.0 
4.385864837838e-05 3.118987855549e-03 0.0 
3.118987855549e-03 6.802891002421e-03 0.0 
0.0 0.0 0.0 
5.491972771774e-04 1.670153323665e-03 0.0 
1.670153323665e-03 4.110698309616e-03 0.0 
0.0 0.0 0.0 
4.435582240967e-04 3.926603217015e-04 0.0 
3.926603217015e-04 3.894568336879e-03 0.0 
0.0 0.0 0.0 
-1.185067168812e-03 -1.594181595353e-03 0.0 
-1.594181595353e-03 4.176356470165e-04 0.0 
0.0 0.0 0.0 
-1.729873052801e-03 5.563512862847e-04 0.0 
5.563512862847e-04 7.931623028740e-03 0.0 
0.0 0.0 0.0 
1.786623226887e-04 -5.974501206924e-04 0.0 
-5.974501206924e-04 4.531490505520e-03 0.0 
0.0 0.0 0.0 
-7.666175965338e-04 7.831590724394e-05 0.0 
7.831590724394e-05 1.001332625409e-02 0.0 
0.0 0.0 0.0 
4.039275170569e-04 -2.823076313486e-04 0.0 
-2.823076313486e-04 9.862211358889e-05 0.0 
0.0 0.0 0.0 
-1.461596141218e-03 -2.455142656146e-04 0.0 
-2.455142656146e-04 3.344886424132e-03 0.0 
0.0 0.0 0.0 
-1.925309097183e-04 4.416616703864e-04 0.0 
4.416616703864e-04 1.074562217939e-02 0.0 
0.0 0.0 0.0 
-1.077482292644e-03 2.267891570501e-03 0.0 
2.267891570501e-03 4.195856614809e-03 0.0 
0.0 0.0 0.0 
-1.223730549738e-03 3.189382677168e-03 0.0 
3.189382677168e-03 2.779482995192e-03 0.0 
0.0 0.0 0.0 
-1.493426217491e-03 1.694097650945e-03 0.0 
1.694097650945e-03 5.408523755573e-03 0.0 
0.0 0.0 0.0 
-1.852049445837e-03 1.295138842753e-03 0.0 
1.295138842753e-03 6.713830025975e-03 0.0 
0.0 0.0 0.0 
-1.394202349312e-03 3.842601893156e-03 0.0 
3.842601893156e-03 -2.967797986294e-04 0.0 
0.0 0.0 0.0 
-1.205726935933e-03 3.544764012736e-05 0.0 
3.544764012736e-05 8.716429278576e-03 0.0 
0.0 0.0 0.0 
-1.717785871034e-04 -3.582750867276e-04 0.0 
-3.582750867276e-04 5.849736879735e-03 0.0 
0.0 0.0 0.0 
2.043433600807e-03 -5.078882210112e-05 0.0 
-5.078882210112e-05 -6.263499592413e-04 0.0 
0.0 0.0 0.0 
-3.768232761627e-04 1.123947178148e-04 0.0 
1.123947178148e-04 1.055834324333e-02 0.0 
0.0 0.0 0.0 
-1.923180578931e-03 1.144723650005e-03 0.0 
1.144723650005e-03 7.582371035642e-03 0.0 
0.0 0.0 0.0 
-1.877388668913e-03 1.375047972044e-03 0.0 
1.375047972044e-03 7.561876121734e-03 0.0 
0.0 0.0 0.0 
-1.831290529781e-03 1.270767790472e-03 0.0 
1.270767790472e-03 7.850904065897e-03 0.0 
0.0 0.0 0.0 
-1.763353405352e-03 1.547446614423e-03 0.0 
1.547446614423e-03 7.774827076542e-03 0.0 
0.0 0.0 0.0 
-1.698206126898e-03 1.445855709317e-03 0.0 
1.445855709317e-03 8.073375525408e-03 0.0 
0.0 0.0 0.0 
-1.609837677596e-03 1.679315530078e-03 0.0 
1.679315530078e-03 7.977695230507e-03 0.0 
0.0 0.0 0.0 
-1.661064382333e-03 1.798521690758e-03 0.0 
1.798521690758e-03 7.653927050203e-03 0.0 
0.0 0.0 0.0 
-1.489128176174e-03 1.911033701628e-03 0.0 
1.911033701628e-03 7.841797603264e-03 0.0 
0.0 0.0 0.0 
-1.516244797784e-03 2.045388537096e-03 0.0 
2.045388537096e-03 7.478222165431e-03 0.0 
0.0 0.0 0.0 
-1.549473269618e-03 1.584071884975e-03 0.0 
1.584071884975e-03 8.287115839000e-03 0.0 
0.0 0.0 0.0 
-1.333692210322e-03 2.132354689086e-03 0.0 
2.132354689086e-03 7.660243931073e-03 0.0 
0.0 0.0 0.0 
-1.332976935125e-03 2.276458176205e-03 0.0 
2.276458176205e-03 7.252830073891e-03 0.0 
0.0 0.0 0.0 
-1.146886766416e-03 2.337567549896e-03 0.0 
2.337567549896e-03 7.434832233848e-03 0.0 
0.0 0.0 0.0 
-1.115462111735e-03 2.484908450674e-03 0.0 
2.484908450674e-03 6.982894215157e-03 0.0 
0.0 0.0 0.0 
-1.290844621436e-03 2.434780889390e-03 0.0 
2.434780889390e-03 6.808108018460e-03 0.0 
0.0 0.0 0.0 
-1.043804539143e-03 2.651446759348e-03 0.0 
2.651446759348e-03 6.490088589540e-03 0.0 
0.0 0.0 0.0 
-1.202217939151e-03 2.582170012662e-03 0.0 
2.582170012662e-03 6.320744283100e-03 0.0 
0.0 0.0 0.0 
-9.205727141273e-04 2.808452124711e-03 0.0 
2.808452124711e-03 5.950121649828e-03 0.0 
0.0 0.0 0.0 
-7.661799521775e-04 2.824106837528e-03 0.0 
2.824106837528e-03 6.136107095906e-03 0.0 
0.0 0.0 0.0 
-6.034916002627e-04 2.983264943650e-03 0.0 
2.983264943650e-03 5.540072912383e-03 0.0 
0.0 0.0 0.0 
-7.442577745991e-04 2.950437798796e-03 0.0 
2.950437798796e-03 5.363332289697e-03 0.0 
0.0 0.0 0.0 
-3.908032894711e-04 3.123822809504e-03 0.0 
3.123822809504e-03 4.895935448481e-03 0.0 
0.0 0.0 0.0 
-5.267553807279e-04 3.093058135665e-03 0.0 
3.093058135665e-03 4.736927266133e-03 0.0 
0.0 0.0 0.0 
-1.324275350894e-04 3.247580115793e-03 0.0 
3.247580115793e-03 4.210283956646e-03 0.0 
0.0 0.0 0.0 
-2.617368719366e-04 3.229322734179e-03 0.0 
3.229322734179e-03 4.070625511559e-03 0.0 
0.0 0.0 0.0 
1.751773471147e-04 3.351543954537e-03 0.0 
3.351543954537e-03 3.486286239289e-03 0.0 
0.0 0.0 0.0 
2.823018183833e-04 3.327802799778e-03 0.0 
3.327802799778e-03 3.670405508320e-03 0.0 
0.0 0.0 0.0 
6.281495643096e-04 3.391975054060e-03 0.0 
3.391975054060e-03 2.896887449966e-03 0.0 
0.0 0.0 0.0 
5.335056763621e-04 3.425608711273e-03 0.0 
3.425608711273e-03 2.737829096258e-03 0.0 
0.0 0.0 0.0 
1.017804677203e-03 3.405154836874e-03 0.0 
3.405154836874e-03 2.110990372536e-03 0.0 
0.0 0.0 0.0 
9.256795696441e-04 3.453488771872e-03 0.0 
3.453488771872e-03 1.987195941222e-03 0.0 
0.0 0.0 0.0 
1.453735378141e-03 3.366961983770e-03 0.0 
3.366961983770e-03 1.326377329254e-03 0.0 
0.0 0.0 0.0 
1.486399261764e-03 3.298885969965e-03 0.0 
3.298885969965e-03 1.525392526471e-03 0.0 
0.0 0.0 0.0 
1.977373986715e-03 3.211869442277e-03 0.0 
3.211869442277e-03 6.973637504808e-04 0.0 
0.0 0.0 0.0 
1.988340455426e-03 3.332176495515e-03 0.0 
3.332176495515e-03 4.875916231144e-04 0.0 
0.0 0.0 0.0 
2.568833244341e-03 3.114934827341e-03 0.0 
3.114934827341e-03 -1.974001469257e-04 0.0 
0.0 0.0 0.0 
2.587882821817e-03 3.281459143595e-03 0.0 
3.281459143595e-03 -3.843319990620e-04 0.0 
0.0 0.0 0.0 
3.167818939092e-03 2.934778100872e-03 0.0 
2.934778100872e-03 -1.039053293997e-03 0.0 
0.0 0.0 0.0 
3.179045672280e-03 3.095350943091e-03 0.0 
3.095350943091e-03 -1.158001585200e-03 0.0 
0.0 0.0 0.0 
3.708527370579e-03 2.614129792145e-03 0.0 
2.614129792145e-03 -1.739914152006e-03 0.0 
0.0 0.0 0.0 
3.617102916662e-03 2.473832445911e-03 0.0 
2.473832445911e-03 -1.561469181438e-03 0.0 
0.0 0.0 0.0 
4.067533352861e-03 2.044164899255e-03 0.0 
2.044164899255e-03 -2.169922870650e-03 0.0 
0.0 0.0 0.0 
4.136673411120e-03 2.171791290014e-03 0.0 
2.171791290014e-03 -2.342890428627e-03 0.0 
0.0 0.0 0.0 
4.379442201025e-03 1.505176269374e-03 0.0 
1.505176269374e-03 -2.639926239883e-03 0.0 
0.0 0.0 0.0 
4.240120797099e-03 1.435216401677e-03 0.0 
1.435216401677e-03 -2.425586261510e-03 0.0 
0.0 0.0 0.0 
4.418355043246e-03 8.430435451496e-04 0.0 
8.430435451496e-04 -2.755383446078e-03 0.0 
0.0 0.0 0.0 
4.223282128255e-03 8.266633987835e-04 0.0 
8.266633987835e-04 -2.487572508692e-03 0.0 
0.0 0.0 0.0 
4.258319955999e-03 2.194628732971e-04 0.0 
2.194628732971e-04 -2.692346762200e-03 0.0 
0.0 0.0 0.0 
4.416094489651e-03 1.836069500748e-04 0.0 
1.836069500748e-04 -2.941889179255e-03 0.0 
0.0 0.0 0.0 
4.112842737113e-03 -4.138485181039e-04 0.0 
-4.138485181039e-04 -2.727046348931e-03 0.0 
0.0 0.0 0.0 
3.897520457602e-03 -3.169536130109e-04 0.0 
-3.169536130109e-04 -2.385194941140e-03 0.0 
0.0 0.0 0.0 
3.628989572249e-03 -8.836099047577e-04 0.0 
-8.836099047577e-04 -2.292405329278e-03 0.0 
0.0 0.0 0.0 
3.808540138923e-03 -1.047483664725e-03 0.0 
-1.047483664725e-03 -2.614210068865e-03 0.0 
0.0 0.0 0.0 
3.228863245409e-03 -1.402155200061e-03 0.0 
-1.402155200061e-03 -2.045612375248e-03 0.0 
0.0 0.0 0.0 
3.038143216104e-03 -1.195540901615e-03 0.0 
-1.195540901615e-03 -1.672347282567e-03 0.0 
0.0 0.0 0.0 
2.635166277011e-03 -1.606638553016e-03 0.0 
-1.606638553016e-03 -1.388796658040e-03 0.0 
0.0 0.0 0.0 
2.744699057793e-03 -1.836052983405e-03 0.0 
-1.836052983405e-03 -1.689311079258e-03 0.0 
0.0 0.0 0.0 
2.206717780813e-03 -1.960282642648e-03 0.0 
-1.960282642648e-03 -1.038829520258e-03 0.0 
0.0 0.0 0.0 
2.177907876121e-03 -1.776283371691e-03 0.0 
-1.776283371691e-03 -8.431804668035e-04 0.0 
0.0 0.0 0.0 
1.780080841191e-03 -2.062314647058e-03 0.0 
-2.062314647058e-03 -5.084847628638e-04 0.0 
0.0 0.0 0.0 
1.767044897600e-03 -2.241663732789e-03 0.0 
-2.241663732789e-03 -6.491818678212e-04 0.0 
0.0 0.0 0.0 
1.355018699567e-03 -2.269180334868e-03 0.0 
-2.269180334868e-03 -1.209091000675e-04 0.0 
0.0 0.0 0.0 
1.337363876229e-03 -2.093905626578e-03 0.0 
-2.093905626578e-03 6.613172091694e-05 0.0 
0.0 0.0 0.0 
9.271505912886e-04 -2.223928146341e-03 0.0 
-2.223928146341e-03 4.444983244016e-04 0.0 
0.0 0.0 0.0 
8.967344366236e-04 -2.056698664781e-03 0.0 
-2.056698664781e-03 6.859548418859e-04 0.0 
0.0 0.0 0.0 
9.165215669266e-04 -2.379933693678e-03 0.0 
-2.379933693678e-03 2.965325277603e-04 0.0 
0.0 0.0 0.0 
5.188621165271e-04 -2.269454678732e-03 0.0 
-2.269454678732e-03 8.369423137265e-04 0.0 
0.0 0.0 0.0 
4.901849231256e-04 -2.384685730738e-03 0.0 
-2.384685730738e-03 7.174432347732e-04 0.0 
0.0 0.0 0.0 
1.297004029065e-04 -2.224260267650e-03 0.0 
-2.224260267650e-03 1.221102969535e-03 0.0 
0.0 0.0 0.0 
1.928871078096e-03 3.127685313558e-03 0.0 
3.127685313558e-03 9.983415977401e-04 0.0 
0.0 0.0 0.0 
1.003937954410e-04 -2.281518627316e-03 0.0 
-2.281518627316e-03 1.109820515785e-03 0.0 
0.0 0.0 0.0 
4.227149217539e-04 -2.438005214243e-03 0.0 
-2.438005214243e-03 6.492699782520e-04 0.0 
0.0 0.0 0.0 
-2.143104793335e-04 -2.092211157388e-03 0.0 
-2.092211157388e-03 1.566588222993e-03 0.0 
0.0 0.0 0.0 
-2.054858866849e-04 -2.029622362082e-03 0.0 
-2.029622362082e-03 1.720491361141e-03 0.0 
0.0 0.0 0.0 
-2.234500813683e-04 -2.088027486704e-03 0.0 
-2.088027486704e-03 1.441358125543e-03 0.0 
0.0 0.0 0.0 
-4.929870334792e-04 -1.888802960857e-03 0.0 
-1.888802960857e-03 1.850399513296e-03 0.0 
0.0 0.0 0.0 
-4.629957983366e-04 -1.828968114364e-03 0.0 
-1.828968114364e-03 1.695857512716e-03 0.0 
0.0 0.0 0.0 
2.519673561626e-03 3.444884226098e-03 0.0 
3.444884226098e-03 -4.462145908779e-04 0.0 
0.0 0.0 0.0 
-4.659551142027e-04 2.943240913006e-03 0.0 
2.943240913006e-03 5.758407764353e-03 0.0 
0.0 0.0 0.0 
-6.931877349812e-04 -1.630451884803e-03 0.0 
-1.630451884803e-03 2.058517417748e-03 0.0 
0.0 0.0 0.0 
-6.054666825423e-04 -1.524703036899e-03 0.0 
-1.524703036899e-03 1.856314640011e-03 0.0 
0.0 0.0 0.0 
-4.177220390954e-04 -1.697288975268e-03 0.0 
-1.697288975268e-03 1.543058625861e-03 0.0 
0.0 0.0 0.0 
-4.792050920196e-04 -1.350137638744e-03 0.0 
-1.350137638744e-03 1.630698214703e-03 0.0 
0.0 0.0 0.0 
-1.630479623243e-03 1.369847133481e-03 0.0 
1.369847133481e-03 8.347952522486e-03 0.0 
0.0 0.0 0.0 
-1.466866782841e-03 1.503484798330e-03 0.0 
1.503484798330e-03 8.580581828180e-03 0.0 
0.0 0.0 0.0 
-1.540472400462e-03 1.288773674823e-03 0.0 
1.288773674823e-03 8.615473456658e-03 0.0 
0.0 0.0 0.0 
-1.374979304798e-03 1.433647301067e-03 0.0 
1.433647301067e-03 8.862334829548e-03 0.0 
0.0 0.0 0.0 
-1.442749547493e-03 1.230368104577e-03 0.0 
1.230368104577e-03 8.879321150982e-03 0.0 
0.0 0.0 0.0 
-6.408994752686e-04 -1.202069242786e-03 0.0 
-1.202069242786e-03 1.913227480488e-03 0.0 
0.0 0.0 0.0 
-1.143549452707e-03 2.218732746247e-03 0.0 
2.218732746247e-03 7.852999978824e-03 0.0 
0.0 0.0 0.0 
-1.286304984119e-03 1.638742585472e-03 0.0 
1.638742585472e-03 8.808581597774e-03 0.0 
0.0 0.0 0.0 
-8.859987756026e-04 2.873625477297e-03 0.0 
2.873625477297e-03 5.229988243296e-03 0.0 
0.0 0.0 0.0 
4.098103958691e-04 3.444824945005e-03 0.0 
3.444824945005e-03 2.669068642271e-03 0.0 
0.0 0.0 0.0 
4.004520681176e-03 1.376515266124e-03 0.0 
1.376515266124e-03 -2.093987449637e-03 0.0 
0.0 0.0 0.0 
-7.448592144598e-04 -1.668646099147e-03 0.0 
-1.668646099147e-03 2.248078615931e-03 0.0 
0.0 0.0 0.0 
-9.100157624097e-04 -1.419007968772e-03 0.0 
-1.419007968772e-03 2.410980188900e-03 0.0 
0.0 0.0 0.0 
-9.653447998573e-04 -1.434099949726e-03 0.0 
-1.434099949726e-03 2.622355426010e-03 0.0 
0.0 0.0 0.0 
1.278721078381e-03 -1.918771394465e-03 0.0 
-1.918771394465e-03 3.592434687053e-04 0.0 
0.0 0.0 0.0 
8.567466172491e-04 -1.875525610442e-03 0.0 
-1.875525610442e-03 1.013628776548e-03 0.0 
0.0 0.0 0.0 
1.214592156454e-03 -1.724715681189e-03 0.0 
-1.724715681189e-03 7.485996951843e-04 0.0 
0.0 0.0 0.0 
8.270616712590e-04 -1.659159730131e-03 0.0 
-1.659159730131e-03 1.409389364605e-03 0.0 
0.0 0.0 0.0 
1.153010076651e-03 -1.477344474236e-03 0.0 
-1.477344474236e-03 1.217777285192e-03 0.0 
0.0 0.0 0.0 
7.909277146705e-04 -1.400617534467e-03 0.0 
-1.400617534467e-03 1.862682592853e-03 0.0 
0.0 0.0 0.0 
4.842413464116e-04 -1.541214058922e-03 0.0 
-1.541214058922e-03 2.036300610107e-03 0.0 
0.0 0.0 0.0 
4.668072481927e-04 -1.293522808354e-03 0.0 
-1.293522808354e-03 2.468149560258e-03 0.0 
0.0 0.0 0.0 
1.855915671530e-04 -1.392414366921e-03 0.0 
-1.392414366921e-03 2.618557405988e-03 0.0 
0.0 0.0 0.0 
1.063293757986e-03 -1.192327400214e-03 0.0 
-1.192327400214e-03 1.746873615654e-03 0.0 
0.0 0.0 0.0 
1.438703791034e-03 -1.216209024591e-03 0.0 
-1.216209024591e-03 1.103215235702e-03 0.0 
0.0 0.0 0.0 
1.872137428626e-04 -1.168220865749e-03 0.0 
-1.168220865749e-03 3.027612671772e-03 0.0 
0.0 0.0 0.0 
-6.832221447069e-05 -1.227292863479e-03 0.0 
-1.227292863479e-03 3.152227549466e-03 0.0 
0.0 0.0 0.0 
-4.556750580557e-05 -1.032635655304e-03 0.0 
-1.032635655304e-03 3.539341862106e-03 0.0 
0.0 0.0 0.0 
-2.813174926568e-04 -1.056918038641e-03 0.0 
-1.056918038641e-03 3.636420827089e-03 0.0 
0.0 0.0 0.0 
-3.388084960068e-04 -1.234732813166e-03 0.0 
-1.234732813166e-03 3.295511622800e-03 0.0 
0.0 0.0 0.0 
-5.239037110770e-04 -1.035981442976e-03 0.0 
-1.035981442976e-03 3.741367313695e-03 0.0 
0.0 0.0 0.0 
-5.977107187763e-04 -1.196250475916e-03 0.0 
-1.196250475916e-03 3.436191825634e-03 0.0 
0.0 0.0 0.0 
3.909713655371e-03 8.144440764280e-04 0.0 
8.144440764280e-04 -2.040522629589e-03 0.0 
0.0 0.0 0.0 
3.624470394024e-03 1.349108652999e-03 0.0 
1.349108652999e-03 -1.487324292916e-03 0.0 
0.0 0.0 0.0 
3.445813304645e-03 8.354820810101e-04 0.0 
8.354820810101e-04 -1.252640910430e-03 0.0 
0.0 0.0 0.0 
3.134946587886e-03 1.319150405828e-03 0.0 
1.319150405828e-03 -5.622878888447e-04 0.0 
0.0 0.0 0.0 
2.949518070509e-03 8.909931063032e-04 0.0 
8.909931063032e-04 -3.041246449194e-04 0.0 
0.0 0.0 0.0 
2.667079039000e-03 1.300338364567e-03 0.0 
1.300338364567e-03 3.298019093925e-04 0.0 
0.0 0.0 0.0 
2.513269440273e-03 9.537668652913e-04 0.0 
9.537668652913e-04 5.356122771676e-04 0.0 
0.0 0.0 0.0 
2.719405609279e-03 5.375443995308e-04 0.0 
5.375443995308e-04 6.757889661813e-06 0.0 
0.0 0.0 0.0 
-9.352439028825e-04 2.522070646149e-03 0.0 
2.522070646149e-03 7.170306719003e-03 0.0 
0.0 0.0 0.0 
4.439692200428e-03 1.597906629156e-03 0.0 
1.597906629156e-03 -2.880291786889e-03 0.0 
0.0 0.0 0.0 
4.110734560191e-03 2.305293769028e-03 0.0 
2.305293769028e-03 -2.515865457311e-03 0.0 
0.0 0.0 0.0 
4.400362739006e-03 1.683541861013e-03 0.0 
1.683541861013e-03 -3.092345846864e-03 0.0 
0.0 0.0 0.0 
3.993774848080e-03 2.447261768750e-03 0.0 
2.447261768750e-03 -2.642583755970e-03 0.0 
0.0 0.0 0.0 
4.250571059426e-03 1.808815548767e-03 0.0 
1.808815548767e-03 -3.260624289350e-03 0.0 
0.0 0.0 0.0 
3.769726760575e-03 2.648296156273e-03 0.0 
2.648296156273e-03 -2.729018100928e-03 0.0 
0.0 0.0 0.0 
3.994167864395e-03 1.967057466827e-03 0.0 
1.967057466827e-03 -3.441565090492e-03 0.0 
0.0 0.0 0.0 
4.305765302044e-03 9.861719458334e-04 0.0 
9.861719458334e-04 -3.749440256244e-03 0.0 
0.0 0.0 0.0 
3.977692376713e-03 1.052761001459e-03 0.0 
1.052761001459e-03 -4.011508936764e-03 0.0 
0.0 0.0 0.0 
4.135075884271e-03 1.458736263009e-05 0.0 
1.458736263009e-05 -4.027312231408e-03 0.0 
0.0 0.0 0.0 
3.701900190730e-03 5.339196655592e-06 0.0 
5.339196655592e-06 -4.293611386966e-03 0.0 
0.0 0.0 0.0 
3.795937611677e-03 -1.011369435117e-03 0.0 
-1.011369435117e-03 -4.023996910672e-03 0.0 
0.0 0.0 0.0 
6.991571231760e-04 3.326183325594e-03 0.0 
3.326183325594e-03 3.142709276182e-03 0.0 
0.0 0.0 0.0 
2.755439950415e-03 1.698911281479e-03 0.0 
1.698911281479e-03 2.048797818162e-04 0.0 
0.0 0.0 0.0 
2.335179719706e-03 1.635085236023e-03 0.0 
1.635085236023e-03 1.015732290257e-03 0.0 
0.0 0.0 0.0 
2.358622841808e-03 1.985663757311e-03 0.0 
1.985663757311e-03 9.711151469037e-04 0.0 
0.0 0.0 0.0 
-3.450434036550e-04 -1.480154205764e-03 0.0 
-1.480154205764e-03 1.372037909896e-03 0.0 
0.0 0.0 0.0 
-4.543011003571e-04 -8.882224051403e-04 0.0 
-8.882224051403e-04 4.070699344528e-03 0.0 
0.0 0.0 0.0 
1.278055697268e-03 -9.327453209772e-04 0.0 
-9.327453209772e-04 1.703301643410e-03 0.0 
0.0 0.0 0.0 
1.650424071004e-03 -8.939230197728e-04 0.0 
-8.939230197728e-04 1.083155755169e-03 0.0 
0.0 0.0 0.0 
2.305060314903e-03 6.504440141690e-04 0.0 
6.504440141690e-04 8.266924288119e-04 0.0 
0.0 0.0 0.0 
-4.230742340168e-04 -1.002788726905e-03 0.0 
-1.002788726905e-03 1.606036065068e-03 0.0 
0.0 0.0 0.0 
3.424352346473e-03 2.859900238179e-03 0.0 
2.859900238179e-03 -2.787571129242e-03 0.0 
0.0 0.0 0.0 
3.056626854406e-03 3.330920780140e-03 0.0 
3.330920780140e-03 -1.937440141794e-03 0.0 
0.0 0.0 0.0 
-1.268944040274e-03 1.370657413867e-03 0.0 
1.370657413867e-03 9.125963707989e-03 0.0 
0.0 0.0 0.0 
-1.333662351929e-03 1.178297878172e-03 0.0 
1.178297878172e-03 9.126455475886e-03 0.0 
0.0 0.0 0.0 
1.420220389321e-03 -6.407397534155e-04 0.0 
-6.407397534155e-04 1.742754062114e-03 0.0 
0.0 0.0 0.0 
-5.611760477136e-04 -8.806365674065e-04 0.0 
-8.806365674065e-04 1.867402004947e-03 0.0 
0.0 0.0 0.0 
4.216377980936e-04 -1.058860284935e-03 0.0 
-1.058860284935e-03 2.933588675451e-03 0.0 
0.0 0.0 0.0 
3.452814535639e-03 1.156960763579e-03 0.0 
1.156960763579e-03 -4.224245049963e-03 0.0 
0.0 0.0 0.0 
-6.659194552466e-04 -8.419240037034e-04 0.0 
-8.419240037034e-04 4.135255394860e-03 0.0 
0.0 0.0 0.0 
-5.767320708777e-04 -7.217042432488e-04 0.0 
-7.217042432488e-04 4.450042236043e-03 0.0 
0.0 0.0 0.0 
1.645220626792e-04 -1.613379429761e-03 0.0 
-1.613379429761e-03 2.246583080332e-03 0.0 
0.0 0.0 0.0 
1.986356127782e-03 1.904474695711e-03 0.0 
1.904474695711e-03 1.724110315146e-03 0.0 
0.0 0.0 0.0 
1.972104149969e-03 2.202898425933e-03 0.0 
2.202898425933e-03 1.727897960938e-03 0.0 
0.0 0.0 0.0 
4.050768638063e-03 -8.917230301855e-04 0.0 
-8.917230301855e-04 -3.735647025591e-03 0.0 
0.0 0.0 0.0 
3.586946955715e-03 -1.826669519464e-03 0.0 
-1.826669519464e-03 -3.452917446656e-03 0.0 
0.0 0.0 0.0 
3.339554055013e-03 -2.048304402140e-03 0.0 
-2.048304402140e-03 -3.644660661610e-03 0.0 
0.0 0.0 0.0 
2.893230354914e-03 -2.606199858795e-03 0.0 
-2.606199858795e-03 -2.841166182839e-03 0.0 
0.0 0.0 0.0 
3.163280260779e-03 -2.313419895487e-03 0.0 
-2.313419895487e-03 -2.789891357271e-03 0.0 
0.0 0.0 0.0 
2.418523984476e-03 -2.836967491049e-03 0.0 
-2.836967491049e-03 -2.134541256118e-03 0.0 
0.0 0.0 0.0 
2.030261328716e-03 -3.126164018487e-03 0.0 
-3.126164018487e-03 -2.009107322336e-03 0.0 
0.0 0.0 0.0 
1.596894780944e-03 -3.126772009875e-03 0.0 
-3.126772009875e-03 -1.282159180715e-03 0.0 
0.0 0.0 0.0 
1.944297123458e-03 -2.901481828518e-03 0.0 
-2.901481828518e-03 -1.463743024389e-03 0.0 
0.0 0.0 0.0 
1.166297130976e-03 -2.948368747547e-03 0.0 
-2.948368747547e-03 -6.862155774139e-04 0.0 
0.0 0.0 0.0 
6.698445000298e-04 -2.955644529179e-03 0.0 
-2.955644529179e-03 -3.770315469775e-04 0.0 
0.0 0.0 0.0 
4.413121845368e-04 -2.692705289888e-03 0.0 
-2.692705289888e-03 4.700980070652e-05 0.0 
0.0 0.0 0.0 
-3.854447671687e-04 -7.565949036814e-04 0.0 
-7.565949036814e-04 4.418132144106e-03 0.0 
0.0 0.0 0.0 
3.132727133638e-03 1.965645805134e-05 0.0 
1.965645805134e-05 -4.553000786305e-03 0.0 
0.0 0.0 0.0 
-1.439807410757e-03 2.319817158756e-03 0.0 
2.319817158756e-03 6.642029944252e-03 0.0 
0.0 0.0 0.0 
1.083479786152e-03 -7.015871480592e-04 0.0 
-7.015871480592e-04 2.314463719935e-03 0.0 
0.0 0.0 0.0 
2.089112800384e-03 1.014231169489e-03 0.0 
1.014231169489e-03 1.333386757542e-03 0.0 
0.0 0.0 0.0 
-1.149864949250e-03 1.313618512324e-03 0.0 
1.313618512324e-03 9.375414246693e-03 0.0 
0.0 0.0 0.0 
-1.214560347103e-03 1.129336589095e-03 0.0 
1.129336589095e-03 9.359758354383e-03 0.0 
0.0 0.0 0.0 
-1.378051186989e-03 9.949322223771e-04 0.0 
9.949322223771e-04 9.092724745704e-03 0.0 
0.0 0.0 0.0 
-1.262363486695e-03 9.540406467087e-04 0.0 
9.540406467087e-04 9.315092709058e-03 0.0 
0.0 0.0 0.0 
-1.084971452176e-03 1.080346579634e-03 0.0 
1.080346579634e-03 9.579346520700e-03 0.0 
0.0 0.0 0.0 
-1.139001744792e-03 9.117396163261e-04 0.0 
9.117396163261e-04 9.526440408577e-03 0.0 
0.0 0.0 0.0 
-1.295637512052e-03 7.909753304376e-04 0.0 
7.909753304376e-04 9.244643183204e-03 0.0 
0.0 0.0 0.0 
-1.179827600167e-03 7.555313456339e-04 0.0 
7.555313456339e-04 9.450318790738e-03 0.0 
0.0 0.0 0.0 
-1.316020226478e-03 6.419106210799e-04 0.0 
6.419106210799e-04 9.151374404240e-03 0.0 
0.0 0.0 0.0 
-1.209186740010e-03 6.135438425593e-04 0.0 
6.135438425593e-04 9.353126880756e-03 0.0 
0.0 0.0 0.0 
-1.058750850928e-03 7.164113727613e-04 0.0 
7.164113727613e-04 9.648128373058e-03 0.0 
0.0 0.0 0.0 
-1.097496405111e-03 5.799646595185e-04 0.0 
5.799646595185e-04 9.547385129579e-03 0.0 
0.0 0.0 0.0 
-1.229288518470e-03 4.865275470108e-04 0.0 
4.865275470108e-04 9.236759461098e-03 0.0 
0.0 0.0 0.0 
-1.128253365546e-03 4.574535276986e-04 0.0 
4.574535276986e-04 9.430363784433e-03 0.0 
0.0 0.0 0.0 
-1.242560605809e-03 3.748616743606e-04 0.0 
3.748616743606e-04 9.104252742116e-03 0.0 
0.0 0.0 0.0 
-1.152712180220e-03 3.496654372492e-04 0.0 
3.496654372492e-04 9.297351858395e-03 0.0 
0.0 0.0 0.0 
-1.023174577317e-03 4.214113634129e-04 0.0 
4.214113634129e-04 9.617479775574e-03 0.0 
0.0 0.0 0.0 
-2.212782694721e-04 -7.034898909653e-04 0.0 
-7.034898909653e-04 1.469983645399e-03 0.0 
0.0 0.0 0.0 
2.446769826710e-03 2.425666222203e-04 0.0 
2.425666222203e-04 3.886945098464e-04 0.0 
0.0 0.0 0.0 
2.045714085551e-03 3.912376284141e-04 0.0 
3.912376284141e-04 1.191152791189e-03 0.0 
0.0 0.0 0.0 
-1.097938305663e-03 -1.198189599856e-03 0.0 
-1.198189599856e-03 2.734593618127e-03 0.0 
0.0 0.0 0.0 
-1.146454932161e-03 -1.189128044874e-03 0.0 
-1.189128044874e-03 2.966404394601e-03 0.0 
0.0 0.0 0.0 
-9.796505635365e-04 -1.400978423307e-03 0.0 
-1.400978423307e-03 2.843836539269e-03 0.0 
0.0 0.0 0.0 
-1.154304162735e-03 -1.147809135250e-03 0.0 
-1.147809135250e-03 3.202405158747e-03 0.0 
0.0 0.0 0.0 
-1.060972594719e-03 3.157647039299e-04 0.0 
3.157647039299e-04 9.483763943597e-03 0.0 
0.0 0.0 0.0 
-9.153661709976e-04 3.770153581178e-04 0.0 
3.770153581178e-04 9.798449221214e-03 0.0 
0.0 0.0 0.0 
2.606703670793e-03 3.554110272465e-03 0.0 
3.554110272465e-03 -1.850132997531e-03 0.0 
0.0 0.0 0.0 
2.162170209363e-03 3.766259801263e-03 0.0 
3.766259801263e-03 -9.452947249351e-04 0.0 
0.0 0.0 0.0 
-1.066797591047e-03 1.505773403957e-03 0.0 
1.505773403957e-03 9.359926848950e-03 0.0 
0.0 0.0 0.0 
-7.642483021057e-04 -6.533482098614e-04 0.0 
-6.533482098614e-04 4.474336517096e-03 0.0 
0.0 0.0 0.0 
-8.702370668927e-04 -7.578462389362e-04 0.0 
-7.578462389362e-04 4.191582724923e-03 0.0 
0.0 0.0 0.0 
7.899572105413e-04 3.498960760564e-03 0.0 
3.498960760564e-03 1.958038274110e-03 0.0 
0.0 0.0 0.0 
2.466895551615e-04 3.446696751111e-03 0.0 
3.446696751111e-03 2.689259797808e-03 0.0 
0.0 0.0 0.0 
6.078790770424e-04 3.534309287533e-03 0.0 
3.534309287533e-03 2.009373161729e-03 0.0 
0.0 0.0 0.0 
4.198138548998e-05 3.409874681129e-03 0.0 
3.409874681129e-03 2.784015969901e-03 0.0 
0.0 0.0 0.0 
-2.607005386873e-04 3.271723237411e-03 0.0 
3.271723237411e-03 3.394523775750e-03 0.0 
0.0 0.0 0.0 
3.732194398507e-04 3.529603247956e-03 0.0 
3.529603247956e-03 2.119513916349e-03 0.0 
0.0 0.0 0.0 
1.843689255517e-03 -1.191964757552e-03 0.0 
-1.191964757552e-03 4.343090860956e-04 0.0 
0.0 0.0 0.0 
-9.326056483704e-04 6.713968694282e-04 0.0 
6.713968694282e-04 9.836525566020e-03 0.0 
0.0 0.0 0.0 
-2.610050194102e-04 -1.851394228424e-03 0.0 
-1.851394228424e-03 1.258464798966e-03 0.0 
0.0 0.0 0.0 
-2.681004581762e-04 -1.591371659453e-03 0.0 
-1.591371659453e-03 1.161695271269e-03 0.0 
0.0 0.0 0.0 
-6.522490398901e-04 -5.611104939620e-04 0.0 
-5.611104939620e-04 4.774380338060e-03 0.0 
0.0 0.0 0.0 
2.832735433143e-03 6.185158594266e-05 0.0 
6.185158594266e-05 -4.326524638876e-04 0.0 
0.0 0.0 0.0 
3.656992527818e-04 3.249827669426e-03 0.0 
3.249827669426e-03 3.932464355101e-03 0.0 
0.0 0.0 0.0 
7.317703519497e-04 3.187037130880e-03 0.0 
3.187037130880e-03 3.482962620220e-03 0.0 
0.0 0.0 0.0 
4.099568031440e-04 3.109394208630e-03 0.0 
3.109394208630e-03 4.268696459936e-03 0.0 
0.0 0.0 0.0 
7.160840215124e-04 3.021499535065e-03 0.0 
3.021499535065e-03 3.887608984878e-03 0.0 
0.0 0.0 0.0 
4.143257952626e-04 2.985524295747e-03 0.0 
2.985524295747e-03 4.649499217642e-03 0.0 
0.0 0.0 0.0 
6.553131905637e-04 2.903009732754e-03 0.0 
2.903009732754e-03 4.326865674215e-03 0.0 
0.0 0.0 0.0 
9.740290098954e-04 2.884926223580e-03 0.0 
2.884926223580e-03 3.566253334395e-03 0.0 
0.0 0.0 0.0 
1.643339532634e-03 2.128370362657e-03 0.0 
2.128370362657e-03 2.435778600925e-03 0.0 
0.0 0.0 0.0 
8.458500736450e-04 2.784239192446e-03 0.0 
2.784239192446e-03 4.070640881528e-03 0.0 
0.0 0.0 0.0 
-1.174547767900e-03 2.603245849240e-04 0.0 
2.603245849240e-04 9.146428355784e-03 0.0 
0.0 0.0 0.0 
2.747010761174e-03 2.134765414354e-03 0.0 
2.134765414354e-03 1.654899420654e-04 0.0 
0.0 0.0 0.0 
1.465234529351e-03 -2.794109713257e-03 0.0 
-2.794109713257e-03 -8.472521162221e-04 0.0 
0.0 0.0 0.0 
-1.281021848145e-04 -7.641414622404e-04 0.0 
-7.641414622404e-04 1.246529409241e-03 0.0 
0.0 0.0 0.0 
3.005336758092e-05 -2.471223288826e-03 0.0 
-2.471223288826e-03 3.533014852812e-04 0.0 
0.0 0.0 0.0 
-3.716728090780e-04 -5.932953112511e-04 0.0 
-5.932953112511e-04 1.708643122451e-03 0.0 
0.0 0.0 0.0 
-7.309285138862e-04 -7.465682397156e-04 0.0 
-7.465682397156e-04 2.135038467363e-03 0.0 
0.0 0.0 0.0 
1.159065101779e-03 -4.429338646755e-04 0.0 
-4.429338646755e-04 2.406176959631e-03 0.0 
0.0 0.0 0.0 
3.790720636371e-04 2.915302421753e-03 0.0 
2.915302421753e-03 5.066168934936e-03 0.0 
0.0 0.0 0.0 
1.615336385794e-04 2.947973549687e-03 0.0 
2.947973549687e-03 5.364656870426e-03 0.0 
0.0 0.0 0.0 
-4.561149296766e-04 3.160306812549e-03 0.0 
3.160306812549e-03 3.502019056415e-03 0.0 
0.0 0.0 0.0 
-7.074241250756e-04 2.980366115598e-03 0.0 
2.980366115598e-03 4.043479897640e-03 0.0 
0.0 0.0 0.0 
1.615452734503e-03 1.870108781092e-03 0.0 
1.870108781092e-03 2.453931638987e-03 0.0 
0.0 0.0 0.0 
-1.586095200558e-03 1.089683302427e-03 0.0 
1.089683302427e-03 8.618036195801e-03 0.0 
0.0 0.0 0.0 
-1.418753590787e-03 6.662754389139e-04 0.0 
6.662754389139e-04 8.943078133405e-03 0.0 
0.0 0.0 0.0 
-1.415521985391e-03 5.259003039415e-04 0.0 
5.259003039415e-04 8.829402360847e-03 0.0 
0.0 0.0 0.0 
1.381217631712e-04 -4.386146479243e-04 0.0 
-4.386146479243e-04 1.150194654306e-03 0.0 
0.0 0.0 0.0 
1.089288285979e-04 -2.804618151835e-03 0.0 
-2.804618151835e-03 6.657866669317e-05 0.0 
0.0 0.0 0.0 
-9.486546737301e-04 1.028222165904e-03 0.0 
1.028222165904e-03 9.787847501009e-03 0.0 
0.0 0.0 0.0 
2.591245548126e-03 3.592858336848e-03 0.0 
3.592858336848e-03 -1.111083693642e-03 0.0 
0.0 0.0 0.0 
1.705520327190e-03 3.830312737502e-03 0.0 
3.830312737502e-03 -1.337080979598e-04 0.0 
0.0 0.0 0.0 
2.697600727088e-03 1.323660493541e-03 0.0 
1.323660493541e-03 -4.383030276039e-03 0.0 
0.0 0.0 0.0 
2.391552589857e-03 5.439448448681e-05 0.0 
5.439448448681e-05 -4.728986567619e-03 0.0 
0.0 0.0 0.0 
-9.651842785205e-04 2.760186671089e-04 0.0 
2.760186671089e-04 9.663312410828e-03 0.0 
0.0 0.0 0.0 
-8.087645060832e-04 3.224942862955e-04 0.0 
3.224942862955e-04 9.967808354199e-03 0.0 
0.0 0.0 0.0 
-9.618677235276e-04 -1.332033027158e-03 0.0 
-1.332033027158e-03 3.072962460460e-03 0.0 
0.0 0.0 0.0 
-1.119778201064e-03 -1.075365809274e-03 0.0 
-1.075365809274e-03 3.435844849090e-03 0.0 
0.0 0.0 0.0 
1.480153410502e-03 -3.295895105095e-04 0.0 
-3.295895105095e-04 1.878339779795e-03 0.0 
0.0 0.0 0.0 
-2.666932376072e-05 -2.274621654208e-03 0.0 
-2.274621654208e-03 5.822659117112e-04 0.0 
0.0 0.0 0.0 
-7.414929036986e-04 4.351365143835e-04 0.0 
4.351365143835e-04 1.008912177068e-02 0.0 
0.0 0.0 0.0 
2.495566007412e-03 -2.041118752524e-04 0.0 
-2.041118752524e-04 5.291522850620e-05 0.0 
0.0 0.0 0.0 
2.828365185393e-03 -4.471314188746e-04 0.0 
-4.471314188746e-04 -7.451622733848e-04 0.0 
0.0 0.0 0.0 
-1.307917276941e-03 -9.211247961313e-04 0.0 
-9.211247961313e-04 3.294667151777e-03 0.0 
0.0 0.0 0.0 
1.535790833963e-03 3.889021754713e-03 0.0 
3.889021754713e-03 -6.776837603361e-04 0.0 
0.0 0.0 0.0 
1.897691169787e-03 3.749446697428e-03 0.0 
3.749446697428e-03 -1.644884394370e-03 0.0 
0.0 0.0 0.0 
2.146232928528e-03 -2.644396457282e-03 0.0 
-2.644396457282e-03 -1.525337199279e-03 0.0 
0.0 0.0 0.0 
2.681857173530e-04 -2.494130287425e-03 0.0 
-2.494130287425e-03 4.006832073793e-04 0.0 
0.0 0.0 0.0 
-5.415649083622e-04 -4.862898577086e-04 0.0 
-4.862898577086e-04 1.964734178346e-03 0.0 
0.0 0.0 0.0 
1.158493065344e-03 -1.647839259830e-04 0.0 
-1.647839259830e-04 2.578109336955e-03 0.0 
0.0 0.0 0.0 
-8.749259935779e-04 1.199851939195e-03 0.0 
1.199851939195e-03 9.823024442560e-03 0.0 
0.0 0.0 0.0 
1.164145035380e-03 2.708959277499e-03 0.0 
2.708959277499e-03 3.322758732193e-03 0.0 
0.0 0.0 0.0 
1.327362526989e-03 2.851506162299e-03 0.0 
2.851506162299e-03 2.773488991211e-03 0.0 
0.0 0.0 0.0 
9.679386937572e-04 2.631138226768e-03 0.0 
2.631138226768e-03 3.881098277484e-03 0.0 
0.0 0.0 0.0 
-3.127909087760e-04 -1.923133833691e-03 0.0 
-1.923133833691e-03 7.567787829926e-04 0.0 
0.0 0.0 0.0 
8.523108359659e-04 -5.318168695379e-04 0.0 
-5.318168695379e-04 2.947614392532e-03 0.0 
0.0 0.0 0.0 
-8.214981223951e-04 -4.739868838549e-04 0.0 
-4.739868838549e-04 4.761634233686e-03 0.0 
0.0 0.0 0.0 
1.479808774850e-04 2.929427764251e-03 0.0 
2.929427764251e-03 5.748621521923e-03 0.0 
0.0 0.0 0.0 
-4.019848406815e-05 2.913574982035e-03 0.0 
2.913574982035e-03 6.028140955792e-03 0.0 
0.0 0.0 0.0 
2.098688962845e-03 3.707262850151e-03 0.0 
3.707262850151e-03 -3.285776844908e-04 0.0 
0.0 0.0 0.0 
1.232475190606e-03 3.788396301903e-03 0.0 
3.788396301903e-03 6.285329708958e-04 0.0 
0.0 0.0 0.0 
7.929961265086e-04 3.815600863061e-03 0.0 
3.815600863061e-03 9.023708751986e-04 0.0 
0.0 0.0 0.0 
4.275032246915e-04 3.673729996975e-03 0.0 
3.673729996975e-03 1.620338296003e-03 0.0 
0.0 0.0 0.0 
-1.670915634681e-03 1.921309155057e-03 0.0 
1.921309155057e-03 7.300711870710e-03 0.0 
0.0 0.0 0.0 
1.559426817987e-03 3.713001813975e-03 0.0 
3.713001813975e-03 4.484629709788e-04 0.0 
0.0 0.0 0.0 
-1.334119421632e-03 2.453439822713e-03 0.0 
2.453439822713e-03 6.172027441180e-03 0.0 
0.0 0.0 0.0 
-1.552939964316e-03 2.157550593564e-03 0.0 
2.157550593564e-03 6.484811677900e-03 0.0 
0.0 0.0 0.0 
-1.448964924006e-03 2.292949550966e-03 0.0 
2.292949550966e-03 6.040632616149e-03 0.0 
0.0 0.0 0.0 
-5.471592859357e-04 3.103960862101e-03 0.0 
3.103960862101e-03 3.988332311072e-03 0.0 
0.0 0.0 0.0 
-9.383520136479e-04 2.790770804516e-03 0.0 
2.790770804516e-03 4.562429749831e-03 0.0 
0.0 0.0 0.0 
3.580346180181e-03 2.926432502326e-03 0.0 
2.926432502326e-03 -1.942576036805e-03 0.0 
0.0 0.0 0.0 
3.617295718717e-03 1.868668362040e-03 0.0 
1.868668362040e-03 -1.465859537877e-03 0.0 
0.0 0.0 0.0 
-7.554274724832e-04 -1.578495257016e-03 0.0 
-1.578495257016e-03 2.660765407255e-03 0.0 
0.0 0.0 0.0 
-3.974649924648e-04 -1.416016767775e-03 0.0 
-1.416016767775e-03 2.980275400123e-03 0.0 
0.0 0.0 0.0 
1.645205872958e-03 -1.714248954100e-03 0.0 
-1.714248954100e-03 7.714456781196e-05 0.0 
0.0 0.0 0.0 
-8.748949209434e-04 8.161041266927e-04 0.0 
8.161041266927e-04 9.920782255590e-03 0.0 
0.0 0.0 0.0 
-7.356912106746e-04 7.591437294317e-04 0.0 
7.591437294317e-04 1.010504766911e-02 0.0 
0.0 0.0 0.0 
-1.328819091296e-03 3.925146530752e-04 0.0 
3.925146530752e-04 8.904059481016e-03 0.0 
0.0 0.0 0.0 
-1.324796082936e-03 2.896812850280e-04 0.0 
2.896812850280e-04 8.754751208450e-03 0.0 
0.0 0.0 0.0 
-2.487622552575e-04 -1.181020491924e-03 0.0 
-1.181020491924e-03 1.170776072133e-03 0.0 
0.0 0.0 0.0 
-2.509329868422e-04 -1.250470869843e-03 0.0 
-1.250470869843e-03 1.033562867540e-03 0.0 
0.0 0.0 0.0 
4.944825655798e-04 -1.958408340836e-03 0.0 
-1.958408340836e-03 1.311442143420e-03 0.0 
0.0 0.0 0.0 
7.715287907717e-04 -7.335148270744e-04 0.0 
-7.335148270744e-04 2.869936920328e-03 0.0 
0.0 0.0 0.0 
-9.338579475229e-04 1.441792076357e-03 0.0 
1.441792076357e-03 9.606552676303e-03 0.0 
0.0 0.0 0.0 
-8.347444920006e-04 1.638221929135e-03 0.0 
1.638221929135e-03 9.577913933627e-03 0.0 
0.0 0.0 0.0 
-9.672448542556e-04 1.703903434080e-03 0.0 
1.703903434080e-03 9.315030235286e-03 0.0 
0.0 0.0 0.0 
1.461099425204e-03 -6.747490783577e-06 0.0 
-6.747490783577e-06 2.089540005941e-03 0.0 
0.0 0.0 0.0 
4.573547331590e-03 8.932452589387e-04 0.0 
8.932452589387e-04 -3.293805301775e-03 0.0 
0.0 0.0 0.0 
3.608712854228e-03 2.970897800369e-04 0.0 
2.970897800369e-04 -1.721921443212e-03 0.0 
0.0 0.0 0.0 
2.746920415828e-03 -1.266354953004e-03 0.0 
-1.266354953004e-03 -4.580259673966e-03 0.0 
0.0 0.0 0.0 
1.489983622224e-03 3.214761585292e-03 0.0 
3.214761585292e-03 1.826964835947e-03 0.0 
0.0 0.0 0.0 
-7.231209279779e-05 -8.792356906295e-04 0.0 
-8.792356906295e-04 9.003929991707e-04 0.0 
0.0 0.0 0.0 
-6.109385362327e-04 2.797568051196e-03 0.0 
2.797568051196e-03 6.350519717280e-03 0.0 
0.0 0.0 0.0 
-6.870485005276e-04 -4.078430397486e-04 0.0 
-4.078430397486e-04 5.051591374234e-03 0.0 
0.0 0.0 0.0 
-5.352028040150e-04 -4.921310976038e-04 0.0 
-4.921310976038e-04 5.082701057695e-03 0.0 
0.0 0.0 0.0 
1.298855864415e-03 2.098755839058e-03 0.0 
2.098755839058e-03 3.122371917645e-03 0.0 
0.0 0.0 0.0 
-1.871228310457e-03 1.454711110618e-03 0.0 
1.454711110618e-03 7.244406344369e-03 0.0 
0.0 0.0 0.0 
1.851654729611e-03 2.999753549479e-03 0.0 
2.999753549479e-03 1.423449317831e-03 0.0 
0.0 0.0 0.0 
2.321332954453e-03 2.881028087966e-03 0.0 
2.881028087966e-03 5.574915767630e-04 0.0 
0.0 0.0 0.0 
-1.638271624148e-03 1.966523383475e-03 0.0 
1.966523383475e-03 6.330399578554e-03 0.0 
0.0 0.0 0.0 
-1.534638756548e-03 2.098990969832e-03 0.0 
2.098990969832e-03 5.923299016665e-03 0.0 
0.0 0.0 0.0 
-1.313233897992e-03 2.441110477968e-03 0.0 
2.441110477968e-03 5.574283333211e-03 0.0 
0.0 0.0 0.0 
-1.403055992085e-03 2.251967356717e-03 0.0 
2.251967356717e-03 5.487001311144e-03 0.0 
0.0 0.0 0.0 
1.635488117827e-03 -2.584565210663e-03 0.0 
-2.584565210663e-03 -8.613910391257e-04 0.0 
0.0 0.0 0.0 
1.061922702013e-03 -2.649424659253e-03 0.0 
-2.649424659253e-03 -2.775909692561e-04 0.0 
0.0 0.0 0.0 
3.017952790374e-04 2.919205663963e-03 0.0 
2.919205663963e-03 5.551450585725e-03 0.0 
0.0 0.0 0.0 
6.854935993818e-04 2.764200834486e-03 0.0 
2.764200834486e-03 4.586718679976e-03 0.0 
0.0 0.0 0.0 
-7.745291689768e-06 2.944814124863e-03 0.0 
2.944814124863e-03 6.381248051687e-03 0.0 
0.0 0.0 0.0 
-1.774755586583e-04 2.891187831747e-03 0.0 
2.891187831747e-03 6.654113121105e-03 0.0 
0.0 0.0 0.0 
1.231856323288e-03 1.869560420475e-03 0.0 
1.869560420475e-03 3.168009481945e-03 0.0 
0.0 0.0 0.0 
1.537293502629e-03 1.613056796769e-03 0.0 
1.613056796769e-03 2.534958151911e-03 0.0 
0.0 0.0 0.0 
-8.935108830529e-04 -5.891590931865e-04 0.0 
-5.891590931865e-04 2.386673372222e-03 0.0 
0.0 0.0 0.0 
-1.064226076502e-03 2.598087421798e-03 0.0 
2.598087421798e-03 4.588919596471e-03 0.0 
0.0 0.0 0.0 
-7.260269593335e-04 1.138544031108e-03 0.0 
1.138544031108e-03 1.003011263716e-02 0.0 
0.0 0.0 0.0 
-1.717193550305e-03 1.847042550393e-03 0.0 
1.847042550393e-03 6.725500321967e-03 0.0 
0.0 0.0 0.0 
5.705298673999e-04 -5.987823955917e-04 0.0 
-5.987823955917e-04 3.456562502582e-03 0.0 
0.0 0.0 0.0 
4.966608774253e-04 -7.445717325718e-04 0.0 
-7.445717325718e-04 3.408893776017e-03 0.0 
0.0 0.0 0.0 
1.752196356878e-03 -1.139721540718e-03 0.0 
-1.139721540718e-03 -4.629958398992e-03 0.0 
0.0 0.0 0.0 
1.981437609846e-03 -2.673940126501e-03 0.0 
-2.673940126501e-03 -3.862518087643e-03 0.0 
0.0 0.0 0.0 
-6.234760139977e-04 3.667403172645e-04 0.0 
3.667403172645e-04 1.025455065661e-02 0.0 
0.0 0.0 0.0 
4.033753434551e-06 3.594741826944e-03 0.0 
3.594741826944e-03 1.939396280332e-03 0.0 
0.0 0.0 0.0 
-2.398298042813e-04 3.386347426412e-03 0.0 
3.386347426412e-03 2.586296815206e-03 0.0 
0.0 0.0 0.0 
2.650192130422e-04 3.739141943048e-03 0.0 
3.739141943048e-03 1.241919041034e-03 0.0 
0.0 0.0 0.0 
-3.906322194602e-04 -1.208056017813e-04 0.0 
-1.208056017813e-04 5.746519110704e-03 0.0 
0.0 0.0 0.0 
-1.279638457655e-03 2.804303093451e-05 0.0 
2.804303093451e-05 8.007975832650e-03 0.0 
0.0 0.0 0.0 
-5.343074302701e-04 -3.640341673970e-04 0.0 
-3.640341673970e-04 5.341855581595e-03 0.0 
0.0 0.0 0.0 
-8.059826052800e-04 2.928560386776e-03 0.0 
2.928560386776e-03 4.573934307444e-03 0.0 
0.0 0.0 0.0 
-5.387525969055e-04 4.922089767795e-04 0.0 
4.922089767795e-04 1.036564432961e-02 0.0 
0.0 0.0 0.0 
2.130807880514e-03 2.702089916117e-03 0.0 
2.702089916117e-03 1.147369664285e-03 0.0 
0.0 0.0 0.0 
1.240520382389e-03 3.553546409943e-03 0.0 
3.553546409943e-03 1.199662791619e-03 0.0 
0.0 0.0 0.0 
1.808026022715e-03 -1.808457563820e-04 0.0 
-1.808457563820e-04 1.353743830977e-03 0.0 
0.0 0.0 0.0 
-7.141087263694e-04 2.404243345686e-04 0.0 
2.404243345686e-04 1.011663153435e-02 0.0 
0.0 0.0 0.0 
-4.992704256699e-04 2.879992327146e-04 0.0 
2.879992327146e-04 1.041897223760e-02 0.0 
0.0 0.0 0.0 
-1.504338161499e-03 5.427695695200e-04 0.0 
5.427695695200e-04 8.618116427850e-03 0.0 
0.0 0.0 0.0 
-1.488050751236e-03 4.069383052377e-04 0.0 
4.069383052377e-04 8.476206915116e-03 0.0 
0.0 0.0 0.0 
-1.516150478563e-03 6.884144959318e-04 0.0 
6.884144959318e-04 8.717961032500e-03 0.0 
0.0 0.0 0.0 
3.075336149149e-03 2.382972147814e-03 0.0 
2.382972147814e-03 -3.751142583193e-03 0.0 
0.0 0.0 0.0 
2.012669414722e-03 2.741785898303e-03 0.0 
2.741785898303e-03 -3.589057701172e-03 0.0 
0.0 0.0 0.0 
-8.032343294998e-04 6.177503882580e-04 0.0 
6.177503882580e-04 1.001786979283e-02 0.0 
0.0 0.0 0.0 
-9.981274753089e-04 -1.139636531746e-03 0.0 
-1.139636531746e-03 2.497990962179e-03 0.0 
0.0 0.0 0.0 
-1.187257021628e-03 -9.152711833679e-04 0.0 
-9.152711833679e-04 2.832034312936e-03 0.0 
0.0 0.0 0.0 
-7.828874866100e-05 -2.131709844526e-03 0.0 
-2.131709844526e-03 8.045790516918e-04 0.0 
0.0 0.0 0.0 
1.231129510587e-04 -2.341536682644e-03 0.0 
-2.341536682644e-03 7.147838682376e-04 0.0 
0.0 0.0 0.0 
-7.232936596579e-04 -1.477653136150e-03 0.0 
-1.477653136150e-03 2.899080210930e-03 0.0 
0.0 0.0 0.0 
-4.851766471653e-04 -1.710194527080e-03 0.0 
-1.710194527080e-03 2.434512081714e-03 0.0 
0.0 0.0 0.0 
-3.436176153132e-04 2.889552285380e-03 0.0 
2.889552285380e-03 6.015149092126e-03 0.0 
0.0 0.0 0.0 
-4.791570163283e-04 2.789724282600e-03 0.0 
2.789724282600e-03 6.603957794664e-03 0.0 
0.0 0.0 0.0 
7.698321048429e-05 3.137478728317e-03 0.0 
3.137478728317e-03 4.681681148231e-03 0.0 
0.0 0.0 0.0 
2.437118799890e-03 -6.730158474601e-04 0.0 
-6.730158474601e-04 -1.669805038759e-04 0.0 
0.0 0.0 0.0 
2.677407281702e-03 -9.132090316991e-04 0.0 
-9.132090316991e-04 -8.548703277844e-04 0.0 
0.0 0.0 0.0 
3.108447835196e-03 -6.155324924106e-04 0.0 
-6.155324924106e-04 -1.388805383454e-03 0.0 
0.0 0.0 0.0 
-6.581552321141e-04 9.074897997129e-04 0.0 
9.074897997129e-04 1.016447447458e-02 0.0 
0.0 0.0 0.0 
-4.885182480370e-04 8.464630003392e-04 0.0 
8.464630003392e-04 1.036550497450e-02 0.0 
0.0 0.0 0.0 
2.229215282810e-03 -2.387206170169e-03 0.0 
-2.387206170169e-03 -1.439694753194e-03 0.0 
0.0 0.0 0.0 
2.791501187192e-03 -2.291544175181e-03 0.0 
-2.291544175181e-03 -2.112421830998e-03 0.0 
0.0 0.0 0.0 
1.218553043297e-03 -2.535097587092e-03 0.0 
-2.535097587092e-03 -2.836790106638e-04 0.0 
0.0 0.0 0.0 
-6.354952474298e-04 1.316202348181e-03 0.0 
1.316202348181e-03 1.005089200561e-02 0.0 
0.0 0.0 0.0 
-3.983608066275e-04 -4.584431917956e-04 0.0 
-4.584431917956e-04 5.383747735983e-03 0.0 
0.0 0.0 0.0 
-3.792402048776e-04 -5.608683987801e-04 0.0 
-5.608683987801e-04 5.104539065423e-03 0.0 
0.0 0.0 0.0 
-1.208081105600e-04 -8.919611887914e-04 0.0 
-8.919611887914e-04 7.916525916242e-04 0.0 
0.0 0.0 0.0 
-2.777118790889e-04 -1.304532065186e-03 0.0 
-1.304532065186e-03 9.305229970351e-04 0.0 
0.0 0.0 0.0 
8.118003600921e-04 3.958781901269e-03 0.0 
3.958781901269e-03 -3.006565750291e-04 0.0 
0.0 0.0 0.0 
1.101970044865e-03 3.918914979595e-03 0.0 
3.918914979595e-03 -1.301585346723e-03 0.0 
0.0 0.0 0.0 
-7.166831520545e-04 1.835687186431e-03 0.0 
1.835687186431e-03 9.510293009634e-03 0.0 
0.0 0.0 0.0 
-8.525897669337e-04 1.910138546684e-03 0.0 
1.910138546684e-03 9.239119443866e-03 0.0 
0.0 0.0 0.0 
-5.564403139558e-04 1.779089192123e-03 0.0 
1.779089192123e-03 9.784076501794e-03 0.0 
0.0 0.0 0.0 
-6.681603509185e-04 -3.361051271057e-04 0.0 
-3.361051271057e-04 2.168614813086e-03 0.0 
0.0 0.0 0.0 
1.513379300729e-03 2.623796358355e-03 0.0 
2.623796358355e-03 2.569121720744e-03 0.0 
0.0 0.0 0.0 
1.087351117750e-03 1.296607533621e-04 0.0 
1.296607533621e-04 2.801324610122e-03 0.0 
0.0 0.0 0.0 
1.385101470012e-03 3.217383177510e-04 0.0 
3.217383177510e-04 2.380233774235e-03 0.0 
0.0 0.0 0.0 
7.699412189594e-04 -4.608411064062e-05 0.0 
-4.608411064062e-05 3.361998383494e-03 0.0 
0.0 0.0 0.0 
1.316881087188e-03 2.313411606512e-03 0.0 
2.313411606512e-03 3.124569207199e-03 0.0 
0.0 0.0 0.0 
9.811183388500e-04 2.292915985266e-03 0.0 
2.292915985266e-03 3.764422175371e-03 0.0 
0.0 0.0 0.0 
7.148750992498e-04 2.624543145034e-03 0.0 
2.624543145034e-03 4.465446848488e-03 0.0 
0.0 0.0 0.0 
1.147515007328e-03 1.178354152476e-04 0.0 
1.178354152476e-04 -4.691470420452e-03 0.0 
0.0 0.0 0.0 
-5.544295636227e-04 1.801409056029e-04 0.0 
1.801409056029e-04 1.033706205473e-02 0.0 
0.0 0.0 0.0 
-1.395946875791e-03 2.916561759205e-04 0.0 
2.916561759205e-04 8.530169952606e-03 0.0 
0.0 0.0 0.0 
2.021875928741e-04 -6.004618473060e-04 0.0 
-6.004618473060e-04 -4.401886617438e-03 0.0 
0.0 0.0 0.0 
-1.372076543209e-03 2.073098948680e-04 0.0 
2.073098948680e-04 8.367117667479e-03 0.0 
0.0 0.0 0.0 
-1.317081335113e-03 2.070841793697e-04 0.0 
2.070841793697e-04 8.588114078059e-03 0.0 
0.0 0.0 0.0 
-1.355264524633e-03 1.368568508460e-04 0.0 
1.368568508460e-04 8.169386355658e-03 0.0 
0.0 0.0 0.0 
-2.155241948720e-04 -2.739361207103e-04 0.0 
-2.739361207103e-04 1.664508760180e-03 0.0 
0.0 0.0 0.0 
-1.599693160636e-03 5.373446590171e-04 0.0 
5.373446590171e-04 8.343121339436e-03 0.0 
0.0 0.0 0.0 
-1.615261277101e-03 7.216954811348e-04 0.0 
7.216954811348e-04 8.490441663758e-03 0.0 
0.0 0.0 0.0 
-1.567849024265e-04 -7.722139603701e-04 0.0 
-7.722139603701e-04 6.276133169642e-04 0.0 
0.0 0.0 0.0 
-4.610695658786e-04 1.235587030037e-03 0.0 
1.235587030037e-03 1.024718849230e-02 0.0 
0.0 0.0 0.0 
2.196435742015e-04 -6.116044058197e-04 0.0 
-6.116044058197e-04 5.118039806547e-04 0.0 
0.0 0.0 0.0 
2.819996509190e-04 -6.295019422765e-04 0.0 
-6.295019422765e-04 6.312821280413e-04 0.0 
0.0 0.0 0.0 
3.629992250502e-04 -6.421370676859e-04 0.0 
-6.421370676859e-04 3.952285893335e-03 0.0 
0.0 0.0 0.0 
2.760865446486e-04 -7.440226102026e-04 0.0 
-7.440226102026e-04 3.906775270430e-03 0.0 
0.0 0.0 0.0 
1.782546166273e-04 -6.781257577856e-04 0.0 
-6.781257577856e-04 4.388965166520e-03 0.0 
0.0 0.0 0.0 
9.740850295033e-05 -7.240742847315e-04 0.0 
-7.240742847315e-04 4.340618687627e-03 0.0 
0.0 0.0 0.0 
1.352898028271e-04 -8.206103938879e-04 0.0 
-8.206103938879e-04 3.906826444544e-03 0.0 
0.0 0.0 0.0 
-3.605307321671e-05 -7.560943828599e-04 0.0 
-7.560943828599e-04 4.362689112373e-03 0.0 
0.0 0.0 0.0 
-1.469343705992e-03 2.952463123205e-04 0.0 
2.952463123205e-04 8.309997604268e-03 0.0 
0.0 0.0 0.0 
-1.943113634976e-05 -6.981888122006e-04 0.0 
-6.981888122006e-04 4.802512934074e-03 0.0 
0.0 0.0 0.0 
-1.542465983619e-04 -6.837357746699e-04 0.0 
-6.837357746699e-04 4.778916067539e-03 0.0 
0.0 0.0 0.0 
-1.003149266625e-04 -6.743580228504e-04 0.0 
-6.743580228504e-04 5.196184618547e-03 0.0 
0.0 0.0 0.0 
-1.593030549191e-03 1.861627252542e-03 0.0 
1.861627252542e-03 5.816460046153e-03 0.0 
0.0 0.0 0.0 
9.545867478594e-05 3.498545816572e-03 0.0 
3.498545816572e-03 2.303148370509e-03 0.0 
0.0 0.0 0.0 
-4.734532560444e-04 3.157346902999e-03 0.0 
3.157346902999e-03 3.165246775459e-03 0.0 
0.0 0.0 0.0 
-7.795324703394e-04 2.847293254070e-03 0.0 
2.847293254070e-03 3.481797074799e-03 0.0 
0.0 0.0 0.0 
-1.052072848476e-04 2.975540744625e-03 0.0 
2.975540744625e-03 7.044554663374e-03 0.0 
0.0 0.0 0.0 
-2.671198580661e-04 2.869050379841e-03 0.0 
2.869050379841e-03 7.199872598717e-03 0.0 
0.0 0.0 0.0 
-8.280966147299e-04 -3.039640666599e-04 0.0 
-3.039640666599e-04 5.006730938939e-03 0.0 
0.0 0.0 0.0 
-9.688212088068e-04 -3.467295241300e-04 0.0 
-3.467295241300e-04 4.736813952710e-03 0.0 
0.0 0.0 0.0 
-1.312083863221e-03 1.343568915488e-04 0.0 
1.343568915488e-04 8.390692124796e-03 0.0 
0.0 0.0 0.0 
-1.282639641181e-03 9.141213793684e-05 0.0 
9.141213793684e-05 8.370344580687e-03 0.0 
0.0 0.0 0.0 
-1.248139127339e-03 1.483790371208e-04 0.0 
1.483790371208e-04 8.716161268206e-03 0.0 
0.0 0.0 0.0 
-1.232263022030e-03 9.843821556558e-05 0.0 
9.843821556558e-05 8.673087023157e-03 0.0 
0.0 0.0 0.0 
-1.177135000625e-03 1.515177802355e-04 0.0 
1.515177802355e-04 9.005116612820e-03 0.0 
0.0 0.0 0.0 
-1.169381921385e-03 9.035891665081e-05 0.0 
9.035891665081e-05 8.955818752225e-03 0.0 
0.0 0.0 0.0 
-1.092695164755e-03 1.400688834294e-04 0.0 
1.400688834294e-04 9.282304178736e-03 0.0 
0.0 0.0 0.0 
4.523355650376e-04 2.810511749387e-03 0.0 
2.810511749387e-03 5.207668414618e-03 0.0 
0.0 0.0 0.0 
-4.841783477144e-04 3.418701381972e-03 0.0 
3.418701381972e-03 2.289280046709e-03 0.0 
0.0 0.0 0.0 
-1.772797326110e-03 1.628737703761e-03 0.0 
1.628737703761e-03 6.550237369718e-03 0.0 
0.0 0.0 0.0 
1.107188823987e-03 1.627836930411e-03 0.0 
1.627836930411e-03 3.268347931055e-03 0.0 
0.0 0.0 0.0 
1.414864650506e-03 1.358235971798e-03 0.0 
1.358235971798e-03 2.642278493504e-03 0.0 
0.0 0.0 0.0 
-1.240909438888e-03 2.418345944776e-03 0.0 
2.418345944776e-03 5.037765374226e-03 0.0 
0.0 0.0 0.0 
-1.317590825767e-03 2.158569086365e-03 0.0 
2.158569086365e-03 5.025079836410e-03 0.0 
0.0 0.0 0.0 
5.552227066863e-04 -4.232731756966e-04 0.0 
-4.232731756966e-04 3.676915007301e-03 0.0 
0.0 0.0 0.0 
2.361275174468e-03 3.578989334212e-03 0.0 
3.578989334212e-03 -4.270123536680e-04 0.0 
0.0 0.0 0.0 
-3.166073933539e-04 1.439635934843e-03 0.0 
1.439635934843e-03 1.026711154492e-02 0.0 
0.0 0.0 0.0 
-1.362770992009e-03 2.366162089134e-03 0.0 
2.366162089134e-03 -2.865956536877e-03 0.0 
0.0 0.0 0.0 
5.060344185597e-04 2.375230798201e-03 0.0 
2.375230798201e-03 -3.554183522339e-03 0.0 
0.0 0.0 0.0 
1.783100563293e-03 3.619138327468e-03 0.0 
3.619138327468e-03 3.700357404159e-04 0.0 
0.0 0.0 0.0 
-1.144858738273e-03 2.608439980462e-03 0.0 
2.608439980462e-03 5.076852099024e-03 0.0 
0.0 0.0 0.0 
-1.970379694793e-04 3.319110240466e-03 0.0 
3.319110240466e-03 2.932735515707e-03 0.0 
0.0 0.0 0.0 
-6.687624916189e-04 2.987950241482e-03 0.0 
2.987950241482e-03 3.643364842412e-03 0.0 
0.0 0.0 0.0 
2.140701555849e-03 -4.011874331334e-04 0.0 
-4.011874331334e-04 5.940890249737e-04 0.0 
0.0 0.0 0.0 
-3.337189665164e-04 -1.368737952774e-03 0.0 
-1.368737952774e-03 8.467697450705e-04 0.0 
0.0 0.0 0.0 
5.007311407579e-04 3.857175343834e-03 0.0 
3.857175343834e-03 5.169773044626e-04 0.0 
0.0 0.0 0.0 
-1.103699477355e-03 2.213015341733e-04 0.0 
2.213015341733e-04 9.315506733522e-03 0.0 
0.0 0.0 0.0 
-2.525587285429e-04 3.778921523982e-03 0.0 
3.778921523982e-03 9.479080844765e-04 0.0 
0.0 0.0 0.0 
-9.434016578893e-04 -1.640357226236e-04 0.0 
-1.640357226236e-04 4.951269904396e-03 0.0 
0.0 0.0 0.0 
3.086160804005e-03 3.252936282931e-03 0.0 
3.252936282931e-03 -1.203606213499e-03 0.0 
0.0 0.0 0.0 
-3.998254790890e-04 3.182400189427e-03 0.0 
3.182400189427e-03 3.996789788029e-03 0.0 
0.0 0.0 0.0 
1.162723893919e-03 3.883349026274e-03 0.0 
3.883349026274e-03 1.491878542355e-04 0.0 
0.0 0.0 0.0 
7.671227760179e-04 3.670399578220e-03 0.0 
3.670399578220e-03 1.386870011977e-03 0.0 
0.0 0.0 0.0 
-1.501522605848e-03 2.187869521877e-03 0.0 
2.187869521877e-03 7.079929131572e-03 0.0 
0.0 0.0 0.0 
-1.794441007940e-03 1.649566972232e-03 0.0 
1.649566972232e-03 7.461442133679e-03 0.0 
0.0 0.0 0.0 
-1.773296157880e-03 1.743868930682e-03 0.0 
1.743868930682e-03 7.105310428098e-03 0.0 
0.0 0.0 0.0 
3.695644968124e-03 2.773891575110e-03 0.0 
2.773891575110e-03 -1.856300341800e-03 0.0 
0.0 0.0 0.0 
-8.733827471526e-04 2.786249653254e-03 0.0 
2.786249653254e-03 4.151223040816e-03 0.0 
0.0 0.0 0.0 
-1.018837822718e-03 2.456996800753e-03 0.0 
2.456996800753e-03 4.261202378903e-03 0.0 
0.0 0.0 0.0 
-1.061608907330e-03 2.722800934298e-03 0.0 
2.722800934298e-03 5.793353381384e-03 0.0 
0.0 0.0 0.0 
-1.081309411367e-03 1.771115153813e-03 0.0 
1.771115153813e-03 9.028960603970e-03 0.0 
0.0 0.0 0.0 
-9.593980819344e-04 1.972756684341e-03 0.0 
1.972756684341e-03 8.933064023058e-03 0.0 
0.0 0.0 0.0 
-7.249467662302e-04 2.103249001557e-03 0.0 
2.103249001557e-03 9.123631685922e-03 0.0 
0.0 0.0 0.0 
-8.277475347818e-04 2.169360835326e-03 0.0 
2.169360835326e-03 8.804548320719e-03 0.0 
0.0 0.0 0.0 
-1.046097966940e-03 2.044565784658e-03 0.0 
2.044565784658e-03 8.600320615448e-03 0.0 
0.0 0.0 0.0 
-9.005401961840e-04 2.237522711146e-03 0.0 
2.237522711146e-03 8.449707885330e-03 0.0 
0.0 0.0 0.0 
-6.739233216214e-04 2.357264030306e-03 0.0 
2.357264030306e-03 8.660746223511e-03 0.0 
0.0 0.0 0.0 
-7.360198053272e-04 2.426543815723e-03 0.0 
2.426543815723e-03 8.275464287301e-03 0.0 
0.0 0.0 0.0 
-4.899475893571e-04 2.569249279492e-03 0.0 
2.569249279492e-03 8.540837862510e-03 0.0 
0.0 0.0 0.0 
-5.679841424085e-04 2.599413127248e-03 0.0 
2.599413127248e-03 8.063340249904e-03 0.0 
0.0 0.0 0.0 
-7.617716650518e-04 2.494734777777e-03 0.0 
2.494734777777e-03 7.838734140018e-03 0.0 
0.0 0.0 0.0 
-5.852429770089e-04 2.644332449946e-03 0.0 
2.644332449946e-03 7.609282348537e-03 0.0 
0.0 0.0 0.0 
-4.272267168367e-04 2.748603556238e-03 0.0 
2.748603556238e-03 7.818957686643e-03 0.0 
0.0 0.0 0.0 
-7.585489375985e-04 2.575870630402e-03 0.0 
2.575870630402e-03 7.378607354586e-03 0.0 
0.0 0.0 0.0 
7.709020412013e-04 1.901265821339e-03 0.0 
1.901265821339e-03 3.889252313989e-03 0.0 
0.0 0.0 0.0 
1.923850188378e-03 3.480490694204e-03 0.0 
3.480490694204e-03 3.788363213790e-04 0.0 
0.0 0.0 0.0 
1.667602317778e-03 1.293281037454e-03 0.0 
1.293281037454e-03 -4.369447038631e-03 0.0 
0.0 0.0 0.0 
9.131121142311e-04 3.606741237596e-03 0.0 
3.606741237596e-03 -2.743181244386e-03 0.0 
0.0 0.0 0.0 
-6.658573192918e-04 3.028693386714e-03 0.0 
3.028693386714e-03 4.629782748348e-03 0.0 
0.0 0.0 0.0 
-2.582652059006e-04 2.648100574439e-03 0.0 
2.648100574439e-03 8.921432651797e-03 0.0 
0.0 0.0 0.0 
-2.973991248641e-04 2.300585806882e-03 0.0 
2.300585806882e-03 9.478746266355e-03 0.0 
0.0 0.0 0.0 
3.375072159110e-03 3.112601408519e-03 0.0 
3.112601408519e-03 -1.970989585155e-03 0.0 
0.0 0.0 0.0 
-2.456214788029e-05 3.121971753682e-03 0.0 
3.121971753682e-03 7.206417122650e-03 0.0 
0.0 0.0 0.0 
-1.631653581785e-03 2.035006233611e-03 0.0 
2.035006233611e-03 6.905617461122e-03 0.0 
0.0 0.0 0.0 
3.610363950508e-03 2.132002997124e-03 0.0 
2.132002997124e-03 -3.617244065077e-03 0.0 
0.0 0.0 0.0 
1.135654001729e-04 3.067746350231e-03 0.0 
3.067746350231e-03 6.395893682213e-03 0.0 
0.0 0.0 0.0 
-1.176591958785e-03 1.843470207334e-03 0.0 
1.843470207334e-03 8.721939548438e-03 0.0 
0.0 0.0 0.0 
-1.252181145038e-03 1.922137261057e-03 0.0 
1.922137261057e-03 8.390428789504e-03 0.0 
0.0 0.0 0.0 
-1.372582992796e-03 1.714361477636e-03 0.0 
1.714361477636e-03 8.504861443980e-03 0.0 
0.0 0.0 0.0 
-2.858849649373e-04 1.976060264933e-03 0.0 
1.976060264933e-03 9.870302121149e-03 0.0 
0.0 0.0 0.0 
-1.509649439528e-03 8.560254792951e-04 0.0 
8.560254792951e-04 8.803081658546e-03 0.0 
0.0 0.0 0.0 
3.612937159967e-04 2.474504570562e-03 0.0 
2.474504570562e-03 4.964062891259e-03 0.0 
0.0 0.0 0.0 
3.209292976094e-03 1.806944737081e-03 0.0 
1.806944737081e-03 -7.021208347037e-04 0.0 
0.0 0.0 0.0 
3.120396198007e-03 2.274902538650e-03 0.0 
2.274902538650e-03 -6.350678498790e-04 0.0 
0.0 0.0 0.0 
3.421166356649e-03 2.354502617747e-03 0.0 
2.354502617747e-03 -1.211385664061e-03 0.0 
0.0 0.0 0.0 
-9.437807112649e-04 2.313512243746e-03 0.0 
2.313512243746e-03 8.054639387384e-03 0.0 
0.0 0.0 0.0 
5.216818623736e-04 1.320046800994e-03 0.0 
1.320046800994e-03 3.982706163021e-03 0.0 
0.0 0.0 0.0 
9.784755712311e-04 1.080739111821e-03 0.0 
1.080739111821e-03 3.248822793343e-03 0.0 
0.0 0.0 0.0 
9.619114754060e-04 7.882043319702e-04 0.0 
7.882043319702e-04 3.188214184401e-03 0.0 
0.0 0.0 0.0 
1.403157409849e-03 8.546431880755e-04 0.0 
8.546431880755e-04 2.497740852943e-03 0.0 
0.0 0.0 0.0 
5.029490730415e-04 6.882078894182e-04 0.0 
6.882078894182e-04 3.855703426283e-03 0.0 
0.0 0.0 0.0 
-1.751493913145e-04 2.921060181230e-03 0.0 
2.921060181230e-03 8.330457699149e-03 0.0 
0.0 0.0 0.0 
-1.266479183046e-04 3.024151847057e-03 0.0 
3.024151847057e-03 7.993118601840e-03 0.0 
0.0 0.0 0.0 
2.665548930380e-03 -2.565551735860e-03 0.0 
-2.565551735860e-03 -2.165533767683e-03 0.0 
0.0 0.0 0.0 
3.318097371580e-03 -2.028102978654e-03 0.0 
-2.028102978654e-03 -2.701088652977e-03 0.0 
0.0 0.0 0.0 
3.381149978774e-03 -1.802349269181e-03 0.0 
-1.802349269181e-03 -2.563434894592e-03 0.0 
0.0 0.0 0.0 
3.866448354917e-03 -1.357929593808e-03 0.0 
-1.357929593808e-03 -3.080159183073e-03 0.0 
0.0 0.0 0.0 
3.764803190492e-03 -1.581470006710e-03 0.0 
-1.581470006710e-03 -3.259101901809e-03 0.0 
0.0 0.0 0.0 
4.210252197209e-03 -7.388669063850e-04 0.0 
-7.388669063850e-04 -3.489827763670e-03 0.0 
0.0 0.0 0.0 
4.284537054082e-03 -6.220444491644e-04 0.0 
-6.220444491644e-04 -3.272890259282e-03 0.0 
0.0 0.0 0.0 
4.370365222955e-03 5.027868434492e-05 0.0 
5.027868434492e-05 -3.738724707725e-03 0.0 
0.0 0.0 0.0 
-3.657127540854e-04 2.808888512762e-03 0.0 
2.808888512762e-03 6.894582985747e-03 0.0 
0.0 0.0 0.0 
4.075046878078e-04 1.246632919886e-04 0.0 
1.246632919886e-04 3.975381930089e-03 0.0 
0.0 0.0 0.0 
1.553582096022e-03 -1.501635708094e-03 0.0 
-1.501635708094e-03 5.426705453701e-04 0.0 
0.0 0.0 0.0 
1.986569608353e-03 -1.445424573997e-03 0.0 
-1.445424573997e-03 -1.403777908061e-04 0.0 
0.0 0.0 0.0 
2.101301802396e-03 -1.613048092292e-03 0.0 
-1.613048092292e-03 -5.625890243664e-04 0.0 
0.0 0.0 0.0 
-5.033027612043e-04 -1.811974062320e-03 0.0 
-1.811974062320e-03 2.206240268877e-03 0.0 
0.0 0.0 0.0 
-1.974619998610e-04 -1.923967061139e-03 0.0 
-1.923967061139e-03 1.926403810571e-03 0.0 
0.0 0.0 0.0 
-1.809651826540e-04 -1.789019562270e-03 0.0 
-1.789019562270e-03 2.179689782905e-03 0.0 
0.0 0.0 0.0 
-7.633775149212e-04 -1.644498563839e-03 0.0 
-1.644498563839e-03 2.443664585394e-03 0.0 
0.0 0.0 0.0 
1.060368473929e-03 3.046148187528e-03 0.0 
3.046148187528e-03 3.088970576448e-03 0.0 
0.0 0.0 0.0 
3.578080157011e-04 -1.130135532191e-04 0.0 
-1.130135532191e-04 4.077613835926e-03 0.0 
0.0 0.0 0.0 
3.214020908226e-03 -1.280630483381e-04 0.0 
-1.280630483381e-04 -1.257002127465e-03 0.0 
0.0 0.0 0.0 
1.404516993028e-04 -2.112682187872e-03 0.0 
-2.112682187872e-03 1.387032578510e-03 0.0 
0.0 0.0 0.0 
-1.796249649436e-03 6.837353916867e-04 0.0 
6.837353916867e-04 7.879658672972e-03 0.0 
0.0 0.0 0.0 
-1.763032329773e-03 9.007192147548e-04 0.0 
9.007192147548e-04 8.107557899090e-03 0.0 
0.0 0.0 0.0 
-1.818721681471e-03 1.062391014718e-03 0.0 
1.062391014718e-03 8.011261120691e-03 0.0 
0.0 0.0 0.0 
-1.692906386013e-03 1.126571596886e-03 0.0 
1.126571596886e-03 8.327938917189e-03 0.0 
0.0 0.0 0.0 
-1.710335899412e-03 7.555921746825e-04 0.0 
7.555921746825e-04 8.231074379426e-03 0.0 
0.0 0.0 0.0 
-9.117803587544e-04 -1.231875712209e-03 0.0 
-1.231875712209e-03 3.312525807909e-03 0.0 
0.0 0.0 0.0 
-1.052510028873e-03 -9.799091440763e-04 0.0 
-9.799091440763e-04 3.669902424850e-03 0.0 
0.0 0.0 0.0 
-1.232327916955e-03 -8.141698481791e-04 0.0 
-8.141698481791e-04 3.741676784671e-03 0.0 
0.0 0.0 0.0 
-1.149393488361e-03 -7.299897973639e-04 0.0 
-7.299897973639e-04 3.972550220589e-03 0.0 
0.0 0.0 0.0 
-1.300973711467e-03 -5.608259889409e-04 0.0 
-5.608259889409e-04 3.988500975388e-03 0.0 
0.0 0.0 0.0 
-1.366008034549e-03 -6.273109654956e-04 0.0 
-6.273109654956e-04 3.777918062981e-03 0.0 
0.0 0.0 0.0 
-1.211826810464e-03 -4.814663950287e-04 0.0 
-4.814663950287e-04 4.224883669247e-03 0.0 
0.0 0.0 0.0 
-1.338746569699e-03 -3.238723922234e-04 0.0 
-3.238723922234e-04 4.166149674442e-03 0.0 
0.0 0.0 0.0 
-1.673745579414e-03 4.478750978690e-04 0.0 
4.478750978690e-04 7.978851528336e-03 0.0 
0.0 0.0 0.0 
-1.432393245533e-03 -2.351554164826e-03 0.0 
-2.351554164826e-03 -7.774209833444e-04 0.0 
0.0 0.0 0.0 
-5.783294795268e-04 -3.137442495321e-03 0.0 
-3.137442495321e-03 -5.063974342243e-04 0.0 
0.0 0.0 0.0 
-8.036519538050e-04 -2.304626072312e-03 0.0 
-2.304626072312e-03 5.297255307331e-04 0.0 
0.0 0.0 0.0 
3.633250778512e-05 -3.256692104620e-03 0.0 
-3.256692104620e-03 -4.322414242486e-04 0.0 
0.0 0.0 0.0 
9.218328580958e-04 -3.388565474053e-03 0.0 
-3.388565474053e-03 -2.049156721737e-03 0.0 
0.0 0.0 0.0 
1.292662402259e-03 -3.298194040471e-03 0.0 
-3.298194040471e-03 -1.678512755497e-03 0.0 
0.0 0.0 0.0 
2.196585607658e-03 -3.125304367099e-03 0.0 
-3.125304367099e-03 -3.049347843395e-03 0.0 
0.0 0.0 0.0 
2.242559225318e-04 -3.136140150870e-03 0.0 
-3.136140150870e-03 -2.514435156281e-03 0.0 
0.0 0.0 0.0 
-7.770046930490e-04 -8.231750544794e-04 0.0 
-8.231750544794e-04 4.907731107416e-04 0.0 
0.0 0.0 0.0 
-7.144006811019e-04 -1.542631596177e-03 0.0 
-1.542631596177e-03 7.039633850225e-04 0.0 
0.0 0.0 0.0 
-4.862998433272e-04 -4.965173590047e-04 0.0 
-4.965173590047e-04 4.369997864273e-04 0.0 
0.0 0.0 0.0 
-5.201362030639e-04 -1.119047619317e-03 0.0 
-1.119047619317e-03 6.833599395717e-04 0.0 
0.0 0.0 0.0 
-4.097284391655e-04 -2.016918961230e-03 0.0 
-2.016918961230e-03 6.781551888998e-04 0.0 
0.0 0.0 0.0 
-2.435015653517e-04 -1.700201286718e-03 0.0 
-1.700201286718e-03 1.010302882154e-03 0.0 
0.0 0.0 0.0 
-2.025173007880e-04 -4.610522707376e-04 0.0 
-4.610522707376e-04 5.678702244637e-03 0.0 
0.0 0.0 0.0 
-1.504824915105e-03 -2.502627946257e-04 0.0 
-2.502627946257e-04 3.587343285944e-03 0.0 
0.0 0.0 0.0 
-1.452543064211e-03 -4.919154220941e-04 0.0 
-4.919154220941e-04 3.409000887695e-03 0.0 
0.0 0.0 0.0 
-1.381844525402e-03 -4.742023075594e-04 0.0 
-4.742023075594e-04 3.169007175294e-03 0.0 
0.0 0.0 0.0 
-1.346537855244e-03 -7.470443569745e-04 0.0 
-7.470443569745e-04 3.175660564250e-03 0.0 
0.0 0.0 0.0 
-1.466754843323e-03 -4.745837996577e-04 0.0 
-4.745837996577e-04 3.628945443295e-03 0.0 
0.0 0.0 0.0 
-1.342420984538e-03 -2.263230604207e-04 0.0 
-2.263230604207e-04 3.067652590962e-03 0.0 
0.0 0.0 0.0 
-1.238483172317e-03 -4.380203475830e-04 0.0 
-4.380203475830e-04 2.898915841813e-03 0.0 
0.0 0.0 0.0 
1.921520318589e-03 -1.068087703408e-04 0.0 
-1.068087703408e-04 -5.495477045879e-04 0.0 
0.0 0.0 0.0 
1.384184130672e-03 -1.321990800026e-04 0.0 
-1.321990800026e-04 -2.849975354065e-06 0.0 
0.0 0.0 0.0 
1.524869221793e-03 -2.762294145365e-05 0.0 
-2.762294145365e-05 -1.008638249383e-04 0.0 
0.0 0.0 0.0 
8.337965206544e-04 -1.310151649058e-04 0.0 
-1.310151649058e-04 5.761726870032e-04 0.0 
0.0 0.0 0.0 
8.084174568466e-04 -2.114484701869e-04 0.0 
-2.114484701869e-04 5.699025729053e-04 0.0 
0.0 0.0 0.0 
1.295968026177e-03 -2.067484404824e-04 0.0 
-2.067484404824e-04 3.175596066161e-05 0.0 
0.0 0.0 0.0 
1.146910974283e-03 -2.760791050171e-04 0.0 
-2.760791050171e-04 8.767848307521e-05 0.0 
0.0 0.0 0.0 
1.601750425460e-03 -1.835602264720e-04 0.0 
-1.835602264720e-04 -4.132099441579e-04 0.0 
0.0 0.0 0.0 
9.571521306499e-04 -3.570022623852e-04 0.0 
-3.570022623852e-04 1.679053333850e-04 0.0 
0.0 0.0 0.0 
5.488878132667e-04 -4.115495970385e-04 0.0 
-4.115495970385e-04 6.579253775975e-04 0.0 
0.0 0.0 0.0 
1.384466642907e-03 -2.366851416588e-04 0.0 
-2.366851416588e-04 -3.326233276889e-04 0.0 
0.0 0.0 0.0 
-9.123436932185e-04 6.838316194251e-05 0.0 
6.838316194251e-05 9.717939736157e-03 0.0 
0.0 0.0 0.0 
-8.302984956631e-04 1.522020548028e-04 0.0 
1.522020548028e-04 9.884231898580e-03 0.0 
0.0 0.0 0.0 
2.464781232788e-04 -4.727692954583e-04 0.0 
-4.727692954583e-04 4.372296197802e-03 0.0 
0.0 0.0 0.0 
-1.536063551454e-03 2.926711467137e-04 0.0 
2.926711467137e-04 8.063904765147e-03 0.0 
0.0 0.0 0.0 
4.564522619508e-05 -3.355390244179e-04 0.0 
-3.355390244179e-04 2.588284867789e-04 0.0 
0.0 0.0 0.0 
-2.681960456468e-04 5.523471271299e-04 0.0 
5.523471271299e-04 1.064647530141e-02 0.0 
0.0 0.0 0.0 
-2.576683575425e-04 9.812384823441e-04 0.0 
9.812384823441e-04 1.054453596388e-02 0.0 
0.0 0.0 0.0 
-2.358183102780e-04 8.444407602812e-04 0.0 
8.444407602812e-04 1.060574519077e-02 0.0 
0.0 0.0 0.0 
-6.065970106841e-04 -1.278638387703e-04 0.0 
-1.278638387703e-04 5.491394993854e-03 0.0 
0.0 0.0 0.0 
-4.868090818892e-04 -2.402953536596e-04 0.0 
-2.402953536596e-04 5.574297121317e-03 0.0 
0.0 0.0 0.0 
-2.444628270123e-04 3.150024698218e-04 0.0 
3.150024698218e-04 1.069912400031e-02 0.0 
0.0 0.0 0.0 
-2.400215356208e-04 -2.011938450283e-03 0.0 
-2.011938450283e-03 1.343546612803e-03 0.0 
0.0 0.0 0.0 
-6.056600188770e-04 2.308267850707e-03 0.0 
2.308267850707e-03 8.996074008650e-03 0.0 
0.0 0.0 0.0 
-6.707671015896e-04 5.594431686437e-04 0.0 
5.594431686437e-04 1.019113059579e-02 0.0 
0.0 0.0 0.0 
2.978380479245e-03 3.135481545044e-03 0.0 
3.135481545044e-03 -2.812365045047e-03 0.0 
0.0 0.0 0.0 
5.408102837011e-04 -2.569569371302e-03 0.0 
-2.569569371302e-03 2.652668377335e-04 0.0 
0.0 0.0 0.0 
-9.457645904108e-04 -5.450650765029e-04 0.0 
-5.450650765029e-04 4.489117431150e-03 0.0 
0.0 0.0 0.0 
-1.097901637787e-04 -1.430803545246e-03 0.0 
-1.430803545246e-03 2.797033859068e-03 0.0 
0.0 0.0 0.0 
-4.828137749488e-04 -6.212648500876e-04 0.0 
-6.212648500876e-04 4.776922774606e-03 0.0 
0.0 0.0 0.0 
-7.538067405529e-04 -9.749797883180e-04 0.0 
-9.749797883180e-04 3.838795675750e-03 0.0 
0.0 0.0 0.0 
-2.369891969703e-04 -8.945327921386e-04 0.0 
-8.945327921386e-04 4.004148359394e-03 0.0 
0.0 0.0 0.0 
9.366700190799e-04 4.571629535631e-04 0.0 
4.571629535631e-04 3.154702774739e-03 0.0 
0.0 0.0 0.0 
-6.681977328565e-05 -3.867782786882e-04 0.0 
-3.867782786882e-04 1.450805725352e-03 0.0 
0.0 0.0 0.0 
-1.325602009317e-03 5.088464135329e-04 0.0 
5.088464135329e-04 9.035383878937e-03 0.0 
0.0 0.0 0.0 
-1.251276848697e-03 2.802061519490e-04 0.0 
2.802061519490e-04 8.957132246652e-03 0.0 
0.0 0.0 0.0 
-9.816575192810e-04 5.395947861145e-04 0.0 
5.395947861145e-04 9.735139307870e-03 0.0 
0.0 0.0 0.0 
-8.037088400006e-04 -1.341347073329e-03 0.0 
-1.341347073329e-03 2.179105885750e-03 0.0 
0.0 0.0 0.0 
-1.282557414265e-03 -8.857845765280e-04 0.0 
-8.857845765280e-04 3.524274390302e-03 0.0 
0.0 0.0 0.0 
-3.027463641458e-04 -1.096736040285e-03 0.0 
-1.096736040285e-03 1.367738298406e-03 0.0 
0.0 0.0 0.0 
1.482387406072e-04 2.991279510870e-03 0.0 
2.991279510870e-03 6.208048379903e-03 0.0 
0.0 0.0 0.0 
-1.197514626334e-03 2.599711735809e-03 0.0 
2.599711735809e-03 5.672800208363e-03 0.0 
0.0 0.0 0.0 
1.732725667720e-03 -1.886894457594e-03 0.0 
-1.886894457594e-03 -2.752407046101e-04 0.0 
0.0 0.0 0.0 
-5.057443543025e-04 -1.877766536124e-03 0.0 
-1.877766536124e-03 2.014103184165e-03 0.0 
0.0 0.0 0.0 
4.714519345718e-05 -2.269025787289e-03 0.0 
-2.269025787289e-03 1.037884175327e-03 0.0 
0.0 0.0 0.0 
8.084300129013e-04 -2.733726777226e-03 0.0 
-2.733726777226e-03 -1.706583782176e-04 0.0 
0.0 0.0 0.0 
1.377146765634e-03 3.453268535359e-03 0.0 
3.453268535359e-03 1.221024937157e-03 0.0 
0.0 0.0 0.0 
5.127671991162e-04 -2.121765382854e-03 0.0 
-2.121765382854e-03 1.035618896005e-03 0.0 
0.0 0.0 0.0 
7.232800057490e-04 -1.135539279103e-03 0.0 
-1.135539279103e-03 2.358411912906e-03 0.0 
0.0 0.0 0.0 
-8.624729604579e-04 4.923060645593e-04 0.0 
4.923060645593e-04 9.915820913544e-03 0.0 
0.0 0.0 0.0 
7.223323902142e-04 -3.218785600934e-04 0.0 
-3.218785600934e-04 -2.341330024880e-05 0.0 
0.0 0.0 0.0 
9.337314607812e-04 -9.348466595391e-04 0.0 
-9.348466595391e-04 2.301630046667e-03 0.0 
0.0 0.0 0.0 
4.851903440022e-04 -1.767722375768e-03 0.0 
-1.767722375768e-03 1.649268644750e-03 0.0 
0.0 0.0 0.0 
-1.406057796684e-03 8.245660090460e-04 0.0 
8.245660090460e-04 9.030505517622e-03 0.0 
0.0 0.0 0.0 
2.242883258148e-03 1.306358970075e-03 0.0 
1.306358970075e-03 1.136280193550e-03 0.0 
0.0 0.0 0.0 
9.700732205385e-04 -3.220992103108e-03 0.0 
-3.220992103108e-03 -9.399089984251e-04 0.0 
0.0 0.0 0.0 
-1.009914581049e-03 8.655423599815e-04 0.0 
8.655423599815e-04 9.727906864794e-03 0.0 
0.0 0.0 0.0 
-6.925476849579e-04 1.559320071803e-03 0.0 
1.559320071803e-03 9.810292128124e-03 0.0 
0.0 0.0 0.0 
-1.604941147268e-03 8.943048170917e-04 0.0 
8.943048170917e-04 8.571327510790e-03 0.0 
0.0 0.0 0.0 
-5.019403910752e-05 -8.241476002898e-04 0.0 
-8.241476002898e-04 1.040219950912e-03 0.0 
0.0 0.0 0.0 
-1.411245627468e-03 3.999374678951e-04 0.0 
3.999374678951e-04 8.690455440049e-03 0.0 
0.0 0.0 0.0 
8.505014716805e-04 -3.040249076800e-04 0.0 
-3.040249076800e-04 3.077185161322e-03 0.0 
0.0 0.0 0.0 
-1.184627799557e-03 1.569429942812e-03 0.0 
1.569429942812e-03 9.094383596329e-03 0.0 
0.0 0.0 0.0 
-8.191258973456e-04 -1.038560077311e-03 0.0 
-1.038560077311e-03 2.205289775511e-03 0.0 
0.0 0.0 0.0 
4.001917452022e-03 2.567204994901e-04 0.0 
2.567204994901e-04 -2.314204458767e-03 0.0 
0.0 0.0 0.0 
5.352266014138e-05 3.350708806730e-03 0.0 
3.350708806730e-03 3.376583648359e-03 0.0 
0.0 0.0 0.0 
-1.899191895254e-03 1.231168549187e-03 0.0 
1.231168549187e-03 7.027460763171e-03 0.0 
0.0 0.0 0.0 
-5.946988843334e-04 6.873132863129e-04 0.0 
6.873132863129e-04 1.027058354215e-02 0.0 
0.0 0.0 0.0 
2.469103085557e-03 2.985173323873e-03 0.0 
2.985173323873e-03 1.174766804115e-04 0.0 
0.0 0.0 0.0 
1.883457485364e-03 7.527193008052e-04 0.0 
7.527193008052e-04 1.630267101725e-03 0.0 
0.0 0.0 0.0 
3.148830885692e-03 4.022230000207e-04 0.0 
4.022230000207e-04 -8.636206294494e-04 0.0 
0.0 0.0 0.0 
-9.944641766155e-04 -8.619500237052e-04 0.0 
-8.619500237052e-04 2.489609158489e-03 0.0 
0.0 0.0 0.0 
3.541628404367e-04 -8.729927473001e-04 0.0 
-8.729927473001e-04 3.416618208539e-03 0.0 
0.0 0.0 0.0 
3.901980259889e-03 1.940024832504e-03 0.0 
1.940024832504e-03 -1.923224646380e-03 0.0 
0.0 0.0 0.0 
-8.088383143646e-04 9.718568146774e-04 0.0 
9.718568146774e-04 9.984885303454e-03 0.0 
0.0 0.0 0.0 
1.378765388209e-04 3.022589862819e-03 0.0 
3.022589862819e-03 5.003933892249e-03 0.0 
0.0 0.0 0.0 
4.537163834990e-03 8.689379630956e-04 0.0 
8.689379630956e-04 -3.010844034100e-03 0.0 
0.0 0.0 0.0 
-1.016690191323e-03 1.257945285323e-03 0.0 
1.257945285323e-03 9.606829364972e-03 0.0 
0.0 0.0 0.0 
2.544021136307e-03 -1.429401469479e-03 0.0 
-1.429401469479e-03 -1.113538497059e-03 0.0 
0.0 0.0 0.0 
1.935461646937e-03 1.610014818870e-03 0.0 
1.610014818870e-03 1.785543598241e-03 0.0 
0.0 0.0 0.0 
-1.022178256132e-03 2.758163888021e-03 0.0 
2.758163888021e-03 5.139787228245e-03 0.0 
0.0 0.0 0.0 
-1.544904802253e-05 3.228337750878e-03 0.0 
3.228337750878e-03 4.411435688353e-03 0.0 
0.0 0.0 0.0 
-8.712536676597e-04 2.661735187229e-03 0.0 
2.661735187229e-03 6.676113173158e-03 0.0 
0.0 0.0 0.0 
1.074659456424e-03 3.345907588436e-03 0.0 
3.345907588436e-03 2.332872312891e-03 0.0 
0.0 0.0 0.0 
-1.102758862288e-03 -4.001349016371e-04 0.0 
-4.001349016371e-04 4.480184019811e-03 0.0 
0.0 0.0 0.0 
6.229676252553e-04 -9.104710901335e-04 0.0 
-9.104710901335e-04 2.875582305520e-03 0.0 
0.0 0.0 0.0 
3.352372561800e-03 -1.118533478756e-03 0.0 
-1.118533478756e-03 -4.313656832617e-03 0.0 
0.0 0.0 0.0 
1.038333282202e-03 3.631701667037e-03 0.0 
3.631701667037e-03 1.251866934365e-03 0.0 
0.0 0.0 0.0 
-1.483101665419e-03 1.037788826661e-03 0.0 
1.037788826661e-03 8.859420031282e-03 0.0 
0.0 0.0 0.0 
5.572795990851e-04 2.845663409382e-03 0.0 
2.845663409382e-03 4.782721665648e-03 0.0 
0.0 0.0 0.0 
-5.795115993166e-04 1.069609227058e-03 0.0 
1.069609227058e-03 1.022015625203e-02 0.0 
0.0 0.0 0.0 
-8.850309294204e-05 3.327799933336e-03 0.0 
3.327799933336e-03 3.346103976741e-03 0.0 
0.0 0.0 0.0 
1.668312427249e-04 -9.691554911459e-04 0.0 
-9.691554911459e-04 3.463195570403e-03 0.0 
0.0 0.0 0.0 
-7.889907155921e-04 1.378410739705e-03 0.0 
1.378410739705e-03 9.831045566473e-03 0.0 
0.0 0.0 0.0 
1.391518588384e-04 -1.973579012528e-03 0.0 
-1.973579012528e-03 1.622002029566e-03 0.0 
0.0 0.0 0.0 
-3.718233061635e-04 -1.343883823172e-04 0.0 
-1.343883823172e-04 1.841344122238e-03 0.0 
0.0 0.0 0.0 
2.195436548841e-03 3.418835762017e-03 0.0 
3.418835762017e-03 -2.701017094418e-03 0.0 
0.0 0.0 0.0 
4.490182444049e-03 9.251896340045e-04 0.0 
9.251896340045e-04 -3.507874197727e-03 0.0 
0.0 0.0 0.0 
3.063124461440e-03 2.780602936191e-03 0.0 
2.780602936191e-03 -7.791720784308e-04 0.0 
0.0 0.0 0.0 
1.458836043477e-04 -1.809718657805e-03 0.0 
-1.809718657805e-03 1.912013146854e-03 0.0 
0.0 0.0 0.0 
-5.667324617478e-04 2.074381983575e-03 0.0 
2.074381983575e-03 9.428664900608e-03 0.0 
0.0 0.0 0.0 
-4.042108437230e-05 -8.697280236568e-04 0.0 
-8.697280236568e-04 3.946659969121e-03 0.0 
0.0 0.0 0.0 
1.775575040074e-03 -5.420834259080e-04 0.0 
-5.420834259080e-04 1.165848290915e-03 0.0 
0.0 0.0 0.0 
-1.169499643105e-03 3.523342068931e-03 0.0 
3.523342068931e-03 5.966908636942e-04 0.0 
0.0 0.0 0.0 
-1.829286650349e-03 1.535978298793e-03 0.0 
1.535978298793e-03 6.905439754084e-03 0.0 
0.0 0.0 0.0 
-2.011067400789e-04 -7.655442024502e-04 0.0 
-7.655442024502e-04 4.385475413992e-03 0.0 
0.0 0.0 0.0 
3.584749218393e-03 -2.266036012583e-04 0.0 
-2.266036012583e-04 -1.896689942932e-03 0.0 
0.0 0.0 0.0 
1.826861441049e-03 1.329263975224e-03 0.0 
1.329263975224e-03 1.906113902398e-03 0.0 
0.0 0.0 0.0 
-1.416350986962e-03 -3.896135833561e-04 0.0 
-3.896135833561e-04 3.962088537711e-03 0.0 
0.0 0.0 0.0 
2.816220277456e-04 2.925469379834e-03 0.0 
2.925469379834e-03 5.753684318830e-03 0.0 
0.0 0.0 0.0 
-1.461028296265e-03 2.009984265304e-03 0.0 
2.009984265304e-03 5.425039515111e-03 0.0 
0.0 0.0 0.0 
-3.147339189045e-04 -6.628835654545e-04 0.0 
-6.628835654545e-04 4.781602390748e-03 0.0 
0.0 0.0 0.0 
2.139701490980e-03 8.149155400917e-06 0.0 
8.149155400917e-06 8.488641768308e-04 0.0 
0.0 0.0 0.0 
2.893686006641e-03 3.409097887115e-03 0.0 
3.409097887115e-03 -1.199310321385e-03 0.0 
0.0 0.0 0.0 
-1.293450108714e-03 4.920312834436e-05 0.0 
4.920312834436e-05 8.023207822626e-03 0.0 
0.0 0.0 0.0 
-2.197258852686e-04 -6.112542873600e-04 0.0 
-6.112542873600e-04 5.191073368725e-03 0.0 
0.0 0.0 0.0 
1.753375278496e-03 1.774459335775e-04 0.0 
1.774459335775e-04 1.629736486802e-03 0.0 
0.0 0.0 0.0 
1.094787833533e-03 3.230114040588e-03 0.0 
3.230114040588e-03 2.661366054133e-03 0.0 
0.0 0.0 0.0 
3.371348455851e-03 -7.267914709744e-04 0.0 
-7.267914709744e-04 -1.850090880027e-03 0.0 
0.0 0.0 0.0 
-1.792303499740e-03 1.370890493462e-03 0.0 
1.370890493462e-03 6.396040842748e-03 0.0 
0.0 0.0 0.0 
-1.501676269762e-04 -1.624515189148e-03 0.0 
-1.624515189148e-03 2.471369176418e-03 0.0 
0.0 0.0 0.0 
-2.641665954290e-04 3.095465003163e-03 0.0 
3.095465003163e-03 5.109510134215e-03 0.0 
0.0 0.0 0.0 
-2.726697585390e-04 1.811929483463e-03 0.0 
1.811929483463e-03 1.002977700419e-02 0.0 
0.0 0.0 0.0 
1.620886468215e-03 5.111444274732e-04 0.0 
5.111444274732e-04 1.968353942315e-03 0.0 
0.0 0.0 0.0 
-1.442101276898e-03 1.801992302546e-03 0.0 
1.801992302546e-03 8.182876662120e-03 0.0 
0.0 0.0 0.0 
-4.491917466478e-04 -1.577221675067e-03 0.0 
-1.577221675067e-03 2.693246284113e-03 0.0 
0.0 0.0 0.0 
2.299305810409e-03 2.350868064359e-03 0.0 
2.350868064359e-03 1.003586346839e-03 0.0 
0.0 0.0 0.0 
7.242115458974e-04 -2.888347317888e-04 0.0 
-2.888347317888e-04 5.891948443520e-04 0.0 
0.0 0.0 0.0 
-1.694739219309e-03 1.736201593021e-03 0.0 
1.736201593021e-03 6.196875575702e-03 0.0 
0.0 0.0 0.0 
-6.676380877102e-04 -1.347663040793e-03 0.0 
-1.347663040793e-03 3.156437964401e-03 0.0 
0.0 0.0 0.0 
4.500470655442e-03 9.791196942443e-05 0.0 
9.791196942443e-05 -3.502056892474e-03 0.0 
0.0 0.0 0.0 
2.862072468966e-03 -1.041994696881e-03 0.0 
-1.041994696881e-03 -1.304906377317e-03 0.0 
0.0 0.0 0.0 
9.332576351312e-04 2.122683799908e-03 0.0 
2.122683799908e-03 3.801177141266e-03 0.0 
0.0 0.0 0.0 
-8.383929099882e-04 -1.109691504872e-03 0.0 
-1.109691504872e-03 3.565298845703e-03 0.0 
0.0 0.0 0.0 
4.506977681097e-03 1.376360933067e-04 0.0 
1.376360933067e-04 -3.241728430166e-03 0.0 
0.0 0.0 0.0 
-9.651544778821e-04 -8.711127494159e-04 0.0 
-8.711127494159e-04 3.920275261307e-03 0.0 
0.0 0.0 0.0 
-1.608179945447e-03 1.574231667464e-03 0.0 
1.574231667464e-03 5.741249817695e-03 0.0 
0.0 0.0 0.0 
-1.306454516863e-03 2.016971371828e-03 0.0 
2.016971371828e-03 8.038392257309e-03 0.0 
0.0 0.0 0.0 
-1.054537422716e-03 -6.338788753740e-04 0.0 
-6.338788753740e-04 4.229373592873e-03 0.0 
0.0 0.0 0.0 
-1.582591599258e-04 3.008249526623e-03 0.0 
3.008249526623e-03 5.375191928350e-03 0.0 
0.0 0.0 0.0 
3.430742464367e-04 -5.561141010350e-04 0.0 
-5.561141010350e-04 7.511535773347e-04 0.0 
0.0 0.0 0.0 
1.440937289440e-03 3.046303482899e-03 0.0 
3.046303482899e-03 2.259627651412e-03 0.0 
0.0 0.0 0.0 
-6.703685428901e-04 -2.633141717299e-04 0.0 
-2.633141717299e-04 5.289529552650e-03 0.0 
0.0 0.0 0.0 
8.566918869446e-04 -2.489181533820e-03 0.0 
-2.489181533820e-03 2.157430768162e-04 0.0 
0.0 0.0 0.0 
2.427312278255e-03 -1.289235993608e-03 0.0 
-1.289235993608e-03 -7.733824539156e-04 0.0 
0.0 0.0 0.0 
-1.108288938811e-03 2.124919522235e-03 0.0 
2.124919522235e-03 8.240695241069e-03 0.0 
0.0 0.0 0.0 
-1.376807734312e-03 1.809272454623e-03 0.0 
1.809272454623e-03 5.092846797189e-03 0.0 
0.0 0.0 0.0 
2.259502794622e-03 -1.100709813883e-03 0.0 
-1.100709813883e-03 -2.353010454646e-04 0.0 
0.0 0.0 0.0 
-8.241740614033e-05 2.939102036477e-03 0.0 
2.939102036477e-03 5.683326045648e-03 0.0 
0.0 0.0 0.0 
1.713187494840e-03 2.797653324877e-03 0.0 
2.797653324877e-03 1.970008585663e-03 0.0 
0.0 0.0 0.0 
2.865704859727e-03 2.674623858503e-03 0.0 
2.674623858503e-03 -3.472555544132e-04 0.0 
0.0 0.0 0.0 
2.043104451471e-03 -8.119968162194e-04 0.0 
-8.119968162194e-04 4.540196795474e-04 0.0 
0.0 0.0 0.0 
-1.173291735601e-03 2.316945825759e-03 0.0 
2.316945825759e-03 4.652453402117e-03 0.0 
0.0 0.0 0.0 
-4.420291295650e-05 -2.182315052928e-03 0.0 
-2.182315052928e-03 1.019191076454e-03 0.0 
0.0 0.0 0.0 
-1.468169894559e-04 -1.992091905188e-03 0.0 
-1.992091905188e-03 1.017583326004e-03 0.0 
0.0 0.0 0.0 
4.241485693956e-03 -5.208314189386e-04 0.0 
-5.208314189386e-04 -2.994225397035e-03 0.0 
0.0 0.0 0.0 
-2.533233023987e-04 2.866418402112e-03 0.0 
2.866418402112e-03 6.319620479948e-03 0.0 
0.0 0.0 0.0 
3.030349458751e-04 -2.146877255097e-04 0.0 
-2.146877255097e-04 1.109157161750e-03 0.0 
0.0 0.0 0.0 
-9.588266327618e-04 2.408792616908e-03 0.0 
2.408792616908e-03 7.629051216413e-03 0.0 
0.0 0.0 0.0 
-2.453757514805e-04 -1.799043508091e-03 0.0 
-1.799043508091e-03 8.730709945107e-04 0.0 
0.0 0.0 0.0 
3.884290641808e-03 -1.206744383647e-03 0.0 
-1.206744383647e-03 -2.869081603033e-03 0.0 
0.0 0.0 0.0 
1.613618186943e-03 2.379617823741e-03 0.0 
2.379617823741e-03 2.471691640767e-03 0.0 
0.0 0.0 0.0 
-1.137931755997e-03 4.095088028440e-05 0.0 
4.095088028440e-05 9.068559259553e-03 0.0 
0.0 0.0 0.0 
3.359109732156e-03 -1.620711244253e-03 0.0 
-1.620711244253e-03 -2.355773725042e-03 0.0 
0.0 0.0 0.0 
-8.074440695210e-04 -1.681539815707e-04 0.0 
-1.681539815707e-04 2.325958797915e-03 0.0 
0.0 0.0 0.0 
2.817071397260e-03 -2.067806662474e-03 0.0 
-2.067806662474e-03 -1.958813031141e-03 0.0 
0.0 0.0 0.0 
2.601143067714e-03 2.549209254964e-03 0.0 
2.549209254964e-03 2.693953822515e-04 0.0 
0.0 0.0 0.0 
2.230264449372e-03 -2.170380687645e-03 0.0 
-2.170380687645e-03 -1.252124297334e-03 0.0 
0.0 0.0 0.0 
1.718039225796e-03 -2.400604070012e-03 0.0 
-2.400604070012e-03 -7.719253866050e-04 0.0 
0.0 0.0 0.0 
-4.569331213615e-04 6.218903317177e-04 0.0 
6.218903317177e-04 1.043759139414e-02 0.0 
0.0 0.0 0.0 
1.311320425149e-03 -2.422930482694e-03 0.0 
-2.422930482694e-03 -2.253707825588e-04 0.0 
0.0 0.0 0.0 
-2.087296424214e-04 1.816948228826e-04 0.0 
1.816948228826e-04 1.075546807172e-02 0.0 
0.0 0.0 0.0 
-2.401202640209e-04 -2.299645412271e-04 0.0 
-2.299645412271e-04 5.857596922823e-03 0.0 
0.0 0.0 0.0 
-1.257880178640e-03 2.293990068783e-05 0.0 
2.293990068783e-05 8.325970982845e-03 0.0 
0.0 0.0 0.0 
-1.148076650662e-03 1.958549168188e-03 0.0 
1.958549168188e-03 4.531368913314e-03 0.0 
0.0 0.0 0.0 
-1.605137179203e-03 1.906529712523e-04 0.0 
1.906529712523e-04 -3.962252054279e-03 0.0 
0.0 0.0 0.0 
-8.569145496094e-04 2.780639329794e-03 0.0 
2.780639329794e-03 3.778357616096e-03 0.0 
0.0 0.0 0.0 
7.353786647553e-04 -2.552540715973e-03 0.0 
-2.552540715973e-03 1.982298922642e-04 0.0 
0.0 0.0 0.0 
-7.088765578735e-04 2.676295998540e-03 0.0 
2.676295998540e-03 6.886638455030e-03 0.0 
0.0 0.0 0.0 
-1.265824829626e-03 6.160986504884e-05 0.0 
6.160986504884e-05 8.343576593694e-03 0.0 
0.0 0.0 0.0 
2.980609983975e-04 -2.434308521054e-03 0.0 
-2.434308521054e-03 6.511864978089e-04 0.0 
0.0 0.0 0.0 
-3.641308127140e-04 2.746846241117e-03 0.0 
2.746846241117e-03 8.235432529134e-03 0.0 
0.0 0.0 0.0 
2.415407287424e-04 2.849264075125e-03 0.0 
2.849264075125e-03 5.627891819840e-03 0.0 
0.0 0.0 0.0 
-9.821768027161e-04 1.315198788395e-04 0.0 
1.315198788395e-04 9.562789087661e-03 0.0 
0.0 0.0 0.0 
1.652207378400e-03 1.080626200051e-03 0.0 
1.080626200051e-03 2.098959149441e-03 0.0 
0.0 0.0 0.0 
1.891687577905e-03 2.507820456619e-03 0.0 
2.507820456619e-03 1.802529783551e-03 0.0 
0.0 0.0 0.0 
-5.944411912023e-04 8.910822668830e-05 0.0 
8.910822668830e-05 1.028368343063e-02 0.0 
0.0 0.0 0.0 
-1.395560298493e-03 1.288513605914e-04 0.0 
1.288513605914e-04 8.002600025806e-03 0.0 
0.0 0.0 0.0 
-3.476800449691e-04 -8.852254924592e-04 0.0 
-8.852254924592e-04 6.455430154488e-04 0.0 
0.0 0.0 0.0 
-1.088840092890e-03 -1.856386890831e-04 0.0 
-1.856386890831e-04 4.693312589171e-03 0.0 
0.0 0.0 0.0 
-1.073245538607e-03 2.234988758912e-03 0.0 
2.234988758912e-03 4.035199510233e-03 0.0 
0.0 0.0 0.0 
-6.241034964082e-04 3.177201453133e-03 0.0 
3.177201453133e-03 2.903484663564e-03 0.0 
0.0 0.0 0.0 
-3.932816169986e-04 3.614102586798e-03 0.0 
3.614102586798e-03 1.653564258399e-03 0.0 
0.0 0.0 0.0 
-1.136080248389e-03 -6.520854246763e-04 0.0 
-6.520854246763e-04 2.722838746718e-03 0.0 
0.0 0.0 0.0 
-3.843751171341e-04 -2.603792136876e-03 0.0 
-2.603792136876e-03 4.487071025767e-04 0.0 
0.0 0.0 0.0 
-1.115601785491e-03 2.796575057361e-03 0.0 
2.796575057361e-03 3.319721774081e-03 0.0 
0.0 0.0 0.0 
9.807757443028e-04 1.360928586292e-03 0.0 
1.360928586292e-03 3.314521611106e-03 0.0 
0.0 0.0 0.0 
-1.555956139585e-03 4.246198162791e-04 0.0 
4.246198162791e-04 8.310901402947e-03 0.0 
0.0 0.0 0.0 
1.277947116957e-03 2.515207061672e-03 0.0 
2.515207061672e-03 3.181431449579e-03 0.0 
0.0 0.0 0.0 
-1.110534866237e-03 3.390382953329e-03 0.0 
3.390382953329e-03 2.125089205332e-03 0.0 
0.0 0.0 0.0 
-5.394913102685e-04 1.494569310823e-03 0.0 
1.494569310823e-03 1.002445072323e-02 0.0 
0.0 0.0 0.0 
6.646242311818e-04 2.501927186963e-03 0.0 
2.501927186963e-03 4.509931218811e-03 0.0 
0.0 0.0 0.0 
7.691511193815e-05 -6.790958933281e-04 0.0 
-6.790958933281e-04 4.862946308197e-03 0.0 
0.0 0.0 0.0 
1.008026239704e-03 2.470599640994e-03 0.0 
2.470599640994e-03 3.798987699166e-03 0.0 
0.0 0.0 0.0 
-8.992015887290e-05 3.924409609039e-03 0.0 
3.924409609039e-03 1.140357374989e-04 0.0 
0.0 0.0 0.0 
-1.684762190816e-03 9.518629001170e-04 0.0 
9.518629001170e-04 8.380394442550e-03 0.0 
0.0 0.0 0.0 
2.494876910046e-05 3.010175284245e-03 0.0 
3.010175284245e-03 6.641917605589e-03 0.0 
0.0 0.0 0.0 
-8.923214242512e-04 2.183769263566e-04 0.0 
2.183769263566e-04 9.808776231363e-03 0.0 
0.0 0.0 0.0 
-3.360168590534e-05 -6.877131321756e-04 0.0 
-6.877131321756e-04 5.235447307984e-03 0.0 
0.0 0.0 0.0 
-1.672678702924e-03 6.003925577024e-04 0.0 
6.003925577024e-04 8.201270364802e-03 0.0 
0.0 0.0 0.0 
-3.962851685390e-04 4.100716852313e-04 0.0 
4.100716852313e-04 1.052132177667e-02 0.0 
0.0 0.0 0.0 
2.986261767048e-03 -2.327263493412e-03 0.0 
-2.327263493412e-03 -3.932803243710e-03 0.0 
0.0 0.0 0.0 
-3.796292281783e-04 2.132842007252e-04 0.0 
2.132842007252e-04 1.055125468450e-02 0.0 
0.0 0.0 0.0 
-5.599662978237e-04 2.709862370188e-03 0.0 
2.709862370188e-03 7.130616754044e-03 0.0 
0.0 0.0 0.0 
-1.257679170990e-03 2.057519837000e-04 0.0 
2.057519837000e-04 8.805801822015e-03 0.0 
0.0 0.0 0.0 
-1.742901891504e-03 1.256147586232e-03 0.0 
1.256147586232e-03 8.132408494075e-03 0.0 
0.0 0.0 0.0 
-3.480459191413e-04 -3.460881387547e-04 0.0 
-3.460881387547e-04 5.619223608014e-03 0.0 
0.0 0.0 0.0 
-4.783391476978e-04 2.463390598581e-03 0.0 
2.463390598581e-03 8.874917655649e-03 0.0 
0.0 0.0 0.0 
1.101573016686e-04 3.994494124540e-03 0.0 
3.994494124540e-03 -1.130666095203e-03 0.0 
0.0 0.0 0.0 
-1.009825055759e-03 2.018878481104e-04 0.0 
2.018878481104e-04 9.541599791367e-03 0.0 
0.0 0.0 0.0 
-1.240120206554e-03 -1.007743240064e-03 0.0 
-1.007743240064e-03 3.016213309029e-03 0.0 
0.0 0.0 0.0 
6.121710458278e-04 -1.942140093430e-03 0.0 
-1.942140093430e-03 -3.969338834345e-03 0.0 
0.0 0.0 0.0 
3.805838743442e-04 -5.305452846306e-04 0.0 
-5.305452846306e-04 3.999724219622e-03 0.0 
0.0 0.0 0.0 
-4.224857387951e-04 2.761860217184e-03 0.0 
2.761860217184e-03 7.385248455084e-03 0.0 
0.0 0.0 0.0 
-2.784119419174e-04 -5.263071954947e-04 0.0 
-5.263071954947e-04 5.395343445868e-03 0.0 
0.0 0.0 0.0 
9.080486635494e-04 -2.567615216268e-05 0.0 
-2.567615216268e-05 5.293728339802e-04 0.0 
0.0 0.0 0.0 
1.592258623716e-04 -5.486383106985e-04 0.0 
-5.486383106985e-04 4.093528601176e-04 0.0 
0.0 0.0 0.0 
5.819639155004e-04 -2.391296211927e-04 0.0 
-2.391296211927e-04 3.679943636896e-03 0.0 
0.0 0.0 0.0 
-2.021633480637e-04 2.944002994656e-03 0.0 
2.944002994656e-03 7.573316467618e-03 0.0 
0.0 0.0 0.0 
2.563597513897e-03 -2.928172148227e-03 0.0 
-2.928172148227e-03 -2.831235808312e-03 0.0 
0.0 0.0 0.0 
-2.268726679368e-04 1.315257020202e-03 0.0 
1.315257020202e-03 1.042043555890e-02 0.0 
0.0 0.0 0.0 
-3.379528857468e-04 3.554797336459e-03 0.0 
3.554797336459e-03 -2.148126414520e-03 0.0 
0.0 0.0 0.0 
-1.485969313543e-03 2.088363446884e-04 0.0 
2.088363446884e-04 7.959312454787e-03 0.0 
0.0 0.0 0.0 
7.768082387757e-04 -4.364738567950e-04 0.0 
-4.364738567950e-04 2.083638941825e-04 0.0 
0.0 0.0 0.0 
-8.625092198320e-05 -6.404078313648e-04 0.0 
-6.404078313648e-04 5.472133825541e-03 0.0 
0.0 0.0 0.0 
-4.552179965229e-04 9.920507641376e-04 0.0 
9.920507641376e-04 1.035325092770e-02 0.0 
0.0 0.0 0.0 
-1.421188218583e-03 -6.739785401744e-04 0.0 
-6.739785401744e-04 3.449119271461e-03 0.0 
0.0 0.0 0.0 
-1.874855378478e-03 9.994188290416e-04 0.0 
9.994188290416e-04 7.694076932585e-03 0.0 
0.0 0.0 0.0 
-1.006473939913e-03 -3.898062160721e-04 0.0 
-3.898062160721e-04 2.573961969272e-03 0.0 
0.0 0.0 0.0 
4.641868874199e-04 2.858654440132e-03 0.0 
2.858654440132e-03 5.153056490038e-03 0.0 
0.0 0.0 0.0 
-4.684552984425e-04 -1.479282561861e-03 0.0 
-1.479282561861e-03 8.160956437014e-04 0.0 
0.0 0.0 0.0 
-4.092341337367e-04 7.379229920116e-04 0.0 
7.379229920116e-04 1.047153540065e-02 0.0 
0.0 0.0 0.0 
7.498294840111e-04 2.127071670726e-04 0.0 
2.127071670726e-04 3.431997374035e-03 0.0 
0.0 0.0 0.0 
-4.974352875865e-04 1.965551139089e-03 0.0 
1.965551139089e-03 9.657028278400e-03 0.0 
0.0 0.0 0.0 
3.691231497344e-04 1.967686791429e-03 0.0 
1.967686791429e-03 4.554526562050e-03 0.0 
0.0 0.0 0.0 
2.989988662974e-04 1.052571314020e-03 0.0 
1.052571314020e-03 -4.340992173431e-03 0.0 
0.0 0.0 0.0 
4.802230378945e-04 2.691021918061e-03 0.0 
2.691021918061e-03 5.023964807411e-03 0.0 
0.0 0.0 0.0 
1.268348310282e-03 5.997334769936e-04 0.0 
5.997334769936e-04 2.631879089501e-03 0.0 
0.0 0.0 0.0 
-1.344154612269e-03 9.586454100515e-05 0.0 
9.586454100515e-05 7.997136500498e-03 0.0 
0.0 0.0 0.0 
-5.002422727324e-04 2.240503209317e-03 0.0 
2.240503209317e-03 9.252033046875e-03 0.0 
0.0 0.0 0.0 
-1.284408680473e-03 -6.647329915672e-04 0.0 
-6.647329915672e-04 2.985992744098e-03 0.0 
0.0 0.0 0.0 
1.298453650597e-04 -5.507490123719e-04 0.0 
-5.507490123719e-04 1.075919450047e-03 0.0 
0.0 0.0 0.0 
-1.706221193588e-04 8.790801188110e-05 0.0 
8.790801188110e-05 1.079061798903e-02 0.0 
0.0 0.0 0.0 
2.221588230033e-03 -5.298566028532e-06 0.0 
-5.298566028532e-06 -7.476400204696e-04 0.0 
0.0 0.0 0.0 
-1.277635201910e-03 9.274978407513e-06 0.0 
9.274978407513e-06 7.964101875078e-03 0.0 
0.0 0.0 0.0 
-1.946479422068e-04 -1.011233540382e-04 0.0 
-1.011233540382e-04 5.952419165140e-03 0.0 
0.0 0.0 0.0 
3.785103630018e-04 -2.947967089879e-04 0.0 
-2.947967089879e-04 9.812932220910e-04 0.0 
0.0 0.0 0.0 
-1.231833449732e-03 6.020304227535e-05 0.0 
6.020304227535e-05 8.611747389780e-03 0.0 
0.0 0.0 0.0 
-2.718248881347e-04 2.866768903145e-03 0.0 
2.866768903145e-03 7.946458170132e-03 0.0 
0.0 0.0 0.0 
-1.428221554915e-03 -1.756169387011e-04 0.0 
-1.756169387011e-04 4.060083529797e-03 0.0 
0.0 0.0 0.0 
-6.986403862703e-04 1.479430949398e-04 0.0 
1.479430949398e-04 1.011638325815e-02 0.0 
0.0 0.0 0.0 
2.916496789225e-04 -3.146575728489e-03 0.0 
-3.146575728489e-03 -3.663333336033e-04 0.0 
0.0 0.0 0.0 
-1.920752532710e-03 -5.904412338432e-04 0.0 
-5.904412338432e-04 -3.760630374126e-03 0.0 
0.0 0.0 0.0 
-1.091873035604e-03 9.161782984327e-05 0.0 
9.161782984327e-05 9.255054918305e-03 0.0 
0.0 0.0 0.0 
6.894834606720e-04 2.325247304525e-03 0.0 
2.325247304525e-03 4.304312905770e-03 0.0 
0.0 0.0 0.0 
-4.800985788654e-04 1.656076652101e-03 0.0 
1.656076652101e-03 9.973570820397e-03 0.0 
0.0 0.0 0.0 
-1.200012545863e-03 1.972719226192e-04 0.0 
1.972719226192e-04 9.005631910820e-03 0.0 
0.0 0.0 0.0 
1.325707697104e-03 3.742798460387e-03 0.0 
3.742798460387e-03 -2.291277149575e-03 0.0 
0.0 0.0 0.0 
-3.209976761720e-04 2.842011882539e-03 0.0 
2.842011882539e-03 7.593554005569e-03 0.0 
0.0 0.0 0.0 
-1.403058502769e-03 -6.801050597520e-04 0.0 
-6.801050597520e-04 3.586611501116e-03 0.0 
0.0 0.0 0.0 
1.106595909602e-04 2.964849711488e-03 0.0 
2.964849711488e-03 6.133906715048e-03 0.0 
0.0 0.0 0.0 
1.295122872856e-03 1.146194003995e-03 0.0 
1.146194003995e-03 2.746883033092e-03 0.0 
0.0 0.0 0.0 
-1.542959129522e-03 3.619569645673e-03 0.0 
3.619569645673e-03 -1.474077348861e-03 0.0 
0.0 0.0 0.0 
-1.347627361240e-03 -1.426974947648e-04 0.0 
-1.426974947648e-04 4.247068141974e-03 0.0 
0.0 0.0 0.0 
6.254924685999e-04 -4.698989070738e-04 0.0 
-4.698989070738e-04 2.222648425253e-04 0.0 
0.0 0.0 0.0 
7.323342627301e-05 -6.973468679639e-04 0.0 
-6.973468679639e-04 4.682973939342e-03 0.0 
0.0 0.0 0.0 
-1.445733989178e-03 -4.735785689495e-04 0.0 
-4.735785689495e-04 3.771264353636e-03 0.0 
0.0 0.0 0.0 
-1.114289325063e-03 1.298721638413e-03 0.0 
1.298721638413e-03 4.326975996229e-03 0.0 
0.0 0.0 0.0 
-9.711862381998e-04 -1.038296980757e-05 0.0 
-1.038296980757e-05 4.685782334973e-03 0.0 
0.0 0.0 0.0 
-1.052711967528e-03 1.394955912358e-03 0.0 
1.394955912358e-03 4.450029806001e-03 0.0 
0.0 0.0 0.0 
-1.030982994469e-03 -9.558398665768e-06 0.0 
-9.558398665768e-06 5.184041201284e-03 0.0 
0.0 0.0 0.0 
-1.217535777604e-03 1.315364353280e-03 0.0 
1.315364353280e-03 4.874296550216e-03 0.0 
0.0 0.0 0.0 
-1.088230712075e-03 -1.354088998373e-05 0.0 
-1.354088998373e-05 5.616612634337e-03 0.0 
0.0 0.0 0.0 
-1.468927090662e-03 1.166462362585e-03 0.0 
1.166462362585e-03 5.429098229970e-03 0.0 
0.0 0.0 0.0 
-1.145699529595e-03 -1.254004510502e-05 0.0 
-1.254004510502e-05 6.113781963288e-03 0.0 
0.0 0.0 0.0 
-1.688346435327e-03 1.025364626111e-03 0.0 
1.025364626111e-03 6.004944369949e-03 0.0 
0.0 0.0 0.0 
-1.199610477930e-03 -9.708253600835e-06 0.0 
-9.708253600835e-06 6.544459186970e-03 0.0 
0.0 0.0 0.0 
-1.849549122927e-03 9.040810827754e-04 0.0 
9.040810827754e-04 6.588741806551e-03 0.0 
0.0 0.0 0.0 
-1.243474963073e-03 -4.993825437020e-06 0.0 
-4.993825437020e-06 7.027155899168e-03 0.0 
0.0 0.0 0.0 
-1.935933112319e-03 8.393085815152e-04 0.0 
8.393085815152e-04 7.132763239489e-03 0.0 
0.0 0.0 0.0 
-1.274767572522e-03 7.244601479153e-06 0.0 
7.244601479153e-06 7.440373695800e-03 0.0 
0.0 0.0 0.0 

TENSORS node_materi_strain_plasti float
2.934499401238e-03 -6.293764513238e-05 0.0 
-6.293764513238e-05 -1.067748591947e-03 0.0 
0.0 0.0 -1.096634683480e-04 
-1.402797370443e-03 -1.078294972551e-04 0.0 
-1.078294972551e-04 4.900277451411e-03 0.0 
0.0 0.0 -6.959116756397e-04 
-1.452967895051e-03 -5.509598229541e-05 0.0 
-5.509598229541e-05 7.203997768270e-03 0.0 
0.0 0.0 -1.332621093165e-03 
-1.383162840862e-03 -3.297498286580e-05 0.0 
-3.297498286580e-05 8.816768276200e-03 0.0 
0.0 0.0 -1.332621093165e-03 
2.013745495957e-03 -6.316916865917e-05 0.0 
-6.316916865917e-05 -5.120452549012e-04 0.0 
0.0 0.0 -2.200719611176e-04 
9.770148188976e-04 3.431498766894e-05 0.0 
3.431498766894e-05 4.169221136190e-04 0.0 
0.0 0.0 -3.137585542919e-04 
-7.178028314759e-05 -1.232028049961e-08 0.0 
-1.232028049961e-08 1.149279144839e-03 0.0 
0.0 0.0 -2.794359002296e-04 
-6.436375512209e-04 -1.276790241492e-05 0.0 
-1.276790241492e-05 1.873669559697e-03 0.0 
0.0 0.0 -3.439875543896e-04 
-7.879199919424e-04 -6.957800867177e-05 0.0 
-6.957800867177e-05 2.362265819291e-03 0.0 
0.0 0.0 -5.230155850880e-04 
-9.090757292185e-04 -8.706192601079e-05 0.0 
-8.706192601079e-05 2.790274002592e-03 0.0 
0.0 0.0 -6.679173279409e-04 
-1.029732123068e-03 -9.763895695819e-05 0.0 
-9.763895695819e-05 3.189834221624e-03 0.0 
0.0 0.0 -7.858430676574e-04 
-1.146480183378e-03 -1.186695020361e-04 0.0 
-1.186695020361e-04 3.556707151380e-03 0.0 
0.0 0.0 -8.797909670055e-04 
-1.263272361791e-03 -1.272958726748e-04 0.0 
-1.272958726748e-04 3.899470374148e-03 0.0 
0.0 0.0 -9.497524971825e-04 
-1.384672616284e-03 -1.145152012545e-04 0.0 
-1.145152012545e-04 4.236966414279e-03 0.0 
0.0 0.0 -1.004045332643e-03 
-1.526674903082e-03 -6.496102058636e-05 0.0 
-6.496102058636e-05 4.605045077914e-03 0.0 
0.0 0.0 -1.040527029177e-03 
-1.665462947768e-03 -2.107388054909e-05 0.0 
-2.107388054909e-05 4.948618842847e-03 0.0 
0.0 0.0 -1.059523297737e-03 
-1.782894097401e-03 -3.343512703910e-06 0.0 
-3.343512703910e-06 5.233549116132e-03 0.0 
0.0 0.0 -1.072054170059e-03 
-1.938902930101e-03 -9.696053467476e-05 0.0 
-9.696053467476e-05 5.600248017308e-03 0.0 
0.0 0.0 -1.073655443973e-03 
-2.100363589718e-03 -8.662704783515e-05 0.0 
-8.662704783515e-05 5.970821215845e-03 0.0 
0.0 0.0 -1.067605311830e-03 
-2.135124898814e-03 -7.268436157999e-05 0.0 
-7.268436157999e-05 6.300803109141e-03 0.0 
0.0 0.0 -1.091655094700e-03 
-2.004143563035e-03 -6.534761213825e-05 0.0 
-6.534761213825e-05 6.588381292475e-03 0.0 
0.0 0.0 -1.158330123333e-03 
-1.835283495390e-03 -5.008648858264e-05 0.0 
-5.008648858264e-05 6.864752160643e-03 0.0 
0.0 0.0 -1.226073836101e-03 
-1.640741500190e-03 -2.858138524020e-05 0.0 
-2.858138524020e-05 7.123085926045e-03 0.0 
0.0 0.0 -1.289832767750e-03 
-1.368677421570e-03 1.600785886141e-04 0.0 
1.600785886141e-04 8.818553082708e-03 0.0 
0.0 0.0 -1.336902025401e-03 
-1.377365391022e-03 2.999124352866e-04 0.0 
2.999124352866e-04 8.800585598907e-03 0.0 
0.0 0.0 -1.332945767435e-03 
-1.378029629414e-03 3.844218527142e-04 0.0 
3.844218527142e-04 8.780564209488e-03 0.0 
0.0 0.0 -1.334903170087e-03 
-1.378699113984e-03 6.281396802948e-04 0.0 
6.281396802948e-04 8.766528136653e-03 0.0 
0.0 0.0 -1.334459899807e-03 
-1.385861616700e-03 7.361442488981e-04 0.0 
7.361442488981e-04 8.736115872586e-03 0.0 
0.0 0.0 -1.332067731643e-03 
-1.380170718422e-03 9.112443166240e-04 0.0 
9.112443166240e-04 8.705993944759e-03 0.0 
0.0 0.0 -1.335050935171e-03 
-1.376694153872e-03 1.085769035599e-03 0.0 
1.085769035599e-03 8.675777653225e-03 0.0 
0.0 0.0 -1.335055123498e-03 
-1.386603367251e-03 1.256067884305e-03 0.0 
1.256067884305e-03 8.631282104952e-03 0.0 
0.0 0.0 -1.333530254363e-03 
-1.385927681412e-03 1.401216317866e-03 0.0 
1.401216317866e-03 8.584979043230e-03 0.0 
0.0 0.0 -1.336259905589e-03 
-1.382886472311e-03 1.656515799073e-03 0.0 
1.656515799073e-03 8.524207830888e-03 0.0 
0.0 0.0 -1.335712483792e-03 
-1.394014418558e-03 1.806002472474e-03 0.0 
1.806002472474e-03 8.445999086005e-03 0.0 
0.0 0.0 -1.333313947604e-03 
-1.390408237112e-03 2.011066343467e-03 0.0 
2.011066343467e-03 8.361388601017e-03 0.0 
0.0 0.0 -1.335862559377e-03 
-1.384222329824e-03 2.219576262539e-03 0.0 
2.219576262539e-03 8.276324698237e-03 0.0 
0.0 0.0 -1.336097458551e-03 
-1.389035125892e-03 2.412450494632e-03 0.0 
2.412450494632e-03 8.157453667495e-03 0.0 
0.0 0.0 -1.335235043394e-03 
-1.385735689378e-03 2.596152172723e-03 0.0 
2.596152172723e-03 8.026403168300e-03 0.0 
0.0 0.0 -1.334297546486e-03 
-1.387385464636e-03 2.793709716201e-03 0.0 
2.793709716201e-03 7.870413974245e-03 0.0 
0.0 0.0 -1.332308435384e-03 
-1.390045521020e-03 2.956478596536e-03 0.0 
2.956478596536e-03 7.707669454312e-03 0.0 
0.0 0.0 -1.332019584455e-03 
-1.374441407390e-03 3.130356841580e-03 0.0 
3.130356841580e-03 7.548288379511e-03 0.0 
0.0 0.0 -1.333392124151e-03 
-1.370916614240e-03 3.263121805825e-03 0.0 
3.263121805825e-03 7.369253492750e-03 0.0 
0.0 0.0 -1.334727449481e-03 
-1.360841402714e-03 3.372289688876e-03 0.0 
3.372289688876e-03 7.166176364928e-03 0.0 
0.0 0.0 -1.336576889699e-03 
-1.346336485325e-03 3.461253780169e-03 0.0 
3.461253780169e-03 6.951403103377e-03 0.0 
0.0 0.0 -1.335888391555e-03 
-1.332890796825e-03 3.468370162717e-03 0.0 
3.468370162717e-03 6.730314385053e-03 0.0 
0.0 0.0 -1.334783226448e-03 
-1.319924003398e-03 3.447235553293e-03 0.0 
3.447235553293e-03 6.491181615044e-03 0.0 
0.0 0.0 -1.335053869153e-03 
-1.304557536433e-03 3.357836383275e-03 0.0 
3.357836383275e-03 6.252969737423e-03 0.0 
0.0 0.0 -1.334960189349e-03 
-1.290544710403e-03 3.217570000044e-03 0.0 
3.217570000044e-03 6.038359705784e-03 0.0 
0.0 0.0 -1.334889991128e-03 
-1.266052279295e-03 3.015967340183e-03 0.0 
3.015967340183e-03 5.820251815716e-03 0.0 
0.0 0.0 -1.335774086633e-03 
-1.268292395628e-03 2.751499810292e-03 0.0 
2.751499810292e-03 5.611006951901e-03 0.0 
0.0 0.0 -1.336605656894e-03 
-1.233716587758e-03 2.428663332176e-03 0.0 
2.428663332176e-03 5.432453778555e-03 0.0 
0.0 0.0 -1.336508443943e-03 
-1.235192718271e-03 2.048692266400e-03 0.0 
2.048692266400e-03 5.281516895731e-03 0.0 
0.0 0.0 -1.335343284290e-03 
-1.233233161047e-03 1.613443115418e-03 0.0 
1.613443115418e-03 5.176753839955e-03 0.0 
0.0 0.0 -1.337998490269e-03 
-1.231527167288e-03 1.237296422517e-03 0.0 
1.237296422517e-03 5.075978590578e-03 0.0 
0.0 0.0 -1.337247094005e-03 
-1.199833465241e-03 7.660071193524e-04 0.0 
7.660071193524e-04 4.984249579952e-03 0.0 
0.0 0.0 -1.333783489999e-03 
-1.202795443341e-03 2.512512957567e-04 0.0 
2.512512957567e-04 4.957451962835e-03 0.0 
0.0 0.0 -1.334548731617e-03 
-1.209938913942e-03 -2.134028709971e-04 0.0 
-2.134028709971e-04 5.026425426342e-03 0.0 
0.0 0.0 -1.334619746794e-03 
-1.216034057197e-03 -6.370386973179e-04 0.0 
-6.370386973179e-04 5.098251117921e-03 0.0 
0.0 0.0 -1.335242115105e-03 
-1.250273571860e-03 -1.037169625291e-03 0.0 
-1.037169625291e-03 5.212102119693e-03 0.0 
0.0 0.0 -1.335691437541e-03 
-1.244652277412e-03 -1.350985257247e-03 0.0 
-1.350985257247e-03 5.369562904984e-03 0.0 
0.0 0.0 -1.335646478247e-03 
-1.280185566221e-03 -1.619011709695e-03 0.0 
-1.619011709695e-03 5.525208807417e-03 0.0 
0.0 0.0 -1.334931242407e-03 
-1.279873673449e-03 -1.816253781483e-03 0.0 
-1.816253781483e-03 5.699667194469e-03 0.0 
0.0 0.0 -1.334100791702e-03 
-1.316092894892e-03 -1.930306284798e-03 0.0 
-1.930306284798e-03 5.897360744271e-03 0.0 
0.0 0.0 -1.332237298415e-03 
-1.332492949627e-03 -1.997739486340e-03 0.0 
-1.997739486340e-03 6.101236304603e-03 0.0 
0.0 0.0 -1.333749945600e-03 
-1.347535005711e-03 -1.949980560505e-03 0.0 
-1.949980560505e-03 6.326575568891e-03 0.0 
0.0 0.0 -1.336652505695e-03 
-1.361718678089e-03 -1.883685554895e-03 0.0 
-1.883685554895e-03 6.509663460433e-03 0.0 
0.0 0.0 -1.337094627689e-03 
-1.399643089063e-03 -1.709140483279e-03 0.0 
-1.709140483279e-03 6.643034708910e-03 0.0 
0.0 0.0 -1.328990728106e-03 
-1.392288690639e-03 -1.485263022766e-03 0.0 
-1.485263022766e-03 6.836967868930e-03 0.0 
0.0 0.0 -1.335900064369e-03 
-1.414556676199e-03 -1.251540022059e-03 0.0 
-1.251540022059e-03 6.954271934946e-03 0.0 
0.0 0.0 -1.332523500780e-03 
-1.412496609790e-03 -1.031814538929e-03 0.0 
-1.031814538929e-03 7.047562735813e-03 0.0 
0.0 0.0 -1.335219049675e-03 
-1.419510763784e-03 -6.645626228058e-04 0.0 
-6.645626228058e-04 7.146959411296e-03 0.0 
0.0 0.0 -1.336566422126e-03 
-1.427684607805e-03 -3.887077461759e-04 0.0 
-3.887077461759e-04 7.195451913880e-03 0.0 
0.0 0.0 -1.335855682064e-03 
-1.453017564014e-03 -6.969271926299e-05 0.0 
-6.969271926299e-05 5.335351891541e-03 0.0 
0.0 0.0 -7.648954205800e-04 
-1.520880417330e-03 -7.433446925198e-05 0.0 
-7.433446925198e-05 5.819919600560e-03 0.0 
0.0 0.0 -8.298981322982e-04 
-1.557423966696e-03 -6.785219458369e-05 0.0 
-6.785219458369e-05 6.258440284560e-03 0.0 
0.0 0.0 -8.959277352460e-04 
-1.578985001560e-03 -6.738694350763e-05 0.0 
-6.738694350763e-05 6.671688470532e-03 0.0 
0.0 0.0 -9.610467530554e-04 
-1.585789406967e-03 -5.141559601497e-05 0.0 
-5.141559601497e-05 7.089803706817e-03 0.0 
0.0 0.0 -1.026987810050e-03 
-1.562649818793e-03 -5.245167551875e-05 0.0 
-5.245167551875e-05 7.497011482479e-03 0.0 
0.0 0.0 -1.092790196867e-03 
-1.539445803207e-03 -3.968004133447e-05 0.0 
-3.968004133447e-05 7.888080790164e-03 0.0 
0.0 0.0 -1.158290425478e-03 
-1.493157212652e-03 -4.236338247705e-05 0.0 
-4.236338247705e-05 8.249034422054e-03 0.0 
0.0 0.0 -1.224481705251e-03 
-1.439591118906e-03 -4.822262499776e-05 0.0 
-4.822262499776e-05 8.655254164316e-03 0.0 
0.0 0.0 -1.288782062784e-03 
6.806517019050e-06 3.234482134707e-04 0.0 
3.234482134707e-04 -6.806517019048e-06 0.0 
0.0 0.0 0.0 
-1.624278093923e-03 1.090396231210e-03 0.0 
1.090396231210e-03 4.601022683819e-03 0.0 
0.0 0.0 -7.280202007920e-04 
5.137106132259e-05 1.111355224900e-03 0.0 
1.111355224900e-03 3.642032230673e-04 0.0 
0.0 0.0 -1.781032647385e-04 
2.419898888436e-04 1.714650012296e-03 0.0 
1.714650012296e-03 7.169103887313e-04 0.0 
0.0 0.0 -4.109572618178e-04 
1.696144450746e-04 1.838109090226e-03 0.0 
1.838109090226e-03 8.971011490996e-04 0.0 
0.0 0.0 -4.571638260747e-04 
-5.064027901580e-05 1.636532375328e-03 0.0 
1.636532375328e-03 1.145388155645e-03 0.0 
0.0 0.0 -4.691776614124e-04 
-2.686288214637e-04 1.584200308986e-03 0.0 
1.584200308986e-03 1.584793069977e-03 0.0 
0.0 0.0 -5.640703922202e-04 
-4.987456418830e-04 1.585377040139e-03 0.0 
1.585377040139e-03 2.175609205872e-03 0.0 
0.0 0.0 -7.186558131380e-04 
-7.693623021415e-04 1.545850130620e-03 0.0 
1.545850130620e-03 2.800183439925e-03 0.0 
0.0 0.0 -7.884857694893e-04 
-1.068442602319e-03 1.392543525831e-03 0.0 
1.392543525831e-03 3.387126047545e-03 0.0 
0.0 0.0 -7.502339878794e-04 
-1.352818007869e-03 1.227157706519e-03 0.0 
1.227157706519e-03 3.981454431592e-03 0.0 
0.0 0.0 -7.303644794522e-04 
-5.922894421082e-04 -1.680688116741e-04 0.0 
-1.680688116741e-04 1.652407985936e-03 0.0 
0.0 0.0 -2.612161168338e-04 
-6.523899398366e-04 -2.144599340885e-04 0.0 
-2.144599340885e-04 1.928599373842e-03 0.0 
0.0 0.0 -3.065644285115e-04 
-8.254529843557e-04 -1.769995152719e-04 0.0 
-1.769995152719e-04 2.443834664170e-03 0.0 
0.0 0.0 -3.600000000000e-04 
-9.532376032239e-04 -2.185094811376e-04 0.0 
-2.185094811376e-04 2.944932670617e-03 0.0 
0.0 0.0 -4.266666666667e-04 
-1.074369705335e-03 -1.739013270640e-04 0.0 
-1.739013270640e-04 3.441659993103e-03 0.0 
0.0 0.0 -4.933333333333e-04 
-1.186861804691e-03 -2.063993814702e-04 0.0 
-2.063993814702e-04 3.930451098783e-03 0.0 
0.0 0.0 -5.600000000000e-04 
-1.284181826536e-03 -1.411246795881e-04 0.0 
-1.411246795881e-04 4.401802096581e-03 0.0 
0.0 0.0 -6.266666666667e-04 
-1.371869470260e-03 5.987426434916e-05 0.0 
5.987426434916e-05 4.821720366173e-03 0.0 
0.0 0.0 -6.874962403976e-04 
-1.373883297749e-03 1.733970713616e-05 0.0 
1.733970713616e-05 4.853900323376e-03 0.0 
0.0 0.0 -6.910932206029e-04 
-1.391096625977e-03 2.696117286623e-05 0.0 
2.696117286623e-05 4.858420634372e-03 0.0 
0.0 0.0 -6.911911970487e-04 
-1.403621533613e-03 2.899157745045e-05 0.0 
2.899157745045e-05 4.851539021186e-03 0.0 
0.0 0.0 -6.903356507966e-04 
-1.422086472761e-03 7.127286506100e-05 0.0 
7.127286506100e-05 4.925418991949e-03 0.0 
0.0 0.0 -6.980756478071e-04 
-1.440013737492e-03 8.905228061672e-05 0.0 
8.905228061672e-05 4.855137559965e-03 0.0 
0.0 0.0 -6.911448554634e-04 
-1.457810866496e-03 1.124854279040e-04 0.0 
1.124854279040e-04 4.842862400746e-03 0.0 
0.0 0.0 -6.903833977050e-04 
-1.485479761852e-03 1.763889665616e-04 0.0 
1.763889665616e-04 4.844524201239e-03 0.0 
0.0 0.0 -6.905588330458e-04 
-1.530071715646e-03 2.314067896651e-04 0.0 
2.314067896651e-04 4.843027902445e-03 0.0 
0.0 0.0 -6.922444453805e-04 
-1.565434249602e-03 3.199826070801e-04 0.0 
3.199826070801e-04 4.827774349685e-03 0.0 
0.0 0.0 -6.916098530255e-04 
-1.592220907441e-03 4.164385463974e-04 0.0 
4.164385463974e-04 4.800836260159e-03 0.0 
0.0 0.0 -6.911665914957e-04 
-1.624093306590e-03 5.379923244308e-04 0.0 
5.379923244308e-04 4.762121973516e-03 0.0 
0.0 0.0 -6.926885898885e-04 
-1.636272666442e-03 7.038956101205e-04 0.0 
7.038956101205e-04 4.710840836171e-03 0.0 
0.0 0.0 -6.980272606831e-04 
-1.642234561257e-03 8.946537782645e-04 0.0 
8.946537782645e-04 4.660104212790e-03 0.0 
0.0 0.0 -7.070206663417e-04 
0.0 0.0 0.0 
0.0 0.0 0.0 
0.0 0.0 0.0 
0.0 0.0 0.0 
0.0 0.0 0.0 
0.0 0.0 0.0 
0.0 0.0 0.0 
0.0 0.0 0.0 
0.0 0.0 0.0 
0.0 0.0 0.0 
0.0 0.0 0.0 
0.0 0.0 0.0 
0.0 0.0 0.0 
0.0 0.0 0.0 
0.0 0.0 0.0 
6.460969664659e-05 -1.556902627030e-04 0.0 
-1.556902627030e-04 3.828112054754e-05 0.0 
0.0 0.0 -4.409606451177e-05 
2.290958672754e-04 -1.825778835954e-04 0.0 
-1.825778835954e-04 1.295802149225e-05 0.0 
0.0 0.0 -6.349991864517e-05 
3.258301092639e-04 -1.495010221350e-04 0.0 
-1.495010221350e-04 5.825232736603e-05 0.0 
0.0 0.0 -6.729406355132e-05 
4.308097979006e-04 -2.272179296947e-04 0.0 
-2.272179296947e-04 4.144525422736e-05 0.0 
0.0 0.0 -5.004267624003e-05 
7.170242557017e-04 -3.798682189908e-04 0.0 
-3.798682189908e-04 -8.718929718944e-05 0.0 
0.0 0.0 -5.423469082676e-05 
1.016505377143e-03 -3.706654485886e-04 0.0 
-3.706654485886e-04 -2.196691987021e-04 0.0 
0.0 0.0 -6.924701466199e-05 
1.374691841568e-03 -3.600731207399e-04 0.0 
-3.600731207399e-04 -3.650587174241e-04 0.0 
0.0 0.0 -8.456438766380e-05 
1.776444192994e-03 -3.135747337774e-04 0.0 
-3.135747337774e-04 -5.394471043759e-04 0.0 
0.0 0.0 -1.145437528706e-04 
2.116489510919e-03 -3.092434709054e-04 0.0 
-3.092434709054e-04 -6.971504040322e-04 0.0 
0.0 0.0 -1.122699804219e-04 
2.340534228900e-03 -2.489648393755e-04 0.0 
-2.489648393755e-04 -7.939335318199e-04 0.0 
0.0 0.0 -1.135261812993e-04 
2.545448873624e-03 -1.895106937816e-04 0.0 
-1.895106937816e-04 -8.695809182027e-04 0.0 
0.0 0.0 -1.151526711856e-04 
2.708912883130e-03 -1.592234908312e-04 0.0 
-1.592234908312e-04 -9.353356256089e-04 0.0 
0.0 0.0 -1.168504208365e-04 
2.867102977547e-03 -9.067089989766e-05 0.0 
-9.067089989766e-05 -1.037120165575e-03 0.0 
0.0 0.0 -1.138900488129e-04 
3.013559206580e-03 5.775462477208e-05 0.0 
5.775462477208e-05 -1.103986210354e-03 0.0 
0.0 0.0 -1.064965418423e-04 
7.082737655839e-06 1.599025891013e-03 0.0 
1.599025891013e-03 1.013572198737e-03 0.0 
0.0 0.0 -4.374235441683e-04 
-1.064402285111e-04 1.448221427725e-03 0.0 
1.448221427725e-03 1.137636211123e-03 0.0 
0.0 0.0 -4.419411354049e-04 
-2.439807903698e-04 1.176922984132e-03 0.0 
1.176922984132e-03 1.284825010496e-03 0.0 
0.0 0.0 -4.435141619624e-04 
-3.569117611021e-04 8.589407670703e-04 0.0 
8.589407670703e-04 1.376927338989e-03 0.0 
0.0 0.0 -4.052050514806e-04 
-4.483181728542e-04 6.102547624426e-04 0.0 
6.102547624426e-04 1.476580580728e-03 0.0 
0.0 0.0 -3.639821372146e-04 
-4.704921254345e-04 3.763986273903e-04 0.0 
3.763986273903e-04 1.541833564618e-03 0.0 
0.0 0.0 -3.460314227888e-04 
-4.734461749272e-04 1.860615533378e-04 0.0 
1.860615533378e-04 1.593987355983e-03 0.0 
0.0 0.0 -3.358099305033e-04 
-5.081213219850e-04 2.468418005953e-05 0.0 
2.468418005953e-05 1.636857746109e-03 0.0 
0.0 0.0 -3.173686970690e-04 
-5.178654067012e-04 -9.813338954846e-05 0.0 
-9.813338954846e-05 1.657484753897e-03 0.0 
0.0 0.0 -2.980072949620e-04 
-5.000683735095e-04 -1.876537201273e-04 0.0 
-1.876537201273e-04 1.663257037085e-03 0.0 
0.0 0.0 -2.913194062456e-04 
-4.896151698128e-04 -2.503876469343e-04 0.0 
-2.503876469343e-04 1.667817644836e-03 0.0 
0.0 0.0 -2.862879024619e-04 
-4.851835567513e-04 -2.917792132675e-04 0.0 
-2.917792132675e-04 1.672002225685e-03 0.0 
0.0 0.0 -2.826840221882e-04 
-4.856098096052e-04 -3.160485548688e-04 0.0 
-3.160485548688e-04 1.676438181682e-03 0.0 
0.0 0.0 -2.800834446097e-04 
-4.895042665949e-04 -3.264805506154e-04 0.0 
-3.264805506154e-04 1.681072027663e-03 0.0 
0.0 0.0 -2.782477494041e-04 
-4.955508122846e-04 -3.252553727520e-04 0.0 
-3.252553727520e-04 1.685787132742e-03 0.0 
0.0 0.0 -2.769318121295e-04 
-5.029195912891e-04 -3.142628506809e-04 0.0 
-3.142628506809e-04 1.690730241410e-03 0.0 
0.0 0.0 -2.759970850639e-04 
-5.110162609006e-04 -2.960890624003e-04 0.0 
-2.960890624003e-04 1.696031733184e-03 0.0 
0.0 0.0 -2.753307401032e-04 
-5.191266801546e-04 -2.725170700515e-04 0.0 
-2.725170700515e-04 1.701194891689e-03 0.0 
0.0 0.0 -2.748499709439e-04 
-5.268403776351e-04 -2.446213247504e-04 0.0 
-2.446213247504e-04 1.706080713416e-03 0.0 
0.0 0.0 -2.744853237551e-04 
-5.335679875309e-04 -2.135203367433e-04 0.0 
-2.135203367433e-04 1.710441568699e-03 0.0 
0.0 0.0 -2.741892981057e-04 
-5.389110166073e-04 -1.795115058283e-04 0.0 
-1.795115058283e-04 1.713885976735e-03 0.0 
0.0 0.0 -2.739550564217e-04 
-5.430154637056e-04 -1.420191824896e-04 0.0 
-1.420191824896e-04 1.716472595623e-03 0.0 
0.0 0.0 -2.738003566290e-04 
-5.465805155854e-04 -1.013118186293e-04 0.0 
-1.013118186293e-04 1.716796405950e-03 0.0 
0.0 0.0 -2.737798241202e-04 
-5.503832772755e-04 -6.723001543244e-05 0.0 
-6.723001543244e-05 1.670010915207e-03 0.0 
0.0 0.0 -2.743577606100e-04 
-5.642112100348e-04 7.803958956150e-05 0.0 
7.803958956150e-05 1.605520800800e-03 0.0 
0.0 0.0 -2.534165337410e-04 
-6.521536472921e-04 3.037039092969e-05 0.0 
3.037039092969e-05 1.927101012756e-03 0.0 
0.0 0.0 -3.061660192852e-04 
-6.146125138384e-04 -7.648421940114e-05 0.0 
-7.648421940114e-05 1.912252703488e-03 0.0 
0.0 0.0 -3.161672630275e-04 
-6.123269788261e-04 -1.356533928898e-04 0.0 
-1.356533928898e-04 1.909321831748e-03 0.0 
0.0 0.0 -3.162703440688e-04 
-6.102267992251e-04 -1.752602272705e-04 0.0 
-1.752602272705e-04 1.907124225355e-03 0.0 
0.0 0.0 -3.166480862921e-04 
-6.078351167893e-04 -2.109984893587e-04 0.0 
-2.109984893587e-04 1.904702407949e-03 0.0 
0.0 0.0 -3.172242122056e-04 
-6.049262965588e-04 -2.437778904745e-04 0.0 
-2.437778904745e-04 1.901645462579e-03 0.0 
0.0 0.0 -3.179747884623e-04 
-6.016293543077e-04 -2.733641442443e-04 0.0 
-2.733641442443e-04 1.898077561520e-03 0.0 
0.0 0.0 -3.189054167417e-04 
-5.983341509043e-04 -2.985456040918e-04 0.0 
-2.985456040918e-04 1.894265064291e-03 0.0 
0.0 0.0 -3.200558360071e-04 
-5.954052100357e-04 -3.178164354008e-04 0.0 
-3.178164354008e-04 1.890328088488e-03 0.0 
0.0 0.0 -3.215242440727e-04 
-5.932930907438e-04 -3.295287160715e-04 0.0 
-3.295287160715e-04 1.886515057030e-03 0.0 
0.0 0.0 -3.234293095895e-04 
-5.925898260158e-04 -3.311133739508e-04 0.0 
-3.311133739508e-04 1.882950221058e-03 0.0 
0.0 0.0 -3.259169466148e-04 
-5.936278952851e-04 -3.198689819626e-04 0.0 
-3.198689819626e-04 1.879252640520e-03 0.0 
0.0 0.0 -3.291674719681e-04 
-5.971550282615e-04 -2.929944648091e-04 0.0 
-2.929944648091e-04 1.875333752629e-03 0.0 
0.0 0.0 -3.334451628410e-04 
-6.039541515878e-04 -2.475050715629e-04 0.0 
-2.475050715629e-04 1.870985002452e-03 0.0 
0.0 0.0 -3.391616836831e-04 
-6.148223475090e-04 -1.792794613688e-04 0.0 
-1.792794613688e-04 1.865813361112e-03 0.0 
0.0 0.0 -3.467505649865e-04 
-6.184345348540e-04 -8.454989948401e-05 0.0 
-8.454989948401e-05 1.854651279409e-03 0.0 
0.0 0.0 -3.603039951237e-04 
-6.085923058314e-04 4.072255252298e-05 0.0 
4.072255252298e-05 1.834338896564e-03 0.0 
0.0 0.0 -3.821985994076e-04 
-5.737422674870e-04 1.955384943667e-04 0.0 
1.955384943667e-04 1.793819261950e-03 0.0 
0.0 0.0 -4.101025279482e-04 
-5.332517228044e-04 3.827773275698e-04 0.0 
3.827773275698e-04 1.732246533645e-03 0.0 
0.0 0.0 -4.269902603392e-04 
-4.908826009862e-04 5.911692506281e-04 0.0 
5.911692506281e-04 1.645052271329e-03 0.0 
0.0 0.0 -4.418263900718e-04 
-4.101061126456e-04 8.497011629847e-04 0.0 
8.497011629847e-04 1.543306508708e-03 0.0 
0.0 0.0 -4.634526724741e-04 
-3.026172258989e-04 1.152678743765e-03 0.0 
1.152678743765e-03 1.424524180282e-03 0.0 
0.0 0.0 -4.797192951453e-04 
-1.851017191588e-04 1.364462229885e-03 0.0 
1.364462229885e-03 1.258853605899e-03 0.0 
0.0 0.0 -4.601793800314e-04 
-3.917368210583e-04 1.317479250336e-03 0.0 
1.317479250336e-03 1.747874473266e-03 0.0 
0.0 0.0 -5.812018509462e-04 
-5.091690360286e-04 1.130845155862e-03 0.0 
1.130845155862e-03 1.963327675715e-03 0.0 
0.0 0.0 -6.066533733830e-04 
-6.141014296330e-04 8.542857385472e-04 0.0 
8.542857385472e-04 2.104545634073e-03 0.0 
0.0 0.0 -5.807024946757e-04 
-6.882663027808e-04 6.113252394538e-04 0.0 
6.113252394538e-04 2.202130389397e-03 0.0 
0.0 0.0 -5.506042562872e-04 
-7.485151266818e-04 4.048271456746e-04 0.0 
4.048271456746e-04 2.276572322960e-03 0.0 
0.0 0.0 -5.097853306317e-04 
-7.897555551191e-04 2.224232272700e-04 0.0 
2.224232272700e-04 2.321631848111e-03 0.0 
0.0 0.0 -4.716768144535e-04 
-8.179605038944e-04 7.373921887575e-05 0.0 
7.373921887575e-05 2.355988915550e-03 0.0 
0.0 0.0 -4.418280814132e-04 
-8.268010595159e-04 -4.483534428960e-05 0.0 
-4.483534428960e-05 2.376308389151e-03 0.0 
0.0 0.0 -4.218770227552e-04 
-8.228503060703e-04 -1.347192607701e-04 0.0 
-1.347192607701e-04 2.388847937133e-03 0.0 
0.0 0.0 -4.090523408212e-04 
-8.109185832396e-04 -1.989047172259e-04 0.0 
-1.989047172259e-04 2.395688157729e-03 0.0 
0.0 0.0 -4.015628555955e-04 
-8.019746084778e-04 -2.402503830985e-04 0.0 
-2.402503830985e-04 2.401236351570e-03 0.0 
0.0 0.0 -3.954021415690e-04 
-7.953245493492e-04 -2.629832857574e-04 0.0 
-2.629832857574e-04 2.405546845163e-03 0.0 
0.0 0.0 -3.902995700482e-04 
-7.906845303877e-04 -2.708266975381e-04 0.0 
-2.708266975381e-04 2.409326752935e-03 0.0 
0.0 0.0 -3.860854787602e-04 
-7.877188598931e-04 -2.666780701279e-04 0.0 
-2.666780701279e-04 2.412893579400e-03 0.0 
0.0 0.0 -3.826300360752e-04 
-7.859472857759e-04 -2.529812670249e-04 0.0 
-2.529812670249e-04 2.416190377898e-03 0.0 
0.0 0.0 -3.797920724705e-04 
-7.849776301162e-04 -2.317218095120e-04 0.0 
-2.317218095120e-04 2.419097107999e-03 0.0 
0.0 0.0 -3.774328490719e-04 
-7.844810121678e-04 -2.050225660717e-04 0.0 
-2.050225660717e-04 2.421538416815e-03 0.0 
0.0 0.0 -3.754828035711e-04 
-7.842654296420e-04 -1.743385635113e-04 0.0 
-1.743385635113e-04 2.423613148989e-03 0.0 
0.0 0.0 -3.739320486442e-04 
-7.843867792918e-04 -1.404633765496e-04 0.0 
-1.404633765496e-04 2.425575961632e-03 0.0 
0.0 0.0 -3.727418427549e-04 
-7.857008201318e-04 -1.044807299690e-04 0.0 
-1.044807299690e-04 2.428069777729e-03 0.0 
0.0 0.0 -3.717245115980e-04 
-7.997888929887e-04 -7.230959013771e-05 0.0 
-7.230959013771e-05 2.434645715537e-03 0.0 
0.0 0.0 -3.674400072102e-04 
-8.218042889041e-04 7.812455767352e-05 0.0 
7.812455767352e-05 2.442717993920e-03 0.0 
0.0 0.0 -3.611040392158e-04 
-9.494559103031e-04 3.245343644015e-05 0.0 
3.245343644015e-05 2.942828314072e-03 0.0 
0.0 0.0 -4.276225674433e-04 
-9.453893070207e-04 -7.111604734988e-05 0.0 
-7.111604734988e-05 2.939480324051e-03 0.0 
0.0 0.0 -4.291610623509e-04 
-9.479485626056e-04 -1.223075957800e-04 0.0 
-1.223075957800e-04 2.938148575924e-03 0.0 
0.0 0.0 -4.294518113500e-04 
-9.513509497972e-04 -1.528128127516e-04 0.0 
-1.528128127516e-04 2.937112011401e-03 0.0 
0.0 0.0 -4.303156580442e-04 
-9.561412693041e-04 -1.795418847633e-04 0.0 
-1.795418847633e-04 2.936257850339e-03 0.0 
0.0 0.0 -4.315177398476e-04 
-9.613801982685e-04 -2.020582703720e-04 0.0 
-2.020582703720e-04 2.935027659389e-03 0.0 
0.0 0.0 -4.333935888026e-04 
-9.649594115909e-04 -2.191801396652e-04 0.0 
-2.191801396652e-04 2.932403783643e-03 0.0 
0.0 0.0 -4.365863700986e-04 
-9.694509318337e-04 -2.282743571783e-04 0.0 
-2.282743571783e-04 2.928700962369e-03 0.0 
0.0 0.0 -4.403344688981e-04 
-9.752854465798e-04 -2.262425092116e-04 0.0 
-2.262425092116e-04 2.924232336100e-03 0.0 
0.0 0.0 -4.446981798157e-04 
-9.827947901593e-04 -2.105547843802e-04 0.0 
-2.105547843802e-04 2.919037677629e-03 0.0 
0.0 0.0 -4.499693714774e-04 
-9.922432754887e-04 -1.788315847570e-04 0.0 
-1.788315847570e-04 2.912643541075e-03 0.0 
0.0 0.0 -4.561666389974e-04 
-1.003596714027e-03 -1.273527626457e-04 0.0 
-1.273527626457e-04 2.903956443196e-03 0.0 
0.0 0.0 -4.633466294216e-04 
-1.016765204047e-03 -5.053958217971e-05 0.0 
-5.053958217971e-05 2.891535834080e-03 0.0 
0.0 0.0 -4.716857746087e-04 
-1.020109545419e-03 5.743003251611e-05 0.0 
5.743003251611e-05 2.872702128626e-03 0.0 
0.0 0.0 -4.852209091340e-04 
-9.964537532025e-04 1.942960321916e-04 0.0 
1.942960321916e-04 2.839351573495e-03 0.0 
0.0 0.0 -5.097743276704e-04 
-9.610160034558e-04 3.659639876319e-04 0.0 
3.659639876319e-04 2.796351539205e-03 0.0 
0.0 0.0 -5.405745080065e-04 
-9.090299886647e-04 5.649669993174e-04 0.0 
5.649669993174e-04 2.731549626740e-03 0.0 
0.0 0.0 -5.795081218868e-04 
-8.421940977849e-04 8.146075856698e-04 0.0 
8.146075856698e-04 2.654238991049e-03 0.0 
0.0 0.0 -6.241631820133e-04 
-7.469235452296e-04 1.108005846327e-03 0.0 
1.108005846327e-03 2.554144737090e-03 0.0 
0.0 0.0 -6.876227360811e-04 
-6.222319269350e-04 1.311587394284e-03 0.0 
1.311587394284e-03 2.351737594925e-03 0.0 
0.0 0.0 -7.129699783845e-04 
-8.859289441425e-04 1.243241253464e-03 0.0 
1.243241253464e-03 2.913195279952e-03 0.0 
0.0 0.0 -7.120710084939e-04 
-1.004734523472e-03 1.018600750567e-03 0.0 
1.018600750567e-03 3.106427625498e-03 0.0 
0.0 0.0 -6.771260834247e-04 
-1.079401310026e-03 7.481842232065e-04 0.0 
7.481842232065e-04 3.193468346598e-03 0.0 
0.0 0.0 -6.300277574108e-04 
-1.131577463836e-03 5.268764785930e-04 0.0 
5.268764785930e-04 3.259614661613e-03 0.0 
0.0 0.0 -5.970134556630e-04 
-1.175698392474e-03 3.505042719681e-04 0.0 
3.505042719681e-04 3.318814681410e-03 0.0 
0.0 0.0 -5.654316324824e-04 
-1.198259795194e-03 1.983623377187e-04 0.0 
1.983623377187e-04 3.357846983414e-03 0.0 
0.0 0.0 -5.431954804876e-04 
-1.193688646499e-03 8.236585560367e-05 0.0 
8.236585560367e-05 3.385843501569e-03 0.0 
0.0 0.0 -5.307242391481e-04 
-1.181400322402e-03 -2.610677248912e-06 0.0 
-2.610677248912e-06 3.403469425701e-03 0.0 
0.0 0.0 -5.217490130384e-04 
-1.169734073994e-03 -6.313793199308e-05 0.0 
-6.313793199308e-05 3.415891564710e-03 0.0 
0.0 0.0 -5.139000268513e-04 
-1.159307772713e-03 -1.048439826788e-04 0.0 
-1.048439826788e-04 3.424926224559e-03 0.0 
0.0 0.0 -5.068416884887e-04 
-1.149301363739e-03 -1.311774395022e-04 0.0 
-1.311774395022e-04 3.432400745694e-03 0.0 
0.0 0.0 -5.012787953396e-04 
-1.136366457465e-03 -1.411361358348e-04 0.0 
-1.411361358348e-04 3.437153305501e-03 0.0 
0.0 0.0 -4.980850712606e-04 
-1.124188871364e-03 -1.394547320618e-04 0.0 
-1.394547320618e-04 3.439448222641e-03 0.0 
0.0 0.0 -4.952863446172e-04 
-1.111828436603e-03 -1.308291125140e-04 0.0 
-1.308291125140e-04 3.439882520158e-03 0.0 
0.0 0.0 -4.936612140760e-04 
-1.098447969421e-03 -1.167396694570e-04 0.0 
-1.167396694570e-04 3.439293515508e-03 0.0 
0.0 0.0 -4.933333333333e-04 
-1.087594461636e-03 -9.799983896262e-05 0.0 
-9.799983896262e-05 3.438806070953e-03 0.0 
0.0 0.0 -4.933333333333e-04 
-1.079672367243e-03 -7.744480207381e-05 0.0 
-7.744480207381e-05 3.439140724054e-03 0.0 
0.0 0.0 -4.933333333333e-04 
-1.076026664782e-03 -5.828265356752e-05 0.0 
-5.828265356752e-05 3.441224913047e-03 0.0 
0.0 0.0 -4.933333333333e-04 
-1.075502650299e-03 8.431295565096e-05 0.0 
8.431295565096e-05 3.442685458650e-03 0.0 
0.0 0.0 -4.933333333333e-04 
-1.189994461039e-03 4.971329978173e-05 0.0 
4.971329978173e-05 3.933936678343e-03 0.0 
0.0 0.0 -5.600000000000e-04 
-1.189943494860e-03 -3.915048486870e-05 0.0 
-3.915048486870e-05 3.929295747162e-03 0.0 
0.0 0.0 -5.600000000000e-04 
-1.196995215316e-03 -6.619293072910e-05 0.0 
-6.619293072910e-05 3.927958942862e-03 0.0 
0.0 0.0 -5.600000000000e-04 
-1.209000108090e-03 -7.709460563794e-05 0.0 
-7.709460563794e-05 3.928987706667e-03 0.0 
0.0 0.0 -5.600000000000e-04 
-1.222591065312e-03 -8.087627347994e-05 0.0 
-8.087627347994e-05 3.928642048882e-03 0.0 
0.0 0.0 -5.600000000000e-04 
-1.242241496923e-03 -8.001653654516e-05 0.0 
-8.001653654516e-05 3.929767912219e-03 0.0 
0.0 0.0 -5.600000000000e-04 
-1.264776066821e-03 -7.096870869374e-05 0.0 
-7.096870869374e-05 3.930292006580e-03 0.0 
0.0 0.0 -5.600000000000e-04 
-1.291607559870e-03 -5.753569633380e-05 0.0 
-5.753569633380e-05 3.928177153315e-03 0.0 
0.0 0.0 -5.600000000000e-04 
-1.313480821163e-03 -2.264210671336e-05 0.0 
-2.264210671336e-05 3.919521392894e-03 0.0 
0.0 0.0 -5.618027733580e-04 
-1.334363465792e-03 3.032816973716e-05 0.0 
3.032816973716e-05 3.911166292933e-03 0.0 
0.0 0.0 -5.662115594836e-04 
-1.345626602697e-03 9.725453922173e-05 0.0 
9.725453922173e-05 3.895259009147e-03 0.0 
0.0 0.0 -5.743994467985e-04 
-1.356260887442e-03 1.893430820086e-04 0.0 
1.893430820086e-04 3.871741255735e-03 0.0 
0.0 0.0 -5.833032914833e-04 
-1.366012120890e-03 3.096264366290e-04 0.0 
3.096264366290e-04 3.841250700024e-03 0.0 
0.0 0.0 -5.938366679572e-04 
-1.351517243904e-03 4.620420004327e-04 0.0 
4.620420004327e-04 3.787895507316e-03 0.0 
0.0 0.0 -6.115999087365e-04 
-1.313173102658e-03 6.667035574404e-04 0.0 
6.667035574404e-04 3.730474013625e-03 0.0 
0.0 0.0 -6.360477204719e-04 
-1.260419596383e-03 8.991646670823e-04 0.0 
8.991646670823e-04 3.667954377089e-03 0.0 
0.0 0.0 -6.715110950050e-04 
-1.156777947287e-03 1.103879225283e-03 0.0 
1.103879225283e-03 3.481215616997e-03 0.0 
0.0 0.0 -6.945456224821e-04 
-1.413371839818e-03 9.869439785182e-04 0.0 
9.869439785182e-04 4.044630377487e-03 0.0 
0.0 0.0 -6.871907024512e-04 
-1.498556740945e-03 8.027277734388e-04 0.0 
8.027277734388e-04 4.217784539438e-03 0.0 
0.0 0.0 -6.754388315825e-04 
-1.517003084896e-03 6.032515853078e-04 0.0 
6.032515853078e-04 4.269979929512e-03 0.0 
0.0 0.0 -6.550211625735e-04 
-1.511553648353e-03 4.490191689128e-04 0.0 
4.490191689128e-04 4.314033839254e-03 0.0 
0.0 0.0 -6.432502374181e-04 
-1.500446210863e-03 3.184819489120e-04 0.0 
3.184819489120e-04 4.351230304708e-03 0.0 
0.0 0.0 -6.352144205724e-04 
-1.482245807683e-03 2.246627967315e-04 0.0 
2.246627967315e-04 4.377537132701e-03 0.0 
0.0 0.0 -6.294719905043e-04 
-1.455175852238e-03 1.513209258517e-04 0.0 
1.513209258517e-04 4.388941904323e-03 0.0 
0.0 0.0 -6.266666666667e-04 
-1.422377976552e-03 8.452613654984e-05 0.0 
8.452613654984e-05 4.398275898476e-03 0.0 
0.0 0.0 -6.266666666667e-04 
-1.387740669927e-03 5.055332934235e-05 0.0 
5.055332934235e-05 4.407309917814e-03 0.0 
0.0 0.0 -6.266666666667e-04 
-1.364267156085e-03 1.746043878918e-05 0.0 
1.746043878918e-05 4.408435903517e-03 0.0 
0.0 0.0 -6.266666666667e-04 
-1.340556828241e-03 2.310074790946e-06 0.0 
2.310074790946e-06 4.409446433091e-03 0.0 
0.0 0.0 -6.266666666667e-04 
-1.322009739859e-03 -1.793960035533e-05 0.0 
-1.793960035533e-05 4.409251285455e-03 0.0 
0.0 0.0 -6.266666666667e-04 
-1.309592160630e-03 -1.727365315460e-05 0.0 
-1.727365315460e-05 4.412670266398e-03 0.0 
0.0 0.0 -6.266666666667e-04 
-1.296178947065e-03 -2.233083817508e-05 0.0 
-2.233083817508e-05 4.407948356665e-03 0.0 
0.0 0.0 -6.266666666667e-04 
-1.291396798343e-03 -4.231649306782e-05 0.0 
-4.231649306782e-05 4.418716211488e-03 0.0 
0.0 0.0 -6.266666666667e-04 
-1.299258567356e-03 1.084144737729e-04 0.0 
1.084144737729e-04 4.428774256468e-03 0.0 
0.0 0.0 -6.266666666667e-04 
-9.816533399169e-05 1.398226599678e-03 0.0 
1.398226599678e-03 1.249060857723e-04 0.0 
0.0 0.0 -1.146032219169e-05 
1.936976575994e-04 1.398779559345e-03 0.0 
1.398779559345e-03 5.900772889955e-04 0.0 
0.0 0.0 -3.359035485407e-04 
2.417267202073e-04 1.838455165837e-03 0.0 
1.838455165837e-03 7.923036657008e-04 0.0 
0.0 0.0 -4.431558796749e-04 
5.568864281489e-05 1.737086255292e-03 0.0 
1.737086255292e-03 1.018397399554e-03 0.0 
0.0 0.0 -4.603225895865e-04 
-1.456114155099e-04 1.664381126323e-03 0.0 
1.664381126323e-03 1.357653711262e-03 0.0 
0.0 0.0 -5.194466981793e-04 
-3.792282684864e-04 1.656998493189e-03 0.0 
1.656998493189e-03 1.899294413969e-03 0.0 
0.0 0.0 -6.514569194927e-04 
-6.251830612815e-04 1.650118487789e-03 0.0 
1.650118487789e-03 2.533700233250e-03 0.0 
0.0 0.0 -8.020470760878e-04 
-9.259280155328e-04 1.541530339945e-03 0.0 
1.541530339945e-03 3.121438131384e-03 0.0 
0.0 0.0 -7.697949396469e-04 
-1.219707571260e-03 1.363862905373e-03 0.0 
1.363862905373e-03 3.712475698443e-03 0.0 
0.0 0.0 -7.416632329583e-04 
-1.501649114425e-03 1.213866345860e-03 0.0 
1.213866345860e-03 4.312722460883e-03 0.0 
0.0 0.0 -7.242776845527e-04 
3.539823178863e-04 1.710352572919e-03 0.0 
1.710352572919e-03 5.866051080763e-04 0.0 
0.0 0.0 -4.031088968411e-04 
-9.225734973571e-04 -7.785055507497e-06 0.0 
-7.785055507497e-06 4.710905526494e-03 0.0 
0.0 0.0 -1.303388942653e-03 
2.002003524453e-04 -6.228844878024e-04 0.0 
-6.228844878024e-04 2.361800845582e-04 0.0 
0.0 0.0 -1.150931346421e-04 
6.351277012353e-06 -1.034192914689e-04 0.0 
-1.034192914689e-04 -6.351277012354e-06 0.0 
0.0 0.0 0.0 
-1.143124804619e-03 -1.686232053488e-03 0.0 
-1.686232053488e-03 5.409600557008e-03 0.0 
0.0 0.0 -1.303360877099e-03 
1.234786051762e-04 1.977711876023e-03 0.0 
1.977711876023e-03 1.061132021132e-03 0.0 
0.0 0.0 -5.076902684178e-04 
-1.444704152341e-03 -3.615903752048e-04 0.0 
-3.615903752048e-04 4.407515592965e-03 0.0 
0.0 0.0 -1.026919993916e-03 
-9.479894819801e-04 1.838728918359e-03 0.0 
1.838728918359e-03 4.893992345869e-03 0.0 
0.0 0.0 -1.300998267065e-03 
-3.669420938573e-04 1.945721923899e-03 0.0 
1.945721923899e-03 2.035468676857e-03 0.0 
0.0 0.0 -7.150828212858e-04 
-1.134501767780e-03 3.078864715943e-03 0.0 
3.078864715943e-03 5.708971873236e-03 0.0 
0.0 0.0 -1.304014651794e-03 
-9.933335184060e-04 1.783041133304e-03 0.0 
1.783041133304e-03 3.368272424712e-03 0.0 
0.0 0.0 -8.139337748180e-04 
-1.367928456590e-03 -1.893022985453e-03 0.0 
-1.893022985453e-03 6.315060285992e-03 0.0 
0.0 0.0 -1.307658508868e-03 
1.393566666495e-03 -5.293231022229e-04 0.0 
-5.293231022229e-04 -2.919979710108e-04 0.0 
0.0 0.0 -1.726441863791e-04 
-1.321068622768e-03 3.408933067941e-03 0.0 
3.408933067941e-03 6.699280987615e-03 0.0 
0.0 0.0 -1.304481600125e-03 
-1.625241511018e-03 1.405941443998e-03 0.0 
1.405941443998e-03 4.657250357868e-03 0.0 
0.0 0.0 -7.595448291451e-04 
-9.674687493222e-04 -2.324067189866e-04 0.0 
-2.324067189866e-04 3.002016490702e-03 0.0 
0.0 0.0 -7.390740322083e-04 
-1.821851265128e-03 -3.597710289885e-04 0.0 
-3.597710289885e-04 5.333319395799e-03 0.0 
0.0 0.0 -1.073818338595e-03 
-1.412437544610e-03 3.130277989420e-03 0.0 
3.130277989420e-03 7.340714354146e-03 0.0 
0.0 0.0 -1.301280071178e-03 
-1.458721797288e-03 2.468181070438e-03 0.0 
2.468181070438e-03 8.007112846752e-03 0.0 
0.0 0.0 -1.304294760550e-03 
-1.442626291436e-03 7.982050020717e-04 0.0 
7.982050020717e-04 8.632923623264e-03 0.0 
0.0 0.0 -1.303238611779e-03 
-1.460924372811e-03 1.330564066234e-03 0.0 
1.330564066234e-03 8.482170570322e-03 0.0 
0.0 0.0 -1.297727402575e-03 
-1.466071718827e-03 1.860397699296e-03 0.0 
1.860397699296e-03 8.323259225048e-03 0.0 
0.0 0.0 -1.305306183856e-03 
-1.723504189141e-03 9.545217762893e-04 0.0 
9.545217762893e-04 5.069531762335e-03 0.0 
0.0 0.0 -7.528866907182e-04 
-1.609633540750e-03 4.109047618561e-04 0.0 
4.109047618561e-04 5.236232241604e-03 0.0 
0.0 0.0 -7.529849494387e-04 
-1.529214909887e-03 1.902322029956e-04 0.0 
1.902322029956e-04 5.302594416650e-03 0.0 
0.0 0.0 -7.580270452736e-04 
-1.581306103182e-03 3.146837778263e-05 0.0 
3.146837778263e-05 6.876614414943e-03 0.0 
0.0 0.0 -9.950081682429e-04 
-1.500312298629e-03 -1.404495050420e-03 0.0 
-1.404495050420e-03 6.813712989149e-03 0.0 
0.0 0.0 -1.302874185639e-03 
0.0 0.0 0.0 
0.0 0.0 0.0 
0.0 0.0 0.0 
1.991019007460e-03 -2.749999736625e-04 0.0 
-2.749999736625e-04 -4.994877663417e-04 0.0 
0.0 0.0 -1.971444476807e-04 
-2.064700972320e-03 -3.063344179821e-04 0.0 
-3.063344179821e-04 6.409893202118e-03 0.0 
0.0 0.0 -1.122886395833e-03 
-1.468245391393e-03 9.255547116428e-05 0.0 
9.255547116428e-05 5.268982738319e-03 0.0 
0.0 0.0 -7.500338828344e-04 
-3.768246537726e-04 -1.072125225081e-04 0.0 
-1.072125225081e-04 1.532862867376e-03 0.0 
0.0 0.0 -3.103003023327e-04 
-1.462480749969e-03 2.788238406384e-03 0.0 
2.788238406384e-03 7.654884390723e-03 0.0 
0.0 0.0 -1.293200138473e-03 
-1.060495443339e-03 2.586030718155e-03 0.0 
2.586030718155e-03 5.302800007763e-03 0.0 
0.0 0.0 -1.307307853467e-03 
-1.239947575843e-03 3.359554949631e-03 0.0 
3.359554949631e-03 6.201507605709e-03 0.0 
0.0 0.0 -1.304733450272e-03 
-8.851569131084e-04 1.017294528516e-03 0.0 
1.017294528516e-03 4.688446957818e-03 0.0 
0.0 0.0 -1.297928233296e-03 
-1.011734799512e-03 -8.525942349034e-04 0.0 
-8.525942349034e-04 4.907050266684e-03 0.0 
0.0 0.0 -1.305578568836e-03 
1.120011211769e-04 -9.639393047147e-04 0.0 
-9.639393047147e-04 3.552641554252e-04 0.0 
0.0 0.0 -2.002565471152e-04 
-1.668530992619e-03 6.309946100002e-04 0.0 
6.309946100002e-04 5.166924460567e-03 0.0 
0.0 0.0 -7.500980793755e-04 
-1.253144254253e-03 -1.928883033382e-03 0.0 
-1.928883033382e-03 5.781747753778e-03 0.0 
0.0 0.0 -1.293180865222e-03 
-1.565497950727e-03 6.438167873332e-05 0.0 
6.438167873332e-05 7.693447317596e-03 0.0 
0.0 0.0 -1.123598490052e-03 
6.785802533228e-04 -5.736279611176e-04 0.0 
-5.736279611176e-04 1.838174080767e-07 0.0 
0.0 0.0 -1.171618051616e-04 
-1.195500737651e-03 -3.256008312402e-04 0.0 
-3.256008312402e-04 3.719620558921e-03 0.0 
0.0 0.0 -9.209925479532e-04 
-1.429805954471e-03 5.036842419237e-04 0.0 
5.036842419237e-04 8.739646127293e-03 0.0 
0.0 0.0 -1.311981303940e-03 
-9.905702435700e-05 2.013930135586e-03 0.0 
2.013930135586e-03 1.485122832027e-03 0.0 
0.0 0.0 -5.940282032871e-04 
3.261360612195e-04 2.014048139277e-03 0.0 
2.014048139277e-03 7.944417754282e-04 0.0 
0.0 0.0 -4.802476442776e-04 
-6.470413752911e-04 1.957850985508e-03 0.0 
1.957850985508e-03 2.728601734132e-03 0.0 
0.0 0.0 -8.637206373099e-04 
-1.316804590616e-03 1.569868653343e-03 0.0 
1.569868653343e-03 4.005894671503e-03 0.0 
0.0 0.0 -7.800224789174e-04 
7.968479064844e-05 1.387273210179e-03 0.0 
1.387273210179e-03 1.615953799369e-04 0.0 
0.0 0.0 -1.034057873937e-04 
-1.536524951872e-03 3.208999903453e-05 0.0 
3.208999903453e-05 6.068754859848e-03 0.0 
0.0 0.0 -8.684787984471e-04 
-1.527482046669e-03 -8.504264765478e-04 0.0 
-8.504264765478e-04 7.084540485198e-03 0.0 
0.0 0.0 -1.313906642692e-03 
2.259445629762e-03 -9.175095740177e-05 0.0 
-9.175095740177e-05 -6.502150918460e-04 0.0 
0.0 0.0 -1.918888419282e-04 
-1.463207116020e-03 1.296765555730e-04 0.0 
1.296765555730e-04 8.413961701398e-03 0.0 
0.0 0.0 -1.253930875827e-03 
-1.717988966153e-03 1.334598389081e-03 0.0 
1.334598389081e-03 4.909530889206e-03 0.0 
0.0 0.0 -7.655439890770e-04 
-1.720228455065e-03 1.586186079137e-03 0.0 
1.586186079137e-03 4.967329360851e-03 0.0 
0.0 0.0 -7.934218816250e-04 
-1.768015179977e-03 1.461597718910e-03 0.0 
1.461597718910e-03 5.276074626724e-03 0.0 
0.0 0.0 -8.115680642089e-04 
-1.765114281844e-03 1.749488874724e-03 0.0 
1.749488874724e-03 5.323901634960e-03 0.0 
0.0 0.0 -8.428390908522e-04 
-1.776011419960e-03 1.632950866705e-03 0.0 
1.632950866705e-03 5.614599388379e-03 0.0 
0.0 0.0 -8.784658474099e-04 
-1.753067371520e-03 1.892876727445e-03 0.0 
1.892876727445e-03 5.647697331923e-03 0.0 
0.0 0.0 -9.060409163497e-04 
-1.729403370927e-03 2.034729517834e-03 0.0 
2.034729517834e-03 5.329326258993e-03 0.0 
0.0 0.0 -8.711257577415e-04 
-1.705524146156e-03 2.154135310252e-03 0.0 
2.154135310252e-03 5.649528349792e-03 0.0 
0.0 0.0 -9.341442283280e-04 
-1.669480427723e-03 2.313796081278e-03 0.0 
2.313796081278e-03 5.302391134739e-03 0.0 
0.0 0.0 -8.989774131092e-04 
-1.760017773414e-03 1.778713600910e-03 0.0 
1.778713600910e-03 5.960915318729e-03 0.0 
0.0 0.0 -9.415083590319e-04 
-1.639128685698e-03 2.400878910049e-03 0.0 
2.400878910049e-03 5.620671151866e-03 0.0 
0.0 0.0 -9.622976032585e-04 
-1.585968914987e-03 2.571269188534e-03 0.0 
2.571269188534e-03 5.245482773901e-03 0.0 
0.0 0.0 -9.268639294333e-04 
-1.553264337981e-03 2.629359401866e-03 0.0 
2.629359401866e-03 5.564461608518e-03 0.0 
0.0 0.0 -9.903372159162e-04 
-1.482148429882e-03 2.800719357184e-03 0.0 
2.800719357184e-03 5.162964478957e-03 0.0 
0.0 0.0 -9.547708836903e-04 
-1.480872876733e-03 2.756523220070e-03 0.0 
2.756523220070e-03 4.843370134984e-03 0.0 
0.0 0.0 -9.032660992691e-04 
-1.370066982921e-03 2.994500238396e-03 0.0 
2.994500238396e-03 4.734217419357e-03 0.0 
0.0 0.0 -9.261835667445e-04 
-1.296697830142e-03 2.932762897298e-03 0.0 
2.932762897298e-03 4.406716792506e-03 0.0 
0.0 0.0 -9.004111975071e-04 
-1.176154479742e-03 3.171939239460e-03 0.0 
3.171939239460e-03 4.268382598936e-03 0.0 
0.0 0.0 -9.182233496599e-04 
-1.237826052231e-03 3.181299556145e-03 0.0 
3.181299556145e-03 4.604885530242e-03 0.0 
0.0 0.0 -9.498701766430e-04 
-1.038924370446e-03 3.354505003279e-03 0.0 
3.354505003279e-03 4.108768898160e-03 0.0 
0.0 0.0 -9.343221806050e-04 
-9.113966935237e-04 3.322436674522e-03 0.0 
3.322436674522e-03 3.767445704006e-03 0.0 
0.0 0.0 -9.288662988139e-04 
-7.681433481646e-04 3.500147498246e-03 0.0 
3.500147498246e-03 3.577220508926e-03 0.0 
0.0 0.0 -9.367850320061e-04 
-6.050859616232e-04 3.441042246538e-03 0.0 
3.441042246538e-03 3.246213294712e-03 0.0 
0.0 0.0 -9.518642033955e-04 
-4.467796431526e-04 3.596824647640e-03 0.0 
3.596824647640e-03 3.023253834938e-03 0.0 
0.0 0.0 -9.541337235040e-04 
-2.817347476968e-04 3.508182660979e-03 0.0 
3.508182660979e-03 2.709346421897e-03 0.0 
0.0 0.0 -9.642822318347e-04 
-1.040481770833e-04 3.619372760828e-03 0.0 
3.619372760828e-03 2.449228749823e-03 0.0 
0.0 0.0 -9.459728402633e-04 
-2.870166289118e-04 3.676071568470e-03 0.0 
3.676071568470e-03 2.794184702227e-03 0.0 
0.0 0.0 -9.498144071847e-04 
6.429436302438e-05 3.660882361634e-03 0.0 
3.660882361634e-03 2.186835241716e-03 0.0 
0.0 0.0 -9.193128608805e-04 
2.331588354861e-04 3.548891452897e-03 0.0 
3.548891452897e-03 1.871725410986e-03 0.0 
0.0 0.0 -8.913707482552e-04 
4.174760030635e-04 3.518419278721e-03 0.0 
3.518419278721e-03 1.585153718146e-03 0.0 
0.0 0.0 -8.538425857873e-04 
5.455280992742e-04 3.365363645192e-03 0.0 
3.365363645192e-03 1.323229666393e-03 0.0 
0.0 0.0 -8.008961852862e-04 
7.498486656370e-04 3.260544319073e-03 0.0 
3.260544319073e-03 1.013594496255e-03 0.0 
0.0 0.0 -7.557613550964e-04 
5.794043773309e-04 3.414810932032e-03 0.0 
3.414810932032e-03 1.312272080423e-03 0.0 
0.0 0.0 -8.100034870355e-04 
9.766186802750e-04 3.126905533587e-03 0.0 
3.126905533587e-03 6.756506724320e-04 0.0 
0.0 0.0 -7.081154368744e-04 
1.170764685342e-03 3.063309594450e-03 0.0 
3.063309594450e-03 3.918842971428e-04 0.0 
0.0 0.0 -6.697067067790e-04 
1.469956798013e-03 2.887539401857e-03 0.0 
2.887539401857e-03 -6.720200421090e-06 0.0 
0.0 0.0 -6.271013989681e-04 
1.655398318796e-03 2.905797537394e-03 0.0 
2.905797537394e-03 -2.066635196578e-04 0.0 
0.0 0.0 -6.208863424878e-04 
1.958892900495e-03 2.587078338226e-03 0.0 
2.587078338226e-03 -5.601119320347e-04 0.0 
0.0 0.0 -5.994775579116e-04 
2.135455672651e-03 2.638700697284e-03 0.0 
2.638700697284e-03 -6.211030008372e-04 0.0 
0.0 0.0 -6.490082879202e-04 
2.410352153471e-03 2.173774944653e-03 0.0 
2.173774944653e-03 -9.107525055140e-04 0.0 
0.0 0.0 -6.426855634101e-04 
2.158594858366e-03 2.117426171510e-03 0.0 
2.117426171510e-03 -8.346185089651e-04 0.0 
0.0 0.0 -5.674184354577e-04 
2.548284906519e-03 1.577323129924e-03 0.0 
1.577323129924e-03 -1.120076299841e-03 0.0 
0.0 0.0 -6.120894028618e-04 
2.766282761562e-03 1.671188389262e-03 0.0 
1.671188389262e-03 -1.152705968468e-03 0.0 
0.0 0.0 -6.915329113260e-04 
2.831831315373e-03 9.695675877105e-04 0.0 
9.695675877105e-04 -1.281170566415e-03 0.0 
0.0 0.0 -6.645688924106e-04 
2.536993124922e-03 9.134999273791e-04 0.0 
9.134999273791e-04 -1.229619517363e-03 0.0 
0.0 0.0 -5.603029746683e-04 
2.733867997822e-03 2.586198841001e-04 0.0 
2.586198841001e-04 -1.313858956396e-03 0.0 
0.0 0.0 -6.085753034686e-04 
2.382754168972e-03 2.331723641419e-04 0.0 
2.331723641419e-04 -1.217161318829e-03 0.0 
0.0 0.0 -4.995397929185e-04 
2.475502276821e-03 -4.225569186791e-04 0.0 
-4.225569186791e-04 -1.235276730126e-03 0.0 
0.0 0.0 -5.315252342980e-04 
2.783353977069e-03 -4.207301430438e-04 0.0 
-4.207301430438e-04 -1.298298732893e-03 0.0 
0.0 0.0 -6.364522475042e-04 
2.431423533239e-03 -1.055611195596e-03 0.0 
-1.055611195596e-03 -1.141139443354e-03 0.0 
0.0 0.0 -5.529788956651e-04 
2.074488083004e-03 -1.034963949875e-03 0.0 
-1.034963949875e-03 -9.657239908617e-04 0.0 
0.0 0.0 -4.751846109182e-04 
1.948746609120e-03 -1.563616376602e-03 0.0 
-1.563616376602e-03 -7.896259199600e-04 0.0 
0.0 0.0 -4.967660096401e-04 
2.266914827687e-03 -1.646291796375e-03 0.0 
-1.646291796375e-03 -9.610891233280e-04 0.0 
0.0 0.0 -5.596395875825e-04 
1.725234701887e-03 -1.991509456133e-03 0.0 
-1.991509456133e-03 -5.081914327056e-04 0.0 
0.0 0.0 -5.215899725061e-04 
1.402225958191e-03 -1.927478583456e-03 0.0 
-1.927478583456e-03 -1.960854800127e-04 0.0 
0.0 0.0 -5.169173477906e-04 
1.209383151701e-03 -2.216403946003e-03 0.0 
-2.216403946003e-03 7.890654783241e-05 0.0 
0.0 0.0 -5.521241569428e-04 
1.437995882087e-03 -2.266737877318e-03 0.0 
-2.266737877318e-03 -1.663516021812e-04 0.0 
0.0 0.0 -5.449904056737e-04 
1.024600490131e-03 -2.464285469351e-03 0.0 
-2.464285469351e-03 3.533750076132e-04 0.0 
0.0 0.0 -5.905609276045e-04 
8.985317602796e-04 -2.606405635227e-03 0.0 
-2.606405635227e-03 5.292322287011e-04 0.0 
0.0 0.0 -6.118988524203e-04 
7.560704768117e-04 -2.818446778216e-03 0.0 
-2.818446778216e-03 7.706212678723e-04 0.0 
0.0 0.0 -6.542964620075e-04 
8.580312086144e-04 -2.682927376050e-03 0.0 
-2.682927376050e-03 6.007672926437e-04 0.0 
0.0 0.0 -6.251993576820e-04 
5.867828103229e-04 -2.962553875983e-03 0.0 
-2.962553875983e-03 1.034857146591e-03 0.0 
0.0 0.0 -6.949885529632e-04 
4.441790608849e-04 -3.069180945402e-03 0.0 
-3.069180945402e-03 1.277969962145e-03 0.0 
0.0 0.0 -7.380638670128e-04 
2.783519300776e-04 -3.113099096991e-03 0.0 
-3.113099096991e-03 1.538449359472e-03 0.0 
0.0 0.0 -7.786291240925e-04 
1.058234640361e-04 -3.171084265656e-03 0.0 
-3.171084265656e-03 1.852966267041e-03 0.0 
0.0 0.0 -8.394813133188e-04 
3.929316153892e-04 -3.010245319228e-03 0.0 
-3.010245319228e-03 1.308656505855e-03 0.0 
0.0 0.0 -7.292520519616e-04 
9.932532998196e-05 -3.071474673695e-03 0.0 
-3.071474673695e-03 1.797955184989e-03 0.0 
0.0 0.0 -8.131202207017e-04 
1.861203807317e-04 -2.953410476768e-03 0.0 
-2.953410476768e-03 1.579421639320e-03 0.0 
0.0 0.0 -7.566608657364e-04 
-8.642223961803e-05 -2.932845730897e-03 0.0 
-2.932845730897e-03 2.045062282812e-03 0.0 
0.0 0.0 -8.394171613687e-04 
7.378179429990e-04 3.236151700417e-03 0.0 
3.236151700417e-03 1.055249139964e-03 0.0 
0.0 0.0 -7.684573212697e-04 
-2.470987176264e-05 -2.774259717146e-03 0.0 
-2.774259717146e-03 1.827411113102e-03 0.0 
0.0 0.0 -7.725862462883e-04 
2.168591650758e-04 -2.749464912916e-03 0.0 
-2.749464912916e-03 1.402707795240e-03 0.0 
0.0 0.0 -6.941001258497e-04 
-2.655633051019e-04 -2.700896907473e-03 0.0 
-2.700896907473e-03 2.263406073752e-03 0.0 
0.0 0.0 -8.562183294215e-04 
-3.538412369767e-04 -2.807118068406e-03 0.0 
-2.807118068406e-03 2.524613030834e-03 0.0 
0.0 0.0 -9.303307687962e-04 
-2.182790499822e-04 -2.492668770886e-03 0.0 
-2.492668770886e-03 2.032114690057e-03 0.0 
0.0 0.0 -7.773581314605e-04 
-4.250446102995e-04 -2.387105800852e-03 0.0 
-2.387105800852e-03 2.436232383686e-03 0.0 
0.0 0.0 -8.619376171656e-04 
-3.808762253420e-04 -2.140229309317e-03 0.0 
-2.140229309317e-03 2.184406533220e-03 0.0 
0.0 0.0 -7.729415605190e-04 
1.763159166294e-03 2.932701492782e-03 0.0 
2.932701492782e-03 -2.697944395366e-04 0.0 
0.0 0.0 -6.400134543247e-04 
-1.088844513542e-03 3.301377294412e-03 0.0 
3.301377294412e-03 4.460583281383e-03 0.0 
0.0 0.0 -9.751682721562e-04 
-5.557439599788e-04 -2.010376698230e-03 0.0 
-2.010376698230e-03 2.553174357475e-03 0.0 
0.0 0.0 -8.560415989269e-04 
-5.027177784437e-04 -1.739983302349e-03 0.0 
-1.739983302349e-03 2.268016728775e-03 0.0 
0.0 0.0 -7.565566929991e-04 
-3.487326511453e-04 -1.851839421592e-03 0.0 
-1.851839421592e-03 1.937346492323e-03 0.0 
0.0 0.0 -6.808345033620e-04 
-4.519877827048e-04 -1.437771514004e-03 0.0 
-1.437771514004e-03 1.973465387895e-03 0.0 
0.0 0.0 -6.520618307959e-04 
-1.774841257907e-03 1.527132807035e-03 0.0 
1.527132807035e-03 5.918357799879e-03 0.0 
0.0 0.0 -9.126358703463e-04 
-1.762808846704e-03 1.694088373988e-03 0.0 
1.694088373988e-03 6.266633471383e-03 0.0 
0.0 0.0 -9.772611937912e-04 
-1.774288393461e-03 1.442569390130e-03 0.0 
1.442569390130e-03 6.194015386497e-03 0.0 
0.0 0.0 -9.468612964576e-04 
-1.759396418391e-03 1.612723129842e-03 0.0 
1.612723129842e-03 6.563174828670e-03 0.0 
0.0 0.0 -1.012955122490e-03 
-1.767929614200e-03 1.376342917300e-03 0.0 
1.376342917300e-03 6.485124768915e-03 0.0 
0.0 0.0 -9.835180958883e-04 
-5.788967960072e-04 -1.335257077215e-03 0.0 
-1.335257077215e-03 2.277225899990e-03 0.0 
0.0 0.0 -7.256352817785e-04 
-1.603689512328e-03 2.493470387195e-03 0.0 
2.493470387195e-03 5.946173640174e-03 0.0 
0.0 0.0 -1.026687169009e-03 
-1.736212695290e-03 1.850044700733e-03 0.0 
1.850044700733e-03 6.615422803056e-03 0.0 
0.0 0.0 -1.042264213861e-03 
-7.638319934371e-04 3.223456733069e-03 0.0 
3.223456733069e-03 3.455847564200e-03 0.0 
0.0 0.0 -9.409285294772e-04 
3.366430025168e-04 3.397992003127e-03 0.0 
3.397992003127e-03 1.628840077963e-03 0.0 
0.0 0.0 -8.423498916340e-04 
2.156368313925e-03 8.947959957603e-04 0.0 
8.947959957603e-04 -1.035979942615e-03 0.0 
0.0 0.0 -4.801664448473e-04 
-6.227154585167e-04 -2.198002757365e-03 0.0 
-2.198002757365e-03 2.831211668969e-03 0.0 
0.0 0.0 -9.464983759082e-04 
-7.218347779198e-04 -1.819122893170e-03 0.0 
-1.819122893170e-03 2.913297155100e-03 0.0 
0.0 0.0 -9.383242106009e-04 
-8.133368797394e-04 -1.945809227020e-03 0.0 
-1.945809227020e-03 3.204453228297e-03 0.0 
0.0 0.0 -1.004955155493e-03 
2.358180408842e-04 -3.147007717197e-03 0.0 
-3.147007717197e-03 1.628184027877e-03 0.0 
0.0 0.0 -7.988580294692e-04 
-1.225410220003e-04 -3.166679032327e-03 0.0 
-3.166679032327e-03 2.260222165472e-03 0.0 
0.0 0.0 -9.088386183890e-04 
-3.596074933625e-05 -3.143460862446e-03 0.0 
-3.143460862446e-03 2.089404171616e-03 0.0 
0.0 0.0 -8.720661220001e-04 
-3.940691537939e-04 -3.066493924859e-03 0.0 
-3.066493924859e-03 2.736277962959e-03 0.0 
0.0 0.0 -9.548449181928e-04 
-3.127433245065e-04 -2.982699423106e-03 0.0 
-2.982699423106e-03 2.620883950583e-03 0.0 
0.0 0.0 -9.363521337227e-04 
-6.475470341843e-04 -2.849005951016e-03 0.0 
-2.849005951016e-03 3.244198139691e-03 0.0 
0.0 0.0 -9.829094188347e-04 
-7.290342086422e-04 -2.890946438125e-03 0.0 
-2.890946438125e-03 3.342200867435e-03 0.0 
0.0 0.0 -9.972914379494e-04 
-9.540874880885e-04 -2.660066281729e-03 0.0 
-2.660066281729e-03 3.821872870679e-03 0.0 
0.0 0.0 -1.003716470558e-03 
-1.033871380646e-03 -2.655311578103e-03 0.0 
-2.655311578103e-03 3.899288306138e-03 0.0 
0.0 0.0 -1.010717982506e-03 
-5.020318707035e-04 -2.652589391131e-03 0.0 
-2.652589391131e-03 3.162848563043e-03 0.0 
0.0 0.0 -1.000386703517e-03 
-1.738328040713e-04 -2.716917287151e-03 0.0 
-2.716917287151e-03 2.542650585114e-03 0.0 
0.0 0.0 -9.561072799058e-04 
-1.217140716833e-03 -2.433745842754e-03 0.0 
-2.433745842754e-03 4.355239653684e-03 0.0 
0.0 0.0 -1.026468870702e-03 
-1.301004518180e-03 -2.384512482324e-03 0.0 
-2.384512482324e-03 4.413129634354e-03 0.0 
0.0 0.0 -1.025303715086e-03 
-1.433223260983e-03 -2.180723409209e-03 0.0 
-2.180723409209e-03 4.841898264917e-03 0.0 
0.0 0.0 -1.051254241329e-03 
-1.533782143048e-03 -2.096001782913e-03 0.0 
-2.096001782913e-03 4.882119290392e-03 0.0 
0.0 0.0 -1.038917832539e-03 
-1.344970022650e-03 -2.253929758585e-03 0.0 
-2.253929758585e-03 4.461736113479e-03 0.0 
0.0 0.0 -1.037516479237e-03 
-1.569102967331e-03 -1.933831873179e-03 0.0 
-1.933831873179e-03 4.899834166201e-03 0.0 
0.0 0.0 -1.046305699947e-03 
-1.376153231101e-03 -2.066079550050e-03 0.0 
-2.066079550050e-03 4.500968763913e-03 0.0 
0.0 0.0 -1.050803148915e-03 
1.947540486422e-03 2.152880942579e-04 0.0 
2.152880942579e-04 -9.005037723215e-04 0.0 
0.0 0.0 -4.487300203286e-04 
1.680967532914e-03 9.207071897223e-04 0.0 
9.207071897223e-04 -5.014207716637e-04 0.0 
0.0 0.0 -5.055200405360e-04 
1.438850481880e-03 2.016578593639e-04 0.0 
2.016578593639e-04 -1.625086232559e-04 0.0 
0.0 0.0 -5.470036536960e-04 
1.202172879279e-03 8.527240019949e-04 0.0 
8.527240019949e-04 3.828898779410e-04 0.0 
0.0 0.0 -6.793126102372e-04 
1.037530362003e-03 2.011510087903e-04 0.0 
2.011510087903e-04 7.506062236288e-04 0.0 
0.0 0.0 -7.663442509849e-04 
8.675854264309e-04 7.587081521114e-04 0.0 
7.587081521114e-04 1.231843798103e-03 0.0 
0.0 0.0 -8.979051750036e-04 
7.349701041777e-04 2.153247329944e-04 0.0 
2.153247329944e-04 1.546423059999e-03 0.0 
0.0 0.0 -9.701408636527e-04 
8.610381847209e-04 -3.526591051395e-04 0.0 
-3.526591051395e-04 1.156465632251e-03 0.0 
0.0 0.0 -8.646444929881e-04 
-1.453224264520e-03 2.831768754596e-03 0.0 
2.831768754596e-03 5.484804576212e-03 0.0 
0.0 0.0 -1.018102500310e-03 
3.008867090267e-03 1.058367247789e-03 0.0 
1.058367247789e-03 -1.343458179845e-03 0.0 
0.0 0.0 -7.137466758949e-04 
2.853497805066e-03 1.766083769912e-03 0.0 
1.766083769912e-03 -1.173072932721e-03 0.0 
0.0 0.0 -7.201820881480e-04 
3.053541270561e-03 1.142570270594e-03 0.0 
1.142570270594e-03 -1.348374367158e-03 0.0 
0.0 0.0 -7.307858157443e-04 
2.838618046953e-03 1.876649797015e-03 0.0 
1.876649797015e-03 -1.126367864291e-03 0.0 
0.0 0.0 -7.338215068551e-04 
2.971080593981e-03 1.270655419308e-03 0.0 
1.270655419308e-03 -1.289312095888e-03 0.0 
0.0 0.0 -7.207579277541e-04 
2.719217330289e-03 2.056721202716e-03 0.0 
2.056721202716e-03 -1.037451596634e-03 0.0 
0.0 0.0 -7.207567429950e-04 
2.772942118414e-03 1.411962470906e-03 0.0 
1.411962470906e-03 -1.228640855760e-03 0.0 
0.0 0.0 -6.618433982802e-04 
2.936188635973e-03 5.059698955333e-04 0.0 
5.059698955333e-04 -1.379043216914e-03 0.0 
0.0 0.0 -6.673480367399e-04 
2.617932977065e-03 5.853697332861e-04 0.0 
5.853697332861e-04 -1.334188021617e-03 0.0 
0.0 0.0 -5.501764094776e-04 
2.753067280877e-03 -3.549983010408e-04 0.0 
-3.549983010408e-04 -1.367545839080e-03 0.0 
0.0 0.0 -5.937949036274e-04 
2.283697930113e-03 -2.688909952497e-04 0.0 
-2.688909952497e-04 -1.277221164065e-03 0.0 
0.0 0.0 -4.313471854492e-04 
2.525026440165e-03 -1.212492314672e-03 0.0 
-1.212492314672e-03 -1.245102357231e-03 0.0 
0.0 0.0 -5.485388926860e-04 
-1.241644147846e-04 3.665257049786e-03 0.0 
3.665257049786e-03 2.568141902724e-03 0.0 
0.0 0.0 -9.405629120884e-04 
9.458807958305e-04 1.361774924333e-03 0.0 
1.361774924333e-03 9.904922510770e-04 0.0 
0.0 0.0 -8.298741629604e-04 
6.513001348098e-04 1.229100697752e-03 0.0 
1.229100697752e-03 1.753882193068e-03 0.0 
0.0 0.0 -9.993981362447e-04 
6.963768604448e-04 1.772072157614e-03 0.0 
1.772072157614e-03 1.581186938205e-03 0.0 
0.0 0.0 -9.522937794042e-04 
-3.189420848090e-04 -1.545020922433e-03 0.0 
-1.545020922433e-03 1.685829119162e-03 0.0 
0.0 0.0 -5.858087290083e-04 
-1.729227017080e-03 -1.797597956290e-03 0.0 
-1.797597956290e-03 5.304685395965e-03 0.0 
0.0 0.0 -1.052155339158e-03 
-3.558894212413e-04 -2.357175527876e-03 0.0 
-2.357175527876e-03 3.123019306479e-03 0.0 
0.0 0.0 -1.032922975483e-03 
-3.685387661375e-05 -2.333297789804e-03 0.0 
-2.333297789804e-03 2.519376975604e-03 0.0 
0.0 0.0 -9.972889278909e-04 
5.502284084495e-04 -2.540944922989e-04 0.0 
-2.540944922989e-04 1.932880194956e-03 0.0 
0.0 0.0 -1.036234461364e-03 
-5.051250462252e-04 -1.053858961610e-03 0.0 
-1.053858961610e-03 1.923683454344e-03 0.0 
0.0 0.0 -5.970694122200e-04 
2.486914527932e-03 2.192796758779e-03 0.0 
2.192796758779e-03 -9.291035182538e-04 0.0 
0.0 0.0 -6.676332898623e-04 
2.328692636026e-03 2.634849956172e-03 0.0 
2.634849956172e-03 -6.738088910714e-04 0.0 
0.0 0.0 -7.092358906949e-04 
-1.744623678677e-03 1.540348128746e-03 0.0 
1.540348128746e-03 6.846449706807e-03 0.0 
0.0 0.0 -1.048874596840e-03 
-1.750773001735e-03 1.319704536713e-03 0.0 
1.319704536713e-03 6.756146718387e-03 0.0 
0.0 0.0 -1.019458214591e-03 
-2.480160767706e-04 -2.004916630844e-03 0.0 
-2.004916630844e-03 3.137306023889e-03 0.0 
0.0 0.0 -1.070157681403e-03 
-6.234076530390e-04 -9.645286907226e-04 0.0 
-9.645286907226e-04 2.209865459266e-03 0.0 
0.0 0.0 -6.466873288763e-04 
-1.068414060457e-03 -2.374253472806e-03 0.0 
-2.374253472806e-03 4.293485734694e-03 0.0 
0.0 0.0 -1.053463316161e-03 
2.067995625182e-03 6.451329218673e-04 0.0 
6.451329218673e-04 -1.186041327943e-03 0.0 
0.0 0.0 -3.779804131024e-04 
-1.762784595192e-03 -1.607331333857e-03 0.0 
-1.607331333857e-03 5.293267446583e-03 0.0 
0.0 0.0 -1.053563116650e-03 
-1.867913240625e-03 -1.489305966451e-03 0.0 
-1.489305966451e-03 5.673891533939e-03 0.0 
0.0 0.0 -1.070920355653e-03 
-7.933761041048e-04 -2.832720245216e-03 0.0 
-2.832720245216e-03 3.452224715287e-03 0.0 
0.0 0.0 -1.021320298254e-03 
4.031722277788e-04 1.617631885485e-03 0.0 
1.617631885485e-03 2.296315845658e-03 0.0 
0.0 0.0 -1.069468904140e-03 
4.279180701410e-04 2.089566425205e-03 0.0 
2.089566425205e-03 2.165414708705e-03 0.0 
0.0 0.0 -1.033921039166e-03 
2.748961671600e-03 -1.234973564708e-03 0.0 
-1.234973564708e-03 -1.253110519415e-03 0.0 
0.0 0.0 -6.410790652217e-04 
2.518060065866e-03 -2.059438322562e-03 0.0 
-2.059438322562e-03 -1.018220698221e-03 0.0 
0.0 0.0 -6.427883004194e-04 
2.357888963389e-03 -2.118209179973e-03 0.0 
-2.118209179973e-03 -9.914742540871e-04 0.0 
0.0 0.0 -5.856063039867e-04 
2.191323313200e-03 -2.728758808394e-03 0.0 
-2.728758808394e-03 -6.479650369089e-04 0.0 
0.0 0.0 -6.614392612675e-04 
2.278763046571e-03 -2.578114575528e-03 0.0 
-2.578114575528e-03 -7.103706415061e-04 0.0 
0.0 0.0 -6.721681735992e-04 
1.895457018917e-03 -3.007528799367e-03 0.0 
-3.007528799367e-03 -3.206537863592e-04 0.0 
0.0 0.0 -6.749156710960e-04 
1.780393766489e-03 -3.161947930664e-03 0.0 
-3.161947930664e-03 -1.991738640969e-04 0.0 
0.0 0.0 -6.776656724536e-04 
1.498218282607e-03 -3.239267173229e-03 0.0 
-3.239267173229e-03 1.323736015907e-04 0.0 
0.0 0.0 -6.988250932278e-04 
1.538218957511e-03 -3.082075736210e-03 0.0 
-3.082075736210e-03 7.246781046872e-07 0.0 
0.0 0.0 -6.595472724067e-04 
1.116756184221e-03 -3.039153293536e-03 0.0 
-3.039153293536e-03 4.098621490744e-04 0.0 
0.0 0.0 -6.542649999838e-04 
9.813252680918e-04 -2.956617965048e-03 0.0 
-2.956617965048e-03 5.482338783846e-04 0.0 
0.0 0.0 -6.555253484899e-04 
6.892512545273e-04 -2.715436424775e-03 0.0 
-2.715436424775e-03 7.414890539001e-04 0.0 
0.0 0.0 -6.131744178975e-04 
-1.739487401810e-03 -1.643308528611e-03 0.0 
-1.643308528611e-03 5.674904400731e-03 0.0 
0.0 0.0 -1.101875158976e-03 
1.625849311047e-03 -1.683389643306e-04 0.0 
-1.683389643306e-04 -1.097136295050e-03 0.0 
0.0 0.0 -2.265912925699e-04 
-1.396148361601e-03 2.647702035806e-03 0.0 
2.647702035806e-03 4.519072400057e-03 0.0 
0.0 0.0 -8.810844588398e-04 
-5.349333944456e-04 -2.056134526959e-03 0.0 
-2.056134526959e-03 3.696128141265e-03 0.0 
0.0 0.0 -1.099012274073e-03 
4.001314244547e-04 2.494511169208e-04 0.0 
2.494511169208e-04 2.291122324032e-03 0.0 
0.0 0.0 -1.088453095952e-03 
-1.720074879915e-03 1.479198222822e-03 0.0 
1.479198222822e-03 7.120039440071e-03 0.0 
0.0 0.0 -1.085032576515e-03 
-1.727265597861e-03 1.269164868262e-03 0.0 
1.269164868262e-03 7.020339379643e-03 0.0 
0.0 0.0 -1.055603631703e-03 
-1.745923234167e-03 1.117194505061e-03 0.0 
1.117194505061e-03 6.644193117880e-03 0.0 
0.0 0.0 -9.897378988699e-04 
-1.726111739886e-03 1.073003689324e-03 0.0 
1.073003689324e-03 6.905750690588e-03 0.0 
0.0 0.0 -1.026001677571e-03 
-1.697815529865e-03 1.216597394983e-03 0.0 
1.216597394983e-03 7.279055033116e-03 0.0 
0.0 0.0 -1.091942449670e-03 
-1.699755368788e-03 1.027337857590e-03 0.0 
1.027337857590e-03 7.158023142695e-03 0.0 
0.0 0.0 -1.062342898562e-03 
-1.716352618538e-03 8.878056221667e-04 0.0 
8.878056221667e-04 6.774679391188e-03 0.0 
0.0 0.0 -9.962627399151e-04 
-1.692178280540e-03 8.508470267666e-04 0.0 
8.508470267666e-04 7.019991579685e-03 0.0 
0.0 0.0 -1.032646955902e-03 
-1.695660932446e-03 7.184317155414e-04 0.0 
7.184317155414e-04 6.625583462411e-03 0.0 
0.0 0.0 -9.664557332607e-04 
-1.677486126932e-03 6.911180295046e-04 0.0 
6.911180295046e-04 6.868534941944e-03 0.0 
0.0 0.0 -1.002889032254e-03 
-1.663620555798e-03 8.098065595925e-04 0.0 
8.098065595925e-04 7.259384762552e-03 0.0 
0.0 0.0 -1.069134413525e-03 
-1.655525420696e-03 6.533870042141e-04 0.0 
6.533870042141e-04 7.107625883104e-03 0.0 
0.0 0.0 -1.039387411609e-03 
-1.659615819212e-03 5.491873914478e-04 0.0 
5.491873914478e-04 6.708579784798e-03 0.0 
0.0 0.0 -9.730575354659e-04 
-1.642941155605e-03 5.125241071205e-04 0.0 
5.125241071205e-04 6.945188648216e-03 0.0 
0.0 0.0 -1.009574527126e-03 
-1.637255380195e-03 4.205204331053e-04 0.0 
4.205204331053e-04 6.536272510904e-03 0.0 
0.0 0.0 -9.431603702596e-04 
-1.623420800787e-03 3.856837058294e-04 0.0 
3.856837058294e-04 6.767271635738e-03 0.0 
0.0 0.0 -9.796061197752e-04 
-1.622026920778e-03 4.757000201370e-04 0.0 
4.757000201370e-04 7.177981971167e-03 0.0 
0.0 0.0 -1.046101832713e-03 
-5.260638759536e-04 -7.746154698035e-04 0.0 
-7.746154698035e-04 1.804698088172e-03 0.0 
0.0 0.0 -4.826019863697e-04 
6.384355500235e-04 -8.071467030727e-04 0.0 
-8.071467030727e-04 1.625869863801e-03 0.0 
0.0 0.0 -9.660701661439e-04 
3.155700960172e-04 -6.399278427758e-04 0.0 
-6.399278427758e-04 2.369342842803e-03 0.0 
0.0 0.0 -1.083831836677e-03 
-8.892645420983e-04 -1.589464053846e-03 0.0 
-1.589464053846e-03 3.243112049151e-03 0.0 
0.0 0.0 -9.683295300233e-04 
-9.893521759344e-04 -1.650588191873e-03 0.0 
-1.650588191873e-03 3.517832807879e-03 0.0 
0.0 0.0 -1.010934236754e-03 
-9.339052402119e-04 -1.988561699477e-03 0.0 
-1.988561699477e-03 3.508091553521e-03 0.0 
0.0 0.0 -1.041462402745e-03 
-1.131758993546e-03 -1.657762215853e-03 0.0 
-1.657762215853e-03 3.856452720899e-03 0.0 
0.0 0.0 -1.033211989474e-03 
-1.610140258144e-03 3.510578464752e-04 0.0 
3.510578464752e-04 7.002203508451e-03 0.0 
0.0 0.0 -1.015477767897e-03 
-1.603569950634e-03 4.323698609735e-04 0.0 
4.323698609735e-04 7.406712470395e-03 0.0 
0.0 0.0 -1.082739357160e-03 
2.075859047304e-03 2.734073794279e-03 0.0 
2.734073794279e-03 -5.151566843200e-04 0.0 
0.0 0.0 -6.688724412789e-04 
1.829803788864e-03 2.896630922712e-03 0.0 
2.896630922712e-03 -2.437374272620e-04 0.0 
0.0 0.0 -6.797427264007e-04 
-1.702624885041e-03 1.699730791061e-03 0.0 
1.699730791061e-03 7.199957864770e-03 0.0 
0.0 0.0 -1.114382729655e-03 
-1.921178658721e-03 -1.279150328982e-03 0.0 
-1.279150328982e-03 5.641022297000e-03 0.0 
0.0 0.0 -1.061085778683e-03 
-1.759404772593e-03 -1.368797781515e-03 0.0 
-1.368797781515e-03 5.258990087990e-03 0.0 
0.0 0.0 -1.062669991958e-03 
6.091469494368e-04 3.201234470351e-03 0.0 
3.201234470351e-03 1.145920310691e-03 0.0 
0.0 0.0 -7.521716829121e-04 
3.812479400786e-04 3.221138826746e-03 0.0 
3.221138826746e-03 1.454024134529e-03 0.0 
0.0 0.0 -7.865451748317e-04 
6.223231318809e-04 3.034958604236e-03 0.0 
3.034958604236e-03 1.026602646357e-03 0.0 
0.0 0.0 -7.066824763876e-04 
3.755190555598e-04 3.004529260336e-03 0.0 
3.004529260336e-03 1.328866931440e-03 0.0 
0.0 0.0 -7.304511372856e-04 
1.504650344152e-04 3.149504562038e-03 0.0 
3.149504562038e-03 1.760988080228e-03 0.0 
0.0 0.0 -8.191941919899e-04 
5.829936888595e-04 2.805741157272e-03 0.0 
2.805741157272e-03 9.386435949221e-04 0.0 
0.0 0.0 -6.521302644778e-04 
1.691581229929e-04 -2.698724546406e-03 0.0 
-2.698724546406e-03 1.880405331260e-03 0.0 
0.0 0.0 -8.664312523603e-04 
-1.632170864774e-03 7.587389543785e-04 0.0 
7.587389543785e-04 7.494664304375e-03 0.0 
0.0 0.0 -1.105708206284e-03 
-1.867627977739e-04 -1.946982532398e-03 0.0 
-1.946982532398e-03 1.623581017794e-03 0.0 
0.0 0.0 -6.157792371515e-04 
-1.766459924498e-04 -1.658792918857e-03 0.0 
-1.658792918857e-03 1.424250676640e-03 0.0 
0.0 0.0 -5.346877217957e-04 
-1.953846352874e-03 -1.181006378595e-03 0.0 
-1.181006378595e-03 5.993034579258e-03 0.0 
0.0 0.0 -1.094582683422e-03 
9.227653006670e-04 -9.923042472365e-04 0.0 
-9.923042472365e-04 8.348026981178e-04 0.0 
0.0 0.0 -7.532434280506e-04 
-4.484070588213e-04 3.613794165219e-03 0.0 
3.613794165219e-03 3.179623750880e-03 0.0 
0.0 0.0 -9.533529749162e-04 
-2.780489895403e-04 3.528284248772e-03 0.0 
3.528284248772e-03 2.993445099109e-03 0.0 
0.0 0.0 -9.681750457242e-04 
-5.507055311170e-04 3.446174456380e-03 0.0 
3.446174456380e-03 3.597530854088e-03 0.0 
0.0 0.0 -9.957130113267e-04 
-3.863084581791e-04 3.307385071573e-03 0.0 
3.307385071573e-03 3.448440357162e-03 0.0 
0.0 0.0 -1.023751803962e-03 
-6.300320690614e-04 3.259070928407e-03 0.0 
3.259070928407e-03 4.039542678780e-03 0.0 
0.0 0.0 -1.059873349132e-03 
-5.085717340789e-04 3.118830500926e-03 0.0 
3.118830500926e-03 3.927747937877e-03 0.0 
0.0 0.0 -1.087854580038e-03 
-2.514557000785e-04 3.100269023384e-03 0.0 
3.100269023384e-03 3.340960341130e-03 0.0 
0.0 0.0 -1.051791170495e-03 
1.399069373120e-04 1.939674922792e-03 0.0 
1.939674922792e-03 2.839420856551e-03 0.0 
0.0 0.0 -1.107463318235e-03 
-4.186704419438e-04 2.922768790841e-03 0.0 
2.922768790841e-03 3.866682433006e-03 0.0 
0.0 0.0 -1.115916943430e-03 
-1.595806012880e-03 2.986475684988e-04 0.0 
2.986475684988e-04 6.569860539438e-03 0.0 
0.0 0.0 -9.487150400336e-04 
9.874874757951e-04 2.001023480651e-03 0.0 
2.001023480651e-03 8.096298849095e-04 0.0 
0.0 0.0 -7.701931545877e-04 
1.099587361542e-03 -2.883577329194e-03 0.0 
-2.883577329194e-03 3.196281228081e-04 0.0 
0.0 0.0 -6.082352075787e-04 
-4.120182269500e-04 -8.254968701079e-04 0.0 
-8.254968701079e-04 1.533206618467e-03 0.0 
0.0 0.0 -4.510100977179e-04 
5.592980566656e-04 -2.545612127290e-03 0.0 
-2.545612127290e-03 8.296765578219e-04 0.0 
0.0 0.0 -5.952748347803e-04 
-6.262840441887e-04 -6.448010795071e-04 0.0 
-6.448010795071e-04 2.035833554771e-03 0.0 
0.0 0.0 -5.222488353909e-04 
-7.319508735308e-04 -8.428934672220e-04 0.0 
-8.428934672220e-04 2.464651158961e-03 0.0 
0.0 0.0 -6.822577977165e-04 
-4.713603530403e-04 -1.760178858830e-03 0.0 
-1.760178858830e-03 3.749274242464e-03 0.0 
0.0 0.0 -1.136360603439e-03 
-7.414846696447e-04 3.136821301181e-03 0.0 
3.136821301181e-03 4.510208953631e-03 0.0 
0.0 0.0 -1.124065295910e-03 
-8.446432131550e-04 3.218211498406e-03 0.0 
3.218211498406e-03 4.600039828402e-03 0.0 
0.0 0.0 -1.095615423988e-03 
1.374965702112e-04 2.907969111804e-03 0.0 
2.907969111804e-03 1.629175485309e-03 0.0 
0.0 0.0 -7.571451666514e-04 
-7.702727876907e-05 2.968579821374e-03 0.0 
2.968579821374e-03 2.049330152496e-03 0.0 
0.0 0.0 -8.452726601685e-04 
8.289727363508e-05 1.511362000005e-03 0.0 
1.511362000005e-03 2.985439199539e-03 0.0 
0.0 0.0 -1.136278651916e-03 
-1.765237675762e-03 1.222407657091e-03 0.0 
1.222407657091e-03 6.114667953270e-03 0.0 
0.0 0.0 -9.177848451843e-04 
-1.710580504207e-03 7.440398052567e-04 0.0 
7.440398052567e-04 6.380060456859e-03 0.0 
0.0 0.0 -9.302130594432e-04 
-1.676565589941e-03 5.872598873801e-04 0.0 
5.872598873801e-04 6.215440748447e-03 0.0 
0.0 0.0 -9.001900590098e-04 
-3.803857748505e-04 -5.434049098283e-04 0.0 
-5.434049098283e-04 1.471759670645e-03 0.0 
0.0 0.0 -3.494697005546e-04 
7.568627899495e-04 -2.787918667943e-03 0.0 
-2.787918667943e-03 7.221354992753e-04 0.0 
0.0 0.0 -6.338564096678e-04 
-1.662120244785e-03 1.162296850059e-03 0.0 
1.162296850059e-03 7.529797322482e-03 0.0 
0.0 0.0 -1.128363834889e-03 
2.037234962576e-03 2.841104701767e-03 0.0 
2.841104701767e-03 -4.145658898484e-04 0.0 
0.0 0.0 -6.954296025976e-04 
1.531315725723e-03 2.908052614029e-03 0.0 
2.908052614029e-03 2.448474694820e-06 0.0 
0.0 0.0 -6.573275144647e-04 
1.261589428094e-03 6.096704043663e-04 0.0 
6.096704043663e-04 -9.183369249884e-04 0.0 
0.0 0.0 -1.471082156167e-04 
7.631106832774e-04 -7.208428592914e-05 0.0 
-7.208428592914e-05 -6.801595576129e-04 0.0 
0.0 0.0 -3.555048242768e-05 
-1.589929625905e-03 3.288854672539e-04 0.0 
3.288854672539e-04 7.214274616426e-03 0.0 
0.0 0.0 -1.051814883004e-03 
-1.572388470156e-03 3.792019312018e-04 0.0 
3.792019312018e-04 7.619653826889e-03 0.0 
0.0 0.0 -1.117859435171e-03 
-1.078769339999e-03 -1.982110544533e-03 0.0 
-1.982110544533e-03 3.829235274235e-03 0.0 
0.0 0.0 -1.051224796075e-03 
-1.274189695606e-03 -1.627447894412e-03 0.0 
-1.627447894412e-03 4.185605639052e-03 0.0 
0.0 0.0 -1.050863174419e-03 
-1.969895269108e-04 -1.624325261337e-03 0.0 
-1.624325261337e-03 3.218036131210e-03 0.0 
0.0 0.0 -1.107558395918e-03 
3.636511301315e-04 -2.361072158115e-03 0.0 
-2.361072158115e-03 9.584204304499e-04 0.0 
0.0 0.0 -5.666020973920e-04 
-1.569287665322e-03 4.982993919659e-04 0.0 
4.982993919659e-04 7.796117196338e-03 0.0 
0.0 0.0 -1.149181664990e-03 
6.559202405712e-04 -1.403190814261e-03 0.0 
-1.403190814261e-03 1.391837788957e-03 0.0 
0.0 0.0 -8.776105840836e-04 
9.173022590222e-04 -1.676640049954e-03 0.0 
-1.676640049954e-03 6.107363237665e-04 0.0 
0.0 0.0 -6.548736783380e-04 
-1.171879392758e-03 -1.281686817317e-03 0.0 
-1.281686817317e-03 3.846852730435e-03 0.0 
0.0 0.0 -1.001803992689e-03 
1.504150752549e-03 2.803418453549e-03 0.0 
2.803418453549e-03 -4.311377337536e-05 0.0 
0.0 0.0 -6.261587053603e-04 
1.650316852641e-03 2.671963168056e-03 0.0 
2.671963168056e-03 -3.170419596538e-04 0.0 
0.0 0.0 -5.714035255658e-04 
1.466801754994e-03 -2.835534920743e-03 0.0 
-2.835534920743e-03 -6.856056088169e-05 0.0 
0.0 0.0 -5.992462260482e-04 
4.198225928608e-04 -2.489806032447e-03 0.0 
-2.489806032447e-03 9.452515050113e-04 0.0 
0.0 0.0 -5.850317562309e-04 
-7.228005656972e-04 -5.488391732617e-04 0.0 
-5.488391732617e-04 2.276834511977e-03 0.0 
0.0 0.0 -5.562745863746e-04 
-4.637036380639e-04 -1.428624458379e-03 0.0 
-1.428624458379e-03 3.853108176796e-03 0.0 
0.0 0.0 -1.173829981771e-03 
-1.646663843551e-03 1.358180133252e-03 0.0 
1.358180133252e-03 7.637691352308e-03 0.0 
0.0 0.0 -1.157575248917e-03 
-1.588531343900e-04 2.821657521555e-03 0.0 
2.821657521555e-03 3.283406077172e-03 0.0 
0.0 0.0 -1.080172819833e-03 
2.446831455112e-05 3.060603850123e-03 0.0 
3.060603850123e-03 2.728589719442e-03 0.0 
0.0 0.0 -1.015677837919e-03 
-3.660685555016e-04 2.667845735617e-03 0.0 
2.667845735617e-03 3.843962247037e-03 0.0 
0.0 0.0 -1.144955025780e-03 
2.673047132891e-04 -2.137865757300e-03 0.0 
-2.137865757300e-03 9.516698016607e-04 0.0 
0.0 0.0 -5.224176492642e-04 
-7.311483308604e-04 -1.856928531792e-03 0.0 
-1.856928531792e-03 4.285424001286e-03 0.0 
0.0 0.0 -1.165794428787e-03 
-2.038713827362e-03 -9.521744761757e-04 0.0 
-9.521744761757e-04 5.942161280998e-03 0.0 
0.0 0.0 -1.070719593515e-03 
-9.487823984943e-04 3.179202297983e-03 0.0 
3.179202297983e-03 5.046317585578e-03 0.0 
0.0 0.0 -1.157598467365e-03 
-1.028189826122e-03 3.189698687636e-03 0.0 
3.189698687636e-03 5.131498804919e-03 0.0 
0.0 0.0 -1.131219827106e-03 
1.693489723556e-03 2.912737131245e-03 0.0 
2.912737131245e-03 -1.493629984725e-04 0.0 
0.0 0.0 -6.617685964645e-04 
1.185947765099e-03 2.829659806798e-03 0.0 
2.829659806798e-03 2.506006467406e-04 0.0 
0.0 0.0 -6.156636050741e-04 
1.024663306531e-03 2.720941116212e-03 0.0 
2.720941116212e-03 3.858661710823e-04 0.0 
0.0 0.0 -6.045126332627e-04 
7.581467413336e-04 2.629057648791e-03 0.0 
2.629057648791e-03 6.283993164515e-04 0.0 
0.0 0.0 -5.942340247651e-04 
-1.648477658061e-03 2.188124378807e-03 0.0 
2.188124378807e-03 4.981950326516e-03 0.0 
0.0 0.0 -8.520119503206e-04 
1.288363213325e-03 2.918108490938e-03 0.0 
2.918108490938e-03 1.603315013667e-04 0.0 
0.0 0.0 -6.208691634391e-04 
-1.164374950017e-03 2.801514945082e-03 0.0 
2.801514945082e-03 4.086272555253e-03 0.0 
0.0 0.0 -8.983830653277e-04 
-1.269722602642e-03 2.487508477755e-03 0.0 
2.487508477755e-03 4.199128990551e-03 0.0 
0.0 0.0 -8.736227209573e-04 
-1.046332524412e-03 2.638264182984e-03 0.0 
2.638264182984e-03 3.789437134256e-03 0.0 
0.0 0.0 -8.954616384525e-04 
-9.535589006009e-05 3.192865815352e-03 0.0 
3.192865815352e-03 2.227004452414e-03 0.0 
0.0 0.0 -9.127067050351e-04 
-3.022280285659e-04 2.955332983640e-03 0.0 
2.955332983640e-03 2.491438051520e-03 0.0 
0.0 0.0 -9.307589223859e-04 
2.556968385694e-03 2.345203577048e-03 0.0 
2.345203577048e-03 -8.968266888023e-04 0.0 
0.0 0.0 -7.114892986678e-04 
1.812389688023e-03 1.564451495357e-03 0.0 
1.564451495357e-03 -6.179615212951e-04 0.0 
0.0 0.0 -5.118977857407e-04 
-8.515674767651e-04 -2.308299700533e-03 0.0 
-2.308299700533e-03 3.434983390257e-03 0.0 
0.0 0.0 -1.054912416397e-03 
-1.137266829401e-03 -2.398619768870e-03 0.0 
-2.398619768870e-03 4.055285407119e-03 0.0 
0.0 0.0 -1.045074301760e-03 
3.367977982503e-04 -3.065748121326e-03 0.0 
-3.065748121326e-03 1.429094799845e-03 0.0 
0.0 0.0 -7.568111134693e-04 
-1.629365191565e-03 9.257695161170e-04 0.0 
9.257695161170e-04 7.634439739813e-03 0.0 
0.0 0.0 -1.135109731873e-03 
-1.590870954180e-03 8.599854275843e-04 0.0 
8.599854275843e-04 7.870981141839e-03 0.0 
0.0 0.0 -1.171938512032e-03 
-1.643416432560e-03 4.449926551975e-04 0.0 
4.449926551975e-04 6.296597502974e-03 0.0 
0.0 0.0 -9.065739516476e-04 
-1.602464872442e-03 3.219184720994e-04 0.0 
3.219184720994e-04 6.108782366366e-03 0.0 
0.0 0.0 -8.764137937918e-04 
-2.696764371388e-04 -1.265861831851e-03 0.0 
-1.265861831851e-03 1.411045974668e-03 0.0 
0.0 0.0 -4.842067647502e-04 
-1.400634450087e-04 -1.409834388031e-03 0.0 
-1.409834388031e-03 1.204297259864e-03 0.0 
0.0 0.0 -4.502468535423e-04 
-2.319199994023e-04 -3.122878098546e-03 0.0 
-3.122878098546e-03 2.451044877422e-03 0.0 
0.0 0.0 -9.437206122825e-04 
-7.988578011231e-04 -2.058259969339e-03 0.0 
-2.058259969339e-03 4.234722114073e-03 0.0 
0.0 0.0 -1.127529358476e-03 
-1.669665556383e-03 1.635524756470e-03 0.0 
1.635524756470e-03 7.469407833496e-03 0.0 
0.0 0.0 -1.150095860580e-03 
-1.643068085807e-03 1.857648967737e-03 0.0 
1.857648967737e-03 7.542411325100e-03 0.0 
0.0 0.0 -1.179372829571e-03 
-1.673921977860e-03 1.925750498755e-03 0.0 
1.925750498755e-03 7.258395415596e-03 0.0 
0.0 0.0 -1.143369325256e-03 
-2.014473825755e-04 -1.218765106027e-03 0.0 
-1.218765106027e-03 3.345673547677e-03 0.0 
0.0 0.0 -1.144273392007e-03 
3.110341159347e-03 3.472939405717e-04 0.0 
3.472939405717e-04 -1.445647776500e-03 0.0 
0.0 0.0 -7.134400212203e-04 
1.600864292633e-03 -4.933060105816e-04 0.0 
-4.933060105816e-04 -5.124875882505e-04 0.0 
0.0 0.0 -4.664471590211e-04 
1.395368066446e-03 -9.561308999161e-04 0.0 
-9.561308999161e-04 -1.034414870566e-03 0.0 
0.0 0.0 -1.546942268056e-04 
3.758232775366e-04 3.466607308548e-03 0.0 
3.466607308548e-03 1.708095271688e-03 0.0 
0.0 0.0 -8.625807428358e-04 
-1.387284875597e-04 -1.147843400141e-03 0.0 
-1.147843400141e-03 1.071097091449e-03 0.0 
0.0 0.0 -3.720583479433e-04 
-1.231098641636e-03 3.135190691380e-03 0.0 
3.135190691380e-03 4.944666622865e-03 0.0 
0.0 0.0 -1.010319580236e-03 
-1.984786992954e-03 -8.733459957740e-04 0.0 
-8.733459957740e-04 6.259759611652e-03 0.0 
0.0 0.0 -1.122815839103e-03 
-1.861926426933e-03 -1.095524342960e-03 0.0 
-1.095524342960e-03 6.311220838631e-03 0.0 
0.0 0.0 -1.159213750608e-03 
-1.725327838232e-04 1.829528703914e-03 0.0 
1.829528703914e-03 3.501045676607e-03 0.0 
0.0 0.0 -1.171959308352e-03 
-1.590101240846e-03 1.706978125594e-03 0.0 
1.706978125594e-03 4.660773429978e-03 0.0 
0.0 0.0 -7.960146267056e-04 
5.073336669335e-04 3.214445659709e-03 0.0 
3.214445659709e-03 1.538412133141e-03 0.0 
0.0 0.0 -8.506774374544e-04 
8.851619009454e-04 2.969244090533e-03 0.0 
2.969244090533e-03 8.376787810317e-04 0.0 
0.0 0.0 -7.383602922759e-04 
-1.156062255108e-03 2.301233915827e-03 0.0 
2.301233915827e-03 3.896290621430e-03 0.0 
0.0 0.0 -8.625652443140e-04 
-9.471297243856e-04 2.440002294532e-03 0.0 
2.440002294532e-03 3.517004994648e-03 0.0 
0.0 0.0 -8.875966840820e-04 
-8.066787093543e-04 2.777426977554e-03 0.0 
2.777426977554e-03 3.370899001042e-03 0.0 
0.0 0.0 -9.244972712473e-04 
-7.192390311965e-04 2.566107428446e-03 0.0 
2.566107428446e-03 3.124935059627e-03 0.0 
0.0 0.0 -9.234394568817e-04 
1.009712769882e-03 -2.639627470040e-03 0.0 
-2.639627470040e-03 3.518698063256e-04 0.0 
0.0 0.0 -5.835353898034e-04 
7.225051380104e-04 -2.634694636205e-03 0.0 
-2.634694636205e-03 6.767854285005e-04 0.0 
0.0 0.0 -5.996959570761e-04 
-8.921567267479e-04 3.111111284804e-03 0.0 
3.111111284804e-03 5.059665355678e-03 0.0 
0.0 0.0 -1.192042136895e-03 
-6.099967263224e-04 2.870760626298e-03 0.0 
2.870760626298e-03 4.411064189710e-03 0.0 
0.0 0.0 -1.178660172201e-03 
-1.100042912757e-03 3.200343520554e-03 0.0 
3.200343520554e-03 5.573219155758e-03 0.0 
0.0 0.0 -1.193029175878e-03 
-1.160667669830e-03 3.176739035806e-03 0.0 
3.176739035806e-03 5.649176834465e-03 0.0 
0.0 0.0 -1.168165168232e-03 
-2.521445186915e-04 1.437999620024e-03 0.0 
1.437999620024e-03 3.663538457504e-03 0.0 
0.0 0.0 -1.200910491468e-03 
-1.175265126893e-05 1.083930210957e-03 0.0 
1.083930210957e-03 3.184478001405e-03 0.0 
0.0 0.0 -1.164168769488e-03 
-8.338945190871e-04 -6.899851568111e-04 0.0 
-6.899851568111e-04 2.693161182237e-03 0.0 
0.0 0.0 -7.014880017679e-04 
-2.848117966112e-04 2.692565546894e-03 0.0 
2.692565546894e-03 2.299445011333e-03 0.0 
0.0 0.0 -8.634142348809e-04 
-1.596224494799e-03 1.291320717670e-03 0.0 
1.291320717670e-03 7.883322151599e-03 0.0 
0.0 0.0 -1.194151889699e-03 
-1.353314944435e-03 2.157291733394e-03 0.0 
2.157291733394e-03 4.270289119183e-03 0.0 
0.0 0.0 -8.433929263471e-04 
-9.622501338421e-04 -1.912189492832e-03 0.0 
-1.912189492832e-03 4.776924830183e-03 0.0 
0.0 0.0 -1.192835421428e-03 
-1.026421419571e-03 -2.028541400734e-03 0.0 
-2.028541400734e-03 4.755168212354e-03 0.0 
0.0 0.0 -1.156047193884e-03 
4.478208592864e-04 -3.751585586859e-04 0.0 
-3.751585586859e-04 -4.241673929217e-04 0.0 
0.0 0.0 -1.013719987055e-05 
1.244125017972e-03 -1.917312666705e-03 0.0 
-1.917312666705e-03 -7.538799606522e-04 0.0 
0.0 0.0 -2.101050245656e-04 
-1.537691014338e-03 4.222863431362e-04 0.0 
4.222863431362e-04 8.020533850651e-03 0.0 
0.0 0.0 -1.184588873336e-03 
6.358527835684e-04 2.480430970654e-03 0.0 
2.480430970654e-03 6.941509382628e-04 0.0 
0.0 0.0 -5.700015950705e-04 
4.499471129459e-04 2.458836012126e-03 0.0 
2.458836012126e-03 9.036367217386e-04 0.0 
0.0 0.0 -5.801073577219e-04 
8.196974528425e-04 2.512758387053e-03 0.0 
2.512758387053e-03 5.135885621210e-04 0.0 
0.0 0.0 -5.714082921272e-04 
-1.721775180469e-03 -2.750261499923e-04 0.0 
-2.750261499923e-04 6.955705942823e-03 0.0 
0.0 0.0 -1.258310293365e-03 
-1.440319018305e-03 2.756393348766e-05 0.0 
2.756393348766e-05 5.261443928406e-03 0.0 
0.0 0.0 -7.479256703001e-04 
-1.851935248777e-03 -8.185806621322e-04 0.0 
-8.185806621322e-04 6.555435669483e-03 0.0 
0.0 0.0 -1.189418985649e-03 
-3.624356194934e-04 3.164434027964e-03 0.0 
3.164434027964e-03 2.710514095153e-03 0.0 
0.0 0.0 -9.658202727595e-04 
-1.517819935298e-03 5.689925216528e-04 0.0 
5.689925216528e-04 8.183121975380e-03 0.0 
0.0 0.0 -1.216510697198e-03 
6.201224625516e-04 2.820752531408e-03 0.0 
2.820752531408e-03 1.452084294343e-03 0.0 
0.0 0.0 -8.651011823288e-04 
9.038760669871e-04 3.026845929911e-03 0.0 
3.026845929911e-03 6.793831834175e-04 0.0 
0.0 0.0 -6.785396787449e-04 
8.674105580954e-05 -1.429107710981e-03 0.0 
-1.429107710981e-03 2.679701546003e-03 0.0 
0.0 0.0 -1.078177493492e-03 
-1.550932841916e-03 2.613354928632e-04 0.0 
2.613354928632e-04 7.825402361396e-03 0.0 
0.0 0.0 -1.149140729088e-03 
-1.512659112896e-03 3.422106709257e-04 0.0 
3.422106709257e-04 8.249752470507e-03 0.0 
0.0 0.0 -1.221625961084e-03 
-1.676659295308e-03 6.110344698925e-04 0.0 
6.110344698925e-04 5.968416883272e-03 0.0 
0.0 0.0 -8.638707813346e-04 
-1.641988205188e-03 4.340588364437e-04 0.0 
4.340588364437e-04 5.771155948817e-03 0.0 
0.0 0.0 -8.327709333130e-04 
-1.719162707249e-03 7.708162564075e-04 0.0 
7.708162564075e-04 6.112617701018e-03 0.0 
0.0 0.0 -8.925140200429e-04 
1.977927820577e-03 1.598623588264e-03 0.0 
1.598623588264e-03 -1.019208972965e-03 0.0 
0.0 0.0 -4.108795061196e-04 
1.108521086627e-03 1.458274724011e-03 0.0 
1.458274724011e-03 -6.824978449185e-04 0.0 
0.0 0.0 -1.825813893037e-04 
-1.599533954581e-03 7.014631110784e-04 0.0 
7.014631110784e-04 7.724369133548e-03 0.0 
0.0 0.0 -1.142090266074e-03 
-7.915237200633e-04 -1.416691550801e-03 0.0 
-1.416691550801e-03 2.916147842675e-03 0.0 
0.0 0.0 -8.917970384883e-04 
-9.526528541598e-04 -1.159662932408e-03 0.0 
-1.159662932408e-03 3.237497577102e-03 0.0 
0.0 0.0 -9.066540859529e-04 
1.679025679155e-04 -2.197795369639e-03 0.0 
-2.197795369639e-03 1.134113528401e-03 0.0 
0.0 0.0 -5.580068984213e-04 
1.993437938488e-04 -2.372930192997e-03 0.0 
-2.372930192997e-03 1.192906332053e-03 0.0 
0.0 0.0 -5.966786253865e-04 
-1.011942446972e-03 -2.270969963916e-03 0.0 
-2.270969963916e-03 3.766401779748e-03 0.0 
0.0 0.0 -1.058899862332e-03 
-7.573046355122e-04 -2.581800115454e-03 0.0 
-2.581800115454e-03 3.322201121737e-03 0.0 
0.0 0.0 -1.050266080739e-03 
-1.095827954621e-03 3.216069521876e-03 0.0 
3.216069521876e-03 4.826499025112e-03 0.0 
0.0 0.0 -1.038692069610e-03 
-1.234301998555e-03 3.107456630916e-03 0.0 
3.107456630916e-03 5.310904523361e-03 0.0 
0.0 0.0 -1.074129358999e-03 
-7.180889207275e-04 3.499463535137e-03 0.0 
3.499463535137e-03 3.763199671929e-03 0.0 
0.0 0.0 -9.722238801078e-04 
6.053063119579e-04 -2.030268547273e-03 0.0 
-2.030268547273e-03 1.237774920504e-03 0.0 
0.0 0.0 -7.898919567692e-04 
8.551862749054e-04 -2.258528060602e-03 0.0 
-2.258528060602e-03 5.423122765455e-04 0.0 
0.0 0.0 -5.989279506218e-04 
1.198969096751e-03 -1.716835984739e-03 0.0 
-1.716835984739e-03 -1.728528183354e-05 0.0 
0.0 0.0 -5.064359206787e-04 
-1.578160803348e-03 1.029909350069e-03 0.0 
1.029909350069e-03 7.988225935028e-03 0.0 
0.0 0.0 -1.199867006878e-03 
-1.525066789097e-03 9.716746199443e-04 0.0 
9.716746199443e-04 8.273760627129e-03 0.0 
0.0 0.0 -1.242728214876e-03 
1.321351467926e-03 -2.568351524438e-03 0.0 
-2.568351524438e-03 -2.315153931352e-07 0.0 
0.0 0.0 -5.661942653711e-04 
1.809254267051e-03 -2.583366555036e-03 0.0 
-2.583366555036e-03 -4.342692756295e-04 0.0 
0.0 0.0 -5.892792820379e-04 
6.921033763950e-04 -2.656898720389e-03 0.0 
-2.656898720389e-03 7.465441525006e-04 0.0 
0.0 0.0 -6.165632266696e-04 
-1.574485567314e-03 1.499311237931e-03 0.0 
1.499311237931e-03 7.988348182121e-03 0.0 
0.0 0.0 -1.223056365294e-03 
-1.741572698048e-03 -1.051965994170e-03 0.0 
-1.051965994170e-03 6.624165410999e-03 0.0 
0.0 0.0 -1.224004481682e-03 
-1.735235085971e-03 -1.304001527318e-03 0.0 
-1.304001527318e-03 6.344789461694e-03 0.0 
0.0 0.0 -1.195820777905e-03 
-2.679240954609e-05 -1.257927253223e-03 0.0 
-1.257927253223e-03 9.029103496679e-04 0.0 
0.0 0.0 -3.450663815859e-04 
-3.035170911774e-06 -1.579137764012e-03 0.0 
-1.579137764012e-03 1.039327180488e-03 0.0 
0.0 0.0 -4.410249086127e-04 
1.155100538592e-03 2.631364371344e-03 0.0 
2.631364371344e-03 1.868470155697e-04 0.0 
0.0 0.0 -5.751203803551e-04 
1.215808673203e-03 2.544029937651e-03 0.0 
2.544029937651e-03 -5.958635491021e-05 0.0 
0.0 0.0 -4.955238506970e-04 
-1.603953202991e-03 2.084851501461e-03 0.0 
2.084851501461e-03 7.579130278610e-03 0.0 
0.0 0.0 -1.207258722210e-03 
-1.637778905667e-03 2.162652518366e-03 0.0 
2.162652518366e-03 7.304299819900e-03 0.0 
0.0 0.0 -1.172631524865e-03 
-1.556077565275e-03 2.029656444368e-03 0.0 
2.029656444368e-03 7.905393318382e-03 0.0 
0.0 0.0 -1.247471551777e-03 
-8.078621275666e-04 -3.743686463011e-04 0.0 
-3.743686463011e-04 2.476609172107e-03 0.0 
0.0 0.0 -5.753817989848e-04 
1.173818397494e-04 2.725852523849e-03 0.0 
2.725852523849e-03 2.691650762888e-03 0.0 
0.0 0.0 -1.045322365442e-03 
-5.040778805934e-04 -1.070896588493e-03 0.0 
-1.070896588493e-03 3.980562278462e-03 0.0 
0.0 0.0 -1.207899217314e-03 
-2.520428194526e-04 -7.965635153337e-04 0.0 
-7.965635153337e-04 3.542662319704e-03 0.0 
0.0 0.0 -1.178012378629e-03 
-7.711086010594e-04 -1.329041706335e-03 0.0 
-1.329041706335e-03 4.567355749165e-03 0.0 
0.0 0.0 -1.244624083072e-03 
-1.223572839919e-04 2.186752793674e-03 0.0 
2.186752793674e-03 3.375840631155e-03 0.0 
0.0 0.0 -1.142102124289e-03 
-4.435966474857e-04 2.091597596222e-03 0.0 
2.091597596222e-03 3.997165180884e-03 0.0 
0.0 0.0 -1.205428683694e-03 
-6.295415077105e-04 2.617745388046e-03 0.0 
2.617745388046e-03 4.421095216534e-03 0.0 
0.0 0.0 -1.209323031234e-03 
8.913702169857e-05 -5.356610077543e-06 0.0 
-5.356610077543e-06 -8.913702169857e-05 0.0 
0.0 0.0 0.0 
-1.516551893121e-03 1.931531950452e-04 0.0 
1.931531950452e-04 8.105824831205e-03 0.0 
0.0 0.0 -1.199992767657e-03 
-1.600603275175e-03 3.197306060267e-04 0.0 
3.197306060267e-04 5.842030124630e-03 0.0 
0.0 0.0 -8.371571859873e-04 
0.0 0.0 0.0 
0.0 0.0 0.0 
0.0 0.0 0.0 
-1.547068004807e-03 2.255592860515e-04 0.0 
2.255592860515e-04 5.653808019545e-03 0.0 
0.0 0.0 -8.070151920887e-04 
-1.566358775821e-03 2.266234695203e-04 0.0 
2.266234695203e-04 5.919104175052e-03 0.0 
0.0 0.0 -8.451615393777e-04 
-1.505853756260e-03 1.425564258005e-04 0.0 
1.425564258005e-04 5.404792730384e-03 0.0 
0.0 0.0 -7.748096441827e-04 
-6.628775469822e-04 -3.015658585898e-04 0.0 
-3.015658585898e-04 2.010090265861e-03 0.0 
0.0 0.0 -4.206613647546e-04 
-1.675398106948e-03 5.868598101642e-04 0.0 
5.868598101642e-04 5.623434088204e-03 0.0 
0.0 0.0 -8.174106193842e-04 
-1.726757844430e-03 7.924650127462e-04 0.0 
7.924650127462e-04 5.855419414792e-03 0.0 
0.0 0.0 -8.556612431672e-04 
8.558548932515e-05 -1.128009013281e-03 0.0 
-1.128009013281e-03 6.309628739441e-04 0.0 
0.0 0.0 -2.713320700168e-04 
-1.513004436039e-03 1.420623121839e-03 0.0 
1.420623121839e-03 8.214217499082e-03 0.0 
0.0 0.0 -1.259301554906e-03 
1.749391661274e-04 -1.082733169331e-03 0.0 
-1.082733169331e-03 5.892299780132e-04 0.0 
0.0 0.0 -2.441793916413e-04 
1.147662153238e-04 -1.066745943300e-03 0.0 
-1.066745943300e-03 7.910181080930e-04 0.0 
0.0 0.0 -2.872885922025e-04 
-1.122672355991e-03 -1.921241529141e-03 0.0 
-1.921241529141e-03 5.266335920734e-03 0.0 
0.0 0.0 -1.221214701962e-03 
-1.203549749022e-03 -1.976762786956e-03 0.0 
-1.976762786956e-03 5.228557791274e-03 0.0 
0.0 0.0 -1.184344882880e-03 
-1.271935696370e-03 -1.932492998885e-03 0.0 
-1.932492998885e-03 5.682500405781e-03 0.0 
0.0 0.0 -1.247726601234e-03 
-1.345935677545e-03 -1.879180138911e-03 0.0 
-1.879180138911e-03 5.631962343118e-03 0.0 
0.0 0.0 -1.211018817991e-03 
-1.319489507466e-03 -1.996946989352e-03 0.0 
-1.996946989352e-03 5.223869660522e-03 0.0 
0.0 0.0 -1.147066289601e-03 
-1.457152980048e-03 -1.833275450520e-03 0.0 
-1.833275450520e-03 5.658001904065e-03 0.0 
0.0 0.0 -1.176490610025e-03 
-1.598701855115e-03 3.112456463076e-04 0.0 
3.112456463076e-04 5.594187128056e-03 0.0 
0.0 0.0 -7.985989294648e-04 
-1.425017338431e-03 -1.793987580484e-03 0.0 
-1.793987580484e-03 6.077694866820e-03 0.0 
0.0 0.0 -1.249018369598e-03 
-1.544794874514e-03 -1.654652183582e-03 0.0 
-1.654652183582e-03 6.043342076509e-03 0.0 
0.0 0.0 -1.207442871744e-03 
-1.490747382805e-03 -1.688185045970e-03 0.0 
-1.688185045970e-03 6.481641932430e-03 0.0 
0.0 0.0 -1.277927415301e-03 
-8.701201880038e-04 2.189049665711e-03 0.0 
2.189049665711e-03 3.268695103799e-03 0.0 
0.0 0.0 -8.722607330507e-04 
5.310970710450e-04 2.630450444314e-03 0.0 
2.630450444314e-03 9.000089298474e-04 0.0 
0.0 0.0 -6.133311432396e-04 
2.617133158352e-04 2.476764240616e-03 0.0 
2.476764240616e-03 1.164640329384e-03 0.0 
0.0 0.0 -6.112944193795e-04 
1.728571300418e-04 2.227493690469e-03 0.0 
2.227493690469e-03 1.142483149507e-03 0.0 
0.0 0.0 -5.637172626637e-04 
-1.229541831672e-03 3.263680413163e-03 0.0 
3.263680413163e-03 6.138633277811e-03 0.0 
0.0 0.0 -1.240180566941e-03 
-1.276361500880e-03 3.187291024850e-03 0.0 
3.187291024850e-03 6.099399323178e-03 0.0 
0.0 0.0 -1.200590015451e-03 
-2.088598425736e-03 -6.246367196868e-04 0.0 
-6.246367196868e-04 6.194373546362e-03 0.0 
0.0 0.0 -1.090180627845e-03 
-2.041663287848e-03 -6.617363893855e-04 0.0 
-6.617363893855e-04 5.852171557009e-03 0.0 
0.0 0.0 -1.067141795818e-03 
-1.532469855713e-03 1.525337910669e-04 0.0 
1.525337910669e-04 5.692847008020e-03 0.0 
0.0 0.0 -8.108182148135e-04 
-1.511312180107e-03 9.255618039040e-05 0.0 
9.255618039040e-05 5.666580148835e-03 0.0 
0.0 0.0 -8.077352941366e-04 
-1.560488436606e-03 1.911238081195e-04 0.0 
1.911238081195e-04 6.070956180256e-03 0.0 
0.0 0.0 -8.678526801547e-04 
-1.544526745633e-03 1.030985674976e-04 0.0 
1.030985674976e-04 6.005801825662e-03 0.0 
0.0 0.0 -8.609153521579e-04 
-1.580530064686e-03 1.945628071657e-04 0.0 
1.945628071657e-04 6.420611350931e-03 0.0 
0.0 0.0 -9.200517378055e-04 
-1.559403933791e-03 8.887484367551e-05 0.0 
8.887484367551e-05 6.359767284502e-03 0.0 
0.0 0.0 -9.108947733944e-04 
-1.583263469338e-03 1.334252269549e-04 0.0 
1.334252269549e-04 6.753346818615e-03 0.0 
0.0 0.0 -9.726914458129e-04 
-8.669769815257e-04 2.889098903744e-03 0.0 
2.889098903744e-03 5.024560399167e-03 0.0 
0.0 0.0 -1.245087786853e-03 
4.982055672495e-04 2.293020821825e-03 0.0 
2.293020821825e-03 7.508210362061e-04 0.0 
0.0 0.0 -5.352971157667e-04 
-1.245162061090e-03 1.941632408908e-03 0.0 
1.941632408908e-03 3.965163190857e-03 0.0 
0.0 0.0 -8.237883836899e-04 
-3.879507205886e-04 1.027612391922e-03 0.0 
1.027612391922e-03 3.877749242080e-03 0.0 
0.0 0.0 -1.228261380050e-03 
-1.475502455479e-04 6.710535629733e-04 0.0 
6.710535629733e-04 3.400758398957e-03 0.0 
0.0 0.0 -1.187396807988e-03 
-4.877113708210e-04 2.653909423409e-03 0.0 
2.653909423409e-03 2.711925927626e-03 0.0 
0.0 0.0 -9.301491777014e-04 
-4.673273112926e-04 2.354591855457e-03 0.0 
2.354591855457e-03 2.518811343451e-03 0.0 
0.0 0.0 -8.783714799336e-04 
-9.656459474725e-04 -1.750454010380e-03 0.0 
-1.750454010380e-03 4.960948450779e-03 0.0 
0.0 0.0 -1.238794375355e-03 
1.773029984471e-03 2.918628512030e-03 0.0 
2.918628512030e-03 -2.405794798709e-04 0.0 
0.0 0.0 -6.567645019713e-04 
-1.474754496101e-03 1.652724927503e-03 0.0 
1.652724927503e-03 8.365646577830e-03 0.0 
0.0 0.0 -1.295459716840e-03 
0.0 0.0 0.0 
0.0 0.0 0.0 
0.0 0.0 0.0 
1.498393906149e-04 3.022053957605e-04 0.0 
3.022053957605e-04 -1.163750170629e-04 0.0 
0.0 0.0 -1.434187437942e-05 
1.327025876230e-03 3.010605488358e-03 0.0 
3.010605488358e-03 1.473338213913e-04 0.0 
0.0 0.0 -6.318684418375e-04 
-5.499021132442e-04 2.888144921732e-03 0.0 
2.888144921732e-03 2.938437648155e-03 0.0 
0.0 0.0 -9.558721723632e-04 
3.323415439528e-04 2.743520330787e-03 0.0 
2.743520330787e-03 1.229329144075e-03 0.0 
0.0 0.0 -6.692874377263e-04 
9.209566797494e-05 2.604630668434e-03 0.0 
2.604630668434e-03 1.511290340994e-03 0.0 
0.0 0.0 -6.871654324154e-04 
3.645468755337e-04 -1.692092076938e-03 0.0 
-1.692092076938e-03 1.976975662064e-03 0.0 
0.0 0.0 -9.759998253719e-04 
1.091376312940e-04 -1.700138468344e-03 0.0 
-1.700138468344e-03 9.084482070208e-04 0.0 
0.0 0.0 -4.293607968937e-04 
9.860679807434e-04 2.546469046220e-03 0.0 
2.546469046220e-03 3.575313038065e-04 0.0 
0.0 0.0 -5.758282648071e-04 
-1.592993118431e-03 2.731466696240e-04 0.0 
2.731466696240e-04 6.800272037187e-03 0.0 
0.0 0.0 -9.796923013958e-04 
6.911227834126e-04 2.251046992259e-03 0.0 
2.251046992259e-03 5.130124139505e-04 0.0 
0.0 0.0 -5.160579417270e-04 
-2.121618955622e-03 -3.224058753556e-04 0.0 
-3.224058753556e-04 6.099005119318e-03 0.0 
0.0 0.0 -1.073807358551e-03 
2.201373567652e-03 2.690698738968e-03 0.0 
2.690698738968e-03 -6.091920316776e-04 0.0 
0.0 0.0 -6.823635154174e-04 
-1.638384935320e-04 3.372316730358e-03 0.0 
3.372316730358e-03 2.445531910937e-03 0.0 
0.0 0.0 -9.519839029876e-04 
1.275974649949e-03 2.775715452302e-03 0.0 
2.775715452302e-03 1.801999389927e-04 0.0 
0.0 0.0 -6.240748238320e-04 
8.350192799097e-04 2.727176630851e-03 0.0 
2.727176630851e-03 5.820764688072e-04 0.0 
0.0 0.0 -6.073267494501e-04 
-1.574296698924e-03 2.484580816168e-03 0.0 
2.484580816168e-03 4.927078130058e-03 0.0 
0.0 0.0 -8.786961992330e-04 
-1.699341285066e-03 1.882952510091e-03 0.0 
1.882952510091e-03 5.001649373791e-03 0.0 
0.0 0.0 -8.239340753773e-04 
-1.544077067517e-03 2.021174845409e-03 0.0 
2.021174845409e-03 4.648313902463e-03 0.0 
0.0 0.0 -8.287327148421e-04 
2.547623254183e-03 2.268646563305e-03 0.0 
2.268646563305e-03 -9.255766277510e-04 0.0 
0.0 0.0 -6.951628398994e-04 
-9.793607364304e-05 2.680641002234e-03 0.0 
2.680641002234e-03 1.905972935152e-03 0.0 
0.0 0.0 -7.748729406467e-04 
-1.401926105552e-04 2.272349151151e-03 0.0 
2.272349151151e-03 1.732062029039e-03 0.0 
0.0 0.0 -6.822297507788e-04 
-1.042335079289e-03 3.085608632330e-03 0.0 
3.085608632330e-03 3.939330989580e-03 0.0 
0.0 0.0 -9.170298757010e-04 
-1.694312562690e-03 2.003906122110e-03 0.0 
2.003906122110e-03 6.960974899569e-03 0.0 
0.0 0.0 -1.107475121065e-03 
-1.654341182746e-03 2.234400658440e-03 0.0 
2.234400658440e-03 6.989596744706e-03 0.0 
0.0 0.0 -1.136341617999e-03 
-1.591073595122e-03 2.379952355984e-03 0.0 
2.379952355984e-03 7.311228899108e-03 0.0 
0.0 0.0 -1.199268560344e-03 
-1.606550985090e-03 2.450965261895e-03 0.0 
2.450965261895e-03 7.002228799418e-03 0.0 
0.0 0.0 -1.164598082371e-03 
-1.654615127137e-03 2.306554865062e-03 0.0 
2.306554865062e-03 6.662432923767e-03 0.0 
0.0 0.0 -1.100413285504e-03 
-1.595489437176e-03 2.513437590904e-03 0.0 
2.513437590904e-03 6.653696588520e-03 0.0 
0.0 0.0 -1.129075729544e-03 
-1.546389988990e-03 2.664193302564e-03 0.0 
2.664193302564e-03 6.994860909819e-03 0.0 
0.0 0.0 -1.193594387005e-03 
-1.524710140769e-03 2.725114460972e-03 0.0 
2.725114460972e-03 6.640657221836e-03 0.0 
0.0 0.0 -1.159256375294e-03 
-1.483453285402e-03 2.879360167952e-03 0.0 
2.879360167952e-03 7.061959584516e-03 0.0 
0.0 0.0 -1.234286862126e-03 
-1.459335345335e-03 2.896614314087e-03 0.0 
2.896614314087e-03 6.597331098230e-03 0.0 
0.0 0.0 -1.187309181180e-03 
-1.487240193726e-03 2.797813669470e-03 0.0 
2.797813669470e-03 6.237817525026e-03 0.0 
0.0 0.0 -1.120864512401e-03 
-1.416348664038e-03 2.952147323061e-03 0.0 
2.952147323061e-03 6.179572228468e-03 0.0 
0.0 0.0 -1.147759711419e-03 
-1.401702611885e-03 3.058403427338e-03 0.0 
3.058403427338e-03 6.528924407833e-03 0.0 
0.0 0.0 -1.207767947030e-03 
-1.429554607918e-03 2.882577101757e-03 0.0 
2.882577101757e-03 5.825437132677e-03 0.0 
0.0 0.0 -1.082593982084e-03 
-6.657140394303e-04 1.410986986977e-03 0.0 
1.410986986977e-03 4.342280522210e-03 0.0 
0.0 0.0 -1.264544343569e-03 
1.285034861164e-03 3.046453072889e-03 0.0 
3.046453072889e-03 2.156214386420e-04 0.0 
0.0 0.0 -6.431384142027e-04 
3.221685064304e-04 2.100220635338e-04 0.0 
2.100220635338e-04 -3.125792772457e-04 0.0 
0.0 0.0 -4.109669650583e-06 
7.277286052914e-04 1.662264959666e-03 0.0 
1.662264959666e-03 -4.217765524128e-04 0.0 
0.0 0.0 -1.311223083766e-04 
-4.639929809661e-04 3.327821869830e-03 0.0 
3.327821869830e-03 2.959449472573e-03 0.0 
0.0 0.0 -9.691543639280e-04 
-1.437907230863e-03 2.996700486661e-03 0.0 
2.996700486661e-03 7.518201304671e-03 0.0 
0.0 0.0 -1.299806302097e-03 
-1.466395687024e-03 2.621641971218e-03 0.0 
2.621641971218e-03 7.881651097987e-03 0.0 
0.0 0.0 -1.301753673823e-03 
2.487482228611e-03 2.475720953215e-03 0.0 
2.475720953215e-03 -8.077451105291e-04 0.0 
0.0 0.0 -7.198873363210e-04 
-1.280305576935e-03 3.404019922885e-03 0.0 
3.404019922885e-03 6.453749912264e-03 0.0 
0.0 0.0 -1.303413959896e-03 
-1.478986277362e-03 2.335815426712e-03 0.0 
2.335815426712e-03 4.599949913439e-03 0.0 
0.0 0.0 -8.572908036711e-04 
2.443469762099e-03 1.504212848516e-03 0.0 
1.504212848516e-03 -1.149517681368e-03 0.0 
0.0 0.0 -5.545508917418e-04 
-1.188451958700e-03 3.233888318984e-03 0.0 
3.233888318984e-03 5.957074391346e-03 0.0 
0.0 0.0 -1.304286792737e-03 
-1.700650587437e-03 2.084768146748e-03 0.0 
2.084768146748e-03 6.648225866754e-03 0.0 
0.0 0.0 -1.071440646998e-03 
-1.693986595116e-03 2.166002580174e-03 0.0 
2.166002580174e-03 6.318613390721e-03 0.0 
0.0 0.0 -1.034857077839e-03 
-1.735485188954e-03 1.934897306350e-03 0.0 
1.934897306350e-03 6.303939504401e-03 0.0 
0.0 0.0 -1.006057961993e-03 
-1.460757887231e-03 2.250687193900e-03 0.0 
2.250687193900e-03 8.134933915156e-03 0.0 
0.0 0.0 -1.305867370806e-03 
-1.749991994699e-03 9.588049142227e-04 0.0 
9.588049142227e-04 6.254499179949e-03 0.0 
0.0 0.0 -9.232948652302e-04 
-1.017747060708e-03 2.242049910193e-03 0.0 
2.242049910193e-03 5.131073367086e-03 0.0 
0.0 0.0 -1.306016332489e-03 
1.333415972402e-03 1.535387923333e-03 0.0 
1.535387923333e-03 1.136937242501e-04 0.0 
0.0 0.0 -6.201898699939e-04 
1.391903311676e-03 2.154011180947e-03 0.0 
2.154011180947e-03 1.151631227135e-05 0.0 
0.0 0.0 -6.014655531204e-04 
1.815463505361e-03 2.115453371163e-03 0.0 
2.115453371163e-03 -5.458577548768e-04 0.0 
0.0 0.0 -5.441167502075e-04 
-1.566214445404e-03 2.595986134179e-03 0.0 
2.595986134179e-03 6.282321888988e-03 0.0 
0.0 0.0 -1.092245366321e-03 
-9.205735445318e-04 4.808338680360e-04 0.0 
4.808338680360e-04 4.693547071086e-03 0.0 
0.0 0.0 -1.302677999426e-03 
-5.441937307524e-04 1.925192123183e-04 0.0 
1.925192123183e-04 4.093065944914e-03 0.0 
0.0 0.0 -1.248400714067e-03 
-5.696920249624e-04 -2.362618994637e-04 0.0 
-2.362618994637e-04 4.138723512730e-03 0.0 
0.0 0.0 -1.248426544684e-03 
-2.031241474020e-04 -7.328110519664e-05 0.0 
-7.328110519664e-05 3.471353297543e-03 0.0 
0.0 0.0 -1.189114855724e-03 
-9.524782035086e-04 -4.338690848369e-04 0.0 
-4.338690848369e-04 4.786583626593e-03 0.0 
0.0 0.0 -1.303398793257e-03 
-1.386313891139e-03 3.268387124946e-03 0.0 
3.268387124946e-03 7.156994535034e-03 0.0 
0.0 0.0 -1.306665994082e-03 
-1.359095365040e-03 3.359352166101e-03 0.0 
3.359352166101e-03 6.950855487648e-03 0.0 
0.0 0.0 -1.308500709484e-03 
1.902852668699e-03 -2.817268794694e-03 0.0 
-2.817268794694e-03 -4.032967653229e-04 0.0 
0.0 0.0 -6.426668157327e-04 
2.253407391376e-03 -2.370679650838e-03 0.0 
-2.370679650838e-03 -7.551607023087e-04 0.0 
0.0 0.0 -6.421057238860e-04 
2.152188401618e-03 -2.215932361183e-03 0.0 
-2.215932361183e-03 -7.648493634962e-04 0.0 
0.0 0.0 -5.945738734806e-04 
2.568498674833e-03 -1.800335482077e-03 0.0 
-1.800335482077e-03 -1.054151680982e-03 0.0 
0.0 0.0 -6.490058545078e-04 
2.589267859695e-03 -1.939320893250e-03 0.0 
-1.939320893250e-03 -1.034701238564e-03 0.0 
0.0 0.0 -6.662428376277e-04 
2.845251393852e-03 -1.182488936622e-03 0.0 
-1.182488936622e-03 -1.266140625123e-03 0.0 
0.0 0.0 -6.767617580267e-04 
2.841382791890e-03 -1.149550775431e-03 0.0 
-1.149550775431e-03 -1.284812658761e-03 0.0 
0.0 0.0 -6.671014856266e-04 
2.966198092938e-03 -3.987988764167e-04 0.0 
-3.987988764167e-04 -1.382086548665e-03 0.0 
0.0 0.0 -6.789049475453e-04 
-1.248651035025e-03 3.111213554981e-03 0.0 
3.111213554981e-03 5.700369437698e-03 0.0 
0.0 0.0 -1.138512926666e-03 
-1.048382069547e-03 -1.181351894960e-03 0.0 
-1.181351894960e-03 5.065835417687e-03 0.0 
0.0 0.0 -1.305779161548e-03 
4.789526992596e-05 -3.017317976477e-03 0.0 
-3.017317976477e-03 1.955725826502e-03 0.0 
0.0 0.0 -8.490207048509e-04 
4.255875009583e-04 -2.891330549410e-03 0.0 
-2.891330549410e-03 1.272940405536e-03 0.0 
0.0 0.0 -7.279405313547e-04 
7.016485745697e-04 -2.791230812805e-03 0.0 
-2.791230812805e-03 8.160956132734e-04 0.0 
0.0 0.0 -6.504617947899e-04 
-6.090620729236e-04 -2.591660670729e-03 0.0 
-2.591660670729e-03 2.996920806010e-03 0.0 
0.0 0.0 -1.013136008453e-03 
-4.847718747428e-04 -2.835802633982e-03 0.0 
-2.835802633982e-03 2.833935359093e-03 0.0 
0.0 0.0 -9.978061834832e-04 
-6.569091499038e-04 -2.799289725008e-03 0.0 
-2.799289725008e-03 3.183472627718e-03 0.0 
0.0 0.0 -1.035689958333e-03 
-7.207313198164e-04 -2.290250490495e-03 0.0 
-2.290250490495e-03 3.125345330795e-03 0.0 
0.0 0.0 -1.018322119518e-03 
-1.167877884792e-04 3.342094439232e-03 0.0 
3.342094439232e-03 2.837618912037e-03 0.0 
0.0 0.0 -9.882323209451e-04 
-1.091898030697e-03 -1.486850666943e-03 0.0 
-1.486850666943e-03 5.227315460995e-03 0.0 
0.0 0.0 -1.305003056577e-03 
1.225364256890e-03 -1.147615656396e-03 0.0 
-1.147615656396e-03 3.835923769498e-05 0.0 
0.0 0.0 -5.415957833937e-04 
-1.980397502487e-04 -3.005905727183e-03 0.0 
-3.005905727183e-03 2.314319347710e-03 0.0 
0.0 0.0 -9.069769703405e-04 
-1.707142071172e-03 7.635271864477e-04 0.0 
7.635271864477e-04 5.127553643252e-03 0.0 
0.0 0.0 -7.516786372745e-04 
-1.746908817975e-03 1.023609105839e-03 0.0 
1.023609105839e-03 5.442206395915e-03 0.0 
0.0 0.0 -8.094822736869e-04 
-1.772933357879e-03 1.184262300292e-03 0.0 
1.184262300292e-03 5.385289162601e-03 0.0 
0.0 0.0 -8.097394517040e-04 
-1.768350599280e-03 1.251073624371e-03 0.0 
1.251073624371e-03 5.764313646979e-03 0.0 
0.0 0.0 -8.733121467894e-04 
-1.727990335715e-03 8.210495884293e-04 0.0 
8.210495884293e-04 5.545557871090e-03 0.0 
0.0 0.0 -8.155917408702e-04 
-1.236784994223e-03 -1.923322638249e-03 0.0 
-1.923322638249e-03 4.168389852977e-03 0.0 
0.0 0.0 -1.057296815204e-03 
-1.427088068768e-03 -1.555275096953e-03 0.0 
-1.555275096953e-03 4.526520888732e-03 0.0 
0.0 0.0 -1.060211733922e-03 
-1.439309846138e-03 -1.245667555875e-03 0.0 
-1.245667555875e-03 4.501167157264e-03 0.0 
0.0 0.0 -1.053704044192e-03 
-1.586214255689e-03 -1.181249332069e-03 0.0 
-1.181249332069e-03 4.840144294026e-03 0.0 
0.0 0.0 -1.064485974018e-03 
-1.568580492753e-03 -8.807724015312e-04 0.0 
-8.807724015312e-04 4.760936091880e-03 0.0 
0.0 0.0 -1.058069710598e-03 
-1.437909822652e-03 -9.389915626686e-04 0.0 
-9.389915626686e-04 4.447516747931e-03 0.0 
0.0 0.0 -1.040756414728e-03 
-1.718221607956e-03 -8.006521433412e-04 0.0 
-8.006521433412e-04 5.111220650433e-03 0.0 
0.0 0.0 -1.068385751750e-03 
-1.669418493281e-03 -5.082865991109e-04 0.0 
-5.082865991109e-04 4.972394175886e-03 0.0 
0.0 0.0 -1.061946884890e-03 
-1.641647603362e-03 4.850166825857e-04 0.0 
4.850166825857e-04 5.202247326036e-03 0.0 
0.0 0.0 -7.509531518293e-04 
4.681733094658e-05 -5.816533838581e-04 0.0 
-5.816533838581e-04 9.454411860111e-05 0.0 
0.0 0.0 -6.058347837758e-05 
4.397814964137e-04 -2.157349287924e-03 0.0 
-2.157349287924e-03 4.211423268834e-04 0.0 
0.0 0.0 -3.689673528416e-04 
3.155046189534e-04 -2.027375098909e-03 0.0 
-2.027375098909e-03 7.742453397045e-04 0.0 
0.0 0.0 -4.670356965677e-04 
8.520514226530e-04 -2.864865723911e-03 0.0 
-2.864865723911e-03 5.535726049248e-04 0.0 
0.0 0.0 -6.024102975334e-04 
1.107532573262e-03 -2.675867926973e-03 0.0 
-2.675867926973e-03 -1.282410957994e-04 0.0 
0.0 0.0 -4.196963474839e-04 
1.414391538560e-03 -3.037597772400e-03 0.0 
-3.037597772400e-03 4.732794591138e-06 0.0 
0.0 0.0 -6.081961427792e-04 
1.798568626031e-03 -2.807561227883e-03 0.0 
-2.807561227883e-03 -5.963916264621e-04 0.0 
0.0 0.0 -5.152187141009e-04 
4.798167785024e-04 -1.487535536050e-03 0.0 
-1.487535536050e-03 -2.160815451901e-04 0.0 
0.0 0.0 -1.130293857052e-04 
1.221925142391e-04 -6.477447924089e-04 0.0 
-6.477447924089e-04 3.263707583015e-04 0.0 
0.0 0.0 -1.721226713898e-04 
1.600896537738e-04 -1.547795297662e-03 0.0 
-1.547795297662e-03 7.330764534416e-04 0.0 
0.0 0.0 -3.827854745209e-04 
1.103966075786e-04 -5.622367864216e-04 0.0 
-5.622367864216e-04 3.103757836854e-04 0.0 
0.0 0.0 -1.517934084529e-04 
1.053013884946e-04 -1.323791722729e-03 0.0 
-1.323791722729e-03 6.739471651028e-04 0.0 
0.0 0.0 -3.339636658274e-04 
3.430982234410e-04 -2.178085181117e-03 0.0 
-2.178085181117e-03 8.728126235658e-04 0.0 
0.0 0.0 -5.211046487172e-04 
-1.935346954464e-05 -1.828430160185e-03 0.0 
-1.828430160185e-03 1.220825087692e-03 0.0 
0.0 0.0 -5.149164077774e-04 
-1.561183168720e-03 -1.084347523387e-03 0.0 
-1.084347523387e-03 6.914233553436e-03 0.0 
0.0 0.0 -1.294874803588e-03 
-1.312931512090e-03 -3.406360319044e-04 0.0 
-3.406360319044e-04 4.053324067572e-03 0.0 
0.0 0.0 -9.806349194848e-04 
-1.232619789514e-03 -6.513903715833e-04 0.0 
-6.513903715833e-04 3.864959534980e-03 0.0 
0.0 0.0 -9.593735700280e-04 
-1.113036939270e-03 -6.004263507847e-04 0.0 
-6.004263507847e-04 3.522372894904e-03 0.0 
0.0 0.0 -8.977078860960e-04 
-1.116965318077e-03 -9.982255990531e-04 0.0 
-9.982255990531e-04 3.625196753216e-03 0.0 
0.0 0.0 -9.469176294500e-04 
-1.332244483269e-03 -6.509527714259e-04 0.0 
-6.509527714259e-04 4.142116544653e-03 0.0 
0.0 0.0 -1.006312639172e-03 
-1.080865388107e-03 -2.755367266220e-04 0.0 
-2.755367266220e-04 3.371661966390e-03 0.0 
0.0 0.0 -8.426599334973e-04 
-1.024104142748e-03 -5.302931597588e-04 0.0 
-5.302931597588e-04 3.225767958481e-03 0.0 
0.0 0.0 -8.124903673991e-04 
2.119334771273e-03 -2.250984394130e-04 0.0 
-2.250984394130e-04 -5.528535054759e-04 0.0 
0.0 0.0 -1.954030217304e-04 
1.237953986699e-03 -2.579545419294e-04 0.0 
-2.579545419294e-04 1.543244489082e-04 0.0 
0.0 0.0 -2.932658944931e-04 
1.411332111426e-03 -2.759944625030e-05 0.0 
-2.759944625030e-05 3.743876493098e-05 0.0 
0.0 0.0 -2.856593951198e-04 
3.600465984566e-04 -2.066499797985e-04 0.0 
-2.066499797985e-04 8.608267290585e-04 0.0 
0.0 0.0 -3.080440922735e-04 
3.653305054747e-04 -3.597145395908e-04 0.0 
-3.597145395908e-04 8.532226922973e-04 0.0 
0.0 0.0 -3.086108473030e-04 
1.169231949576e-03 -3.840093619394e-04 0.0 
-3.840093619394e-04 1.923594400946e-04 0.0 
0.0 0.0 -2.956379591255e-04 
1.031256041784e-03 -4.886047117192e-04 0.0 
-4.886047117192e-04 2.379226924498e-04 0.0 
0.0 0.0 -2.908089562448e-04 
1.816529586793e-03 -3.500151260859e-04 0.0 
-3.500151260859e-04 -4.323507490206e-04 0.0 
0.0 0.0 -1.958374107737e-04 
8.667756449627e-04 -6.409008792115e-04 0.0 
-6.409008792115e-04 2.928477416533e-04 0.0 
0.0 0.0 -2.796976375194e-04 
1.702636575089e-04 -6.542409432277e-04 0.0 
-6.542409432277e-04 9.095668014512e-04 0.0 
0.0 0.0 -3.106791268491e-04 
1.620102908946e-03 -4.500577592913e-04 0.0 
-4.500577592913e-04 -3.726586433767e-04 0.0 
0.0 0.0 -1.892091717599e-04 
-1.577535716708e-03 5.392394720966e-05 0.0 
5.392394720966e-05 7.299934411769e-03 0.0 
0.0 0.0 -1.060427308513e-03 
-1.573061893325e-03 1.544570403577e-04 0.0 
1.544570403577e-04 7.509050943264e-03 0.0 
0.0 0.0 -1.097082233180e-03 
-1.192953449252e-03 -1.864011720090e-03 0.0 
-1.864011720090e-03 5.605209134645e-03 0.0 
0.0 0.0 -1.300897016293e-03 
-1.579855819088e-03 2.979771540211e-04 0.0 
2.979771540211e-04 5.293250471981e-03 0.0 
0.0 0.0 -7.584009903415e-04 
3.744709763724e-04 -6.364946627065e-04 0.0 
-6.364946627065e-04 1.401291707387e-04 0.0 
0.0 0.0 -1.034024162715e-04 
-1.449845600680e-03 6.382887501364e-04 0.0 
6.382887501364e-04 8.609834207447e-03 0.0 
0.0 0.0 -1.292107529982e-03 
-1.448440923656e-03 1.123280561170e-03 0.0 
1.123280561170e-03 8.566022624529e-03 0.0 
0.0 0.0 -1.303172775453e-03 
-1.434083243244e-03 9.839421265548e-04 0.0 
9.839421265548e-04 8.603548743914e-03 0.0 
0.0 0.0 -1.304823151597e-03 
-1.916252571144e-03 -2.792629766010e-04 0.0 
-2.792629766010e-04 6.698528630947e-03 0.0 
0.0 0.0 -1.191058493115e-03 
-1.809292576517e-03 -5.447261667623e-04 0.0 
-5.447261667623e-04 6.787910699568e-03 0.0 
0.0 0.0 -1.224322658093e-03 
-1.441620689681e-03 3.697909072679e-04 0.0 
3.697909072679e-04 8.644537781625e-03 0.0 
0.0 0.0 -1.294569364341e-03 
-1.966831809583e-04 -2.229424319449e-03 0.0 
-2.229424319449e-03 1.821439975238e-03 0.0 
0.0 0.0 -6.963243404055e-04 
-1.542446802675e-03 2.619749311667e-03 0.0 
2.619749311667e-03 7.342230023592e-03 0.0 
0.0 0.0 -1.225740639889e-03 
-1.563624804990e-03 6.428436196565e-04 0.0 
6.428436196565e-04 7.948413338163e-03 0.0 
0.0 0.0 -1.178628832109e-03 
2.201456429693e-03 2.341714128316e-03 0.0 
2.341714128316e-03 -8.075777083502e-04 0.0 
0.0 0.0 -5.973765948613e-04 
4.529977292289e-04 -2.561738032130e-03 0.0 
-2.561738032130e-03 9.606788663604e-04 0.0 
0.0 0.0 -6.058613981097e-04 
-1.912750157524e-03 -1.012850712710e-03 0.0 
-1.012850712710e-03 5.577288917285e-03 0.0 
0.0 0.0 -1.066202199875e-03 
-1.088098720313e-03 -2.559527887766e-03 0.0 
-2.559527887766e-03 3.979421504262e-03 0.0 
0.0 0.0 -1.028256539386e-03 
-1.822459650115e-03 -1.367111847188e-03 0.0 
-1.367111847188e-03 6.015979930005e-03 0.0 
0.0 0.0 -1.130390451587e-03 
-1.582105737625e-03 -1.721031184097e-03 0.0 
-1.721031184097e-03 4.901863080820e-03 0.0 
0.0 0.0 -1.057243679378e-03 
-1.608185598285e-03 -1.915614561762e-03 0.0 
-1.915614561762e-03 5.282640092044e-03 0.0 
0.0 0.0 -1.076106726067e-03 
-6.144948469041e-04 -6.639795998970e-04 0.0 
-6.639795998970e-04 4.224201553889e-03 0.0 
0.0 0.0 -1.244129926109e-03 
-5.789303246957e-04 -4.457683817534e-04 0.0 
-4.457683817534e-04 1.808907778624e-03 0.0 
0.0 0.0 -3.862231446352e-04 
-1.669791442216e-03 5.742208476735e-04 0.0 
5.742208476735e-04 6.461493581352e-03 0.0 
0.0 0.0 -9.364826870394e-04 
-1.605975857622e-03 3.178960195767e-04 0.0 
3.178960195767e-04 6.348918363535e-03 0.0 
0.0 0.0 -9.130351872960e-04 
-1.629937813867e-03 6.093327650254e-04 0.0 
6.093327650254e-04 7.342083193620e-03 0.0 
0.0 0.0 -1.075939795031e-03 
-6.482537929307e-04 -1.608115231979e-03 0.0 
-1.608115231979e-03 2.605453652753e-03 0.0 
0.0 0.0 -8.387999399238e-04 
-1.303549504287e-03 -1.305113709369e-03 0.0 
-1.305113709369e-03 4.181114019267e-03 0.0 
0.0 0.0 -1.034705495726e-03 
-3.971862798800e-04 -1.135666412244e-03 0.0 
-1.135666412244e-03 1.660229728604e-03 0.0 
0.0 0.0 -5.350964027253e-04 
-1.079760018860e-03 3.194336986256e-03 0.0 
3.194336986256e-03 5.659153012299e-03 0.0 
0.0 0.0 -1.251461238623e-03 
-9.146057249504e-04 2.949568127909e-03 0.0 
2.949568127909e-03 3.641380823932e-03 0.0 
0.0 0.0 -9.215523041033e-04 
5.869540678773e-04 -2.956750850037e-03 0.0 
-2.956750850037e-03 1.034406097070e-03 0.0 
0.0 0.0 -6.948686421203e-04 
-4.983222250127e-04 -2.534366466985e-03 0.0 
-2.534366466985e-03 2.700875388843e-03 0.0 
0.0 0.0 -9.439513559275e-04 
-3.730260252318e-06 -2.536920884211e-03 0.0 
-2.536920884211e-03 1.637062224885e-03 0.0 
0.0 0.0 -6.999994134141e-04 
7.353476243331e-04 -2.725229135126e-03 0.0 
-2.725229135126e-03 6.766599510438e-04 0.0 
0.0 0.0 -6.051461037329e-04 
8.595376325540e-04 3.133881433802e-03 0.0 
3.133881433802e-03 8.059885165152e-04 0.0 
0.0 0.0 -7.137969210297e-04 
-4.203429083409e-05 -3.125630815959e-03 0.0 
-3.125630815959e-03 2.086027069296e-03 0.0 
0.0 0.0 -8.759969050552e-04 
-8.028650656472e-04 -2.530764803792e-03 0.0 
-2.530764803792e-03 3.746131268308e-03 0.0 
0.0 0.0 -1.026962916580e-03 
-1.603305794962e-03 5.584175701992e-04 0.0 
5.584175701992e-04 7.571764629350e-03 0.0 
0.0 0.0 -1.112552678551e-03 
9.600606219979e-04 -6.202368537327e-04 0.0 
-6.202368537327e-04 -7.835338607429e-05 0.0 
0.0 0.0 -1.528964725408e-04 
-6.507698434307e-04 -2.317277330880e-03 0.0 
-2.317277330880e-03 3.698342537328e-03 0.0 
0.0 0.0 -1.061672265243e-03 
-4.694800132291e-04 -3.046911020093e-03 0.0 
-3.046911020093e-03 2.876301697078e-03 0.0 
0.0 0.0 -9.848592602066e-04 
-1.735611780566e-03 9.275084004437e-04 0.0 
9.275084004437e-04 6.521846032081e-03 0.0 
0.0 0.0 -9.599091010803e-04 
5.517342203791e-04 7.070794377615e-04 0.0 
7.070794377615e-04 1.993016539601e-03 0.0 
0.0 0.0 -1.047968735850e-03 
1.251262826807e-03 -3.149427623220e-03 0.0 
-3.149427623220e-03 3.147933255355e-04 0.0 
0.0 0.0 -6.711669224326e-04 
-1.667035138543e-03 9.805979703494e-04 0.0 
9.805979703494e-04 7.401003517057e-03 0.0 
0.0 0.0 -1.098747615487e-03 
-1.603855099599e-03 1.782256839983e-03 0.0 
1.782256839983e-03 7.796685969376e-03 0.0 
0.0 0.0 -1.212453547082e-03 
-1.753933973529e-03 9.797964852189e-04 0.0 
9.797964852189e-04 5.978451539688e-03 0.0 
0.0 0.0 -8.875094802107e-04 
-2.613102227183e-04 -9.949083205869e-04 0.0 
-9.949083205869e-04 1.295268273910e-03 0.0 
0.0 0.0 -4.064699368096e-04 
-1.648709990180e-03 4.475238255647e-04 0.0 
4.475238255647e-04 6.036264205668e-03 0.0 
0.0 0.0 -8.692469099983e-04 
-7.203164161434e-04 -1.605185791603e-03 0.0 
-1.605185791603e-03 4.351922217429e-03 0.0 
0.0 0.0 -1.202705989510e-03 
-1.725470359675e-03 1.770892894084e-03 0.0 
1.770892894084e-03 6.914744693878e-03 0.0 
0.0 0.0 -1.078220320736e-03 
-7.065492097226e-04 -1.209971096051e-03 0.0 
-1.209971096051e-03 2.577314578998e-03 0.0 
0.0 0.0 -7.821142971127e-04 
2.080536798912e-03 -4.379488450435e-04 0.0 
-4.379488450435e-04 -1.014496050842e-03 0.0 
0.0 0.0 -4.568746063161e-04 
3.673244141799e-05 3.501892657137e-03 0.0 
3.501892657137e-03 2.162557991526e-03 0.0 
0.0 0.0 -9.249336466263e-04 
-1.472424715948e-03 1.473284294565e-03 0.0 
1.473284294565e-03 4.326140179341e-03 0.0 
0.0 0.0 -7.656857982150e-04 
-1.552562983666e-03 7.948996227407e-04 0.0 
7.948996227407e-04 8.084351316505e-03 0.0 
0.0 0.0 -1.206557591227e-03 
1.197294541337e-03 2.931696958795e-03 0.0 
2.931696958795e-03 3.430979437177e-04 0.0 
0.0 0.0 -6.601682078804e-04 
2.014691518502e-04 -1.535153806246e-04 0.0 
-1.535153806246e-04 2.672995857900e-03 0.0 
0.0 0.0 -1.120054252910e-03 
1.167692333485e-03 -4.546798185550e-04 0.0 
-4.546798185550e-04 3.225795309946e-04 0.0 
0.0 0.0 -6.386879419198e-04 
-8.300689796229e-04 -1.036862626203e-03 0.0 
-1.036862626203e-03 2.843866615447e-03 0.0 
0.0 0.0 -8.092532257643e-04 
-1.141410086144e-03 -2.132624368424e-03 0.0 
-2.132624368424e-03 4.763879094691e-03 0.0 
0.0 0.0 -1.118919378802e-03 
2.226178382358e-03 1.538806345707e-03 0.0 
1.538806345707e-03 -1.000001690931e-03 0.0 
0.0 0.0 -5.255042963258e-04 
-1.621773390463e-03 1.105341392258e-03 0.0 
1.105341392258e-03 7.770539650855e-03 0.0 
0.0 0.0 -1.164614768972e-03 
-7.726765049569e-04 3.339866695887e-03 0.0 
3.339866695887e-03 4.168840091130e-03 0.0 
0.0 0.0 -1.031533309622e-03 
2.985503110291e-03 3.031284491510e-04 0.0 
3.031284491510e-04 -1.381029514076e-03 0.0 
0.0 0.0 -6.876315412354e-04 
-1.686948173027e-03 1.421165008995e-03 0.0 
1.421165008995e-03 7.380565372555e-03 0.0 
0.0 0.0 -1.121170216299e-03 
1.011452247809e-03 -2.344893480733e-03 0.0 
-2.344893480733e-03 3.172812092828e-04 0.0 
0.0 0.0 -5.694571958966e-04 
3.273818053523e-04 1.142366955538e-03 0.0 
1.142366955538e-03 2.480645691333e-03 0.0 
0.0 0.0 -1.099429584637e-03 
-6.433175181119e-04 3.077878174349e-03 0.0 
3.077878174349e-03 3.183682229986e-03 0.0 
0.0 0.0 -9.539696108702e-04 
-6.121546724542e-04 3.601568394799e-03 0.0 
3.601568394799e-03 3.377991454684e-03 0.0 
0.0 0.0 -9.441813108648e-04 
-1.362049427310e-03 2.994726613582e-03 0.0 
2.994726613582e-03 5.058459491364e-03 0.0 
0.0 0.0 -9.824247929831e-04 
2.242703281786e-04 3.613717884088e-03 0.0 
3.613717884088e-03 1.934819861174e-03 0.0 
0.0 0.0 -8.887186042024e-04 
-1.881029170096e-03 -6.972944591045e-04 0.0 
-6.972944591045e-04 5.485539571048e-03 0.0 
0.0 0.0 -1.071820694527e-03 
-9.158007506096e-04 -2.235649248494e-03 0.0 
-2.235649248494e-03 4.248678740424e-03 0.0 
0.0 0.0 -1.090315851396e-03 
2.052665481287e-03 -1.103532234197e-03 0.0 
-1.103532234197e-03 -1.175556670273e-03 0.0 
0.0 0.0 -3.759037761492e-04 
8.914746630086e-04 2.890953836391e-03 0.0 
2.890953836391e-03 6.027493594732e-04 0.0 
0.0 0.0 -6.403817239208e-04 
-1.758945777430e-03 1.160675475390e-03 0.0 
1.160675475390e-03 6.378359981790e-03 0.0 
0.0 0.0 -9.536514739466e-04 
-6.639671926482e-04 3.003789204226e-03 0.0 
3.003789204226e-03 4.418789612070e-03 0.0 
0.0 0.0 -1.150585697120e-03 
-1.554201493046e-03 1.231598965710e-03 0.0 
1.231598965710e-03 8.128380504732e-03 0.0 
0.0 0.0 -1.229329624135e-03 
1.209824795641e-04 3.344721880567e-03 0.0 
3.344721880567e-03 1.935063257791e-03 0.0 
0.0 0.0 -8.811624588665e-04 
-1.286404788732e-03 -2.188571958382e-03 0.0 
-2.188571958382e-03 4.794074532598e-03 0.0 
0.0 0.0 -1.081576975854e-03 
-1.629163603093e-03 1.571087997701e-03 0.0 
1.571087997701e-03 7.723510960528e-03 0.0 
0.0 0.0 -1.185355684152e-03 
-3.559661832873e-04 -3.012647310201e-03 0.0 
-3.012647310201e-03 2.646809915025e-03 0.0 
0.0 0.0 -9.737892037141e-04 
-7.230165557545e-04 -1.426683456850e-04 0.0 
-1.426683456850e-04 2.147619513236e-03 0.0 
0.0 0.0 -4.572648740992e-04 
1.660426463556e-03 2.294712628775e-03 0.0 
2.294712628775e-03 -6.270108860030e-04 0.0 
0.0 0.0 -4.428923903797e-04 
3.083725212360e-03 4.086632437554e-04 0.0 
4.086632437554e-04 -1.411678867675e-03 0.0 
0.0 0.0 -7.165912905795e-04 
1.695879907660e-03 2.562718717107e-03 0.0 
2.562718717107e-03 -3.302884133479e-04 0.0 
0.0 0.0 -5.852534975623e-04 
-5.576706971117e-04 -2.954961257328e-03 0.0 
-2.954961257328e-03 3.029681223364e-03 0.0 
0.0 0.0 -1.013304783341e-03 
-1.555713883054e-03 2.364705081961e-03 0.0 
2.364705081961e-03 7.663070105557e-03 0.0 
0.0 0.0 -1.242275372262e-03 
-1.459222448555e-03 -1.977989758638e-03 0.0 
-1.977989758638e-03 5.249777589170e-03 0.0 
0.0 0.0 -1.110186454522e-03 
5.809827755289e-05 -1.888547144195e-03 0.0 
-1.888547144195e-03 2.563693945277e-03 0.0 
0.0 0.0 -1.040857148505e-03 
2.690335350215e-04 1.352178233309e-03 0.0 
1.352178233309e-03 4.116002820235e-04 0.0 
0.0 0.0 -2.917002073050e-04 
-1.420828704055e-03 1.823492309729e-03 0.0 
1.823492309729e-03 4.313202363895e-03 0.0 
0.0 0.0 -8.070275419711e-04 
-1.590933393314e-03 -1.754583215491e-03 0.0 
-1.754583215491e-03 5.664446844218e-03 0.0 
0.0 0.0 -1.139074001596e-03 
1.644076570115e-03 -1.085629871930e-03 0.0 
-1.085629871930e-03 -5.732577340253e-04 0.0 
0.0 0.0 -4.589223583244e-04 
2.052489302078e-04 6.912241943710e-04 0.0 
6.912241943710e-04 2.710009798059e-03 0.0 
0.0 0.0 -1.126725356868e-03 
-1.535445043143e-03 -5.867914393128e-04 0.0 
-5.867914393128e-04 4.647107690583e-03 0.0 
0.0 0.0 -1.044109258258e-03 
-9.859779036616e-04 3.056684200562e-03 0.0 
3.056684200562e-03 5.375983574251e-03 0.0 
0.0 0.0 -1.249754184115e-03 
-6.610476002560e-04 2.303624772309e-03 0.0 
2.303624772309e-03 2.903406990762e-03 0.0 
0.0 0.0 -9.028501661438e-04 
-1.686501264746e-03 -1.526608176621e-03 0.0 
-1.526608176621e-03 6.045524770636e-03 0.0 
0.0 0.0 -1.168790087466e-03 
3.742641179637e-04 -1.152556169589e-03 0.0 
-1.152556169589e-03 2.146769681943e-03 0.0 
0.0 0.0 -1.036257385577e-03 
2.158291477526e-03 2.743008596258e-03 0.0 
2.743008596258e-03 -5.432811980168e-04 0.0 
0.0 0.0 -6.921472626470e-04 
-1.448920855555e-03 5.485150606776e-05 0.0 
5.485150606776e-05 5.277752212934e-03 0.0 
0.0 0.0 -7.498068730476e-04 
-1.593954056461e-03 -1.469135234964e-03 0.0 
-1.469135234964e-03 6.450266463409e-03 0.0 
0.0 0.0 -1.243807156011e-03 
5.209000563453e-05 -9.592901321100e-04 0.0 
-9.592901321100e-04 2.854437082012e-03 0.0 
0.0 0.0 -1.114542488500e-03 
3.461661553032e-05 3.551384216602e-03 0.0 
3.551384216602e-03 2.362376837699e-03 0.0 
0.0 0.0 -9.321888224300e-04 
1.558216832635e-03 -1.548696012587e-03 0.0 
-1.548696012587e-03 -4.269730613691e-04 0.0 
0.0 0.0 -4.848187591140e-04 
-1.159109189925e-03 1.672386638450e-03 0.0 
1.672386638450e-03 3.686907530899e-03 0.0 
0.0 0.0 -7.928834912169e-04 
-8.622534806161e-04 -2.703450422620e-03 0.0 
-2.703450422620e-03 3.567462389003e-03 0.0 
0.0 0.0 -1.042489463686e-03 
-8.810352068874e-04 3.464697463085e-03 0.0 
3.464697463085e-03 3.935493660585e-03 0.0 
0.0 0.0 -9.528746205426e-04 
-1.455694182561e-03 2.079571376027e-03 0.0 
2.079571376027e-03 8.238502292373e-03 0.0 
0.0 0.0 -1.306889097489e-03 
-4.021262128289e-05 -5.236218254538e-04 0.0 
-5.236218254538e-04 3.069008893941e-03 0.0 
0.0 0.0 -1.148622835147e-03 
-1.725562695568e-03 2.028005553636e-03 0.0 
2.028005553636e-03 5.979413828880e-03 0.0 
0.0 0.0 -9.696660045843e-04 
-9.371362615476e-04 -2.513813645279e-03 0.0 
-2.513813645279e-03 3.674904326905e-03 0.0 
0.0 0.0 -1.055577742195e-03 
6.828857261752e-04 2.319846812613e-03 0.0 
2.319846812613e-03 1.471382999158e-03 0.0 
0.0 0.0 -9.020111454724e-04 
3.069126660921e-04 -4.845997231989e-04 0.0 
-4.845997231989e-04 8.592191971431e-04 0.0 
0.0 0.0 -3.093966206321e-04 
-1.066278201586e-03 2.069319232208e-03 0.0 
2.069319232208e-03 3.624795843977e-03 0.0 
0.0 0.0 -8.430048313659e-04 
-1.188974335056e-03 -2.184404117123e-03 0.0 
-2.184404117123e-03 4.121734009211e-03 0.0 
0.0 0.0 -1.055179846540e-03 
3.051680346467e-03 -4.197736543643e-04 0.0 
-4.197736543643e-04 -1.412706451387e-03 0.0 
0.0 0.0 -7.024173836058e-04 
1.117277129867e-03 -2.070559341147e-03 0.0 
-2.070559341147e-03 1.215006496444e-04 0.0 
0.0 0.0 -5.309047626477e-04 
-5.077233341081e-04 1.801300421280e-03 0.0 
1.801300421280e-03 4.164826850224e-03 0.0 
0.0 0.0 -1.234277959947e-03 
-1.405357231203e-03 -1.830815427985e-03 0.0 
-1.830815427985e-03 4.525691195773e-03 0.0 
0.0 0.0 -1.058821591963e-03 
2.981871888689e-03 -4.320249597075e-04 0.0 
-4.320249597075e-04 -1.387251596233e-03 0.0 
0.0 0.0 -6.834086967669e-04 
-1.589234832291e-03 -1.465860908847e-03 0.0 
-1.465860908847e-03 4.884351969089e-03 0.0 
0.0 0.0 -1.063846254002e-03 
-8.219124233661e-04 1.884899957964e-03 0.0 
1.884899957964e-03 3.049244611375e-03 0.0 
0.0 0.0 -8.384157971481e-04 
-1.674104129450e-03 2.267631102477e-03 0.0 
2.267631102477e-03 5.977690423385e-03 0.0 
0.0 0.0 -9.983267706061e-04 
-1.746776969671e-03 -1.092710579845e-03 0.0 
-1.092710579845e-03 5.203384673320e-03 0.0 
0.0 0.0 -1.068006041337e-03 
-9.280916248974e-04 3.352222764373e-03 0.0 
3.352222764373e-03 4.310032082870e-03 0.0 
0.0 0.0 -1.003151257071e-03 
2.463563334715e-05 -8.807126364979e-04 0.0 
-8.807126364979e-04 9.974910621111e-04 0.0 
0.0 0.0 -3.190932086048e-04 
1.865633619246e-04 3.322818699054e-03 0.0 
3.322818699054e-03 2.196662702388e-03 0.0 
0.0 0.0 -9.369607680273e-04 
-1.969274810505e-03 -5.697349439415e-04 0.0 
-5.697349439415e-04 6.492408088354e-03 0.0 
0.0 0.0 -1.155419075730e-03 
4.460939102830e-04 -2.841642607167e-03 0.0 
-2.841642607167e-03 1.136269056788e-03 0.0 
0.0 0.0 -6.781555573162e-04 
7.887889646567e-04 -2.571324212251e-03 0.0 
-2.571324212251e-03 6.415432993246e-04 0.0 
0.0 0.0 -6.129995417062e-04 
-1.637827184878e-03 2.388605245637e-03 0.0 
2.388605245637e-03 6.314063370822e-03 0.0 
0.0 0.0 -1.063653581392e-03 
-4.992814516217e-04 1.972643240252e-03 0.0 
1.972643240252e-03 2.384387457051e-03 0.0 
0.0 0.0 -8.079025737556e-04 
5.124750958276e-04 -2.569400884271e-03 0.0 
-2.569400884271e-03 1.193670865080e-03 0.0 
0.0 0.0 -7.312054118175e-04 
-9.641562230990e-04 3.242704907183e-03 0.0 
3.242704907183e-03 4.707911026065e-03 0.0 
0.0 0.0 -1.067288052377e-03 
3.154663455590e-04 2.993279893955e-03 0.0 
2.993279893955e-03 2.102244501383e-03 0.0 
0.0 0.0 -9.588566822092e-04 
1.346446614896e-03 2.610050225058e-03 0.0 
2.610050225058e-03 1.067961116776e-04 0.0 
0.0 0.0 -6.228183113887e-04 
2.887356895726e-04 -2.230406662033e-03 0.0 
-2.230406662033e-03 1.886206335840e-03 0.0 
0.0 0.0 -9.159128653295e-04 
-3.070381522363e-04 2.361479177514e-03 0.0 
2.361479177514e-03 2.144874392585e-03 0.0 
0.0 0.0 -7.876441030066e-04 
-4.603323552836e-06 -2.296978514711e-03 0.0 
-2.296978514711e-03 1.485132063043e-03 0.0 
0.0 0.0 -6.345123169243e-04 
-1.725456702673e-05 -2.050421713285e-03 0.0 
-2.050421713285e-03 1.350463780520e-03 0.0 
0.0 0.0 -5.713753772113e-04 
2.694499012180e-03 -1.108798334530e-03 0.0 
-1.108798334530e-03 -1.215742971782e-03 0.0 
0.0 0.0 -6.337525887422e-04 
-1.125553493016e-03 3.166078986994e-03 0.0 
3.166078986994e-03 5.226172467772e-03 0.0 
0.0 0.0 -1.103081964739e-03 
-3.505794759798e-04 -2.805020388018e-04 0.0 
-2.805020388018e-04 1.476517852756e-03 0.0 
0.0 0.0 -3.018576685516e-04 
-1.520679869667e-03 2.700420786858e-03 0.0 
2.700420786858e-03 5.894437551981e-03 0.0 
0.0 0.0 -1.054898413167e-03 
1.434637815246e-04 -2.013001771722e-03 0.0 
-2.013001771722e-03 1.061630091320e-03 0.0 
0.0 0.0 -5.164688026476e-04 
2.470206604480e-03 -1.725455129164e-03 0.0 
-1.725455129164e-03 -1.033453851675e-03 0.0 
0.0 0.0 -6.157511797736e-04 
1.550603106911e-04 2.343951066894e-03 0.0 
2.343951066894e-03 2.741523029304e-03 0.0 
0.0 0.0 -1.077081564483e-03 
-1.567382262079e-03 5.775225248615e-06 0.0 
5.775225248615e-06 6.502023960398e-03 0.0 
0.0 0.0 -9.315431351609e-04 
1.994050342792e-03 -2.125051609346e-03 0.0 
-2.125051609346e-03 -7.055681148420e-04 0.0 
0.0 0.0 -5.522066691216e-04 
-8.473530892992e-04 -1.857205257249e-04 0.0 
-1.857205257249e-04 2.593065685554e-03 0.0 
0.0 0.0 -6.119633700263e-04 
1.664939330105e-03 -2.423764940749e-03 0.0 
-2.423764940749e-03 -3.798301328600e-04 0.0 
0.0 0.0 -5.507610845334e-04 
9.691114688175e-04 2.564299471471e-03 0.0 
2.564299471471e-03 7.430038862534e-04 0.0 
0.0 0.0 -7.337637236018e-04 
1.166584806499e-03 -2.448706473937e-03 0.0 
-2.448706473937e-03 1.644568183363e-04 0.0 
0.0 0.0 -5.704464106438e-04 
9.207629563978e-04 -2.562817695187e-03 0.0 
-2.562817695187e-03 4.684807333005e-04 0.0 
0.0 0.0 -5.953901527278e-04 
-1.509599202053e-03 7.115315669588e-04 0.0 
7.115315669588e-04 8.319494978420e-03 0.0 
0.0 0.0 -1.242975171717e-03 
6.644834369663e-04 -2.816687817472e-03 0.0 
-2.816687817472e-03 8.638079814567e-04 0.0 
0.0 0.0 -6.549820364670e-04 
-1.417913046649e-03 2.000204615730e-04 0.0 
2.000204615730e-04 8.717353493565e-03 0.0 
0.0 0.0 -1.305370344976e-03 
-1.585981038622e-03 -5.390524588140e-04 0.0 
-5.390524588140e-04 7.088561262435e-03 0.0 
0.0 0.0 -1.298405437673e-03 
-1.489518803289e-03 -4.573950556845e-06 0.0 
-4.573950556845e-06 5.635615486584e-03 0.0 
0.0 0.0 -7.997855503562e-04 
-2.605550091072e-04 1.921888767382e-03 0.0 
1.921888767382e-03 1.771030104647e-03 0.0 
0.0 0.0 -6.473464695169e-04 
0.0 0.0 0.0 
0.0 0.0 0.0 
0.0 0.0 0.0 
5.300339532942e-05 2.296518653744e-03 0.0 
2.296518653744e-03 1.380741919417e-03 0.0 
0.0 0.0 -6.144622777483e-04 
4.589079226346e-04 -2.669236835745e-03 0.0 
-2.669236835745e-03 1.017039993413e-03 0.0 
0.0 0.0 -6.325491068774e-04 
-1.344360499523e-03 2.998007223071e-03 0.0 
2.998007223071e-03 5.396263019476e-03 0.0 
0.0 0.0 -1.045752072333e-03 
-1.493847809746e-03 7.392246810856e-05 0.0 
7.392246810856e-05 5.643210332918e-03 0.0 
0.0 0.0 -8.029817139903e-04 
2.189770723719e-04 -2.551176870332e-03 0.0 
-2.551176870332e-03 1.274969331798e-03 0.0 
0.0 0.0 -6.402627446442e-04 
-1.419524211431e-03 3.075318657805e-03 0.0 
3.075318657805e-03 6.922500903080e-03 0.0 
0.0 0.0 -1.250093291501e-03 
-1.105460999237e-03 2.840056670224e-03 0.0 
2.840056670224e-03 5.499135179184e-03 0.0 
0.0 0.0 -1.306737725957e-03 
-1.583352928322e-03 1.388979039351e-04 0.0 
1.388979039351e-04 7.093261842357e-03 0.0 
0.0 0.0 -1.028769680629e-03 
3.110761131384e-05 3.070777297068e-04 0.0 
3.070777297068e-04 2.990066827201e-03 0.0 
0.0 0.0 -1.152835590205e-03 
4.038330844269e-04 2.562565156884e-03 0.0 
2.562565156884e-03 2.099896012322e-03 0.0 
0.0 0.0 -9.954397186036e-04 
-1.532870607185e-03 8.627533493903e-05 0.0 
8.627533493903e-05 8.032571934377e-03 0.0 
0.0 0.0 -1.185717314024e-03 
-1.493423908883e-03 8.976519337403e-05 0.0 
8.976519337403e-05 5.235057922781e-03 0.0 
0.0 0.0 -7.451086181774e-04 
8.476467916489e-05 -1.199388947894e-03 0.0 
-1.199388947894e-03 6.043361303539e-04 0.0 
0.0 0.0 -2.642930028689e-04 
-1.995343437528e-03 -3.338550389889e-04 0.0 
-3.338550389889e-04 5.735331553200e-03 0.0 
0.0 0.0 -1.072300834510e-03 
-4.728391316331e-06 1.911025163986e-03 0.0 
1.911025163986e-03 1.236688893795e-03 0.0 
0.0 0.0 -5.279830724910e-04 
3.550394143264e-04 2.259430213976e-03 0.0 
2.259430213976e-03 9.034181507030e-04 0.0 
0.0 0.0 -5.393389564412e-04 
6.085214745978e-04 2.284877078157e-03 0.0 
2.284877078157e-03 6.261355702317e-04 0.0 
0.0 0.0 -5.291387334984e-04 
-9.396181000691e-04 -7.967451354887e-04 0.0 
-7.967451354887e-04 3.058992386408e-03 0.0 
0.0 0.0 -8.121166773320e-04 
5.494964702923e-04 -2.584085792452e-03 0.0 
-2.584085792452e-03 8.433772001581e-04 0.0 
0.0 0.0 -5.969458587645e-04 
2.401282782028e-04 2.005638511475e-03 0.0 
2.005638511475e-03 9.040366262875e-04 0.0 
0.0 0.0 -4.903563876387e-04 
-5.261734606055e-04 6.022279658391e-04 0.0 
6.022279658391e-04 4.033101031005e-03 0.0 
0.0 0.0 -1.245112051941e-03 
-1.636730137181e-03 4.290067563108e-04 0.0 
4.290067563108e-04 5.580276288558e-03 0.0 
0.0 0.0 -8.050116406322e-04 
-1.121915910908e-04 2.515763012409e-03 0.0 
2.515763012409e-03 3.291467473346e-03 0.0 
0.0 0.0 -1.110409235593e-03 
3.679053624996e-04 1.946389288486e-03 0.0 
1.946389288486e-03 7.047317248665e-04 0.0 
0.0 0.0 -4.597016088712e-04 
-1.554707372438e-03 1.697440109364e-03 0.0 
1.697440109364e-03 8.056864122716e-03 0.0 
0.0 0.0 -1.247366155457e-03 
-7.215899275846e-04 2.377475014672e-03 0.0 
2.377475014672e-03 4.622150950018e-03 0.0 
0.0 0.0 -1.246608778627e-03 
-1.331856878630e-03 -1.983836111103e-03 0.0 
-1.983836111103e-03 6.114923973583e-03 0.0 
0.0 0.0 -1.306249356034e-03 
-3.798399904625e-04 2.398884536475e-03 0.0 
2.398884536475e-03 3.901175645834e-03 0.0 
0.0 0.0 -1.176371721005e-03 
7.581050863864e-04 2.227306199006e-03 0.0 
2.227306199006e-03 3.618205949459e-04 0.0 
0.0 0.0 -4.799681491424e-04 
-1.753134334940e-03 1.030981935736e-03 0.0 
1.030981935736e-03 5.768775069705e-03 0.0 
0.0 0.0 -8.603500797662e-04 
-1.168709675212e-03 3.249274189801e-03 0.0 
3.249274189801e-03 5.927681969270e-03 0.0 
0.0 0.0 -1.250827372426e-03 
-1.580586288305e-03 2.460651619642e-04 0.0 
2.460651619642e-04 7.417010690682e-03 0.0 
0.0 0.0 -1.080253149739e-03 
-1.410996846028e-03 -1.766992384939e-03 0.0 
-1.766992384939e-03 6.482040820837e-03 0.0 
0.0 0.0 -1.309985050881e-03 
-1.682012249170e-03 6.654682702296e-04 0.0 
6.654682702296e-04 5.457303072723e-03 0.0 
0.0 0.0 -7.979019438933e-04 
-1.482092413582e-03 4.825553233706e-04 0.0 
4.825553233706e-04 8.388620482460e-03 0.0 
0.0 0.0 -1.252774941638e-03 
2.053124764649e-03 -2.150351803165e-03 0.0 
-2.150351803165e-03 -1.002699963371e-03 0.0 
0.0 0.0 -4.501820576904e-04 
-1.472782165905e-03 2.611384925530e-04 0.0 
2.611384925530e-04 8.403666031078e-03 0.0 
0.0 0.0 -1.254166199180e-03 
-1.340636802885e-03 3.017781757784e-03 0.0 
3.017781757784e-03 5.759872352408e-03 0.0 
0.0 0.0 -1.110316242656e-03 
-1.575034003637e-03 2.533992497604e-04 0.0 
2.533992497604e-04 6.175537215493e-03 0.0 
0.0 0.0 -8.840149073763e-04 
-1.771751416511e-03 1.426780246192e-03 0.0 
1.426780246192e-03 5.587137473215e-03 0.0 
0.0 0.0 -8.570326279659e-04 
-1.684907386527e-03 -8.004631079360e-04 0.0 
-8.004631079360e-04 6.831074281255e-03 0.0 
0.0 0.0 -1.256337174517e-03 
-1.508670120193e-03 2.760870843371e-03 0.0 
2.760870843371e-03 7.327066348949e-03 0.0 
0.0 0.0 -1.249505442739e-03 
6.883790236625e-04 2.060671389361e-03 0.0 
2.060671389361e-03 2.237385116845e-05 0.0 
0.0 0.0 -3.046083749275e-04 
-1.585370214117e-03 2.593308700915e-04 0.0 
2.593308700915e-04 7.073771685170e-03 0.0 
0.0 0.0 -1.024357608964e-03 
-1.028891659838e-03 -1.361434891480e-03 0.0 
-1.361434891480e-03 3.507211596145e-03 0.0 
0.0 0.0 -9.709766588611e-04 
2.096603589134e-04 -4.522541456736e-04 0.0 
-4.522541456736e-04 -1.685826935135e-04 0.0 
0.0 0.0 -1.760471374282e-05 
-1.108111334259e-03 -1.824971532717e-03 0.0 
-1.824971532717e-03 5.280702358381e-03 0.0 
0.0 0.0 -1.249521112489e-03 
-1.346888651128e-03 3.065747420634e-03 0.0 
3.065747420634e-03 6.117675129117e-03 0.0 
0.0 0.0 -1.172189067419e-03 
-1.641216111045e-03 -1.228485444809e-03 0.0 
-1.228485444809e-03 6.632464522082e-03 0.0 
0.0 0.0 -1.251863004148e-03 
4.253395517685e-04 -1.330965256832e-05 0.0 
-1.330965256832e-05 8.162616228349e-04 0.0 
0.0 0.0 -3.073113677837e-04 
2.659967583917e-04 -9.636004765028e-04 0.0 
-9.636004765028e-04 4.197455964224e-04 0.0 
0.0 0.0 -2.058019112872e-04 
-9.341108583894e-04 -1.570273886574e-03 0.0 
-1.570273886574e-03 4.919000747850e-03 0.0 
0.0 0.0 -1.258522865334e-03 
-1.325021295734e-03 3.260852513925e-03 0.0 
3.260852513925e-03 6.529415890564e-03 0.0 
0.0 0.0 -1.257106814994e-03 
2.069780564081e-03 -2.887481408844e-03 0.0 
-2.887481408844e-03 -5.620999085580e-04 0.0 
0.0 0.0 -6.461488523668e-04 
-1.444494309143e-03 1.513018136519e-03 0.0 
1.513018136519e-03 8.529509024149e-03 0.0 
0.0 0.0 -1.314710167832e-03 
1.606042082751e-04 7.400733517384e-04 0.0 
7.400733517384e-04 -6.805152101560e-05 0.0 
0.0 0.0 -3.966543739692e-05 
-1.527500430813e-03 2.291957424775e-04 0.0 
2.291957424775e-04 5.159544215479e-03 0.0 
0.0 0.0 -7.389643750272e-04 
7.522855132365e-04 -8.129255998406e-04 0.0 
-8.129255998406e-04 2.933811725579e-04 0.0 
0.0 0.0 -2.584822669346e-04 
-1.451285018422e-03 -1.619253938531e-03 0.0 
-1.619253938531e-03 6.712702821616e-03 0.0 
0.0 0.0 -1.308531455474e-03 
-1.521082113150e-03 1.160385665173e-03 0.0 
1.160385665173e-03 8.292813149207e-03 0.0 
0.0 0.0 -1.254845750201e-03 
-1.245470008181e-03 -9.103756336826e-04 0.0 
-9.103756336826e-04 3.950697369425e-03 0.0 
0.0 0.0 -9.904446095582e-04 
-1.723966937065e-03 1.170670843267e-03 0.0 
1.170670843267e-03 5.001993590100e-03 0.0 
0.0 0.0 -7.582784842146e-04 
-9.206532372436e-04 -4.495869396707e-04 0.0 
-4.495869396707e-04 2.876332750162e-03 0.0 
0.0 0.0 -7.084058105195e-04 
-8.029287135569e-04 3.022070318119e-03 0.0 
3.022070318119e-03 4.846485263972e-03 0.0 
0.0 0.0 -1.203498912175e-03 
1.578052768763e-04 -1.733898146901e-03 0.0 
-1.733898146901e-03 8.518457615679e-04 0.0 
0.0 0.0 -4.327075879046e-04 
-1.502885003929e-03 8.385321329672e-04 0.0 
8.385321329672e-04 8.406515819115e-03 0.0 
0.0 0.0 -1.260296891839e-03 
-7.798982579111e-04 -1.032636455785e-03 0.0 
-1.032636455785e-03 4.559837266151e-03 0.0 
0.0 0.0 -1.261416966621e-03 
-1.541080814648e-03 2.248481841172e-03 0.0 
2.248481841172e-03 7.871819285488e-03 0.0 
0.0 0.0 -1.260618436842e-03 
-1.035661708301e-03 1.434119926330e-03 0.0 
1.434119926330e-03 4.999968609048e-03 0.0 
0.0 0.0 -1.317725628150e-03 
0.0 0.0 0.0 
0.0 0.0 0.0 
0.0 0.0 0.0 
-8.775793509473e-04 2.643781737553e-03 0.0 
2.643781737553e-03 4.999185491909e-03 0.0 
0.0 0.0 -1.263090216482e-03 
-3.359262024726e-04 -4.205327465571e-04 0.0 
-4.205327465571e-04 3.690481845722e-03 0.0 
0.0 0.0 -1.202239909569e-03 
-1.469921091904e-03 1.397057797389e-04 0.0 
1.397057797389e-04 5.245389338611e-03 0.0 
0.0 0.0 -7.439744481034e-04 
-1.522980262771e-03 2.574585562032e-03 0.0 
2.574585562032e-03 7.567445771786e-03 0.0 
0.0 0.0 -1.252574368527e-03 
-1.039501310576e-03 -8.329301664350e-04 0.0 
-8.329301664350e-04 3.357758752277e-03 0.0 
0.0 0.0 -8.789764298429e-04 
-3.276933337434e-04 -7.307720459036e-04 0.0 
-7.307720459036e-04 1.390604940151e-03 0.0 
0.0 0.0 -3.555153606766e-04 
-1.400496614823e-03 7.920880417302e-05 0.0 
7.920880417302e-05 8.744396333073e-03 0.0 
0.0 0.0 -1.313490227100e-03 
2.520733888645e-03 -3.426864807379e-06 0.0 
-3.426864807379e-06 -8.047604136628e-04 0.0 
0.0 0.0 -1.695477456824e-04 
-1.436285120339e-03 -8.822331672806e-06 0.0 
-8.822331672806e-06 5.224558560537e-03 0.0 
0.0 0.0 -7.402411036050e-04 
-1.541544735514e-03 -2.080816256948e-04 0.0 
-2.080816256948e-04 7.171789726740e-03 0.0 
0.0 0.0 -1.313492844077e-03 
-2.510837729256e-04 -3.936310680644e-04 0.0 
-3.936310680644e-04 1.321735893226e-03 0.0 
0.0 0.0 -2.948614013126e-04 
-1.524937947447e-03 4.475494657923e-05 0.0 
4.475494657923e-05 5.953624986698e-03 0.0 
0.0 0.0 -8.489638187885e-04 
-1.372178966628e-03 3.183705797245e-03 0.0 
3.183705797245e-03 6.771642373061e-03 0.0 
0.0 0.0 -1.260211869575e-03 
-1.590513358799e-03 -2.597680171264e-04 0.0 
-2.597680171264e-04 4.769333481416e-03 0.0 
0.0 0.0 -1.052454572086e-03 
-1.550492385742e-03 1.189328986090e-04 0.0 
1.189328986090e-04 7.800235903878e-03 0.0 
0.0 0.0 -1.148445367820e-03 
9.452528930191e-04 -2.939486558072e-03 0.0 
-2.939486558072e-03 5.700922820308e-04 0.0 
0.0 0.0 -6.494336464500e-04 
0.0 0.0 0.0 
0.0 0.0 0.0 
0.0 0.0 0.0 
-1.577256117848e-03 6.886097405366e-05 0.0 
6.886097405366e-05 6.718118974100e-03 0.0 
0.0 0.0 -9.668795991591e-04 
-7.257532866393e-04 2.108017519290e-03 0.0 
2.108017519290e-03 4.551210106726e-03 0.0 
0.0 0.0 -1.258714341260e-03 
-1.539880904137e-03 1.881264573762e-03 0.0 
1.881264573762e-03 8.091722768049e-03 0.0 
0.0 0.0 -1.263997700767e-03 
-1.584367033562e-03 2.539188043181e-04 0.0 
2.539188043181e-04 6.423614681133e-03 0.0 
0.0 0.0 -9.199601189493e-04 
1.149887053528e-03 2.260371255349e-03 0.0 
2.260371255349e-03 -3.607458547944e-04 0.0 
0.0 0.0 -3.382033708860e-04 
-1.352077778871e-03 3.162162671945e-03 0.0 
3.162162671945e-03 6.429958482634e-03 0.0 
0.0 0.0 -1.221038716794e-03 
-1.328731786449e-03 -9.755978743980e-04 0.0 
-9.755978743980e-04 4.177204897338e-03 0.0 
0.0 0.0 -1.017329335709e-03 
-1.052088232510e-03 3.182318808270e-03 0.0 
3.182318808270e-03 5.489904176315e-03 0.0 
0.0 0.0 -1.208939113964e-03 
-2.749523466846e-04 3.333334303576e-04 0.0 
3.333334303576e-04 3.590145673266e-03 0.0 
0.0 0.0 -1.203806565432e-03 
-1.876515159929e-05 8.168731772108e-04 0.0 
8.168731772108e-04 1.876515159929e-05 0.0 
0.0 0.0 0.0 
-1.710135402111e-03 -2.140528936374e-04 0.0 
-2.140528936374e-04 5.062773823412e-03 0.0 
0.0 0.0 -1.067873332563e-03 
6.585939474405e-04 -9.144432273007e-04 0.0 
-9.144432273007e-04 2.765533765623e-04 0.0 
0.0 0.0 -2.242399343496e-04 
-1.352905233575e-03 -1.915199808028e-03 0.0 
-1.915199808028e-03 5.962667998270e-03 0.0 
0.0 0.0 -1.263714160583e-03 
-1.428737268169e-03 -6.941057894653e-04 0.0 
-6.941057894653e-04 4.390777467220e-03 0.0 
0.0 0.0 -1.028704531826e-03 
-4.806118391158e-05 1.564122572506e-03 0.0 
1.564122572506e-03 1.091022406270e-03 0.0 
0.0 0.0 -4.469833810107e-04 
-5.764561721916e-04 -2.047753743147e-05 0.0 
-2.047753743147e-05 1.630387565384e-03 0.0 
0.0 0.0 -2.766268288173e-04 
-2.519667786206e-04 1.472505919625e-03 0.0 
1.472505919625e-03 1.474237417008e-03 0.0 
0.0 0.0 -5.238302735944e-04 
-7.605031964952e-04 -2.368019319099e-05 0.0 
-2.368019319099e-05 2.235923404876e-03 0.0 
0.0 0.0 -3.266666666667e-04 
-4.663272730380e-04 1.445034291992e-03 0.0 
1.445034291992e-03 2.011357929561e-03 0.0 
0.0 0.0 -6.621559956526e-04 
-8.902768957816e-04 -2.344110242198e-05 0.0 
-2.344110242198e-05 2.651675222682e-03 0.0 
0.0 0.0 -3.933333333333e-04 
-7.205553837693e-04 1.411323130837e-03 0.0 
1.411323130837e-03 2.635120153819e-03 0.0 
0.0 0.0 -7.632308096241e-04 
-1.014253867293e-03 -2.134932202391e-05 0.0 
-2.134932202391e-05 3.236715286896e-03 0.0 
0.0 0.0 -4.600000000000e-04 
-1.004964497974e-03 1.297444765431e-03 0.0 
1.297444765431e-03 3.201027753380e-03 0.0 
0.0 0.0 -7.249691623289e-04 
-1.133374822382e-03 -1.604044547880e-05 0.0 
-1.604044547880e-05 3.646694996426e-03 0.0 
0.0 0.0 -5.266666666667e-04 
-1.280118750972e-03 1.130412810083e-03 0.0 
1.130412810083e-03 3.777030638565e-03 0.0 
0.0 0.0 -7.062703689559e-04 
-1.238778796526e-03 1.445476418683e-07 0.0 
1.445476418683e-07 4.216199491205e-03 0.0 
0.0 0.0 -5.933333333333e-04 
-1.543151210513e-03 1.002710923754e-03 0.0 
1.002710923754e-03 4.354039341919e-03 0.0 
0.0 0.0 -6.963727196364e-04 
-1.346425769997e-03 3.815725794878e-05 0.0 
3.815725794878e-05 4.612334605524e-03 0.0 
0.0 0.0 -6.600000000000e-04 

SCALARS node_materi_plasti_kappa_shear float
LOOKUP_TABLE default
2.115083374134e-03
3.458023789683e-03
4.967886194112e-03
5.876066285134e-03
1.429593561868e-03
9.260891180627e-04
9.750663137551e-04
1.375519170543e-03
1.749514182145e-03
2.072909783402e-03
2.372334959694e-03
2.646556194044e-03
2.900020015941e-03
3.146970300908e-03
3.414657029732e-03
3.664527045737e-03
3.866039465253e-03
4.132559423194e-03
4.398804352871e-03
4.605615939913e-03
4.743184926543e-03
4.864835234233e-03
4.967891461667e-03
5.874817732443e-03
5.871659258458e-03
5.865996944230e-03
5.879052454380e-03
5.875406408010e-03
5.881746665879e-03
5.893121739855e-03
5.904403498293e-03
5.911667380715e-03
5.942687471040e-03
5.945547502063e-03
5.964504727329e-03
5.990682248078e-03
6.003086871528e-03
6.009687630856e-03
6.018022142948e-03
6.013722829185e-03
6.018405848819e-03
6.000999157977e-03
5.961878918865e-03
5.908140669358e-03
5.805875616932e-03
5.680054112450e-03
5.512945864727e-03
5.326235031303e-03
5.099814575695e-03
4.848871496600e-03
4.578436030419e-03
4.312126051031e-03
4.068983510438e-03
3.878948019144e-03
3.696536407386e-03
3.610414615740e-03
3.648906839705e-03
3.740049181565e-03
3.899047133921e-03
4.078094335185e-03
4.265058537564e-03
4.435125269455e-03
4.594665148187e-03
4.735181100800e-03
4.838272090162e-03
4.913247143246e-03
4.935696440883e-03
4.963163630604e-03
4.970148499816e-03
4.972729571996e-03
4.968771048834e-03
4.969260551934e-03
3.740141790492e-03
4.058111443788e-03
4.339280484927e-03
4.600412294281e-03
4.861219744615e-03
5.105119180278e-03
5.341101545075e-03
5.553418984263e-03
5.788796962491e-03
3.235205770372e-04
3.540835783254e-03
1.156027900534e-03
1.806164222754e-03
1.960288369401e-03
1.840933129406e-03
1.969885892913e-03
2.264787004423e-03
2.585388498505e-03
2.853460972533e-03
3.168094353423e-03
1.236894902036e-03
1.425508647058e-03
1.788727031060e-03
2.132257304510e-03
2.471218391375e-03
2.803483841189e-03
3.120103201879e-03
3.399382940078e-03
3.415840330809e-03
3.424362395235e-03
3.424497136894e-03
3.479931295206e-03
3.440294557840e-03
3.439848037433e-03
3.453307638175e-03
3.471621284897e-03
3.481974088033e-03
3.486271779339e-03
3.492543524408e-03
3.498742868845e-03
3.518045244631e-03
0.0
0.0
0.0
0.0
0.0
1.744449562148e-04
3.008916063010e-04
4.050478665291e-04
5.046139784359e-04
6.936516565606e-04
8.134086808571e-04
1.035447660179e-03
1.317664285716e-03
1.556461179225e-03
1.698703308833e-03
1.829256340020e-03
1.936274606327e-03
2.057713747761e-03
2.160946537055e-03
1.765838998126e-03
1.672882771527e-03
1.514368142401e-03
1.336780209778e-03
1.255164198362e-03
1.244585446461e-03
1.268110646732e-03
1.234681652177e-03
1.204696299746e-03
1.209993290688e-03
1.218704904258e-03
1.227665853372e-03
1.235510651724e-03
1.241527160769e-03
1.245400975227e-03
1.247448030731e-03
1.248397780211e-03
1.248424923810e-03
1.247817117450e-03
1.246700814168e-03
1.244993398889e-03
1.242946302755e-03
1.240282616748e-03
1.212747129730e-03
1.189293220982e-03
1.410851678505e-03
1.383808697431e-03
1.385640841373e-03
1.388300151033e-03
1.391340236521e-03
1.394303612492e-03
1.397058219780e-03
1.399443294630e-03
1.401100902235e-03
1.401729103204e-03
1.400842359017e-03
1.397743389106e-03
1.392458267867e-03
1.385645250372e-03
1.378903873205e-03
1.369303763539e-03
1.359280357406e-03
1.367384017313e-03
1.368645236985e-03
1.365002351761e-03
1.433161107644e-03
1.567418573326e-03
1.651544285612e-03
1.850937220206e-03
1.850833601174e-03
1.786344784286e-03
1.749796523466e-03
1.737769871441e-03
1.733448498837e-03
1.741846356920e-03
1.749852201886e-03
1.756263397866e-03
1.759477367312e-03
1.762640434647e-03
1.764403705946e-03
1.764817381730e-03
1.764122728998e-03
1.762502703657e-03
1.760185883725e-03
1.757507986054e-03
1.754840510805e-03
1.752603729670e-03
1.751629968430e-03
1.757828555964e-03
1.777885292437e-03
2.120050012342e-03
2.111449579431e-03
2.113835223347e-03
2.116675236187e-03
2.120310449716e-03
2.123984102461e-03
2.126249522508e-03
2.127631391968e-03
2.128064366183e-03
2.127554982720e-03
2.126046799571e-03
2.123459660332e-03
2.120356283497e-03
2.114885182925e-03
2.101970331483e-03
2.096356667345e-03
2.097335722453e-03
2.128284095306e-03
2.196494271365e-03
2.186295543855e-03
2.483010702437e-03
2.506754027907e-03
2.468879242947e-03
2.457348499547e-03
2.466578465204e-03
2.474302737319e-03
2.478559870350e-03
2.480374252064e-03
2.482060617048e-03
2.483166610535e-03
2.483757347614e-03
2.481626238939e-03
2.477865116003e-03
2.472879665190e-03
2.467009561395e-03
2.462065239057e-03
2.458696764635e-03
2.458241881530e-03
2.465987666585e-03
2.800073416758e-03
2.792133891103e-03
2.794251622192e-03
2.799303906405e-03
2.804006642559e-03
2.811538170580e-03
2.819615238005e-03
2.827588526175e-03
2.830423737218e-03
2.834223597871e-03
2.832548011680e-03
2.829858727631e-03
2.829414630415e-03
2.819420454677e-03
2.821018701118e-03
2.841223476047e-03
2.785918999873e-03
3.125502671646e-03
3.195441658547e-03
3.182187427784e-03
3.176497158046e-03
3.175725551500e-03
3.174775535585e-03
3.166739352413e-03
3.157972763163e-03
3.150169453340e-03
3.142150136721e-03
3.134434164911e-03
3.127916890668e-03
3.125563909718e-03
3.118279613313e-03
3.123246277339e-03
3.139058430584e-03
1.406931862644e-03
1.474374331820e-03
1.940173948538e-03
1.895356515771e-03
1.942252885145e-03
2.173629989805e-03
2.503079452047e-03
2.766578717886e-03
3.045897946307e-03
3.384322342055e-03
1.792071878644e-03
3.375143360344e-03
7.233637867985e-04
1.036141330496e-04
4.185730067683e-03
2.132887875458e-03
3.290669112102e-03
3.943090107724e-03
2.459850990970e-03
5.049081016827e-03
3.049657566422e-03
4.807738799368e-03
1.182564866658e-03
5.746835578075e-03
3.688122146157e-03
2.243660734344e-03
3.956138881533e-03
5.918594875086e-03
5.957497874511e-03
5.833020523938e-03
5.849817635203e-03
5.907569221224e-03
3.796891756948e-03
3.753148626160e-03
3.750719424971e-03
4.728883318265e-03
4.949356106529e-03
0.0
1.446675358332e-03
4.662329876841e-03
3.701848086155e-03
1.172285973879e-03
5.916122430582e-03
4.554740200655e-03
5.468890302383e-03
3.503959695460e-03
3.612570973627e-03
1.012610592318e-03
3.764133124860e-03
4.509011244357e-03
5.226961181745e-03
8.281022762432e-04
2.786147332295e-03
5.862108365073e-03
2.293034409321e-03
2.118172696952e-03
2.814022264942e-03
3.328976841209e-03
1.411491244000e-03
4.215679675405e-03
4.988678889666e-03
1.603073179023e-03
5.647207016451e-03
3.826980774528e-03
3.959485929510e-03
4.093805969592e-03
4.237157459642e-03
4.355175514086e-03
4.475551541186e-03
4.360600218784e-03
4.584917723766e-03
4.472803770017e-03
4.603457862675e-03
4.678779703983e-03
4.566901197709e-03
4.755547519284e-03
4.640471696753e-03
4.457539912409e-03
4.538567241607e-03
4.334573614265e-03
4.420847848507e-03
4.584491396975e-03
4.467742894371e-03
4.290813753397e-03
4.341561214995e-03
4.161369484108e-03
4.203844918484e-03
4.020961676830e-03
4.033609205764e-03
4.190038035743e-03
3.995998885876e-03
3.816070395907e-03
3.728966813226e-03
3.537030536043e-03
3.407128807490e-03
3.586398617854e-03
3.288807272957e-03
3.252863900070e-03
3.170185754012e-03
3.233111113295e-03
3.074120756272e-03
3.162643393988e-03
2.933378461355e-03
2.797468942969e-03
2.619962109437e-03
2.778421306725e-03
2.482787310082e-03
2.288870685994e-03
2.245276885126e-03
2.009188259652e-03
2.106063465321e-03
2.298880449605e-03
2.277186157407e-03
2.045146607384e-03
2.269833337431e-03
2.492081268530e-03
2.449252250951e-03
2.235847836527e-03
2.412279828812e-03
2.543747264894e-03
2.600115002725e-03
2.727482019444e-03
2.938942653524e-03
2.800953391654e-03
3.099410076939e-03
3.236731448007e-03
3.326718393122e-03
3.458435113975e-03
3.182252973246e-03
3.349632840797e-03
3.182734544931e-03
3.297058188961e-03
3.395874895856e-03
3.084763359842e-03
2.947638229530e-03
3.173599872694e-03
3.367971322397e-03
2.907366739478e-03
2.989778207621e-03
2.681037591212e-03
3.273090083598e-03
4.583977419968e-03
2.763122244056e-03
2.422279070482e-03
2.341976270933e-03
2.055104190934e-03
4.487857016271e-03
4.743988105410e-03
4.617567667593e-03
4.883368050274e-03
4.763228887328e-03
2.160659489003e-03
4.890919826071e-03
4.994559216402e-03
4.077898647515e-03
3.620014606063e-03
2.026865546520e-03
3.041451028518e-03
2.832922892333e-03
3.077663964185e-03
3.380542676541e-03
3.577929148800e-03
3.502531489785e-03
3.663458989421e-03
3.546277218968e-03
3.702657791091e-03
3.786178392521e-03
3.850978684801e-03
3.897450996605e-03
3.504687425170e-03
3.291824593051e-03
3.999992240266e-03
4.016767369501e-03
4.146857594668e-03
4.147424783067e-03
3.977096144328e-03
4.088166746606e-03
3.903561376438e-03
1.647610095171e-03
1.670364952503e-03
1.200482357020e-03
1.361632881091e-03
1.080278838397e-03
1.418148903541e-03
1.352867822665e-03
1.212666352797e-03
4.813044669928e-03
2.629702736151e-03
2.873791510621e-03
2.692884768804e-03
2.922961960319e-03
2.693279210870e-03
2.967619989366e-03
2.640231682294e-03
2.442231823403e-03
2.256451765602e-03
2.304389301660e-03
1.970174595809e-03
2.413972446824e-03
4.105974986965e-03
1.752978929950e-03
1.881015725757e-03
2.212471553438e-03
1.986920103444e-03
4.283844059937e-03
3.257008008793e-03
2.972866264147e-03
1.546774196166e-03
1.779410363677e-03
2.938187575973e-03
3.188246772319e-03
5.018824155785e-03
4.900262887059e-03
3.011629305590e-03
1.908912131209e-03
3.906913380700e-03
1.895281348439e-03
4.211749337744e-03
4.409990212532e-03
3.799088406628e-03
2.355436507833e-03
2.649299599465e-03
2.548634680734e-03
2.876527123569e-03
2.844168383616e-03
3.212913817799e-03
3.129285464298e-03
3.337589162415e-03
3.439166685576e-03
3.438974933722e-03
3.303340296455e-03
3.181680302338e-03
3.085186834318e-03
2.829834518630e-03
4.432489689449e-03
1.483659745450e-03
4.217722169449e-03
3.341461549786e-03
1.739764648709e-03
5.152372939051e-03
5.035369681437e-03
4.778294671962e-03
4.917428704147e-03
5.167012334313e-03
5.050565403691e-03
4.795745429522e-03
4.929418857156e-03
4.668419815856e-03
4.805864584515e-03
5.058823087727e-03
4.939281816885e-03
4.682797093272e-03
4.818002280012e-03
4.556116505805e-03
4.690388347301e-03
4.950293242362e-03
1.552403935002e-03
1.574322739071e-03
1.877343647282e-03
2.891197733424e-03
3.092514519054e-03
3.276732472821e-03
3.305456961863e-03
4.827759947093e-03
5.081593595751e-03
3.163419766099e-03
3.211991907021e-03
5.265451275810e-03
4.339993450943e-03
4.108622684801e-03
3.351327486416e-03
3.414147971325e-03
3.173366515349e-03
3.179934844101e-03
3.412464276917e-03
2.933374923412e-03
3.048978120525e-03
5.184623155997e-03
2.285735175407e-03
1.964820094476e-03
4.525309975274e-03
1.417417973454e-03
4.266164728390e-03
4.121971091758e-03
4.284403972733e-03
4.105296115865e-03
4.321717176209e-03
4.160575813867e-03
3.892235684062e-03
2.811745021311e-03
3.984494120428e-03
4.554222149543e-03
2.269911801835e-03
3.028107761873e-03
1.410044382037e-03
2.660796390279e-03
1.642549087339e-03
2.019881341573e-03
3.191265930906e-03
4.449437667659e-03
4.556738233615e-03
3.151991049237e-03
3.330144195961e-03
2.615443417616e-03
4.499456307731e-03
4.528967056282e-03
4.393751219098e-03
1.261306655149e-03
2.904934706402e-03
5.293699107592e-03
3.240583809678e-03
3.137492166912e-03
1.326987575174e-03
7.734678318549e-04
4.951662652887e-03
5.199111337285e-03
3.458302994746e-03
3.498814191065e-03
2.813032372855e-03
2.488302007795e-03
5.318301846901e-03
1.850643022250e-03
1.900800904807e-03
3.131639576739e-03
3.027700141336e-03
2.957799237182e-03
3.061527549215e-03
2.613926403272e-03
1.775348210848e-03
3.082947151770e-03
5.403046930315e-03
3.649594930354e-03
3.629629087466e-03
3.791790756931e-03
2.266631384106e-03
3.561658471125e-03
4.464949176004e-03
4.749074667132e-03
4.803902692703e-03
3.195369272568e-03
2.992485238832e-03
2.855378574955e-03
2.741778446605e-03
4.234794425954e-03
3.108532495677e-03
4.079034698662e-03
3.940552543924e-03
3.815579800974e-03
3.588995439569e-03
3.476421980838e-03
3.087431809056e-03
2.199698414150e-03
3.435465997500e-03
3.826462726601e-03
3.261674752205e-03
5.297684949133e-03
5.419151855637e-03
4.414057560104e-03
4.275097580202e-03
1.647451024479e-03
1.675335589964e-03
3.606226530559e-03
3.650868628108e-03
5.391618930748e-03
5.502109459712e-03
5.372609048885e-03
2.675369016162e-03
2.527778908692e-03
1.410070067518e-03
1.620197969852e-03
3.704561518482e-03
1.421863687494e-03
4.706685273956e-03
4.622442071867e-03
4.666940698600e-03
3.076866095470e-03
3.811195532018e-03
3.440349836705e-03
3.147617514471e-03
3.657267983904e-03
3.541815125300e-03
3.706500821150e-03
3.438152628286e-03
2.775184890772e-03
2.746720812631e-03
4.705097558488e-03
4.212391869045e-03
5.032584068110e-03
5.060540397521e-03
2.962566848859e-03
2.515241370603e-03
2.118397082965e-03
3.180431248684e-03
5.518846616804e-03
3.789817242396e-03
3.891070071717e-03
3.945571653991e-03
5.986403847301e-04
2.213189616717e-03
5.440739059520e-03
2.585939956196e-03
2.577091143894e-03
2.623503978078e-03
4.897871729883e-03
3.686454329978e-03
4.752961752010e-03
3.733356492718e-03
5.550112872523e-03
3.071330919958e-03
3.165660564610e-03
2.415063932661e-03
5.310812901883e-03
5.569340241546e-03
4.247537830652e-03
4.096212274891e-03
4.376310335557e-03
2.295285634796e-03
1.760148970824e-03
5.307204263575e-03
2.597022010623e-03
2.677083653507e-03
2.361042937549e-03
2.540509620076e-03
3.590752619766e-03
3.561980325172e-03
4.687546968051e-03
4.862462070621e-03
4.404636295064e-03
2.304172143242e-03
2.399216396593e-03
1.964677543140e-03
5.518361070662e-03
5.664420780412e-03
2.775557848670e-03
2.950132041529e-03
2.770175388850e-03
5.630497223971e-03
4.810959073252e-03
4.708255592783e-03
1.439105625328e-03
1.764440458605e-03
2.782344288704e-03
2.711314613078e-03
5.598196232205e-03
5.483018715217e-03
5.749000539319e-03
1.876891076347e-03
3.340823531716e-03
3.019076182411e-03
2.638636300015e-03
3.496239648933e-03
3.233921457243e-03
3.509435497577e-03
4.060457021751e-03
9.830298147038e-05
5.472024458089e-03
4.113394862956e-03
0.0
3.974022231900e-03
4.142147385999e-03
3.808811843470e-03
1.512139063608e-03
4.035840610883e-03
4.228908811524e-03
1.229665042051e-03
5.727754258707e-03
1.213722886229e-03
1.289130077108e-03
4.190343840825e-03
4.208177283858e-03
4.453725484854e-03
4.415818037714e-03
4.236650972425e-03
4.433395698974e-03
3.960847876624e-03
4.646929544121e-03
4.602784854752e-03
4.854292446809e-03
3.246379902709e-03
2.751258169961e-03
2.634703286177e-03
2.390161293581e-03
5.366413333148e-03
5.305369359066e-03
4.571502884887e-03
4.361148070353e-03
3.986570332512e-03
3.958169901241e-03
4.225562744729e-03
4.178369498049e-03
4.446132963819e-03
4.399693690965e-03
4.649688467265e-03
4.553994310106e-03
2.395247212063e-03
3.489844342941e-03
2.935834930029e-03
2.507685734421e-03
3.320342588166e-03
3.002197588997e-03
3.920773109245e-03
3.240450602112e-03
5.870937815019e-03
0.0
3.323452107101e-04
3.218749665586e-03
3.600131537244e-03
2.907036869022e-03
2.836905823125e-03
2.270773315379e-03
1.834790987996e-03
2.673096930044e-03
4.690114924130e-03
2.348836148975e-03
4.492676789655e-03
3.205482778443e-03
3.817317219374e-03
2.948492527326e-03
2.849084286571e-03
4.354187352303e-03
4.105094102283e-03
3.949385469094e-03
3.043885708512e-03
3.025811206364e-03
2.606730506197e-03
4.199509327046e-03
5.239720060421e-03
5.342311723545e-03
5.568723597318e-03
5.436074129988e-03
5.195127512814e-03
5.275945829576e-03
5.522846822360e-03
5.362101483362e-03
5.654790167380e-03
5.418798555265e-03
5.183358795615e-03
5.228039527145e-03
5.462723589554e-03
5.010149217662e-03
3.394314338742e-03
3.254416177728e-03
3.998143781563e-04
1.780285334436e-03
3.960367887196e-03
5.943039136803e-03
5.959345631699e-03
3.141346465330e-03
5.620347987340e-03
4.084459886071e-03
2.498622170437e-03
5.268940025093e-03
5.099701809653e-03
4.951938385870e-03
4.853275658762e-03
5.939990338712e-03
4.510478805277e-03
4.274617599746e-03
1.914060081792e-03
2.484209945367e-03
2.639018446471e-03
5.114013007791e-03
3.400229055208e-03
2.914794698409e-03
2.950236209628e-03
2.471629201444e-03
3.451405133461e-03
5.898428211788e-03
5.845499826008e-03
3.178797580669e-03
2.960279401288e-03
2.804058035340e-03
2.729987471253e-03
2.829725808593e-03
2.578048860295e-03
2.561856093753e-03
2.441038645177e-03
5.056780879738e-03
3.797514540817e-03
3.350528560521e-03
3.070190277767e-03
2.914035417259e-03
3.410817836896e-03
3.523130452731e-03
3.651707279838e-03
3.259955241283e-03
3.906281668705e-03
3.999951674760e-03
1.514180247365e-03
3.455226154399e-03
3.780489020667e-03
4.041242521720e-03
4.062468817485e-03
4.304541709678e-03
4.049230948442e-03
3.629888373411e-03
3.687995609435e-03
3.556481715217e-03
3.766062809759e-03
3.630392003192e-03
3.425625743275e-03
3.859887208052e-03
3.712754465682e-03
3.753295504860e-03
5.944650398121e-04
2.225590346816e-03
2.127823725117e-03
2.979469021594e-03
2.824219377905e-03
3.230470095965e-03
3.141720754719e-03
1.550829825203e-03
7.467435189644e-04
1.647650571366e-03
6.781160949691e-04
1.418844655901e-03
2.293180220520e-03
2.042650195457e-03
4.943618431220e-03
3.031335723016e-03
2.945155604069e-03
2.688743593994e-03
2.875725181900e-03
3.142994710358e-03
2.523324995075e-03
2.457510238830e-03
1.510421340239e-03
1.007815092101e-03
1.077602730068e-03
9.323160320548e-04
9.716390507349e-04
1.014619391924e-03
1.008787792094e-03
1.356424777816e-03
1.016122513265e-03
1.104929402575e-03
1.269761046994e-03
4.987755442147e-03
5.116267723268e-03
4.373987183766e-03
3.768398534654e-03
7.723067608076e-04
5.801414033109e-03
5.849888523554e-03
5.842497446698e-03
4.794097655678e-03
4.842845514710e-03
5.795857190058e-03
2.602280117318e-03
5.684608119029e-03
5.426766964233e-03
2.915293754372e-03
2.687040126660e-03
4.231633519162e-03
3.882386612765e-03
4.556515040671e-03
3.998756045770e-03
4.293387971553e-03
3.074535552154e-03
1.408470089399e-03
4.539066931421e-03
4.423048734156e-03
5.069081138622e-03
2.521812465648e-03
3.361884437641e-03
1.678049688451e-03
5.074061553586e-03
3.958676471230e-03
3.095099427902e-03
3.226856089265e-03
2.810734054587e-03
2.838974017310e-03
3.275246495708e-03
3.484344474013e-03
3.705978157807e-03
5.196157012198e-03
1.018518931270e-03
3.521375643282e-03
3.706077620756e-03
4.658000838490e-03
1.709680317594e-03
3.305261692782e-03
5.177694957922e-03
5.612493104205e-03
4.353675085413e-03
1.412398444283e-03
4.259060800003e-03
3.477784717748e-03
5.132413977016e-03
2.272689532028e-03
1.816489196477e-03
3.846604393139e-03
3.494167407997e-03
5.528278511331e-03
3.146089818610e-03
1.957139825605e-03
1.112448474457e-03
2.360079505855e-03
4.023485214536e-03
2.432815649017e-03
5.414327495685e-03
4.449676466395e-03
2.421354826549e-03
5.279237453520e-03
2.481134471885e-03
2.154599998102e-03
3.850201562972e-03
4.337013816297e-03
4.689567346140e-03
3.889632788579e-03
4.106706360112e-03
3.777078850776e-03
2.080073589128e-03
3.024091218619e-03
4.636084587167e-03
4.310138882828e-03
5.639613987774e-03
3.640972516567e-03
4.095996415080e-03
5.509310551577e-03
3.587895264237e-03
1.596224348258e-03
2.654907617398e-03
2.518196502036e-03
2.963465931010e-03
3.699806971781e-03
5.746687556824e-03
4.270512341206e-03
2.658558888212e-03
1.412830188703e-03
3.642720607827e-03
4.434127154033e-03
1.755325851135e-03
2.085706409627e-03
3.490851329931e-03
4.839928513279e-03
3.143753996542e-03
4.591157827227e-03
1.995758212990e-03
3.213796841356e-03
3.698867822439e-03
4.783484472751e-03
2.274372036269e-03
3.942041855717e-03
2.018129477521e-03
3.179171001688e-03
3.766024258519e-03
4.461967294443e-03
5.932012927013e-03
2.263421662545e-03
4.710985723028e-03
3.694491554536e-03
2.635139483983e-03
1.025903351167e-03
3.364049018946e-03
3.741140459926e-03
2.496086040746e-03
2.247981960543e-03
3.447314890979e-03
3.806063609485e-03
2.443637327429e-03
3.889607978100e-03
2.932212877137e-03
4.809565923031e-03
3.991122142150e-03
4.535682597544e-03
1.253579093275e-03
3.692076032167e-03
4.710605835282e-03
2.989317964917e-03
2.692080032987e-03
5.041460301469e-03
2.649271473601e-03
2.763935828314e-03
4.635607043239e-03
3.377136231024e-03
2.886852932384e-03
2.656221383019e-03
2.841982051278e-03
2.546121946089e-03
2.280710634061e-03
2.448224017802e-03
4.844932991548e-03
1.159538546380e-03
4.958406181658e-03
2.170695742773e-03
2.635116820677e-03
3.060192089563e-03
4.490482294088e-03
2.676098572190e-03
1.933023820066e-03
2.768539009112e-03
2.773761821372e-03
2.620450107336e-03
2.685714993396e-03
5.648300186419e-03
2.938653539912e-03
5.823614188444e-03
4.963188208300e-03
3.932121989893e-03
2.324149862710e-03
0.0
2.514548860694e-03
2.801591293186e-03
4.851561224056e-03
3.937231005468e-03
2.729494295403e-03
5.675085357911e-03
4.803426685540e-03
4.862248751244e-03
2.171293786245e-03
3.009255413908e-03
5.428982077181e-03
3.693412385959e-03
1.283308417236e-03
4.241990484630e-03
2.118254558368e-03
2.377043969348e-03
2.382468483149e-03
2.413239708947e-03
2.697664909012e-03
2.126804265286e-03
2.932528478253e-03
3.975655703172e-03
3.423996743188e-03
2.040734890307e-03
5.723862858495e-03
4.029709976472e-03
4.729446121623e-03
3.643538952676e-03
2.324384274866e-03
4.240145590124e-03
5.248251932663e-03
5.065638731077e-03
4.865415511008e-03
3.950525462167e-03
5.659251463191e-03
2.734727135404e-03
5.648629554702e-03
5.043134290996e-03
4.301884988432e-03
4.260018092810e-03
4.871863521837e-03
5.738997361023e-03
2.142169266280e-03
4.855264715639e-03
2.941329875457e-03
4.982839675412e-04
4.155649936064e-03
5.251942821195e-03
4.831609780295e-03
9.013000089023e-04
1.077083856090e-03
3.817677234665e-03
5.571067232882e-03
3.300048357497e-03
5.920327576545e-03
7.577862853329e-04
3.663422898644e-03
1.060195543772e-03
4.951255767581e-03
5.712619248511e-03
3.070814862917e-03
3.822820158157e-03
2.186156026243e-03
4.538463984820e-03
1.851321241038e-03
5.716697476405e-03
3.395600169627e-03
5.810236312995e-03
3.850312672382e-03
0.0
4.395921499424e-03
2.651166453379e-03
3.693193394849e-03
5.779881690989e-03
2.632058365002e-03
1.305216945228e-03
5.834411797515e-03
1.794472957361e-03
3.663155821034e-03
4.974463401011e-03
1.126337765141e-03
4.139350774126e-03
5.652422135997e-03
3.542221846802e-03
5.289169342971e-03
3.063748398770e-03
0.0
4.627165150353e-03
3.844266386451e-03
5.798941796910e-03
4.453871606854e-03
2.441774290393e-03
5.465528199286e-03
3.248665564556e-03
4.976193501889e-03
2.571640358639e-03
8.213964642780e-04
3.751244995352e-03
1.075195837059e-03
4.615840899057e-03
3.326084611542e-03
1.756967916821e-03
1.220797268804e-03
1.828874842648e-03
1.638630534890e-03
2.076700773459e-03
1.933797938159e-03
2.408370959842e-03
2.324628182171e-03
2.687439418483e-03
2.614478323154e-03
2.992334186830e-03
2.991431796678e-03
3.343927869160e-03
3.270124677663e-03

SCALARS node_materi_plasti_phimob float
LOOKUP_TABLE default
-4.870463193076e+01
1.369745420060e+01
2.060169794121e+01
1.992596504978e+01
-3.061050619772e+01
-3.843748560704e+00
8.346849179433e+00
1.217461956417e+01
1.239859423285e+01
1.420901045783e+01
1.552397631463e+01
1.652978225704e+01
1.732028290368e+01
1.797470815704e+01
1.853728662739e+01
1.895498254138e+01
1.926701449465e+01
1.958222420169e+01
1.996537701712e+01
2.039805637001e+01
2.051012088742e+01
2.057592687223e+01
2.060474075244e+01
1.994564312457e+01
1.994184817102e+01
1.994767762217e+01
1.995456568488e+01
1.994823046622e+01
1.996262000126e+01
1.996620157915e+01
1.998566553643e+01
2.000597775308e+01
2.002671934574e+01
2.003401011974e+01
2.006771873396e+01
2.009132986644e+01
2.012953567334e+01
2.015103970469e+01
2.018897426188e+01
2.022504005511e+01
2.026702150080e+01
2.032375666395e+01
2.038893782497e+01
2.045210585835e+01
2.048974166045e+01
2.055698011795e+01
2.060636670909e+01
2.064880855777e+01
2.067433377352e+01
2.071941647813e+01
2.072371922502e+01
2.075035770797e+01
2.074337478019e+01
2.076841612737e+01
2.076992210592e+01
2.076430999887e+01
2.076354926549e+01
2.075834591621e+01
2.075038152314e+01
2.073738340184e+01
2.072886427950e+01
2.071139037564e+01
2.070596782381e+01
2.068520168143e+01
2.065706241873e+01
2.063978422971e+01
2.065753264917e+01
2.061671012127e+01
2.062609895462e+01
2.061484428346e+01
2.060976208061e+01
2.061205427972e+01
1.494937460047e+01
1.597001749664e+01
1.677931101799e+01
1.744538907574e+01
1.802988170252e+01
1.852335508863e+01
1.896778036353e+01
1.936018147534e+01
1.971155373771e+01
1.851114124546e+01
1.342903531445e+01
3.225227865669e+01
2.401045219341e+01
1.107270608289e+01
-6.784781782763e+00
-1.415455315304e+00
4.757761762353e+00
8.502968652848e+00
1.040922542725e+01
1.199425152320e+01
-4.664564438917e+01
-3.056687455288e+01
-1.023816314145e+01
5.174105174126e-01
6.167053201779e+00
9.631408831698e+00
1.192726825808e+01
1.346724699826e+01
1.352846654236e+01
1.352280719950e+01
1.348221121619e+01
1.362913004999e+01
1.343781855983e+01
1.337226078566e+01
1.335074938409e+01
1.334355513447e+01
1.329594403777e+01
1.324520942469e+01
1.322248913370e+01
1.322656624033e+01
1.328745483035e+01
9.868417913505e+00
8.368516702063e+00
9.052157589220e+00
1.006328354777e+01
1.103483510512e+01
2.336915741483e-01
-2.835929732737e+01
-4.340134669015e+01
-4.915622745535e+01
-5.022881407591e+01
-4.950963298117e+01
-4.892220501551e+01
-4.935463102224e+01
-4.999656920559e+01
-5.026750442846e+01
-5.051224435716e+01
-5.051045101836e+01
-5.018140281080e+01
-5.008986995149e+01
-1.411355522666e+01
-3.154341559098e+01
-4.401905873216e+01
-4.937594384597e+01
-3.838756059472e+00
4.170432802739e+01
4.042603195884e+01
4.132942652188e+01
-5.712603838789e+00
-5.359118510975e+01
-5.376338350946e+01
-5.371077468461e+01
-5.352265774161e+01
-5.322848484227e+01
-5.286644371349e+01
-5.246222617770e+01
-5.181003100100e+01
-5.060143184837e+01
-4.917753002723e+01
-4.799410305086e+01
-4.706568083740e+01
-4.638239682620e+01
-4.592585910018e+01
-4.546173604157e+01
-4.701028794988e+01
-3.026686640186e+01
-3.062479524129e+01
-3.086314312928e+01
-3.108428775764e+01
-3.136806059389e+01
-3.173340242802e+01
-3.218729856298e+01
-3.271632615465e+01
-3.309688295757e+01
-3.336522838921e+01
-3.360887499236e+01
-3.380300426366e+01
-3.392296515678e+01
-3.396538288400e+01
-3.388500571993e+01
-3.378505145715e+01
-9.821281312832e+00
-1.014404896690e+01
-9.593797349343e+00
-7.643737337846e+00
-2.884357244760e+01
-2.323561371228e+01
-2.064386252685e+01
-5.144194152498e+00
-4.802082548154e+00
-6.797437383172e+00
-7.834987486969e+00
-8.507539060289e+00
-9.076415273260e+00
-9.470522869842e+00
-9.754403096509e+00
-9.959090822031e+00
-1.013561755995e+01
-1.028377365369e+01
-1.040731194852e+01
-1.051137630275e+01
-1.060139465743e+01
-1.067941964646e+01
-1.074264492291e+01
-1.079425520217e+01
-1.083837286384e+01
-1.087396964955e+01
-1.089240221772e+01
-1.072153967069e+01
-1.010139341321e+01
2.643681375716e-01
2.451716046098e-01
2.514750465438e-01
2.548306982252e-01
2.590254913536e-01
2.657796466903e-01
2.770328746732e-01
2.928991932306e-01
3.150021699493e-01
3.431813463976e-01
3.801400191796e-01
4.303630818753e-01
5.022377379203e-01
6.395734627204e-01
8.705143931792e-01
1.206223824644e+00
1.634913875159e+00
2.252135723473e+00
3.501759637109e+00
3.335991300377e+00
7.220993361492e+00
7.359759099618e+00
6.701991591508e+00
6.351965875120e+00
6.103448911594e+00
5.944124299276e+00
5.889325207761e+00
5.875231047791e+00
5.875133162297e+00
5.880401612133e+00
5.895212727497e+00
5.920731713380e+00
5.940844169040e+00
5.960089183155e+00
5.981390910466e+00
5.998130162536e+00
6.013511693311e+00
6.068073931326e+00
6.193261668427e+00
9.570319685322e+00
9.534229603434e+00
9.513766359164e+00
9.495319868332e+00
9.465040533065e+00
9.433679406390e+00
9.398689563471e+00
9.352449106892e+00
9.302552273843e+00
9.278725503533e+00
9.264048291374e+00
9.253505888549e+00
9.270919567155e+00
9.332684611849e+00
9.513640866080e+00
9.910265663157e+00
9.697150962470e+00
1.154949423157e+01
1.178200370529e+01
1.159382168019e+01
1.155347257226e+01
1.156154700641e+01
1.158597048355e+01
1.161285220161e+01
1.166232709696e+01
1.171356036426e+01
1.175888112655e+01
1.179498213687e+01
1.182618328519e+01
1.185853360399e+01
1.187267488273e+01
1.191799072684e+01
1.198142689160e+01
3.499586537224e+01
2.701293599514e+01
2.146985575134e+01
9.734147833312e-01
-2.693142198181e+00
2.737078399501e+00
7.625888000889e+00
9.760082319862e+00
1.141207764555e+01
1.282100992420e+01
2.454904480179e+01
2.095022149301e+01
-3.585883988153e+01
1.340242368798e+01
2.089986912463e+01
5.127617677844e+00
1.829776941530e+01
2.085731002212e+01
7.641475828062e+00
2.063465822118e+01
1.185445779622e+01
2.072792008028e+01
-3.806201063402e+01
2.027470191981e+01
1.408431417451e+01
1.500701742990e+01
1.939818077107e+01
2.004922307674e+01
1.992233653713e+01
1.980061816505e+01
1.978137563647e+01
1.986581216762e+01
1.448617512009e+01
1.454796807269e+01
1.471821247309e+01
1.774801299068e+01
2.065916209935e+01
1.107994732166e+01
-3.652518624771e+01
2.047023731049e+01
1.468961149576e+01
1.077459292118e+01
1.992510475567e+01
2.076437527386e+01
2.046831420014e+01
2.093906098877e+01
2.094947879711e+01
-3.359415961415e+00
1.444720115267e+01
2.085568255225e+01
1.875084650279e+01
-3.763899802176e+01
1.698193946315e+01
1.984367206504e+01
5.708292129956e+00
1.721849380472e+01
1.065216860532e+01
1.299708944875e+01
3.197916784707e+01
1.644619471105e+01
2.063636069032e+01
-3.753350159250e+01
1.952227856393e+01
1.456644315183e+01
1.511612933536e+01
1.553396719002e+01
1.608905901271e+01
1.648842971917e+01
1.690337098313e+01
1.655193196609e+01
1.729634998199e+01
1.700015661604e+01
1.723097114689e+01
1.767795769456e+01
1.743199407174e+01
1.804352817904e+01
1.784547892137e+01
1.721566816720e+01
1.767180003701e+01
1.704178059234e+01
1.754676263116e+01
1.809892825112e+01
1.801438211339e+01
1.748223212144e+01
1.798225028983e+01
1.749278375490e+01
1.802425181964e+01
1.752447419414e+01
1.801119813147e+01
1.853511334152e+01
1.848599555381e+01
1.787996449894e+01
1.844861241143e+01
1.780387504827e+01
1.887763225148e+01
1.953880174564e+01
2.000771648685e+01
1.949171359420e+01
2.052371155083e+01
2.020165356955e+01
2.115052187358e+01
2.092531748471e+01
2.170695319238e+01
2.190876312552e+01
2.230428386820e+01
2.212948056982e+01
2.251688632697e+01
2.273322012791e+01
2.274535227990e+01
2.298043491025e+01
2.283336205159e+01
2.258036793338e+01
2.248837885294e+01
2.273967919896e+01
2.225670818872e+01
2.197634288568e+01
2.164758706568e+01
2.197326062922e+01
2.124939082284e+01
2.096272100028e+01
2.034640903127e+01
2.056436508435e+01
1.958435930014e+01
1.920722828380e+01
1.853853959576e+01
1.904380881783e+01
1.834610523416e+01
1.891279135149e+01
1.782542205804e+01
1.804521817061e+01
1.744866924021e+01
1.775009500983e+01
2.058861094473e+01
1.703542172997e+01
1.671191800928e+01
1.740800306788e+01
1.811890985079e+01
1.655192298138e+01
1.701452946155e+01
1.600822763399e+01
1.991542737888e+01
1.849633323562e+01
1.656328941413e+01
1.537776562818e+01
1.464893793327e+01
1.373436224667e+01
1.686252476770e+01
1.755695569827e+01
1.720963723551e+01
1.786332926760e+01
1.756333600176e+01
1.462897342985e+01
1.825538730366e+01
1.815015333190e+01
1.688949512641e+01
1.719824868025e+01
2.291035107442e+01
1.747079843717e+01
1.708785119982e+01
1.780461882192e+01
1.966593782056e+01
1.958065316195e+01
2.047415020782e+01
2.042433979788e+01
2.122422752720e+01
2.111320031980e+01
2.045018616186e+01
2.101596976406e+01
2.043420623536e+01
2.149742322759e+01
2.169040595038e+01
2.093055454643e+01
2.044182592257e+01
2.085196737917e+01
2.046626112241e+01
1.986354246834e+01
1.992023847812e+01
1.955778125430e+01
2.311218669953e+01
2.300153487093e+01
2.310831481590e+01
2.286293926776e+01
2.272147454858e+01
2.235012470642e+01
2.222927977712e+01
2.249499476467e+01
1.839198293612e+01
2.241423886797e+01
2.209436121398e+01
2.245350702959e+01
2.214564560220e+01
2.261358365045e+01
2.226652069574e+01
2.286828338081e+01
2.283193582074e+01
2.317650042763e+01
2.269711223725e+01
2.325113052092e+01
2.216726008676e+01
1.916521223241e+01
2.246081929963e+01
2.195341178699e+01
2.194686386796e+01
1.267271910716e+01
2.049401930204e+01
2.168135862650e+01
2.190640174045e+01
2.210903308613e+01
1.251008040129e+01
2.249190936540e+01
2.157608103922e+01
1.815297548134e+01
1.788159202879e+01
2.174900311167e+01
1.350172361839e+01
2.117597362317e+01
2.388940413938e+01
2.002603278550e+01
2.052837386718e+01
1.981394559451e+01
2.159468299236e+01
2.152020729086e+01
2.199836034930e+01
2.100011932315e+01
2.098618884219e+01
1.929570876163e+01
1.988429766587e+01
1.816300978510e+01
1.744104058443e+01
1.671737980912e+01
1.744643827863e+01
1.602649539276e+01
1.469241649675e+01
1.416982314296e+01
2.070813195719e+01
2.435288538357e+01
1.650750094230e+01
2.154722875517e+01
2.186430386827e+01
1.842719901683e+01
1.818261103392e+01
1.760156273331e+01
1.793310625632e+01
1.846910621630e+01
1.823975706526e+01
1.767411939956e+01
1.799939138338e+01
1.739823494202e+01
1.774824919190e+01
1.829996840333e+01
1.807105816568e+01
1.748859126071e+01
1.783063790744e+01
1.721154616675e+01
1.756974016881e+01
1.814339362316e+01
1.128540160215e+01
2.230864287248e+01
2.197649465760e+01
1.733985450458e+01
1.787439492528e+01
1.831769015783e+01
1.834282477167e+01
1.789885919674e+01
1.843627456643e+01
2.169610384964e+01
2.055263560059e+01
1.866599995749e+01
2.017313238013e+01
1.970684772478e+01
1.718977924513e+01
1.637580327461e+01
1.647430520847e+01
1.536641530916e+01
1.555748928875e+01
1.558080521597e+01
2.190326129933e+01
1.858101284526e+01
1.383302039751e+01
1.138899499766e+01
2.054848545223e+01
2.266489276850e+01
1.901313446910e+01
1.970794634654e+01
1.945206800744e+01
1.999520823459e+01
1.974909813230e+01
2.017900600045e+01
2.042780388255e+01
2.129222596494e+01
2.051486361086e+01
1.727322053891e+01
2.237013403586e+01
1.690998983170e+01
9.325860557346e+00
1.162301873054e+01
1.202829052312e+01
1.411130531151e+01
2.154850362099e+01
2.000291266862e+01
1.959147925026e+01
1.420974001726e+01
1.456529320476e+01
2.134470308940e+01
1.686635682776e+01
1.701813258871e+01
1.669701373378e+01
9.456580959878e+00
1.234356928022e+01
1.873594083340e+01
2.062442331480e+01
1.935568201876e+01
2.523707729352e+01
2.617497639193e+01
1.819204988036e+01
1.868448842321e+01
1.868737075132e+01
1.874878526554e+01
2.173553298078e+01
1.179825343266e+01
1.889520968297e+01
2.242240171991e+01
2.266939057718e+01
1.791727059282e+01
2.048461548248e+01
2.185652093630e+01
1.846350668074e+01
1.410723953322e+01
1.272048565319e+01
2.149114010657e+01
1.893755111843e+01
2.074364923671e+01
2.074684609283e+01
2.072829681159e+01
7.685649710081e+00
2.137193573381e+01
2.030634434088e+01
1.989307020076e+01
1.956229214435e+01
1.959418064073e+01
1.808487283508e+01
1.758607460682e+01
1.598069381619e+01
1.622392530830e+01
1.842110696983e+01
1.633341837663e+01
1.569199999148e+01
1.548994663893e+01
1.590942267512e+01
1.505166972581e+01
2.153479332626e+01
2.266775021121e+01
1.866525282345e+01
1.950592966926e+01
2.062022572407e+01
1.878335103870e+01
1.903375693100e+01
1.680891657858e+01
1.646749437519e+01
9.366354217715e+00
7.199506202955e+00
1.912905754741e+01
2.136391375536e+01
1.890440221295e+01
1.911839173751e+01
1.889485234878e+01
2.165428189635e+01
2.251241943085e+01
2.312555002207e+01
2.400940963468e+01
2.023763553166e+01
3.406014769011e+00
1.859495462871e+01
2.052735469711e+01
2.060438734071e+01
2.112853141336e+01
1.471600908659e+01
2.103578986748e+01
2.140736583717e+01
1.470837476490e+01
1.445670103949e+01
1.536111936317e+01
1.430734632941e+01
1.808298311379e+01
1.662543688183e+01
2.023584033947e+01
2.058243484952e+01
1.988779622838e+01
1.961730551281e+01
2.113925624781e+01
2.135830308563e+01
1.448240318629e+01
1.340914601441e+01
1.916669922749e+01
1.500402704291e+01
2.119679831065e+01
2.119412999374e+01
2.470688990469e+01
2.216852419626e+01
1.912449449689e+01
1.493683296840e+01
1.304430695218e+01
1.703330661028e+01
2.058570899218e+01
1.468386671379e+01
2.056835803774e+01
1.616871088523e+01
1.930737405381e+01
2.156497431790e+01
1.786457837361e+01
2.192922531009e+01
1.890016721015e+01
1.935463559820e+01
1.623715892982e+01
1.583657705980e+01
1.657880929802e+01
2.393924532450e+01
2.531331921156e+01
1.884178604565e+01
1.646860212703e+01
1.669474771676e+01
1.231228905807e+01
1.440550892775e+01
1.899122093586e+01
1.893429093044e+01
1.892881635179e+01
1.902074163430e+01
1.887824797848e+01
2.240268982468e+01
2.236709223905e+01
2.273337886723e+01
1.921255417516e+01
1.947063179649e+01
1.947034249872e+01
1.992664278846e+01
1.747286048753e+01
1.935188539348e+01
2.063209825713e+01
2.067624439067e+01
-6.231867262932e-01
4.580415905728e+00
2.088495947256e+01
2.263111321272e+01
1.932066779850e+01
1.912173698432e+01
1.954540086884e+01
1.331083933438e+01
2.102744914825e+01
2.137852715228e+01
2.155196850484e+01
2.120148771822e+01
2.105982457992e+01
2.096742657742e+01
2.072192122960e+01
2.160704447062e+01
1.921993439460e+01
1.595032797111e+01
1.689488441137e+01
1.554770803358e+01
1.610434807550e+01
1.504167978849e+01
1.187303184758e+01
1.555821607159e+01
1.611062078707e+01
-1.024257164566e+01
1.955992995415e+01
-8.260898912811e+00
-2.079729123075e+00
2.104152774059e+01
2.104387777722e+01
2.092465581129e+01
2.092079097642e+01
2.099301306899e+01
2.087583801096e+01
1.538999885968e+01
2.079835376386e+01
2.077189680929e+01
2.074740501189e+01
1.313240625079e+01
1.449643793854e+01
1.219912106972e+01
9.117223175762e+00
1.998094946381e+01
1.969757757099e+01
2.042177840519e+01
1.997664364391e+01
1.565225152658e+01
1.562406312825e+01
1.642150213171e+01
1.633502081212e+01
1.702515832962e+01
1.692738683122e+01
1.754052046970e+01
2.062928152863e+01
1.411752089972e+01
1.387081174399e+01
2.114578636599e+01
2.136557032139e+01
1.403021743401e+01
1.215903571866e+01
2.113538870269e+01
1.974890746669e+01
1.978928403926e+01
1.642086326165e+01
2.318458233168e+01
1.869228519016e+01
1.531527437765e+01
1.403649690819e+01
1.240701594751e+01
2.219349862201e+01
1.891854994079e+00
1.891556253403e+01
1.759263890438e+01
2.007767439730e+01
2.018782687945e+01
2.076635561083e+01
1.684937309056e+01
1.910239328770e+01
1.676702250364e+01
1.673205545042e+01
1.569936490465e+01
1.534331087359e+01
2.154908012193e+01
1.275756495224e+01
9.695654811080e+00
1.693194100843e+01
1.866624198468e+01
1.891251180763e+01
1.932804346478e+01
1.914704559320e+01
1.870010434886e+01
1.895512157688e+01
1.937356151687e+01
1.920748858824e+01
1.965397280633e+01
1.944617758483e+01
1.903609653964e+01
1.928608496520e+01
1.963171101243e+01
1.886760394083e+01
2.096409552994e+01
1.904807019222e+01
2.580252610172e+01
2.612092640323e+01
1.693298890294e+01
2.000943611174e+01
1.993664514839e+01
2.154736452199e+01
2.035781297065e+01
1.593837046517e+01
2.325547447178e+01
2.054924737617e+01
1.842799813437e+01
1.818028449471e+01
1.787181237712e+01
1.989894506747e+01
1.692859832725e+01
2.080193609123e+01
2.276343496864e+01
2.235540391486e+01
2.212406456927e+01
1.876145649161e+01
2.094702153105e+01
2.119026837805e+01
2.120492628946e+01
2.147390420049e+01
2.096135242030e+01
2.013511912640e+01
2.021809376713e+01
1.908332924762e+01
2.048087394683e+01
2.097540309739e+01
2.147656952535e+01
2.118917213779e+01
2.201361580907e+01
2.207488532193e+01
2.251282625128e+01
1.938544642116e+01
2.093962591658e+01
2.134453035464e+01
2.149509930518e+01
2.093129071850e+01
1.847065196723e+01
1.872199653326e+01
1.916439883556e+01
1.817835662520e+01
2.032005298489e+01
2.091657655335e+01
2.297772860659e+01
1.837561604817e+01
1.446243157766e+01
1.544078407016e+01
1.546884786882e+01
1.632483782728e+01
1.552005195395e+01
1.903087156341e+01
1.910475567510e+01
1.884345963853e+01
1.919625098362e+01
1.894687242347e+01
1.857217458580e+01
1.929075658542e+01
1.904969694605e+01
1.447548408555e+01
1.333012012156e+01
1.319972491340e+01
4.267139599247e+00
1.312402661979e+01
1.726325423406e+01
1.631229463132e+01
1.907035583427e+01
2.029120000844e+01
-1.995382276273e+01
-3.612117584029e+00
-3.020122722812e+01
-8.894406094200e+00
5.671870990427e+00
1.006945585132e+01
2.064968017446e+01
1.768166573455e+01
1.743592105923e+01
1.669417620319e+01
1.724729326730e+01
1.797596922787e+01
1.611621041200e+01
1.585068650411e+01
-3.651312605427e+01
-1.078188066328e+01
-1.280738633223e+01
3.365747914394e+00
3.020145638094e+00
-1.056198340176e+01
-1.063197427189e+01
-3.675369107986e+01
-1.134290854046e+01
2.456535890850e+00
-3.759690400664e+01
1.828914328399e+01
1.856038909267e+01
2.087881644168e+01
1.467231262063e+01
-3.755855314640e+01
1.973890040576e+01
1.980182029718e+01
1.980183837019e+01
2.054453441367e+01
2.057230317941e+01
1.975101727512e+01
1.542560077699e+01
1.952200098996e+01
1.908426536243e+01
2.280602579573e+01
1.555560893613e+01
1.980435387147e+01
1.982934364882e+01
2.065201477714e+01
1.962684009588e+01
2.077870668174e+01
2.124759902542e+01
1.147721778108e+01
1.710796806173e+01
1.690301522689e+01
1.836817360177e+01
1.604818114755e+01
1.844513029922e+01
1.117511468864e+01
2.032194750416e+01
1.621636015795e+01
2.001534765813e+01
1.781807301006e+01
1.611178067605e+01
1.557616755326e+01
1.834005139545e+01
1.859451627452e+01
2.132651858223e+01
1.864458581715e+01
-3.420570907943e+01
2.147793721775e+01
1.969773460043e+01
1.731920238354e+01
2.192442318094e+01
1.545986478341e+01
1.852200548022e+01
1.931948735736e+01
1.650072306867e+01
6.654133146257e+00
1.635148733075e+01
2.130773212721e+01
1.841376045522e+01
1.526042431307e+01
2.304568762266e+01
1.741113700866e+01
1.352794317271e+01
1.925903889617e+01
2.094420314234e+01
2.178430522268e+01
2.294712587336e+01
1.560578236037e+01
2.113829892108e+01
2.250212502816e+01
1.898203841406e+01
1.925868358595e+01
2.255592732243e+01
1.868838970448e+01
2.148605072327e+01
2.162122657525e+01
1.620019769948e+01
1.844109837395e+01
1.823390148847e+01
1.923856935530e+01
1.959471899868e+01
2.129909563855e+01
2.282176605356e+01
1.734717636592e+01
1.724874763448e+01
2.034555232175e+01
1.938466573272e+01
1.661793031265e+01
2.103311941473e+01
1.913153885481e+01
1.893556938515e+01
1.200490016510e+01
2.337855473886e+01
2.263252694677e+01
2.141297312873e+01
1.937173990344e+01
1.956622091126e+01
2.090582524573e+01
2.196389686446e+01
2.804740879050e+01
1.428458616559e+01
2.080149169756e+01
2.294749394449e+01
2.161331721873e+01
1.866576292059e+01
2.046454659278e+01
1.281691039701e+01
2.073403633169e+01
2.212829022111e+01
2.071522024844e+01
1.470579914682e+01
2.071205832944e+01
2.182407770553e+01
1.997703945211e+01
2.255834399484e+01
1.241073702479e+01
1.948145115034e+01
1.844237405997e+01
1.988433860901e+01
2.166772844980e+01
1.758202572372e+01
1.925072238210e+01
2.186292676742e+01
2.722875762983e+00
1.347131666167e+01
1.928040534534e+01
2.240647359304e+01
2.220395571734e+01
2.099749840160e+01
1.934017326228e+01
2.243105681506e+01
1.941588420919e+01
1.125927958437e+01
1.792804972994e+01
1.949696167367e+01
1.885941815702e+01
2.337245791601e+00
2.066207900558e+01
2.052242734021e+01
1.722255081246e+01
2.175742853331e+01
1.847944907354e+01
9.326076961188e+00
2.212067263574e+01
1.922943778999e+01
2.112436240569e+01
2.173987945601e+01
2.215027380465e+01
1.110046138312e+01
1.485621264440e+01
1.301253793932e+01
2.224643994521e+01
1.929811407638e+01
1.040096962898e+01
1.857090797437e+01
8.767711381124e+00
2.172295141888e+01
2.119095987586e+01
1.715707418910e+01
2.130608094812e+01
1.352509301857e+01
2.047907339090e+01
2.201285308410e+01
2.002241062835e+01
1.885083654230e+01
1.947416373554e+01
1.802854264100e+01
1.979324269715e+01
2.061523338642e+01
1.554350455377e+01
5.565536836612e+00
1.057795024234e+01
1.013274020099e+01
1.649406426550e+01
1.871780360230e+01
1.557176020988e+01
1.575434035374e+01
1.979902269773e+01
2.070631633263e+01
1.802975546594e+01
2.156488196595e+01
2.138632474333e+01
1.914244092880e+01
1.454822050175e+01
-1.183727659758e+01
1.972111068080e+01
3.128115646108e+00
1.109015935291e+01
1.710018350419e+01
1.574316638321e+01
9.000739145183e+00
9.522281950464e+00
2.115825040035e+01
1.541221847138e+01
2.093509531177e+01
2.152293621508e+01
1.952299837962e+01
2.083703669320e+01
2.078636150220e+01
2.087540158863e+01
2.275093505268e+01
1.615245960131e+01
2.019126578179e+01
1.842231859129e+01
2.069822980372e+01
1.523690501283e+01
1.952373497162e+01
2.152387856937e+01
1.952975846644e+01
1.914109020558e+01
1.659158957313e+01
1.615269721854e+01
2.060139808537e+01
1.970243989548e+01
2.571809605612e+01
1.798436636650e+01
1.744707424231e+01
2.025112860955e+01
2.103200432148e+01
1.949769338123e+01
2.067420293759e+01
3.395397417846e+00
-1.506993848662e+01
2.111433319849e+01
1.995937840106e+01
1.877440791601e+01
1.988640390608e+01
2.831110825013e+01
1.434642859555e+01
-1.348443543671e+01
2.066614480367e+01
1.954471872390e+01
1.777355894368e+01
1.454642526112e+01
1.472777100203e+01
2.047288049153e+01
8.909433850775e-01
1.957750590424e+01
2.116787537137e+01
1.965248737432e+01
2.086114430835e+01
1.826122310703e+01
2.075149073287e+01
2.143913782756e+01
1.458008923521e+01
1.965288479085e+01
1.650245046315e+01
8.398410832154e+00
1.982892570528e+01
-4.114701653835e+01
1.457876443159e+01
2.061170284387e+01
9.352132444017e+00
1.620410455000e+01
1.990681856029e+01
1.876967839869e+01
1.890503438041e+01
1.377870107930e+01
1.060959915251e+01
1.749333794660e+01
2.090999542282e+01
1.963696747924e+01
1.701014991941e+01
2.418425372104e+01
1.975162329019e+01
1.818417115763e+01
2.011812802481e+01
2.136310906774e+01
2.803276598291e+01
1.911479046553e+01
-1.555815443619e+01
2.084868525580e+01
1.836193392968e+01
-1.734567987272e+01
-4.311140119514e+01
-7.614581135823e+00
-1.794332227911e+01
1.107261336445e+00
-3.769775957758e+00
6.541815012468e+00
4.049370560286e+00
9.035563521352e+00
8.082519317526e+00
1.094384464805e+01
1.100358004890e+01
1.250314843847e+01
1.284668565987e+01

SCALARS node_materi_stress_average_a_sig float
LOOKUP_TABLE default
-8.181678488091e+00
-8.889968354061e+01
-2.424739204616e+02
-2.028258318991e+02
-1.302294836068e+01
-2.251299036372e+01
-3.234258634473e+01
-4.611722735891e+01
-6.132868301756e+01
-7.584728481906e+01
-8.982299667789e+01
-1.032842454694e+02
-1.162622305194e+02
-1.289181089427e+02
-1.414180880264e+02
-1.533270972942e+02
-1.639690430397e+02
-1.753177916939e+02
-1.868149954014e+02
-1.984114151469e+02
-2.107721447196e+02
-2.232773388993e+02
-2.352745142281e+02
-2.034988682974e+02
-2.028326300636e+02
-2.030530659299e+02
-2.031150915757e+02
-2.028920384929e+02
-2.034528679925e+02
-2.039363435888e+02
-2.039352620795e+02
-2.047825037656e+02
-2.051229363176e+02
-2.052703408284e+02
-2.061714443371e+02
-2.072504092189e+02
-2.076691176469e+02
-2.084647150870e+02
-2.089165066399e+02
-2.099621204797e+02
-2.117947521253e+02
-2.133409959802e+02
-2.149962713163e+02
-2.164802718654e+02
-2.181010337837e+02
-2.197597921085e+02
-2.214819661828e+02
-2.233835672937e+02
-2.253335886003e+02
-2.270837616513e+02
-2.288670835625e+02
-2.303324679723e+02
-2.323733509796e+02
-2.337233180964e+02
-2.346160985367e+02
-2.361036609374e+02
-2.375565514766e+02
-2.388256401734e+02
-2.398914961128e+02
-2.408042890809e+02
-2.413188796529e+02
-2.416856365805e+02
-2.417890765264e+02
-2.422783480493e+02
-2.430369433827e+02
-2.433232177031e+02
-2.416961321953e+02
-2.430902941316e+02
-2.424947650881e+02
-2.428095734904e+02
-2.432073091491e+02
-2.431140548824e+02
-1.012189078389e+02
-1.132684379036e+02
-1.252499930181e+02
-1.369246451648e+02
-1.488205449871e+02
-1.608286896848e+02
-1.725343493817e+02
-1.840968564014e+02
-1.960832859394e+02
-5.878946722966e+01
-9.392515292715e+01
-3.275250951452e+01
-2.857245334152e+01
-2.590645388801e+01
-2.210703177407e+01
-3.301589782422e+01
-4.530731330333e+01
-5.787639025010e+01
-7.027723640502e+01
-8.201085216529e+01
-8.399684110674e+00
-1.626026754317e+01
-2.812628711179e+01
-4.021271293131e+01
-5.230986436482e+01
-6.442122959190e+01
-7.648771966734e+01
-8.739359585337e+01
-8.820781424846e+01
-8.825848080520e+01
-8.822172159050e+01
-9.002565066201e+01
-8.868488357650e+01
-8.883195831065e+01
-8.914485579182e+01
-8.966067031797e+01
-8.995535263960e+01
-9.037272324904e+01
-9.079629664170e+01
-9.147630344789e+01
-9.233624869933e+01
-8.134470123348e+01
-9.225809010192e+01
-9.485757753114e+01
-8.646353255238e+01
-5.448635395541e+01
-2.427443747011e+01
-1.309950468592e+01
-9.838700522018e+00
-8.671140430383e+00
-8.192852040519e+00
-8.111697794923e+00
-8.521080142604e+00
-8.281176633332e+00
-7.851265465083e+00
-7.740976629772e+00
-7.822538306684e+00
-7.821498526142e+00
-7.668107440061e+00
-7.555650930961e+00
-1.244801903120e+01
-1.056399607277e+01
-7.948605759606e+00
-6.415294386679e+00
-5.590178760126e+00
-5.118255568840e+00
-4.984655588885e+00
-5.131280430634e+00
-5.452009896380e+00
-5.846154297082e+00
-6.269659521921e+00
-6.722478126766e+00
-7.177566466057e+00
-7.617015700345e+00
-8.023496764236e+00
-8.388468643242e+00
-8.709618865556e+00
-8.987236807863e+00
-9.221932199477e+00
-9.414645022679e+00
-9.565908223623e+00
-9.674401751148e+00
-9.732857016396e+00
-9.515803731924e+00
-8.268955860870e+00
-1.615742137513e+01
-1.599800602633e+01
-1.593490071227e+01
-1.586921305829e+01
-1.578358036726e+01
-1.567270038464e+01
-1.553499524326e+01
-1.537035542794e+01
-1.517911683287e+01
-1.496318215035e+01
-1.472671565058e+01
-1.447750673459e+01
-1.422759228366e+01
-1.398918047137e+01
-1.374524664081e+01
-1.353700486736e+01
-1.341718813242e+01
-1.338546182288e+01
-1.361867846526e+01
-1.413072285462e+01
-1.498024658341e+01
-1.738010146187e+01
-1.689186273639e+01
-2.947990178270e+01
-3.076224587828e+01
-2.904367125967e+01
-2.841903999243e+01
-2.807597616604e+01
-2.783661574634e+01
-2.769623200252e+01
-2.763772506782e+01
-2.762339503679e+01
-2.759003522069e+01
-2.760083736764e+01
-2.764070301808e+01
-2.769513522925e+01
-2.775287249220e+01
-2.780761682314e+01
-2.785766226963e+01
-2.789943215833e+01
-2.792987690288e+01
-2.795033925665e+01
-2.796147080536e+01
-2.800218592211e+01
-2.811382682254e+01
-4.017925002445e+01
-4.007831433211e+01
-4.006516413816e+01
-4.006839494267e+01
-4.008433878222e+01
-4.011231218424e+01
-4.015335068024e+01
-4.020827640866e+01
-4.027963673912e+01
-4.036565908882e+01
-4.048347735096e+01
-4.065107033257e+01
-4.089217756792e+01
-4.116716343892e+01
-4.145920665505e+01
-4.184448696352e+01
-4.227778892053e+01
-4.281699460560e+01
-4.423717581046e+01
-4.259265667569e+01
-5.565489418179e+01
-5.728934028347e+01
-5.586148536899e+01
-5.521085287728e+01
-5.470002936967e+01
-5.420346956937e+01
-5.375691971295e+01
-5.338980359198e+01
-5.309993230815e+01
-5.286986120329e+01
-5.268613538669e+01
-5.254460298088e+01
-5.244151464315e+01
-5.235979237615e+01
-5.230197560730e+01
-5.226474867362e+01
-5.225318434198e+01
-5.226294346361e+01
-5.230331980248e+01
-6.442199042214e+01
-6.441674878653e+01
-6.443979164797e+01
-6.449336373800e+01
-6.457272975179e+01
-6.467000271838e+01
-6.479833544509e+01
-6.495510510230e+01
-6.515935158183e+01
-6.544032108267e+01
-6.580772845764e+01
-6.626104872319e+01
-6.681083368703e+01
-6.743116179573e+01
-6.813438127844e+01
-6.962324109253e+01
-6.811080752771e+01
-7.987602183614e+01
-8.122401943298e+01
-7.978105985441e+01
-7.911911038345e+01
-7.857610069419e+01
-7.814406356810e+01
-7.774916141775e+01
-7.745486853111e+01
-7.729673360680e+01
-7.706541552589e+01
-7.690891125754e+01
-7.679330329392e+01
-7.669577178773e+01
-7.659536214211e+01
-7.661758778909e+01
-7.660124517950e+01
-3.883968264385e+01
-3.003961865389e+01
-2.891812804119e+01
-2.150600961436e+01
-2.917978573025e+01
-4.062107111927e+01
-5.297685838423e+01
-6.558604348320e+01
-7.755269182424e+01
-8.906893645748e+01
-3.500336844688e+01
-2.312315027857e+02
-1.365984514261e+01
-6.450152295495e+01
-2.358894287760e+02
-3.468796126302e+01
-1.356941228554e+02
-2.250692738148e+02
-5.259495796198e+01
-2.191686733770e+02
-7.683999045852e+01
-2.380860233265e+02
-1.151346484893e+01
-2.124906480838e+02
-9.967255911418e+01
-8.359753752909e+01
-1.678643687092e+02
-2.077156355385e+02
-2.035843883245e+02
-1.987604403974e+02
-1.987561514244e+02
-2.015427593009e+02
-1.031309965205e+02
-1.009965368558e+02
-1.009431265071e+02
-1.429791197797e+02
-2.375164692085e+02
-7.778315004587e+01
-1.154128675573e+01
-2.041306060401e+02
-9.894544599207e+01
-3.909088228295e+01
-2.034634956956e+02
-2.230254112407e+02
-2.157393183311e+02
-2.273206411336e+02
-2.339275096508e+02
-2.449043053432e+01
-1.015181001997e+02
-2.348687122871e+02
-1.663568924178e+02
-1.234731212022e+01
-1.099133837280e+02
-2.001225224447e+02
-4.353690836630e+01
-3.419980162581e+01
-6.452232366389e+01
-8.831181866337e+01
-4.055542229791e+01
-1.202755359422e+02
-2.395129139951e+02
-1.108766624022e+01
-1.893941386118e+02
-1.048971964821e+02
-1.104685651204e+02
-1.154392184024e+02
-1.220404172255e+02
-1.276717451799e+02
-1.336339935759e+02
-1.280909989956e+02
-1.397103941850e+02
-1.341115983667e+02
-1.394901711843e+02
-1.457848515953e+02
-1.401994124373e+02
-1.518955421898e+02
-1.463535066793e+02
-1.347774063088e+02
-1.409533457886e+02
-1.296056137177e+02
-1.358051614324e+02
-1.471971291450e+02
-1.420173354854e+02
-1.307859495338e+02
-1.370379531249e+02
-1.258677718106e+02
-1.321876154596e+02
-1.209795288668e+02
-1.275277851162e+02
-1.384637360337e+02
-1.338999696348e+02
-1.230101621278e+02
-1.294754685785e+02
-1.185854550221e+02
-1.249591263513e+02
-1.356032262252e+02
-1.309742692625e+02
-1.201619526653e+02
-1.262724094079e+02
-1.155475603248e+02
-1.216954248203e+02
-1.110684722545e+02
-1.172056897432e+02
-1.276462614059e+02
-1.231646754082e+02
-1.129424093982e+02
-1.187545939649e+02
-1.289528304175e+02
-1.243724455984e+02
-1.345458399617e+02
-1.299073212257e+02
-1.199539356073e+02
-1.252418744152e+02
-1.352397172095e+02
-1.304828494143e+02
-1.204876040204e+02
-1.255367865293e+02
-1.360424224863e+02
-1.308310728662e+02
-1.202784783293e+02
-1.251708703534e+02
-1.363692128971e+02
-1.305221604346e+02
-1.190811592753e+02
-1.243161068854e+02
-1.359217628183e+02
-1.295787537098e+02
-1.410543633977e+02
-1.176995390475e+02
-1.228908992240e+02
-1.106926712568e+02
-1.159141332554e+02
-1.414704838316e+02
-1.034131171898e+02
-9.836019766547e+01
-1.086987201202e+02
-1.211069426881e+02
-9.587619804856e+01
-1.012465231868e+02
-8.810148919906e+01
-1.044585036916e+02
-1.534824736710e+02
-9.355731714701e+01
-8.010273963871e+01
-7.468369740580e+01
-6.637876988456e+01
-1.336114378907e+02
-1.452795102443e+02
-1.390122339630e+02
-1.510510382027e+02
-1.450841040361e+02
-7.187707206768e+01
-1.575834308775e+02
-1.570528754421e+02
-1.194928117622e+02
-1.117416222950e+02
-1.393381534341e+02
-1.065694978552e+02
-9.899561550110e+01
-1.119501012440e+02
-1.471149824028e+02
-1.519701519172e+02
-1.576577547748e+02
-1.625437555070e+02
-1.681224710643e+02
-1.733432660958e+02
-1.675728982354e+02
-1.786861093615e+02
-1.727386880355e+02
-1.794316616338e+02
-1.739155335218e+02
-1.840130169757e+02
-1.778683236069e+02
-1.893347270728e+02
-1.829971700057e+02
-1.718720349626e+02
-1.769042835854e+02
-1.658242492270e+02
-1.449731084065e+02
-1.498931884206e+02
-1.555387581154e+02
-1.603412935922e+02
-1.665551877282e+02
-1.717519736426e+02
-1.781527998433e+02
-1.728555863519e+02
-1.580173541695e+02
-1.089818302587e+02
-1.030718118909e+02
-9.958665774573e+01
-9.353491113168e+01
-9.058824376885e+01
-8.441373620920e+01
-8.223513997890e+01
-8.784162740270e+01
-8.036402405974e+01
-8.492345164881e+01
-7.801087463471e+01
-8.100165658665e+01
-1.447073202449e+02
-1.653252837556e+02
-1.772149863383e+02
-1.706749781836e+02
-6.110315458394e+01
-1.881577017835e+02
-1.856618813767e+02
-1.798103309568e+02
-1.845254509944e+02
-5.800001270207e+01
-7.582222431224e+01
-7.771952245941e+01
-1.568907330794e+02
-1.509723393112e+02
-1.919001756257e+02
-6.360092245800e+01
-1.904709293120e+02
-7.381939466886e+01
-1.819075868641e+02
-1.933387581951e+02
-1.617701502010e+02
-1.828429156302e+02
-1.761978409486e+02
-8.877279261854e+01
-8.370501115009e+01
-7.548414712926e+01
-7.796334389118e+01
-8.689165796205e+01
-8.064892157964e+01
-7.120765802939e+01
-7.321663100956e+01
-8.350659502712e+01
-7.594825309394e+01
-6.520645279282e+01
-6.762493024482e+01
-2.000523792495e+02
-7.201373353655e+01
-1.234360005828e+02
-1.977721085645e+02
-1.900525137245e+02
-1.627904655472e+02
-1.569407947922e+02
-1.450374767673e+02
-1.511283528155e+02
-1.629916814139e+02
-1.572413240236e+02
-1.453324441695e+02
-1.515044972555e+02
-1.395592210556e+02
-1.457972186426e+02
-1.577092027604e+02
-1.520794530676e+02
-1.401336173535e+02
-1.464636039243e+02
-1.344757985204e+02
-1.408329535842e+02
-1.528313834520e+02
-4.972740830170e+01
-1.789978260347e+02
-1.909857118195e+02
-1.049538767526e+02
-1.173942820842e+02
-1.244365831905e+02
-1.299461900229e+02
-1.471846469152e+02
-1.591810395034e+02
-6.897549421456e+01
-7.053747252366e+01
-1.686659749999e+02
-1.869341100242e+02
-1.758100674542e+02
-1.072916239356e+02
-1.000691774768e+02
-9.559167663052e+01
-8.776184810628e+01
-9.262041044931e+01
-8.333931378617e+01
-1.684418654746e+02
-1.639691243692e+02
-6.951883088033e+01
-5.628071138004e+01
-1.986076310621e+02
-1.676761275325e+02
-1.495576266811e+02
-1.557897156492e+02
-1.609650070391e+02
-1.673506160669e+02
-1.727139895891e+02
-1.791018671615e+02
-1.737427898440e+02
-1.885686595895e+02
-1.855451065083e+02
-1.350779109064e+02
-1.590659346974e+02
-8.657218585558e+01
-4.411353468848e+01
-5.520149054128e+01
-5.504076831108e+01
-6.947691247285e+01
-2.041426776616e+02
-1.844724507175e+02
-1.779596349925e+02
-8.000793395606e+01
-8.515993988215e+01
-1.952058151469e+02
-1.332199411671e+02
-1.333960579377e+02
-1.275147375191e+02
-3.974093906375e+01
-5.354905181700e+01
-1.690909388385e+02
-8.007259081040e+01
-7.282726796858e+01
-6.834997706336e+01
-6.735446112177e+01
-1.534596679576e+02
-1.653680796190e+02
-1.366570826098e+02
-1.419387375639e+02
-1.981157835764e+02
-5.838097095252e+01
-1.711282371528e+02
-1.735956549613e+02
-1.625892723046e+02
-1.228393767173e+02
-6.170495651138e+01
-6.121196026488e+01
-9.380462504334e+01
-7.052465367270e+01
-6.101810265727e+01
-2.104198149542e+02
-1.747486390858e+02
-1.801696850755e+02
-1.682588427239e+02
-1.922064430040e+02
-4.580749186019e+01
-2.101825025884e+02
-1.920514286732e+02
-1.892280391435e+02
-1.832124655875e+02
-8.293974890193e+01
-7.578125430659e+01
-6.511493033763e+01
-6.773304467378e+01
-1.225458849976e+02
-8.659417440853e+01
-1.182727409974e+02
-1.120194998985e+02
-1.067568565090e+02
-9.744625278394e+01
-9.033375456039e+01
-9.675198416333e+01
-1.441115546913e+02
-1.313486570379e+02
-1.608141960343e+02
-1.527537360881e+02
-1.694895815628e+02
-1.757895592879e+02
-1.281235411093e+02
-1.224487826077e+02
-4.761922511339e+01
-4.321001905143e+01
-1.459251152476e+02
-2.035084039040e+02
-1.743977348796e+02
-1.802512446821e+02
-1.745070158609e+02
-2.041377618424e+02
-1.052353602239e+02
-1.506752281864e+02
-6.862594469514e+01
-1.461640865140e+02
-3.457027107946e+01
-1.587764229632e+02
-2.040750083108e+02
-2.107916968810e+02
-2.007501008668e+02
-1.053542180572e+02
-1.519206738263e+02
-1.471618883105e+02
-1.004596869716e+02
-9.498750691706e+01
-1.013592578145e+02
-8.933768489109e+01
-9.716794195321e+01
-8.986122871831e+01
-1.971028518865e+02
-1.972761387547e+02
-1.946055556813e+02
-1.888460307374e+02
-2.074814854866e+02
-2.017042321406e+02
-7.502138628711e+01
-7.792344127249e+01
-1.808577957224e+02
-1.057999802461e+02
-2.156680872639e+02
-2.092154172617e+02
-6.633770338757e+01
-6.238099294804e+01
-1.774241828384e+02
-5.611232400591e+01
-5.817809042876e+01
-5.454739853164e+01
-2.290753950615e+02
-9.856257403676e+01
-2.163821298430e+02
-1.025391446497e+02
-1.832425512335e+02
-1.577605953044e+02
-1.025526919912e+02
-1.918833560480e+02
-1.710298872644e+02
-1.839389286909e+02
-1.213671796871e+02
-1.150738614097e+02
-1.269086009226e+02
-6.770330508595e+01
-6.113995422558e+01
-1.701860880011e+02
-9.145148740479e+01
-9.851870238552e+01
-6.146237424183e+01
-7.384845892222e+01
-1.432256874883e+02
-1.380678730600e+02
-1.651606746396e+02
-1.704634433099e+02
-1.546068580148e+02
-1.682459728826e+02
-1.575431332089e+02
-1.516670371216e+02
-1.809385540714e+02
-1.885745458506e+02
-1.040068801162e+02
-1.002420233007e+02
-1.010593664578e+02
-1.864705583671e+02
-2.228825792771e+02
-2.174362564636e+02
-3.053486065062e+01
-3.888921783062e+01
-5.288665370722e+01
-5.356310311369e+01
-1.857972673065e+02
-1.805349680451e+02
-1.925885771907e+02
-6.560883464691e+01
-1.747462549517e+02
-2.159953782881e+02
-2.096100408598e+02
-2.238375265634e+02
-1.939612281305e+02
-2.057848950989e+02
-2.040551320367e+02
-6.926974293274e+01
-1.797483161896e+02
-1.154736861973e+02
-7.172688492564e+01
-1.098782513142e+02
-1.166558635035e+02
-1.035036892397e+02
-5.124223530114e+01
-1.129887553319e+02
-1.207716645568e+02
-2.424794534483e+01
-1.922243849194e+02
-2.313323279273e+01
-2.711340310943e+01
-2.214991538640e+02
-2.147581600463e+02
-2.266572159764e+02
-2.198326884774e+02
-2.080198947879e+02
-2.136863171070e+02
-1.088393581246e+02
-2.272275575996e+02
-2.194856767788e+02
-2.329658677574e+02
-8.311279457429e+01
-7.069343129257e+01
-6.175251526480e+01
-4.779692201131e+01
-2.018223238132e+02
-1.934058580844e+02
-1.976398481530e+02
-1.860066328987e+02
-1.102171930784e+02
-1.094615721825e+02
-1.204196142305e+02
-1.188439336825e+02
-1.298276134308e+02
-1.281335181765e+02
-1.393022419478e+02
-2.093403696765e+02
-4.464112378513e+01
-9.431272229915e+01
-2.138939475066e+02
-2.072543807819e+02
-8.340067445637e+01
-7.101936121679e+01
-2.239801719123e+02
-9.344075513132e+01
-1.993202127012e+02
-6.372850867302e+01
-6.157369030072e+01
-9.766775091755e+01
-9.582948184891e+01
-7.477161997723e+01
-6.728057015682e+01
-1.796613504295e+02
-3.550801661027e+01
-5.368114008993e+01
-1.408023689607e+02
-4.432977762369e+01
-1.920230883221e+02
-1.003474534816e+02
-1.093960012352e+02
-6.310899527256e+01
-7.946592966359e+01
-1.286342683860e+02
-1.165383740988e+02
-1.112284128961e+02
-1.068373548351e+02
-7.237483171535e+01
-5.785239530877e+01
-1.245300343242e+02
-1.688058911698e+02
-1.747505903020e+02
-1.860479015348e+02
-1.807647699662e+02
-1.691640970503e+02
-1.752313592336e+02
-1.867362144668e+02
-1.817335195229e+02
-1.951906536398e+02
-1.878201337054e+02
-1.757489484461e+02
-1.816114149691e+02
-1.928167920616e+02
-1.698508396546e+02
-2.194738826807e+02
-1.090248683742e+02
-6.552659860423e+01
-5.507210131641e+01
-1.143798571226e+02
-2.060944311588e+02
-2.041693338768e+02
-8.702761489797e+01
-2.139516511542e+02
-1.172811103581e+02
-7.460889498453e+01
-2.174599821830e+02
-1.630896340996e+02
-1.572821081507e+02
-1.512547328437e+02
-2.031387845892e+02
-1.329228909752e+02
-2.243943502473e+02
-1.544615870091e+02
-1.485771495356e+02
-1.381466769505e+02
-1.695282824451e+02
-2.297761103236e+02
-2.202614736741e+02
-2.214829666444e+02
-2.097173382068e+02
-2.324971019494e+02
-2.098586947579e+02
-2.115766676832e+02
-9.042306452751e+01
-9.634413828666e+01
-1.058755094605e+02
-1.016311381806e+02
-9.249680040796e+01
-9.726796085087e+01
-1.062860768407e+02
-9.272214597339e+01
-1.821734425542e+02
-2.349323435850e+02
-1.630548616597e+02
-1.579936225134e+02
-1.474715335049e+02
-1.262016538872e+02
-1.330266122042e+02
-1.445669163343e+02
-1.191505895832e+02
-1.619852981601e+02
-2.356046845083e+02
-1.566637883842e+02
-1.280087249262e+02
-1.023189430124e+02
-1.133292430908e+02
-1.142405184299e+02
-1.254243256462e+02
-1.138004812718e+02
-1.483915308456e+02
-1.534953270693e+02
-1.471589008246e+02
-1.585586721374e+02
-1.520227206652e+02
-1.413033083393e+02
-1.633831564880e+02
-1.560847502884e+02
-1.011640548065e+02
-4.024912603694e+01
-4.281520914672e+01
-3.395035550742e+01
-4.874870461663e+01
-5.568807336826e+01
-6.135948534318e+01
-6.380790550560e+01
-5.364503913846e+01
-1.849919080152e+01
-2.931415464355e+01
-1.535409004393e+01
-2.597884864016e+01
-4.077372117301e+01
-5.216660302737e+01
-2.359165103503e+02
-1.225422246826e+02
-1.164189774610e+02
-1.040568173375e+02
-1.108123150607e+02
-1.274982011407e+02
-9.694139091427e+01
-9.204176327250e+01
-1.148026748008e+01
-1.928850128938e+01
-1.845604427227e+01
-2.798647589231e+01
-2.802564092703e+01
-1.968741596349e+01
-1.982050370276e+01
-1.149830760954e+01
-1.992627436577e+01
-2.908738757193e+01
-1.130541878356e+01
-1.549568201644e+02
-1.613952809756e+02
-2.360033742754e+02
-1.016862703457e+02
-1.289281809855e+01
-1.967081954258e+02
-1.993954882457e+02
-1.993152403432e+02
-2.167086100837e+02
-2.228662911044e+02
-1.967516214637e+02
-8.273419016187e+01
-1.921101520351e+02
-1.764648856741e+02
-6.791542125510e+01
-8.216086976563e+01
-1.808474575206e+02
-1.668440348046e+02
-2.053575173422e+02
-1.708302299607e+02
-1.946811959710e+02
-2.219202017266e+02
-4.669811837988e+01
-1.337811738555e+02
-1.288243531341e+02
-1.583886731245e+02
-8.564578553926e+01
-1.357660855995e+02
-5.254024466484e+01
-2.071044723201e+02
-1.130987922282e+02
-1.419149895093e+02
-1.139495603514e+02
-9.065770723294e+01
-7.879899116122e+01
-1.138909785260e+02
-1.346624238448e+02
-1.849673304813e+02
-1.647091799112e+02
-1.319665378066e+01
-1.913828562304e+02
-1.568055280550e+02
-1.391719547514e+02
-1.836649060698e+02
-6.365768326847e+01
-1.633815457550e+02
-1.854402870772e+02
-1.268013342391e+02
-3.898486172275e+01
-1.215047673277e+02
-2.164730293033e+02
-1.628269585226e+02
-7.766816601929e+01
-1.400551216448e+02
-1.162829772183e+02
-9.398183121450e+01
-1.815950109596e+02
-1.367961320581e+02
-1.966860943705e+02
-1.615625196740e+02
-8.362838011546e+01
-2.026101496867e+02
-1.335703519779e+02
-1.751909267403e+02
-1.662585766596e+02
-1.145523067365e+02
-1.686795575462e+02
-1.417384201748e+02
-1.893974919299e+02
-1.078373527523e+02
-1.433097210743e+02
-1.525156973330e+02
-1.401164894664e+02
-1.747941215093e+02
-1.970299895415e+02
-7.437446733207e+01
-9.109304383413e+01
-1.390150160129e+02
-1.905867493102e+02
-1.868351506792e+02
-1.046563515423e+02
-1.959328862735e+02
-1.800745137771e+02
-1.396027748298e+02
-5.505147624286e+01
-6.146462474683e+01
-9.618164641561e+01
-1.322204594943e+02
-1.508107605886e+02
-1.931610962613e+02
-2.013805800879e+02
-1.858319931593e+02
-3.707583968076e+01
-9.980900068011e+01
-2.068573516783e+02
-1.456873229941e+02
-1.957062133898e+02
-1.450476936673e+02
-2.084293177385e+02
-7.701192458591e+01
-2.124667459921e+02
-1.853597702577e+02
-8.999614494332e+01
-9.899387590644e+01
-2.264425699624e+02
-1.976860747898e+02
-1.508317384757e+02
-1.408702771983e+02
-8.263393563650e+01
-1.557897270937e+02
-1.482741647781e+02
-2.025296332479e+02
-2.030278965334e+02
-1.453924893774e+02
-1.495921521591e+02
-1.640305400430e+02
-2.836006197835e+01
-8.878632287303e+01
-1.546727005968e+02
-1.013847122341e+02
-1.467782944692e+02
-2.126271434033e+02
-1.597263206534e+02
-1.105464762152e+02
-1.647381792226e+02
-7.076251506064e+01
-1.514985430739e+02
-1.697094137545e+02
-1.598201234868e+02
-3.058317836781e+01
-1.568372437945e+02
-2.101073967171e+02
-1.056506983753e+02
-1.526156969991e+02
-1.633995867237e+02
-5.847808142269e+01
-1.630440670867e+02
-1.715687535306e+02
-1.628976501940e+02
-1.426809938916e+02
-1.739557231217e+02
-6.544538726796e+01
-7.782381399018e+01
-6.502861747584e+01
-1.155310831729e+02
-1.769235575203e+02
-3.773955427412e+01
-1.637542828687e+02
-4.863204292548e+01
-1.109532704927e+02
-1.817603789108e+02
-1.318811819439e+02
-1.155505421147e+02
-6.965612491093e+01
-1.101244126827e+02
-1.529935255735e+02
-1.144438274796e+02
-1.079801849109e+02
-1.880899801583e+02
-1.126162969918e+02
-1.988323815699e+02
-2.366814807930e+02
-1.081015308471e+02
-4.559300105003e+01
-8.132234626100e+01
-5.577453416594e+01
-9.381112176834e+01
-1.641719380140e+02
-1.086208725286e+02
-8.608637592306e+01
-1.994550960135e+02
-2.212330106756e+02
-1.491771896483e+02
-2.016984387135e+02
-1.694617394089e+02
-1.771194016433e+02
-9.855696115724e+01
-2.400924637351e+01
-1.805485484832e+02
-3.518858141417e+01
-4.565350412810e+01
-4.438024136282e+01
-8.830944275874e+01
-4.266850166804e+01
-3.306582969574e+01
-2.182705540929e+02
-1.104638603854e+02
-1.868671147869e+02
-3.386296371276e+01
-1.912627875312e+02
-2.124808823147e+02
-2.376284918582e+02
-1.991653858114e+02
-4.497678765113e+01
-1.224824126607e+02
-2.053481229886e+02
-1.587137521836e+02
-2.386538431160e+02
-1.098570206676e+02
-1.893306114831e+02
-6.874425531135e+01
-1.893135591235e+02
-1.759582758310e+02
-1.235742188101e+02
-1.231837775869e+02
-2.286672519617e+02
-1.967216586903e+02
-4.788729815161e+01
-1.486915525405e+02
-1.109930892299e+02
-6.360448840285e+01
-2.263554118853e+02
-1.870524138289e+02
-2.278199412829e+02
-2.744057402390e+01
-2.011161545279e+01
-2.271769831300e+02
-2.032897129190e+02
-6.948090604163e+01
-2.023179709358e+02
-5.207860435858e+01
-9.770624502703e+01
-1.948377427994e+01
-2.384605008134e+02
-1.908714711405e+02
-1.220425786649e+02
-1.042516814594e+02
-7.919248082221e+01
-2.006516273615e+02
-3.440008125721e+01
-1.914889532398e+02
-2.261587497856e+02
-1.956719420748e+02
-2.297484368067e+02
-7.094193438300e+01
-2.142138109527e+02
-2.132657527542e+02
-9.819295516703e+01
-1.956827949513e+02
-9.906570696561e+01
-3.827749610915e+01
-1.999948823550e+02
-1.033283841388e+01
-9.723445818049e+01
-2.393524970348e+02
-3.540472524449e+01
-1.169570464295e+02
-2.025167687674e+02
-1.480805537978e+02
-1.704001812111e+02
-5.400856118877e+01
-8.095759190483e+01
-1.381776036784e+02
-2.160713613235e+02
-1.948958558402e+02
-1.300795425023e+02
-5.566552179430e+01
-1.961779807452e+02
-1.314736722953e+02
-1.987583710073e+02
-2.112952404431e+02
-4.883943232238e+01
-1.582371447213e+02
-1.877106298336e+01
-2.297825142645e+02
-1.366529595298e+02
-1.247459762586e+01
-9.950522511695e+00
-2.480144654497e+01
-2.244619168624e+01
-3.717370744430e+01
-3.382937172465e+01
-5.009361689663e+01
-4.659640399055e+01
-6.294140606230e+01
-5.802255997922e+01
-7.501385873698e+01
-7.083841364896e+01
-8.664277110314e+01
-8.217045056978e+01

SCALARS node_materi_stress_size_dev_sd_sig float
LOOKUP_TABLE default
4.702306647021e+00
5.979794384359e+01
1.837071984679e+02
1.530259748092e+02
9.801890847978e+00
2.166623775786e+01
3.199801805670e+01
4.073057949488e+01
4.722574866024e+01
5.474886204670e+01
6.304739556373e+01
7.190792308486e+01
8.125849997309e+01
9.108464918041e+01
1.015817912371e+02
1.118217429369e+02
1.212050893004e+02
1.318385743992e+02
1.427365449892e+02
1.525976777097e+02
1.615395393958e+02
1.704156360232e+02
1.787875763206e+02
1.536293635890e+02
1.532315654675e+02
1.534062925943e+02
1.535120029319e+02
1.532826252628e+02
1.537261744166e+02
1.539593958197e+02
1.541619364129e+02
1.547988816123e+02
1.551792677768e+02
1.552557972929e+02
1.560764749513e+02
1.568165095536e+02
1.574234530155e+02
1.579843721457e+02
1.586018365981e+02
1.595077458491e+02
1.608914832047e+02
1.623511231464e+02
1.638335640740e+02
1.651544362525e+02
1.664455185906e+02
1.679140417469e+02
1.693406556050e+02
1.708590095492e+02
1.723280418775e+02
1.737618498019e+02
1.750115347350e+02
1.761580224842e+02
1.775268010495e+02
1.785884660905e+02
1.792104676139e+02
1.802056661196e+02
1.812024563527e+02
1.820489309715e+02
1.827401289973e+02
1.832986623823e+02
1.836065468000e+02
1.837642455301e+02
1.838054068466e+02
1.840290417368e+02
1.843977539683e+02
1.845000108736e+02
1.834714288248e+02
1.842135221830e+02
1.838559437494e+02
1.840102985480e+02
1.842555803682e+02
1.842042676488e+02
6.902983601984e+01
7.853631963944e+01
8.796409454961e+01
9.733898294288e+01
1.070476909436e+02
1.168131444508e+02
1.266966511390e+02
1.366042535005e+02
1.468208238338e+02
4.945430544982e+01
5.874833127824e+01
4.879289711350e+01
4.175472705642e+01
3.194487712560e+01
1.894189886128e+01
2.074240123937e+01
2.709657711592e+01
3.420320864479e+01
4.124955366192e+01
4.930661043202e+01
5.414710701464e+00
6.842156246026e+00
1.442983399287e+01
2.324156069972e+01
3.219401053560e+01
4.118867894720e+01
5.015585378175e+01
5.843673854030e+01
5.889478518196e+01
5.887365593343e+01
5.865603610561e+01
5.974267629037e+01
5.853303684222e+01
5.823121345735e+01
5.819002075473e+01
5.826744253504e+01
5.807977955924e+01
5.789806085352e+01
5.783274267821e+01
5.787414032333e+01
5.816595343158e+01
3.725071107919e+01
3.482966822406e+01
3.635826088396e+01
3.592129975710e+01
3.715695138578e+01
2.595023992132e+01
1.000183548275e+01
5.552748820519e+00
4.297818115479e+00
4.368522707013e+00
4.392278808352e+00
4.515290482828e+00
4.882594810554e+00
4.843600537345e+00
4.676036478097e+00
4.622404589925e+00
4.624781087516e+00
4.700094584425e+00
4.983431592953e+00
1.861495446989e+01
1.046468319921e+01
6.897815679078e+00
5.700446287681e+00
5.588359741572e+00
5.766148221931e+00
5.822317401811e+00
5.671885846670e+00
5.261279015089e+00
4.796274477164e+00
4.403194190144e+00
4.068699041226e+00
3.829880967981e+00
3.725936736289e+00
3.747985743581e+00
3.862030550656e+00
4.029822433146e+00
4.219515111319e+00
4.407585906992e+00
4.578882099624e+00
4.724659153801e+00
4.839882599801e+00
4.926945608552e+00
5.154258221663e+00
5.411863170620e+00
6.748690195588e+00
6.829182660100e+00
6.824917060211e+00
6.832983612229e+00
6.847351354440e+00
6.869155167870e+00
6.902053166759e+00
6.951577320420e+00
7.023160274709e+00
7.122138042048e+00
7.254094686276e+00
7.422013759051e+00
7.623328043194e+00
7.840536124267e+00
8.073587193556e+00
8.326869662306e+00
8.618521674964e+00
8.844560461960e+00
8.952310596841e+00
9.118191362362e+00
9.676575752011e+00
1.146437408723e+01
1.255856953964e+01
1.783810795733e+01
1.848070331606e+01
1.724440896674e+01
1.664130433371e+01
1.621959531713e+01
1.584627480232e+01
1.558148602469e+01
1.537391677823e+01
1.522349098061e+01
1.510303647836e+01
1.499488659841e+01
1.489691320668e+01
1.480854443014e+01
1.472850962718e+01
1.465751501506e+01
1.459909304261e+01
1.455151238190e+01
1.451221357429e+01
1.448183589892e+01
1.446017331746e+01
1.444280028372e+01
1.443454121792e+01
2.320957745953e+01
2.319309035036e+01
2.318735906067e+01
2.318030056343e+01
2.316834673241e+01
2.315204950156e+01
2.312862247980e+01
2.310432857652e+01
2.308180589809e+01
2.305921686536e+01
2.303758610461e+01
2.302141883095e+01
2.302124102059e+01
2.309132700165e+01
2.323390165500e+01
2.349498985730e+01
2.384908653771e+01
2.444858114112e+01
2.582183384687e+01
2.512252401965e+01
3.196864987465e+01
3.295966604399e+01
3.193683240282e+01
3.149236896885e+01
3.126935947517e+01
3.116607825417e+01
3.120284612119e+01
3.129502099083e+01
3.140766604361e+01
3.152321234642e+01
3.164429735728e+01
3.176131497119e+01
3.185688213880e+01
3.193338461499e+01
3.199549681524e+01
3.203991154435e+01
3.207490873030e+01
3.212892444686e+01
3.217916242005e+01
4.118932163110e+01
4.107222268087e+01
4.100123138770e+01
4.094352909060e+01
4.084782198290e+01
4.074980097068e+01
4.064098926329e+01
4.049585626653e+01
4.031126220647e+01
4.017492502430e+01
4.001661328819e+01
3.986798155675e+01
3.979396798571e+01
3.976066696145e+01
4.002526109740e+01
4.088762213176e+01
3.953047360852e+01
4.786304471916e+01
4.944104983868e+01
4.882969238713e+01
4.878715523606e+01
4.889686516568e+01
4.904872010295e+01
4.916327200578e+01
4.932964621816e+01
4.951498782633e+01
4.967294822805e+01
4.980044450902e+01
4.991369685803e+01
5.003529360810e+01
5.007681508315e+01
5.022357117408e+01
5.034574371258e+01
5.502279694214e+01
4.435485857260e+01
4.030206250399e+01
2.368478920603e+01
2.032719955262e+01
2.452866570134e+01
3.170418374711e+01
3.835861669035e+01
4.594438615210e+01
5.453411061479e+01
4.577904797887e+01
1.778147611778e+02
6.267843548137e+00
4.122393495688e+01
1.807757246324e+02
2.959012847852e+01
9.673216105104e+01
1.730732130045e+02
3.239164510446e+01
1.679008044877e+02
4.622871905350e+01
1.813767997046e+02
6.790781362793e+00
1.615958541748e+02
6.304185005515e+01
5.928925607790e+01
1.250124099990e+02
1.568680747905e+02
1.531565737830e+02
1.493011459601e+02
1.490194424560e+02
1.514527468782e+02
6.682555135958e+01
6.670302225700e+01
6.770063177392e+01
1.022050721035e+02
1.806187864321e+02
4.062489762561e+01
7.703588723613e+00
1.568168682030e+02
6.705206382802e+01
3.645271539344e+01
1.531185681224e+02
1.711980519102e+02
1.647409688820e+02
1.750434102664e+02
1.796798410966e+02
2.191762253608e+01
6.624868051288e+01
1.798339984185e+02
1.215774646153e+02
6.310062836347e+00
7.669381587798e+01
1.505612377834e+02
2.968200164705e+01
3.950000934286e+01
3.943744335822e+01
5.405706815712e+01
5.368076512323e+01
8.392106455977e+01
1.818662328804e+02
7.257834609002e+00
1.411390308273e+02
6.736593228869e+01
7.198412941544e+01
7.624421609964e+01
8.187825329564e+01
8.652422037496e+01
9.168893136900e+01
8.713635394246e+01
9.704640885059e+01
9.263765677254e+01
9.641089910152e+01
1.026221573201e+02
9.839089147692e+01
1.083824042598e+02
1.043714529989e+02
9.435327921004e+01
1.006010508216e+02
9.038525622935e+01
9.693592098828e+01
1.069946253311e+02
1.036722216727e+02
9.343450037551e+01
1.004771712461e+02
9.029580782585e+01
9.758870963300e+01
8.757733750345e+01
9.496756718942e+01
1.049300234260e+02
1.023471572854e+02
9.266854490020e+01
1.000346959395e+02
9.083647786210e+01
9.819694202345e+01
1.070936985844e+02
1.048349389566e+02
9.639970589872e+01
1.027637134766e+02
9.511683510726e+01
1.014552852475e+02
9.450390933426e+01
1.005225340288e+02
1.072695475107e+02
1.058962394163e+02
9.934206409376e+01
1.040698903389e+02
1.106237205058e+02
1.080516374287e+02
1.146843512430e+02
1.114343408010e+02
1.049319032707e+02
1.075359118810e+02
1.143196693763e+02
1.099154290554e+02
1.030631649000e+02
1.051489751030e+02
1.129697184649e+02
1.077115427298e+02
1.000953772150e+02
1.018407144248e+02
1.097265283701e+02
1.035344068903e+02
9.526863568059e+01
9.711908375370e+01
1.059475736942e+02
9.953653045159e+01
1.088719542018e+02
9.050411712693e+01
9.302425284075e+01
8.382634021720e+01
8.652942138399e+01
1.137166192449e+02
7.726997897279e+01
7.484015726126e+01
8.020710772889e+01
8.973321162767e+01
7.093949579878e+01
7.412070578188e+01
6.493072180493e+01
8.771116103961e+01
1.134707253446e+02
6.830581577791e+01
5.925862040061e+01
5.578050665221e+01
5.035766314987e+01
9.135205127376e+01
1.013422282008e+02
9.607363136659e+01
1.063350431959e+02
1.013285961912e+02
5.396299878370e+01
1.127334569693e+02
1.114672422251e+02
8.321994519398e+01
8.319261847248e+01
1.175039229643e+02
7.753817877450e+01
7.186185299863e+01
8.103458552568e+01
1.152594607811e+02
1.187086507687e+02
1.252233502886e+02
1.288223227294e+02
1.352038488744e+02
1.385823618283e+02
1.322789391992e+02
1.418366757648e+02
1.356342413442e+02
1.441961118637e+02
1.409265481021e+02
1.451222719106e+02
1.390809350800e+02
1.484302891200e+02
1.426070476236e+02
1.325922063783e+02
1.362442562954e+02
1.260938110071e+02
1.217805305738e+02
1.252120382159e+02
1.298580178763e+02
1.333504973186e+02
1.378981569885e+02
1.411189649586e+02
1.456722094542e+02
1.422632532090e+02
1.142903061465e+02
9.771723135018e+01
9.299082846896e+01
9.170933502554e+01
8.694445399754e+01
8.597317734806e+01
8.106117729078e+01
8.036552568482e+01
8.421727432742e+01
7.882154310671e+01
8.144918482661e+01
7.642964181104e+01
7.751747480491e+01
1.120962804826e+02
1.365159986559e+02
1.440794105918e+02
1.392065351309e+02
4.662245232599e+01
1.461886316736e+02
1.493129564699e+02
1.460195996536e+02
1.501164888715e+02
4.534405285579e+01
7.531084467885e+01
7.515851676489e+01
1.114305466576e+02
1.064781722520e+02
1.540291278989e+02
4.898630087886e+01
1.505491560106e+02
7.409566121136e+01
1.400331127590e+02
1.497763432190e+02
1.257089366044e+02
1.469314097701e+02
1.418762824577e+02
8.306749590771e+01
7.789657978033e+01
7.219273000863e+01
7.141106299925e+01
7.796484115732e+01
7.083926392295e+01
6.358895181918e+01
6.245132891652e+01
7.051811812157e+01
6.191737236442e+01
5.237172022667e+01
5.241629263395e+01
1.551118239656e+02
7.241595664848e+01
8.412399698056e+01
1.572997532969e+02
1.531862315180e+02
1.166244611675e+02
1.117462736650e+02
1.016555220473e+02
1.070275526152e+02
1.171471824988e+02
1.124388853409e+02
1.024203018882e+02
1.078067023046e+02
9.787136243430e+01
1.032696863360e+02
1.132341560174e+02
1.087215127533e+02
9.886097803473e+01
1.042780751582e+02
9.450013508806e+01
9.982560596697e+01
1.097222733132e+02
4.112985428582e+01
1.466459015602e+02
1.543582579254e+02
7.546602116942e+01
8.417312424831e+01
9.036877103641e+01
9.376954651138e+01
1.051891564652e+02
1.152261390029e+02
6.933284813205e+01
6.842451390846e+01
1.216472989897e+02
1.439627392516e+02
1.336945256195e+02
8.202196477514e+01
7.392284090841e+01
7.341535160731e+01
6.472502360351e+01
6.583443060809e+01
6.492441203337e+01
1.373056069835e+02
1.187379045209e+02
5.223200315738e+01
4.258641649996e+01
1.534138643799e+02
1.384727276866e+02
1.145616013525e+02
1.212394861809e+02
1.236629547753e+02
1.299284061183e+02
1.325667964419e+02
1.385622128479e+02
1.359203324181e+02
1.497051388728e+02
1.443255932575e+02
9.522114211139e+01
1.313868057489e+02
7.068016014670e+01
3.707924810560e+01
4.152278687619e+01
4.416551685052e+01
5.214609706629e+01
1.618033653320e+02
1.414568336181e+02
1.353923326821e+02
5.632775870573e+01
5.806022332604e+01
1.545856485031e+02
9.125643188042e+01
9.254292743627e+01
8.806423026119e+01
3.576753910798e+01
4.219067147499e+01
1.225965666545e+02
7.467398639207e+01
6.750793096768e+01
7.035753853335e+01
7.020295862668e+01
1.104493610769e+02
1.204380904308e+02
9.991182661853e+01
1.034943625606e+02
1.583847382519e+02
4.323509703548e+01
1.252536827252e+02
1.427172193732e+02
1.342328404252e+02
8.751828296842e+01
6.231976833317e+01
6.366649956866e+01
7.842783006441e+01
5.387704641081e+01
4.726263154334e+01
1.659637996057e+02
1.273301978642e+02
1.415847291898e+02
1.334018879232e+02
1.498003584705e+02
3.227249900719e+01
1.652302512447e+02
1.479879910765e+02
1.441812279984e+02
1.385017472425e+02
7.408056937827e+01
6.655674263563e+01
5.958278225395e+01
5.819516073043e+01
8.262849970007e+01
7.347933132264e+01
8.010268468774e+01
7.399576190255e+01
7.014189588835e+01
6.786417951313e+01
6.067083860556e+01
8.740481274149e+01
1.201793751474e+02
9.660148718537e+01
1.225238838894e+02
1.215865869509e+02
1.232910395212e+02
1.289059186764e+02
8.912761037397e+01
8.474773135358e+01
3.712332779729e+01
3.253690175700e+01
1.122261405425e+02
1.605072738755e+02
1.267955404688e+02
1.319073443930e+02
1.267350419922e+02
1.622875831252e+02
9.554445644570e+01
1.259449339477e+02
6.883462849862e+01
1.162984334555e+02
2.746428260934e+01
1.166912241319e+02
1.570419483643e+02
1.620006074662e+02
1.574968913973e+02
6.761413193617e+01
1.225688338828e+02
1.198257192022e+02
6.428060696630e+01
6.059318873920e+01
6.666234571630e+01
5.730636656586e+01
7.933180100749e+01
7.173238490619e+01
1.509836901114e+02
1.526405702347e+02
1.476440928600e+02
1.420785308992e+02
1.622373243800e+02
1.592083726211e+02
5.491718193527e+01
5.095220317018e+01
1.327564469080e+02
6.826939798674e+01
1.682283216028e+02
1.637104639801e+02
6.699467666173e+01
6.222403684744e+01
1.306988216388e+02
5.057781482619e+01
4.822568476165e+01
5.263612096393e+01
1.744358018767e+02
6.691264349242e+01
1.656553069552e+02
7.046563747666e+01
1.355623671726e+02
1.283754269256e+02
8.158741930011e+01
1.547965526414e+02
1.252822257763e+02
1.364676322391e+02
8.273751405479e+01
7.814869054867e+01
8.698255879119e+01
7.011302775937e+01
6.519700707643e+01
1.242429800180e+02
6.620162439368e+01
7.019241914572e+01
4.579786087146e+01
5.605304124335e+01
1.062354038525e+02
1.028929352022e+02
1.229982551910e+02
1.263693769287e+02
1.171265250314e+02
1.383030113850e+02
1.293151124607e+02
1.257575668547e+02
1.333437114832e+02
1.401003644349e+02
8.640228453255e+01
8.541614175924e+01
8.029450386796e+01
1.376106505627e+02
1.704288100192e+02
1.669083058490e+02
2.269869616750e+01
2.800057888679e+01
5.674981355064e+01
5.888509390806e+01
1.369034285341e+02
1.320780188795e+02
1.429626388195e+02
4.974995369907e+01
1.389748928528e+02
1.693440959355e+02
1.656823798108e+02
1.739563996574e+02
1.524640147810e+02
1.602578193554e+02
1.579268783654e+02
6.424910297874e+01
1.328877079315e+02
7.904461849874e+01
5.510266008590e+01
7.483000828688e+01
8.041679459849e+01
7.013536523726e+01
4.277076633893e+01
7.577750374697e+01
8.166107920055e+01
1.614123235236e+01
1.429678854026e+02
1.798552751349e+01
2.258178195875e+01
1.715247429232e+02
1.668525978806e+02
1.745150875414e+02
1.697693605033e+02
1.619300054786e+02
1.652962973341e+02
7.356554893826e+01
1.742600812797e+02
1.687881242461e+02
1.779513440578e+02
5.151101733045e+01
5.650079293586e+01
4.662365130396e+01
3.696709822182e+01
1.528120740483e+02
1.453239426624e+02
1.522002104405e+02
1.423371668496e+02
7.563890724755e+01
7.522269049129e+01
8.378956372314e+01
8.269649698364e+01
9.140367380825e+01
9.006916437122e+01
9.901647880711e+01
1.611304554242e+02
4.350312369748e+01
5.889623655032e+01
1.667428665728e+02
1.631433447358e+02
5.405273176293e+01
4.481638606640e+01
1.737231655278e+02
8.073168870053e+01
1.493785113122e+02
4.854149861157e+01
6.052852728611e+01
8.063268283722e+01
6.360615882484e+01
5.555585230151e+01
4.722401199352e+01
1.468184085406e+02
2.434267447797e+01
5.467327400581e+01
1.000343663927e+02
4.961197383948e+01
1.474663049858e+02
8.761105996772e+01
7.768076335755e+01
6.099969960346e+01
6.598265871509e+01
8.834111684001e+01
7.726959452671e+01
7.269903178658e+01
9.383073693656e+01
4.842090097991e+01
3.795685957087e+01
8.659873879101e+01
1.217092682624e+02
1.270443839673e+02
1.371075441587e+02
1.324782432249e+02
1.222342244123e+02
1.277447760941e+02
1.379994188109e+02
1.336545212160e+02
1.456485051478e+02
1.394215134378e+02
1.289131239468e+02
1.345398886481e+02
1.441732041613e+02
1.243834217337e+02
1.697315899747e+02
8.830525025263e+01
6.774382312076e+01
6.159301234941e+01
8.032295928115e+01
1.555255852558e+02
1.536130677579e+02
8.121894739684e+01
1.629889288942e+02
7.819322969920e+01
7.496970220328e+01
1.663124236707e+02
1.167572120223e+02
1.118614232443e+02
1.064938391399e+02
1.526423192849e+02
9.166113925618e+01
1.723313876798e+02
1.284309600591e+02
1.228512790876e+02
1.146587160356e+02
1.230671105203e+02
1.767895757540e+02
1.714073786034e+02
1.723360762572e+02
1.653865199340e+02
1.787482350477e+02
1.589672770780e+02
1.606482767643e+02
7.818290629889e+01
8.473529732015e+01
9.141352184400e+01
9.035457708576e+01
8.404435931176e+01
8.894920895661e+01
9.490687227742e+01
8.699816790480e+01
1.360066635517e+02
1.803232888697e+02
1.315720455704e+02
1.277314817253e+02
1.183043070579e+02
9.319160875344e+01
9.946870707000e+01
1.092741242668e+02
8.704876772029e+01
1.275258921370e+02
1.806682423912e+02
1.302521760275e+02
9.605683172091e+01
6.652699530767e+01
7.507413588881e+01
7.548169470944e+01
8.465698923657e+01
7.573839400072e+01
1.097267290532e+02
1.134370727174e+02
1.073144279779e+02
1.173273842865e+02
1.110561139363e+02
1.018113329401e+02
1.211835316125e+02
1.143876002361e+02
6.632763830121e+01
3.692339129370e+01
4.061928999393e+01
2.800682837178e+01
4.310993376064e+01
5.268135378176e+01
5.519701832367e+01
6.149875526042e+01
5.261595132698e+01
1.212340158711e+01
2.011787059614e+01
7.948049751514e+00
1.636808940769e+01
2.900278135386e+01
3.860799532424e+01
1.794685146334e+02
8.616025692772e+01
8.185341453390e+01
7.280287151352e+01
7.821932633504e+01
9.027699088256e+01
6.770438620797e+01
6.494150038574e+01
7.695787267258e+00
1.756494447506e+01
1.654368377866e+01
2.734520549515e+01
2.698474941780e+01
1.761810023811e+01
1.749511801309e+01
7.557758138330e+00
1.707950480060e+01
2.682135414434e+01
7.174165798513e+00
1.120060981494e+02
1.174304075313e+02
1.807435491149e+02
6.758769359226e+01
6.042146302481e+00
1.475014155948e+02
1.496070775489e+02
1.495827223997e+02
1.657635278854e+02
1.701154617956e+02
1.476840643726e+02
6.165113140922e+01
1.424161745383e+02
1.297940144227e+02
6.992377428710e+01
6.383069666398e+01
1.378128272798e+02
1.290951038556e+02
1.584990060985e+02
1.298316008353e+02
1.517598368806e+02
1.728500030141e+02
4.043890635778e+01
9.340830113161e+01
9.009398326439e+01
1.142036747595e+02
6.279640942867e+01
9.777840444396e+01
4.154101795202e+01
1.581592345408e+02
7.645685971647e+01
1.122367275466e+02
8.353346090197e+01
6.805943979796e+01
6.244513167816e+01
8.969904023661e+01
1.024516458183e+02
1.473614982949e+02
1.197291289465e+02
7.634922940423e+00
1.524887464938e+02
1.222388337707e+02
9.705347647780e+01
1.487623170686e+02
5.385113136165e+01
1.178659795019e+02
1.367199438195e+02
8.634963701776e+01
3.244109438077e+01
8.361094741186e+01
1.693313177983e+02
1.164993447011e+02
5.740526014428e+01
1.183304247985e+02
8.514827956912e+01
5.835631403368e+01
1.342041516783e+02
1.109778855839e+02
1.575842538978e+02
1.342689095137e+02
6.059636406874e+01
1.588425682905e+02
1.126736081174e+02
1.280384123822e+02
1.262989241205e+02
1.016397593950e+02
1.218968486963e+02
1.156596338085e+02
1.516958498736e+02
7.328797037081e+01
1.075774142022e+02
1.104756369213e+02
1.095234487691e+02
1.317162469081e+02
1.556702301948e+02
7.279188158413e+01
7.370522188695e+01
9.639793312519e+01
1.470407098339e+02
1.381850330250e+02
7.546603855465e+01
1.537218188518e+02
1.319810643236e+02
1.058098801761e+02
4.427020662577e+01
6.500337726019e+01
8.980556429381e+01
1.088802322887e+02
1.157107022468e+02
1.435126936735e+02
1.569255649013e+02
1.506193598866e+02
4.924525688332e+01
6.309212760223e+01
1.602268244741e+02
1.219347568022e+02
1.561286917279e+02
1.047006912998e+02
1.597321874345e+02
4.819909455465e+01
1.637725504875e+02
1.508647679881e+02
8.105598179096e+01
6.714161729197e+01
1.732790158861e+02
1.584748322725e+02
1.188709708290e+02
1.176962002011e+02
4.995557374816e+01
1.191469368620e+02
1.104333738100e+02
1.521735447184e+02
1.615631279365e+02
1.016096932494e+02
1.126428333835e+02
1.339604074106e+02
2.685482933062e+01
5.503909532121e+01
1.160730911977e+02
9.271274404389e+01
1.209484222596e+02
1.651465210795e+02
1.197209618501e+02
9.868872607796e+01
1.235284032037e+02
4.266615728936e+01
1.071225641611e+02
1.274566113759e+02
1.199132974393e+02
2.711253761584e+01
1.251129998982e+02
1.611417050792e+02
8.169787616696e+01
1.240800628335e+02
1.174258724969e+02
3.576816625162e+01
1.333035710723e+02
1.292512742759e+02
1.309097335838e+02
1.170496398515e+02
1.423248136210e+02
4.157186053360e+01
5.858796515986e+01
4.884621135478e+01
1.011313150773e+02
1.325155277965e+02
3.571044869779e+01
1.185403041245e+02
3.501718773900e+01
9.666981891056e+01
1.445190818482e+02
9.314789398992e+01
9.803201531100e+01
5.141489270482e+01
9.247557920326e+01
1.257079339321e+02
9.415226855691e+01
8.747927581461e+01
1.399017156549e+02
8.854593556082e+01
1.492602307832e+02
1.798101525818e+02
7.434556843095e+01
2.871912570455e+01
3.932625916627e+01
3.942235275647e+01
7.295329927094e+01
1.202817647859e+02
7.464357259310e+01
6.566182783538e+01
1.496444406795e+02
1.696744000635e+02
1.072058741882e+02
1.601508623579e+02
1.365400655691e+02
1.307697865443e+02
6.611383270530e+01
1.454443797531e+01
1.368789975747e+02
2.653307280366e+01
4.037589307461e+01
4.651507773953e+01
6.296227113048e+01
3.358039990983e+01
3.333917350439e+01
1.698582106407e+02
7.409005365136e+01
1.470031272964e+02
4.286650126810e+01
1.420299146373e+02
1.642786186070e+02
1.813742971707e+02
1.552528211789e+02
5.263046608086e+01
8.243807000518e+01
1.563583875853e+02
1.148901343635e+02
1.816060549693e+02
7.282431657688e+01
1.411240422103e+02
6.765721234711e+01
1.411744434216e+02
1.302242129218e+02
8.601641120246e+01
8.264657188851e+01
1.742391377866e+02
1.470003701712e+02
5.634005484560e+01
1.065478940744e+02
7.900369601439e+01
5.814227383122e+01
1.748572403957e+02
1.396932190413e+02
1.740351610532e+02
2.711896290689e+01
1.383949423542e+01
1.758525789198e+02
1.535808663731e+02
6.532231272179e+01
1.521420360741e+02
6.011246981091e+01
6.480654673018e+01
1.570505381209e+01
1.812988739515e+02
1.421082007351e+02
8.629625464035e+01
6.734757244467e+01
5.716018052962e+01
1.544559502263e+02
2.292396612569e+01
1.428230118503e+02
1.754162988658e+02
1.458217793191e+02
1.763292452535e+02
5.748826477472e+01
1.650635109639e+02
1.677249798621e+02
6.621808649224e+01
1.458337134552e+02
6.988495883999e+01
3.419376597167e+01
1.503096471954e+02
6.000776527993e+00
6.599059388013e+01
1.816233339453e+02
3.386155075493e+01
8.117686154434e+01
1.525600703931e+02
1.072028129003e+02
1.250228562864e+02
4.543284473715e+01
3.731798883732e+01
9.817536899333e+01
1.671136417181e+02
1.452382349905e+02
9.133604149222e+01
6.117562381657e+01
1.473780707277e+02
9.369166250774e+01
1.515701185972e+02
1.659790490063e+02
5.556902033181e+01
1.161720421789e+02
1.411284040291e+01
1.762897486883e+02
9.768204545614e+01
1.601208920594e+01
5.530598988136e+00
1.657309162041e+01
1.043919755879e+01
2.241233776713e+01
1.853355640465e+01
2.967675558431e+01
2.793474431376e+01
3.650953419256e+01
3.642858966860e+01
4.425982587675e+01
4.595252846411e+01
5.294630352670e+01
5.458224426513e+01

SCALARS node_materi_strain_total_average_a_ept float
LOOKUP_TABLE default
5.135385237511e-04
2.132504621883e-03
1.971921989035e-03
3.590062871408e-03
4.639973458282e-04
4.810002687751e-04
4.699115377990e-04
4.900766648786e-04
4.983734078552e-04
5.207988698935e-04
5.553147961332e-04
6.013163115779e-04
6.621047431743e-04
7.357520310686e-04
8.230818291232e-04
9.213372890735e-04
1.026596524276e-03
1.142844856656e-03
1.274453875557e-03
1.411452978569e-03
1.556917111735e-03
1.710574142718e-03
1.860402712398e-03
3.598943303897e-03
3.588043215883e-03
3.585056730105e-03
3.576284509016e-03
3.557746828146e-03
3.549563715946e-03
3.527778732685e-03
3.502048306707e-03
3.477894325913e-03
3.446835681127e-03
3.401133316188e-03
3.362845513642e-03
3.308954947498e-03
3.252249371364e-03
3.183762267528e-03
3.109222614169e-03
3.024760465026e-03
2.934827332563e-03
2.841767425214e-03
2.742539978578e-03
2.632768025159e-03
2.514807538530e-03
2.396538537864e-03
2.275863693311e-03
2.157937604044e-03
2.045819027075e-03
1.932810603635e-03
1.836776832757e-03
1.741069779118e-03
1.665654429304e-03
1.592875239664e-03
1.531737971700e-03
1.485975984028e-03
1.468197309837e-03
1.459376968922e-03
1.459737918421e-03
1.489532669379e-03
1.512271612799e-03
1.556595934480e-03
1.598344845608e-03
1.655352676119e-03
1.719735337109e-03
1.770613371588e-03
1.805298433049e-03
1.869763315543e-03
1.900439965578e-03
1.937306441752e-03
1.964231193603e-03
1.976603826591e-03
2.277195447483e-03
2.419789822917e-03
2.564422079479e-03
2.709255494985e-03
2.858840394990e-03
3.011084258412e-03
3.164525583976e-03
3.322895869798e-03
3.478021481786e-03
-1.417182537358e-03
1.806946206594e-03
-3.434420178561e-04
2.361351534101e-04
6.735646906857e-04
1.027700499598e-03
1.135296993561e-03
1.233834341888e-03
1.349125505291e-03
1.482936579551e-03
1.636205241064e-03
1.227494417899e-03
1.311830089569e-03
1.447204014735e-03
1.582670455407e-03
1.718611490638e-03
1.854408086691e-03
1.990645343330e-03
2.114713388980e-03
2.121041176042e-03
2.115948944348e-03
2.106182618538e-03
2.115249505555e-03
2.086946433879e-03
2.069193056102e-03
2.053057268354e-03
2.032367525134e-03
2.004464339210e-03
1.973209899521e-03
1.937851674712e-03
1.898585722883e-03
1.857750938419e-03
-2.040789182557e-03
-2.329700255687e-03
-2.410719276803e-03
-2.187074622800e-03
-1.318252907812e-03
-4.900134053197e-04
-1.531559286048e-04
-2.065165744267e-05
4.459756988736e-05
1.089377646572e-04
1.629946620611e-04
2.257218675290e-04
2.945154035836e-04
3.578010981727e-04
4.061128575070e-04
4.484681757040e-04
4.802382867553e-04
5.023458306032e-04
5.240448847196e-04
1.001527234576e-03
1.124565234517e-03
1.211838557157e-03
1.258553683182e-03
1.297046681308e-03
1.329974548321e-03
1.353344292505e-03
1.358313122226e-03
1.359841778199e-03
1.359416995879e-03
1.354805294961e-03
1.346803490226e-03
1.336871228086e-03
1.326010943237e-03
1.315166280421e-03
1.304936715891e-03
1.295663099003e-03
1.287437790012e-03
1.280358170047e-03
1.274528918441e-03
1.269940439963e-03
1.266592903090e-03
1.263960526336e-03
1.252693217614e-03
1.227310714570e-03
1.314284767612e-03
1.322766370394e-03
1.324199706179e-03
1.325792987280e-03
1.327874438747e-03
1.330531671151e-03
1.333803279225e-03
1.337637769937e-03
1.341911984806e-03
1.346468250445e-03
1.350990954349e-03
1.354974467055e-03
1.357730948500e-03
1.358467132046e-03
1.357095794673e-03
1.353206342236e-03
1.345613202466e-03
1.335268062450e-03
1.316392313316e-03
1.282850706189e-03
1.245998221194e-03
1.187068723361e-03
1.133666332667e-03
1.207120038877e-03
1.254027520009e-03
1.306527114108e-03
1.341023321423e-03
1.368509035232e-03
1.388867850721e-03
1.404611701125e-03
1.416648544929e-03
1.426802340211e-03
1.436445744857e-03
1.443041981815e-03
1.447333272551e-03
1.450093086260e-03
1.451882739130e-03
1.453058335711e-03
1.453802326858e-03
1.454317787247e-03
1.454786283935e-03
1.455251177462e-03
1.455686704968e-03
1.453525091634e-03
1.448012284443e-03
1.583803278123e-03
1.586221602703e-03
1.585178356972e-03
1.583324602715e-03
1.580617246203e-03
1.577089632526e-03
1.572863315845e-03
1.567417816315e-03
1.560625923525e-03
1.552340262962e-03
1.541851812837e-03
1.528309157714e-03
1.510570216663e-03
1.491332866320e-03
1.472128986739e-03
1.449067356887e-03
1.420262800849e-03
1.387507380934e-03
1.341128117357e-03
1.293743999696e-03
1.400284559798e-03
1.450074820215e-03
1.493929038769e-03
1.526940726199e-03
1.556116324516e-03
1.582260269616e-03
1.609181235184e-03
1.631934156523e-03
1.650309848627e-03
1.665284844587e-03
1.677865474115e-03
1.688600068324e-03
1.697106167291e-03
1.704092048684e-03
1.710006943612e-03
1.714455016254e-03
1.717515647595e-03
1.719165368169e-03
1.718750185828e-03
1.854505438956e-03
1.853115227571e-03
1.849704576347e-03
1.844617277624e-03
1.837855312253e-03
1.829086510386e-03
1.818327479162e-03
1.804498172865e-03
1.788274335053e-03
1.769566304793e-03
1.747982672125e-03
1.721542170762e-03
1.689956183183e-03
1.654539581450e-03
1.621278673851e-03
1.580752564253e-03
1.528823207294e-03
1.675077185403e-03
1.729295779041e-03
1.771823631230e-03
1.809900374269e-03
1.843160539246e-03
1.871431416355e-03
1.895722157333e-03
1.917613924256e-03
1.936387964226e-03
1.950756279565e-03
1.963170012527e-03
1.972370205139e-03
1.980249898694e-03
1.985824590522e-03
1.990415241117e-03
1.991583136028e-03
-7.602979488864e-04
-1.656105219548e-05
4.196621469210e-04
9.062732387569e-04
1.076330788825e-03
1.185459900996e-03
1.294027646240e-03
1.420160550142e-03
1.565728991307e-03
1.726453815459e-03
1.009962094589e-04
1.471326426470e-03
4.332274036619e-05
-1.428112968923e-03
1.506355980042e-03
8.721582553311e-04
7.782010177877e-04
1.676256099337e-03
1.171959556664e-03
2.058176448516e-03
1.453302564547e-03
1.696153643210e-03
2.971254424773e-04
2.506505951116e-03
1.798971043618e-03
5.352541094940e-04
1.060884322385e-03
2.801186789152e-03
3.133131575028e-03
3.470458203349e-03
3.386666151836e-03
3.295564284443e-03
1.983737592332e-03
2.138327775769e-03
2.213889466210e-03
2.785144862120e-03
1.809509757252e-03
-1.782829374688e-03
4.313425432059e-04
1.477124339141e-03
2.236314414470e-03
4.810012451535e-04
2.962219798514e-03
1.861074266835e-03
2.282249883600e-03
1.553298528931e-03
1.446042186992e-03
-2.558105072650e-04
2.067249991979e-03
1.570050942736e-03
3.082236219185e-03
1.675165435486e-04
6.277634276379e-04
3.517697089891e-03
1.039458107388e-03
5.185841484846e-04
1.305032512694e-03
1.620593526713e-03
-5.636607159804e-04
2.503567447548e-03
1.892652764210e-03
4.723612138553e-04
3.393839989056e-03
1.886396818904e-03
1.894829150940e-03
2.006537845372e-03
2.003824557063e-03
2.125056466170e-03
2.122619184304e-03
1.997620889290e-03
2.117556475697e-03
1.987325789216e-03
2.245880856461e-03
2.108850573584e-03
1.973284379589e-03
2.095981822477e-03
1.955810701141e-03
1.839087799008e-03
1.815428016799e-03
1.706175447983e-03
1.676516311900e-03
1.789975714576e-03
1.645527104040e-03
1.539691505033e-03
1.501710719670e-03
1.403390628468e-03
1.359285473852e-03
1.269629546541e-03
1.220487862135e-03
1.317569108901e-03
1.175012338092e-03
1.090444924207e-03
1.042931683246e-03
9.709585036222e-04
9.267042357982e-04
1.003930596078e-03
8.915792457319e-04
8.253106928468e-04
7.904776991385e-04
7.345169409185e-04
7.095885483649e-04
6.736813623599e-04
6.562044061913e-04
6.852112450746e-04
6.325368274036e-04
5.979276608312e-04
5.798386537142e-04
6.048448451965e-04
5.543238657228e-04
5.785698731877e-04
5.219910645994e-04
4.914017701320e-04
4.619321293942e-04
5.041085054872e-04
4.455280809903e-04
3.981100233525e-04
3.944169567203e-04
4.552653111790e-04
4.154565396570e-04
3.517959928451e-04
3.892960868518e-04
4.449091364391e-04
4.238653594423e-04
3.726210099262e-04
4.113698665000e-04
4.678318657154e-04
4.572163052301e-04
5.275630928365e-04
4.043513648956e-04
4.519348100846e-04
4.025427192996e-04
4.502677908138e-04
9.757375586120e-04
4.034047704088e-04
3.573283000020e-04
4.507592478865e-04
5.050018248187e-04
4.059693480582e-04
4.524708266056e-04
4.109539047932e-04
6.911529902493e-04
1.764150883383e-03
4.551098942557e-04
4.169493191563e-04
3.751121955885e-04
3.838310408944e-04
2.239157633081e-03
2.371238348446e-03
2.358333685399e-03
2.495785174916e-03
2.478857201163e-03
4.241093350733e-04
2.236483508706e-03
2.507425537885e-03
1.447996489231e-03
1.026293012714e-03
6.368444105131e-04
5.010731338237e-04
5.003214754967e-04
5.523368753841e-04
5.459881823622e-04
6.234584645989e-04
6.543972838796e-04
7.454836786214e-04
7.902624539478e-04
8.845367691743e-04
8.401806521730e-04
9.783189361501e-04
9.347163243805e-04
9.367224578799e-04
8.473063422454e-04
1.071608804878e-03
1.027968444998e-03
1.164591452100e-03
1.118367778144e-03
9.855677089310e-04
1.072487867539e-03
9.461603689525e-04
6.230636752606e-04
7.123820337026e-04
7.310574647385e-04
8.575528996803e-04
8.817978085299e-04
9.989603161309e-04
1.016293905813e-03
9.087211663135e-04
2.078354272040e-03
5.198001378464e-04
5.316230342933e-04
4.360056307139e-04
4.503970307033e-04
3.299822566918e-04
3.469028865491e-04
1.842009246344e-04
1.854416819334e-04
-1.127218668377e-05
3.592121762097e-05
-1.972370654119e-04
-7.601976633158e-05
1.280622133119e-03
9.867732440769e-04
1.116970669988e-03
1.109912662904e-03
3.423315020802e-04
1.205466081390e-03
9.937857802260e-04
9.111932753910e-04
1.043917581238e-03
3.943206103506e-04
2.122604057437e-04
3.730622375374e-04
2.619006555905e-03
2.597597707986e-03
1.054324817145e-03
4.354086524112e-04
1.118408824515e-03
-2.571435047745e-04
1.156445313204e-03
1.291103388389e-03
8.037017143372e-04
1.236822147643e-03
1.233334036969e-03
1.050405374907e-04
4.467650301962e-05
-1.017022021990e-04
1.735472402507e-05
1.244629678359e-04
9.466090945255e-05
7.051335460189e-06
1.049118667430e-04
1.601846996897e-04
1.600271845208e-04
9.760431768409e-05
1.627739950811e-04
1.344229125646e-03
-4.734245508887e-04
1.734074177832e-03
1.132647835362e-03
1.140833185976e-03
2.741849765814e-03
2.715066002427e-03
2.571557852905e-03
2.684243074121e-03
2.831458356175e-03
2.795812887928e-03
2.649668557051e-03
2.756830396857e-03
2.611784725921e-03
2.714646713582e-03
2.863125840710e-03
2.816629574823e-03
2.669156980876e-03
2.767370139629e-03
2.620564045436e-03
2.714879892725e-03
2.864768399419e-03
4.162351253090e-04
9.451547788520e-04
1.078955625580e-03
5.455517708214e-04
6.066498208133e-04
6.213953252443e-04
6.827003320040e-04
2.807597116292e-03
2.961027683406e-03
2.521902244207e-04
4.056251614761e-04
2.764376419301e-03
1.236696071664e-03
1.107115219343e-03
9.159984948837e-04
9.786497843232e-04
8.724174129238e-04
9.419991184636e-04
1.044607745687e-03
8.309111187332e-04
7.593327805374e-04
2.967973305883e-03
3.324865931851e-04
2.978649376974e-04
1.374043766057e-03
8.000276564184e-04
1.432721202628e-03
1.404910990723e-03
1.559551087693e-03
1.534564335463e-03
1.687941670968e-03
1.660726288260e-03
1.513427448097e-03
1.359706044520e-03
1.638830318391e-03
2.657293529295e-03
9.708335677466e-04
2.059941377095e-04
3.728090748090e-04
1.277849509540e-04
4.456567711244e-04
4.680366511588e-04
1.188414020470e-03
1.815080332858e-03
1.842063503002e-03
1.015301375580e-03
1.112018590855e-03
1.356461457830e-03
2.343980331747e-03
2.508108180873e-03
2.471293458486e-03
4.294388058256e-04
5.850249843035e-05
2.946397609093e-03
4.933872848278e-04
5.239374097436e-04
-5.618098496503e-04
-7.791446592540e-04
2.899376044103e-03
3.053014616039e-03
7.036982456441e-04
7.720222160086e-04
1.119497730099e-03
1.851988626502e-04
3.115876288992e-03
8.494937453062e-04
6.944009706694e-04
6.622499582787e-04
2.860356912089e-04
8.426892513901e-05
2.069652430830e-04
2.229563082441e-04
4.743897566614e-04
1.245534134100e-03
2.982699482994e-03
1.495634589191e-03
1.366950506067e-03
1.616345657080e-03
1.479959580722e-04
1.266641742833e-03
1.313378703764e-03
1.965534133136e-03
1.995980823908e-03
5.900370927847e-04
6.203360538340e-04
5.651223339024e-04
6.826138402314e-04
1.876598745343e-03
6.692965963219e-04
1.612636006516e-03
1.643957237861e-03
1.530555897381e-03
1.147057675046e-03
1.208025912061e-03
5.459233811253e-04
7.171453936135e-04
6.351126449238e-04
8.609368025528e-04
5.741168135900e-04
3.015295778216e-03
3.123118819477e-03
2.525080129907e-03
2.476651708505e-03
3.073379389584e-04
2.608766268994e-04
6.019749030000e-04
1.213821903700e-03
2.890898242927e-03
2.914389813876e-03
2.782595127010e-03
1.183546477049e-03
4.265806766051e-04
6.289304703385e-04
-6.111130860459e-04
1.105649486057e-03
2.760269687910e-04
1.913193727016e-03
1.454847624569e-03
1.515832751227e-03
1.473742594020e-03
1.791059344637e-03
1.091701349147e-03
9.596081770720e-04
1.564042651469e-03
1.462886753373e-03
1.420349811740e-03
1.361315106353e-03
2.580323595671e-04
2.614439109189e-04
1.951081954921e-03
1.757404093119e-03
2.124500919999e-03
2.158879187482e-03
1.466621935078e-03
1.357417218180e-03
4.977208297232e-04
1.174897839990e-03
3.101361892609e-03
1.669435590554e-03
1.342364123327e-03
1.301851551147e-03
-9.592540140381e-04
-6.270268259324e-04
3.210358214205e-03
6.478100112555e-04
7.821556703081e-04
5.023127513588e-04
1.785295630415e-03
2.242779124998e-03
1.602516050442e-03
1.255983900721e-03
3.275630577569e-03
1.092725848266e-03
8.133943913360e-04
1.053923284564e-03
3.134174269327e-03
3.306567270644e-03
2.371259422117e-03
2.329385387960e-03
2.400603517979e-03
-2.252688113480e-04
-5.254627621502e-04
3.071545154443e-03
4.999544956233e-04
5.482590971027e-04
2.420967676769e-04
2.792989397654e-04
7.252621837572e-04
6.497784781831e-04
1.890510492271e-03
2.041600259445e-03
1.586221452905e-03
7.567127653380e-04
6.075123179724e-04
5.732141505806e-04
3.168773080824e-03
3.292328908821e-03
2.631735098721e-04
2.263597853980e-04
3.116246775443e-04
3.138465586061e-03
1.661795643118e-03
1.575099620182e-03
2.236148270214e-04
2.176037059821e-04
1.703812616877e-04
-6.653843395263e-05
2.931203285860e-03
2.795509892311e-03
3.075878729279e-03
5.001514873891e-04
1.360833673824e-03
1.296225242624e-03
1.255111748082e-03
1.377313200818e-03
1.480483431462e-03
1.581846838074e-03
1.726773982579e-03
-1.181318471041e-03
3.260877497035e-03
2.378074358938e-03
-1.399899674854e-03
2.331680374757e-03
2.423677580982e-03
2.271373943675e-03
4.829948551028e-04
2.247809392933e-03
2.291726795552e-03
1.569428048459e-04
3.262039642140e-03
2.438158516187e-04
3.044272596534e-04
1.438428372795e-03
1.394287271693e-03
1.522406594382e-03
1.479342396859e-03
1.347372082457e-03
1.442212013052e-03
2.280217966092e-03
1.594360599241e-03
1.541556489726e-03
1.698623230628e-03
1.407809832321e-03
7.995356817648e-04
8.972645064715e-04
9.007548681532e-04
2.313115792842e-03
2.310917580217e-03
1.392878108070e-03
1.255997581301e-03
2.359536087192e-03
2.362568313169e-03
2.489340713622e-03
2.480274667042e-03
2.609327204065e-03
2.595478943613e-03
2.729869671327e-03
1.886667993219e-03
6.017005663315e-04
1.592480014536e-03
1.458512251681e-03
1.352381048003e-03
1.265618645113e-03
1.235829670214e-03
1.410712571329e-03
6.447542736001e-04
3.316834717189e-03
-1.409575842962e-03
-1.016049701260e-03
7.177121012361e-04
1.310664453584e-03
9.118991820759e-04
9.915341169311e-04
9.115968602742e-04
1.710169261847e-04
3.392361484068e-04
2.737269085389e-03
2.317831186446e-04
1.335956082169e-03
6.275181968353e-04
1.198988102980e-03
4.373039160516e-04
7.179975959984e-04
1.859468841908e-03
1.889000375246e-03
1.777338090073e-03
6.131148754412e-04
1.092613431221e-03
1.080788185395e-03
1.577248158018e-03
2.649217064201e-03
2.657888647041e-03
2.799561639897e-03
2.658933595312e-03
2.518074216169e-03
2.516389229715e-03
2.662274300630e-03
2.513148160658e-03
2.683630091051e-03
2.498452035832e-03
2.358987491655e-03
2.341346457176e-03
2.463910323269e-03
2.206686138996e-03
1.553384785063e-03
7.675621699190e-04
-9.006149069512e-04
-6.100230433849e-04
1.321308476352e-03
2.887722481966e-03
3.060449047164e-03
4.680275246517e-04
2.393951658257e-03
1.757987959779e-03
-2.293371523070e-06
2.169819694129e-03
2.515115863218e-03
2.379415881489e-03
2.377426150395e-03
3.194805718737e-03
2.431144073006e-03
1.775118869085e-03
8.357240471302e-04
8.284427827093e-04
7.365935641961e-04
2.370286225373e-03
1.501462675131e-03
1.409099454858e-03
1.383375219936e-03
1.300299420931e-03
1.452884166441e-03
2.718436102611e-03
2.622156894512e-03
1.666717208991e-04
2.056695728676e-04
2.725716947275e-04
2.620963906147e-04
1.685670962276e-04
2.401414778464e-04
3.372155982667e-04
2.105468384102e-04
2.176290077221e-03
1.460962205966e-03
6.987508804639e-04
6.153972725155e-04
5.129042593432e-04
5.676458358909e-04
5.763139369034e-04
6.662415334171e-04
5.600956901576e-04
1.383113016792e-03
1.478473950543e-03
6.523395935871e-04
5.091614259377e-04
2.027803007845e-03
2.114841856439e-03
2.064179813073e-03
2.211677510392e-03
2.173579493338e-03
8.002484830516e-04
8.724641319923e-04
8.364496225720e-04
9.410522440759e-04
8.958424213070e-04
8.039700094774e-04
1.004352286261e-03
9.424677015808e-04
2.101701982974e-03
-7.366047429590e-04
-3.615756379170e-04
-9.130880769061e-05
-1.319696388211e-04
-3.757746212136e-04
-1.286167844127e-04
-2.842540785790e-04
-7.633930779165e-04
-9.541052743579e-05
-3.479098693138e-06
-1.643335229997e-05
5.440791216925e-05
8.947558324476e-05
2.556004389343e-04
1.825394981283e-03
6.941727902800e-04
6.521526078281e-04
5.957208832973e-04
6.097075696688e-04
7.207301999906e-04
5.750772021412e-04
5.534775564985e-04
4.573242046669e-04
4.604447184392e-04
4.746684656184e-04
4.699897358859e-04
4.594400099173e-04
4.425746622794e-04
4.115298191193e-04
3.961801604340e-04
3.750191546783e-04
4.022710636214e-04
3.506144384059e-04
2.935198680979e-03
3.017977800972e-03
1.539591440360e-03
2.175947071231e-03
1.014912376580e-04
3.459426418588e-03
3.428955868778e-03
3.456642293498e-03
1.628265994390e-03
1.695829346476e-03
3.484887057765e-03
3.678416923940e-04
2.796804663258e-03
3.173454498068e-03
5.533847806587e-05
2.686923738115e-04
1.181117613580e-03
8.957478984299e-04
1.431369666552e-03
1.028329645066e-03
1.255719720808e-03
1.363790931273e-03
4.613286506888e-04
2.569927289873e-03
2.568618465985e-03
2.917827262863e-03
4.584656819165e-04
7.472389920121e-04
3.549973114202e-04
2.118762373503e-03
1.491761860677e-03
4.858283210367e-04
5.027862766210e-04
3.616764562613e-04
2.125905448946e-04
8.660572342635e-04
5.161286983738e-04
1.027230639552e-03
3.017782651029e-03
2.329730299885e-04
1.078453835816e-03
7.114863295841e-04
2.541482573646e-03
1.126387817233e-03
1.005474070450e-05
2.905997427915e-03
3.039248147722e-03
2.322128787841e-03
3.300086372683e-04
2.426403270860e-03
1.309228877668e-03
2.636585265591e-03
4.620546260552e-04
5.625709977517e-04
1.143368769500e-03
1.709422955973e-03
3.225294885937e-03
8.621932553228e-04
1.171241529030e-03
7.617367520808e-04
4.983816606245e-04
1.256927016325e-03
6.595852045032e-04
3.058682329696e-03
1.713936810357e-03
5.087732669634e-04
2.863379724550e-03
4.768275464159e-04
1.240335081726e-03
1.372536324038e-03
1.465328880110e-03
1.934953168499e-03
1.135843923105e-03
1.125808385841e-03
1.166183310258e-03
-3.204280902724e-04
7.634000721889e-04
2.458772788621e-03
1.780000421578e-03
3.213548217571e-03
1.085866961266e-03
1.210008937709e-03
3.014018283627e-03
5.870512961346e-04
4.898402720249e-04
-1.685268485256e-04
3.274360821073e-04
7.613174610032e-04
6.859655837340e-04
2.953977479620e-03
1.302079628250e-03
9.804744436631e-04
-1.909362598035e-04
1.692051034578e-03
1.394789557971e-03
5.626864251537e-04
1.244325114482e-03
8.485791835830e-04
2.011768782192e-03
1.321337072949e-03
1.488956157281e-03
9.961885559370e-04
5.647918950851e-04
2.243252571304e-03
1.657115827819e-03
1.127703921766e-03
1.252051295889e-03
5.070858586081e-04
1.534579114336e-03
7.737338498139e-04
1.615114512929e-03
3.252369081884e-03
1.196413470177e-03
2.246925128407e-03
7.480181791552e-04
1.100964052416e-03
4.378021300831e-04
1.500712118798e-03
8.295999588970e-04
3.328045876559e-04
5.190553638828e-04
1.578144925466e-03
9.089686452382e-04
4.217497503103e-04
9.850402611415e-04
1.377689957416e-03
2.243979246815e-03
1.058278723386e-03
1.738977589475e-03
3.647426079238e-04
1.233521646951e-03
1.539720336587e-03
3.574783212536e-04
5.513099414464e-04
2.377468767419e-03
1.238679687626e-03
6.747339163859e-04
1.866969546502e-03
1.227732026834e-03
8.394831017714e-04
8.323747103396e-04
1.159720555505e-03
3.249960544993e-04
2.902554455159e-04
4.157534323071e-04
2.022099059183e-03
4.707307025416e-04
2.223408194550e-03
2.092317476767e-04
3.384030129250e-04
1.361769942570e-03
2.643542501185e-03
3.344453357046e-04
5.061715761313e-04
2.860861220397e-04
9.568461499884e-04
3.260467173460e-04
3.153712797303e-04
3.326886090927e-03
3.619832141968e-04
3.515579476432e-03
1.872492219601e-03
2.356030268068e-03
1.127764087551e-03
-1.855796411161e-03
9.738143554957e-04
3.112028523398e-04
2.059253965719e-03
2.359250588023e-03
3.164158320688e-04
2.623767238806e-03
1.956477516194e-03
2.860204094982e-03
1.250388842614e-03
1.231405787152e-03
3.229747413141e-03
2.202346575771e-03
9.928765682657e-05
1.201490832094e-03
9.873179905418e-04
7.597937223853e-04
4.200942138001e-04
5.289194994430e-04
2.144399514751e-05
7.347066628632e-04
1.431765785136e-03
2.251648421121e-03
1.486459522179e-03
3.381847796986e-04
3.161653137655e-03
1.724851816664e-03
1.646620473378e-03
1.602337979623e-03
8.038526208657e-06
2.231877417245e-03
2.222288791563e-03
2.972151602371e-03
1.733948540693e-03
2.176197220626e-03
3.375012202711e-03
-3.155138255541e-04
3.390541818775e-03
2.190216818740e-03
2.516040883675e-03
2.129835534190e-03
1.757059229624e-03
2.798859502651e-03
-3.401695978448e-04
2.843924911869e-03
5.920310341585e-04
-1.119055929506e-03
1.460102697989e-03
2.320920905430e-03
1.705643834650e-03
4.791404991765e-04
1.895262408297e-04
1.420635850799e-03
2.457051039852e-03
-8.921276480496e-05
3.397854296987e-03
-8.286931000889e-04
2.157781047082e-03
3.283907109861e-04
1.795294301186e-03
3.299344310391e-03
6.759770176259e-04
1.939740518036e-03
5.224960097864e-04
1.872414459153e-03
1.158801150863e-04
3.354100422304e-03
1.393942286015e-03
3.053197663604e-03
1.641216570595e-03
-1.347331102378e-03
1.834729281768e-03
1.300075799928e-03
2.217660629410e-03
2.917263591381e-03
5.671946878750e-04
4.019216050357e-04
3.539998623225e-03
4.913160698544e-04
2.228822224389e-03
1.919257074311e-03
4.532678616976e-04
2.459971313349e-03
2.558211093999e-03
8.772873249610e-04
3.139247623960e-03
-2.489455156025e-05
-1.893794302279e-03
2.721060627567e-03
1.664598788814e-03
3.164490747177e-03
2.601873121652e-03
-3.218564841569e-04
2.424185443132e-03
7.278509994491e-04
2.081522102003e-03
1.347335301983e-03
-1.005678826128e-03
9.664802602449e-04
2.825857703751e-04
1.585402455205e-03
7.751767881528e-04
1.070895557055e-03
1.238198698924e-03
1.132439279491e-03
1.384352735605e-03
1.218920257537e-03
1.509460640754e-03
1.320057046436e-03
1.656027477897e-03
1.438865978207e-03
1.781616236347e-03
1.579730894541e-03
1.927893645365e-03
1.732276709057e-03
2.055202041093e-03

SCALARS node_materi_strain_total_size_dev_sd_ept float
LOOKUP_TABLE default
2.484542184548e-03
6.855770690931e-03
4.961077873236e-03
8.908022612822e-03
1.811014073166e-03
9.694971334806e-04
6.074548021000e-04
1.248314394989e-03
1.974538187664e-03
2.560952814557e-03
3.025542757707e-03
3.375157297926e-03
3.629361361219e-03
3.820313010181e-03
3.966714547447e-03
4.097472312815e-03
4.213755474667e-03
4.323466750956e-03
4.451434395482e-03
4.580618181217e-03
4.710037661721e-03
4.830704507661e-03
4.930271360883e-03
8.900477025100e-03
8.886224238883e-03
8.886537420562e-03
8.876491420912e-03
8.866515236043e-03
8.860106712453e-03
8.846937856447e-03
8.821936021124e-03
8.805522610167e-03
8.773740684437e-03
8.745078523772e-03
8.711538748066e-03
8.669533443959e-03
8.612121163372e-03
8.554021979653e-03
8.469000286400e-03
8.383180633639e-03
8.283483664451e-03
8.161554289996e-03
8.018258873644e-03
7.837773459940e-03
7.631856613953e-03
7.388083560718e-03
7.108021936156e-03
6.802001454906e-03
6.465104466761e-03
6.098014880052e-03
5.703830860716e-03
5.300009078584e-03
4.926894847242e-03
4.533539822693e-03
4.142170657152e-03
3.811840406404e-03
3.601127199798e-03
3.460639565835e-03
3.430118005867e-03
3.477399990087e-03
3.588799962832e-03
3.731989964819e-03
3.911372588570e-03
4.103362192120e-03
4.301103283130e-03
4.451135401181e-03
4.561133559665e-03
4.706799270224e-03
4.783926079694e-03
4.855809832663e-03
4.912895848818e-03
4.941176169300e-03
7.185261443694e-03
7.493401459878e-03
7.768417667615e-03
8.010394572908e-03
8.229911162206e-03
8.422302298603e-03
8.588461775375e-03
8.727559471823e-03
8.855761837944e-03
4.426128752310e-03
7.054511155401e-03
5.107034915036e-03
5.170095264406e-03
5.185778532289e-03
4.632317505050e-03
4.771267347506e-03
5.131144434462e-03
5.599691662996e-03
6.098928477277e-03
6.591603391090e-03
4.237435915003e-03
4.495869118944e-03
4.899960711554e-03
5.305077474013e-03
5.706769231201e-03
6.101718946417e-03
6.478831212834e-03
6.805218122022e-03
6.833458274476e-03
6.849370072324e-03
6.862001688239e-03
6.924901100421e-03
6.909417848912e-03
6.932800081885e-03
6.959411420679e-03
7.000734316924e-03
7.028014062999e-03
7.049030389059e-03
7.063346647744e-03
7.064094637149e-03
7.056882609962e-03
3.110323144179e-03
2.917075275636e-03
3.086613490840e-03
3.052111440359e-03
3.212057864207e-03
2.379290939651e-03
8.931182553391e-04
3.890088388294e-04
2.038633545530e-04
2.633371855921e-04
5.244089608468e-04
8.841057013748e-04
1.278574973684e-03
1.629129438965e-03
1.875320663699e-03
2.091777064271e-03
2.261344830435e-03
2.416339866011e-03
2.525392672237e-03
4.526666368701e-03
3.977112160569e-03
3.710259536070e-03
3.600064869334e-03
3.565997522437e-03
3.554029286299e-03
3.572446208790e-03
3.625218817392e-03
3.679651431071e-03
3.725642030310e-03
3.771590408341e-03
3.822921436181e-03
3.877815521098e-03
3.931471726649e-03
3.981649490697e-03
4.027747778390e-03
4.069694186685e-03
4.106866157916e-03
4.139037132509e-03
4.165976216825e-03
4.187487560395e-03
4.204010606966e-03
4.216167406489e-03
4.225884108913e-03
4.205243429771e-03
4.480469229987e-03
4.444960182257e-03
4.435435032368e-03
4.425200810438e-03
4.412764143601e-03
4.397210268292e-03
4.378412262505e-03
4.356416737467e-03
4.331450834565e-03
4.304039961994e-03
4.274451180030e-03
4.242474327540e-03
4.208654671532e-03
4.175152982085e-03
4.142050049454e-03
4.104602206099e-03
4.061425427265e-03
4.015510139027e-03
3.979745769418e-03
3.967399826017e-03
3.981302740768e-03
4.108212064375e-03
4.220926328553e-03
4.615787672211e-03
4.631704538452e-03
4.619177431807e-03
4.656651501179e-03
4.694852235874e-03
4.732684191362e-03
4.769590277812e-03
4.797620718231e-03
4.815087272695e-03
4.823418368763e-03
4.830702207888e-03
4.836904586986e-03
4.842699266287e-03
4.848479217773e-03
4.853902742617e-03
4.858361807309e-03
4.861935046844e-03
4.864933626136e-03
4.867569170185e-03
4.870660846000e-03
4.880313994241e-03
4.895583219291e-03
5.302739526265e-03
5.299613072618e-03
5.301315044220e-03
5.304992915155e-03
5.310896679668e-03
5.318304621552e-03
5.326137776741e-03
5.334415641870e-03
5.343132801286e-03
5.352660907564e-03
5.362685300970e-03
5.371975167233e-03
5.378867889207e-03
5.373186640950e-03
5.348080755471e-03
5.312754636642e-03
5.269062095789e-03
5.219897901881e-03
5.189255692832e-03
5.108692053305e-03
5.630374599181e-03
5.737045293461e-03
5.780767934445e-03
5.830291954950e-03
5.868438568591e-03
5.886310908651e-03
5.881348645412e-03
5.865260134107e-03
5.846409157032e-03
5.827046985839e-03
5.807905334322e-03
5.787971185901e-03
5.769560806018e-03
5.752765300077e-03
5.737488490421e-03
5.726009206721e-03
5.718077464725e-03
5.712165457586e-03
5.708895091005e-03
6.104688149702e-03
6.112521051059e-03
6.122535107676e-03
6.135972242196e-03
6.153224034224e-03
6.175207038990e-03
6.199642438459e-03
6.228294535891e-03
6.255363452766e-03
6.280683545511e-03
6.302486795352e-03
6.321059287909e-03
6.332796807758e-03
6.323712500136e-03
6.285586983563e-03
6.249134789055e-03
6.143612911183e-03
6.620176563005e-03
6.715510978368e-03
6.731608195959e-03
6.731245546053e-03
6.719256825183e-03
6.698725938899e-03
6.671517335494e-03
6.639852372197e-03
6.607865559402e-03
6.578001880296e-03
6.552229033870e-03
6.530190576046e-03
6.513629610323e-03
6.497980407730e-03
6.490016661994e-03
6.490278158736e-03
5.759879144978e-03
4.998357822445e-03
5.401726721632e-03
4.896074957154e-03
4.744752517287e-03
4.993048091349e-03
5.414051220951e-03
5.896506652026e-03
6.393548967442e-03
6.862281081565e-03
5.205611175246e-03
3.300799278651e-03
6.749541783362e-04
3.299556088701e-03
3.354374301395e-03
5.013227584272e-03
3.886098936390e-03
4.734675794381e-03
5.260785710494e-03
6.393340338654e-03
6.136435895737e-03
4.246479285550e-03
1.097668003713e-03
7.615141790786e-03
7.105190656421e-03
2.822443822966e-03
4.214377798743e-03
8.163152898606e-03
8.575628197643e-03
8.845231756096e-03
8.799771075454e-03
8.726010597061e-03
7.328039421766e-03
7.303465623761e-03
7.255155506292e-03
8.126611335147e-03
4.673821646834e-03
3.040928441305e-03
1.708547604214e-03
4.618500651664e-03
7.151824056869e-03
8.844549862073e-04
8.388008184542e-03
5.648257410081e-03
7.078942467940e-03
3.942089995307e-03
3.065885951170e-03
2.542698684330e-03
7.328136909769e-03
3.726263521577e-03
8.506828530082e-03
4.980899323138e-04
3.501831266118e-03
8.875416372593e-03
5.080494631732e-03
5.362888899146e-03
5.666838201855e-03
6.631847395339e-03
5.532622962941e-03
7.656949783666e-03
4.874345911303e-03
1.975783088344e-03
8.780172171245e-03
7.289463605505e-03
7.329184130017e-03
7.492759093702e-03
7.503372227526e-03
7.661377091279e-03
7.639297299717e-03
7.472591723382e-03
7.587045255555e-03
7.398759504152e-03
7.807930670258e-03
7.497345717682e-03
7.284458903593e-03
7.371641899918e-03
7.132953165636e-03
7.051680564873e-03
6.883587799889e-03
6.782273677480e-03
6.602581889771e-03
6.676672951012e-03
6.382246554602e-03
6.294240979012e-03
6.072400164712e-03
5.995119068772e-03
5.770148201421e-03
5.714864069434e-03
5.493796568743e-03
5.521969647725e-03
5.258855039230e-03
5.261436700593e-03
5.041750306420e-03
5.082392991701e-03
4.895829566844e-03
4.824714756918e-03
4.758549575031e-03
4.935041087262e-03
4.916192025735e-03
5.173224468128e-03
5.179768900002e-03
5.408156270448e-03
5.399630819504e-03
5.133494921012e-03
5.330131761770e-03
5.564351249052e-03
5.447127422311e-03
5.185004673577e-03
5.254866241571e-03
4.938283545538e-03
4.965976623639e-03
5.244005950579e-03
4.904554463436e-03
4.507589561434e-03
4.403491185856e-03
4.801878961156e-03
4.251525849644e-03
3.776757368331e-03
3.676631601878e-03
4.093659083796e-03
3.630362500458e-03
3.342270011609e-03
3.375580310609e-03
3.630076872235e-03
3.411946360915e-03
3.147252313408e-03
3.212749528083e-03
2.983239353386e-03
3.430103790907e-03
3.264629258034e-03
3.412086780868e-03
3.285476964290e-03
4.628808601911e-03
3.341291480646e-03
3.479213663622e-03
3.262709150001e-03
3.236660054672e-03
3.217565449327e-03
3.191861255925e-03
3.045307407116e-03
5.371148816866e-03
6.431564605520e-03
3.068122364716e-03
2.817870196374e-03
2.809799615290e-03
2.468314945645e-03
7.813978291520e-03
7.964339384461e-03
7.952112923855e-03
8.115134316162e-03
8.094274682349e-03
2.534073060136e-03
7.603768050289e-03
8.108951616305e-03
6.193798198558e-03
5.278795102800e-03
4.795189826414e-03
3.228654435651e-03
3.149151735539e-03
3.317634070059e-03
2.869362561389e-03
2.762344895631e-03
2.588477652324e-03
2.551233753311e-03
2.303033413987e-03
2.381469327789e-03
2.648392120189e-03
2.604755256783e-03
2.854441948171e-03
2.095973142516e-03
2.022744948032e-03
2.913062163095e-03
3.127865825504e-03
3.254668993421e-03
3.432871681638e-03
3.333209739294e-03
3.601128836460e-03
3.512982271065e-03
4.428499378552e-03
4.179311309153e-03
3.638057743643e-03
3.379080117129e-03
2.836755885423e-03
2.758636345159e-03
2.307419846611e-03
2.344311844756e-03
7.214637263957e-03
5.683571258747e-03
5.745311757851e-03
5.833019692832e-03
5.856884352473e-03
5.908975173180e-03
5.943424927528e-03
5.952695810702e-03
5.868545086538e-03
5.842128966336e-03
5.771884524018e-03
5.658843821712e-03
5.712275618596e-03
5.250947930127e-03
3.238187737660e-03
2.844101516135e-03
3.270499823394e-03
2.455948564268e-03
3.741044680990e-03
1.819851639677e-03
1.733350276000e-03
1.890393215465e-03
2.074378914317e-03
5.976590758828e-03
5.905013312264e-03
8.250651492436e-03
8.222230539464e-03
1.593897762822e-03
2.187329021554e-03
2.696956851580e-03
5.678461281935e-03
3.866440309939e-03
4.021985322583e-03
2.888317863015e-03
3.095646572798e-03
3.466556007258e-03
5.649869435704e-03
5.608590059315e-03
5.726800542929e-03
5.479658658505e-03
5.333590341242e-03
5.145426286010e-03
5.263471009944e-03
4.869742499376e-03
4.762672688117e-03
4.374936714979e-03
4.246637940639e-03
3.823454433041e-03
3.923324506228e-03
5.465544418487e-03
6.923270231462e-03
1.914796713410e-03
2.072472241931e-03
8.373681894815e-03
8.337642674013e-03
8.168091530880e-03
8.280665324667e-03
8.439423618452e-03
8.382315967312e-03
8.205556514182e-03
8.309141479723e-03
8.114148313306e-03
8.221196188788e-03
8.404841238130e-03
8.320431040458e-03
8.119673438393e-03
8.224854512664e-03
8.006893882933e-03
8.118023792123e-03
8.323297698433e-03
1.637026879755e-03
1.890896737358e-03
1.554827684871e-03
3.265257602366e-03
3.440623917651e-03
3.437179966652e-03
3.581132403702e-03
8.223080406932e-03
8.415980555025e-03
5.940580448548e-03
5.783112708360e-03
8.387828315084e-03
4.107217912547e-03
3.974698455166e-03
5.140645811317e-03
5.308403223561e-03
5.206385053772e-03
5.323993897615e-03
5.452108426323e-03
5.241811738906e-03
2.167859682929e-03
8.491286085488e-03
2.859289499951e-03
2.494027007202e-03
4.264485617544e-03
2.509800126097e-03
5.528354318980e-03
5.201884575180e-03
5.516330297531e-03
5.178854673279e-03
5.573937407856e-03
5.266127376337e-03
4.841601601355e-03
3.485269204955e-03
4.973154015061e-03
7.999289043603e-03
3.722948877273e-03
4.283870422827e-03
1.523519040809e-03
3.505799088626e-03
1.779261300840e-03
2.355886054577e-03
1.813426766105e-03
5.737960428856e-03
6.000594862665e-03
5.418002025627e-03
5.559279350972e-03
3.179012216512e-03
7.916964940537e-03
8.000470875622e-03
7.886273944416e-03
1.083299551904e-03
3.967089176813e-03
8.530686339639e-03
5.747697755083e-03
5.607649913117e-03
5.389366137710e-03
5.125188393271e-03
8.321322954591e-03
8.500389038420e-03
3.525810276953e-03
3.685607329610e-03
1.475278765104e-03
3.253406880207e-03
8.578625895628e-03
2.036922719215e-03
2.740107903516e-03
3.598151748147e-03
5.728999906793e-03
5.865345153118e-03
4.559619585671e-03
3.539027245841e-03
1.987785619547e-03
1.840922481434e-03
8.570128670434e-03
4.512439641359e-03
4.484489512930e-03
4.691256339361e-03
2.828733171008e-03
2.273186930184e-03
4.315374377055e-03
6.216242314194e-03
6.431649812037e-03
5.563777765614e-03
5.428028317212e-03
5.440831387631e-03
5.329442223849e-03
7.273949550477e-03
5.372319999462e-03
6.641592175425e-03
6.757711739814e-03
6.486614908857e-03
5.614988873096e-03
5.735424420015e-03
5.729432589346e-03
4.546924548447e-03
3.379871825416e-03
3.290378446332e-03
2.757013285258e-03
8.558235080106e-03
8.633899169815e-03
7.888477795954e-03
7.756750145602e-03
1.984653181097e-03
2.013555192764e-03
2.923696053044e-03
2.342603629089e-03
8.499623275108e-03
8.504103239227e-03
8.383520608619e-03
1.516157390914e-03
5.728555622892e-03
3.870101547260e-03
5.532746386203e-03
4.749721407490e-03
1.460641889230e-03
6.736036658562e-03
4.469176446765e-03
4.439755773543e-03
3.705405968621e-03
7.112777711616e-03
4.458300170038e-03
4.420122811685e-03
6.569142480364e-03
6.311259824886e-03
6.217964129674e-03
6.054661592567e-03
4.071489710957e-03
3.877960787026e-03
6.044257194128e-03
5.246341086056e-03
6.672610783603e-03
6.858890225163e-03
3.477258504796e-03
2.909543622587e-03
2.538820648442e-03
5.616913912831e-03
8.652600933509e-03
6.829582349082e-03
2.754012538026e-03
2.809190372607e-03
4.933977344887e-03
5.653809747240e-03
8.654150960040e-03
5.324156118677e-03
5.276916226198e-03
5.368240747931e-03
4.862347369685e-03
7.118746359521e-03
4.624043053320e-03
5.830173943391e-03
8.719639272369e-03
4.108190582402e-03
5.123342122129e-03
1.354521304627e-03
8.573368506290e-03
8.727541418754e-03
7.762444714030e-03
7.623218966928e-03
7.871511552596e-03
5.893525049758e-03
5.580198906522e-03
8.571053771340e-03
3.013950341328e-03
3.194319356387e-03
3.092897956016e-03
3.355240253110e-03
3.422969714077e-03
3.277978017581e-03
6.502078646232e-03
6.848545706043e-03
5.836378572086e-03
2.270570097495e-03
2.908608060761e-03
3.370944296246e-03
8.676025392653e-03
8.751974277005e-03
4.269876750959e-03
4.754307313000e-03
3.758650693216e-03
8.679813526570e-03
4.612925000333e-03
4.403007209219e-03
1.443082526203e-03
2.050500093983e-03
5.657405161501e-03
5.797496833944e-03
8.480739628905e-03
8.363065781742e-03
8.601453694074e-03
2.150536501433e-03
4.135663564734e-03
2.005685969345e-03
1.750752264581e-03
2.491809611976e-03
3.952892798717e-03
4.259304718245e-03
5.028167682541e-03
4.378117835111e-03
8.679123193274e-03
7.610314105236e-03
3.776166995335e-03
7.461032554332e-03
7.612721939365e-03
7.289420839749e-03
1.505745661652e-03
7.588559102821e-03
7.744825514988e-03
1.239845010661e-03
8.737739975429e-03
9.380660980103e-04
9.962722768913e-04
3.220214852529e-03
3.257935710653e-03
3.641611389503e-03
3.651529044935e-03
3.343974349468e-03
3.733334578512e-03
7.469350036013e-03
4.051356084662e-03
4.082600982189e-03
4.389071943089e-03
6.111831172572e-03
5.279723337187e-03
5.269285841862e-03
5.148850502222e-03
7.161912482753e-03
7.235426624104e-03
4.485260163477e-03
4.345557951556e-03
7.447090056228e-03
7.414806680105e-03
7.680032528993e-03
7.635771313978e-03
7.880223469041e-03
7.834598919420e-03
8.064603332252e-03
5.695947859398e-03
5.269168754963e-03
6.614077047051e-03
3.290273160318e-03
2.680724534461e-03
5.814667553174e-03
5.632449647029e-03
2.866350765476e-03
5.489004016083e-03
8.755269575731e-03
3.912490963676e-03
4.590714873131e-03
5.288418152332e-03
5.961503426120e-03
5.308301685890e-03
5.350478877741e-03
1.662654842964e-03
2.118380076706e-03
5.470681582916e-03
8.100422263017e-03
5.418638313686e-03
4.483810860242e-03
5.563713515710e-03
5.663639602012e-03
5.564286031836e-03
5.282896011433e-03
7.181966277517e-03
7.323271972550e-03
7.087692232223e-03
5.600434097359e-03
5.471783263973e-03
5.269272575576e-03
6.484914145417e-03
8.240752650549e-03
8.204297606175e-03
8.312693880601e-03
8.149092365906e-03
8.024851454458e-03
7.951409151330e-03
8.081644130575e-03
7.864701079585e-03
8.048753466069e-03
7.754171229597e-03
7.601248992968e-03
7.468799482914e-03
7.629921542747e-03
7.326736711859e-03
3.963733605375e-03
5.128829534750e-03
4.773342116952e-03
5.767113441079e-03
5.914951670045e-03
8.286537961252e-03
8.510077674159e-03
5.830552099855e-03
7.364336540388e-03
7.025722857600e-03
5.933804872280e-03
6.754119921790e-03
8.079352667047e-03
7.897570283395e-03
7.945958564181e-03
8.642561644316e-03
7.969156972263e-03
5.250300779851e-03
3.902221109805e-03
4.293203278967e-03
4.757256497654e-03
7.721259296585e-03
3.585523248521e-03
2.809194585755e-03
2.567359443594e-03
2.143841013439e-03
3.119943857884e-03
8.020143603413e-03
7.846645979531e-03
4.987530514226e-03
5.138594510464e-03
4.927211526585e-03
5.283811643489e-03
5.450902534074e-03
5.551933555685e-03
5.431556308411e-03
5.740228270799e-03
7.017122930339e-03
3.097994792059e-03
2.398576634317e-03
2.647362408540e-03
3.024336560872e-03
3.274239516816e-03
3.186990449603e-03
3.139003758018e-03
3.319920381988e-03
4.846148288255e-03
3.197319131736e-03
3.265906336621e-03
3.176901325915e-03
7.342653924941e-03
7.552860389107e-03
7.547376215133e-03
7.751404616980e-03
7.592386314971e-03
3.594163781390e-03
3.769989926412e-03
3.839997190873e-03
3.938437872617e-03
3.977703266572e-03
3.871250134969e-03
4.093362367488e-03
4.085840921408e-03
7.322105332943e-03
3.476778413038e-03
4.459347860996e-03
3.394710057139e-03
4.620388692723e-03
5.252613762171e-03
5.118097515883e-03
5.780671607368e-03
4.929007810046e-03
1.473946869343e-03
2.401108275625e-03
9.590125970706e-04
1.798103712979e-03
2.956294708997e-03
2.581739530546e-03
4.766299436669e-03
3.716606680937e-03
3.597112856026e-03
3.367073850400e-03
3.449478916587e-03
3.769975902189e-03
3.212925366181e-03
3.066311311523e-03
1.841092870196e-03
1.146690458343e-03
1.288796047397e-03
6.315461142785e-04
6.591610350201e-04
1.085547975042e-03
9.835960897163e-04
1.527370105224e-03
8.816549970120e-04
7.664357440799e-04
1.330651878874e-03
8.332700783860e-03
8.432626917296e-03
3.537473916558e-03
7.304322495982e-03
5.131735886552e-04
8.838927917076e-03
8.826441782755e-03
8.838465584404e-03
4.754190445172e-03
4.774698281128e-03
8.848511521358e-03
3.090727739837e-03
8.275628290078e-03
8.644222595993e-03
6.036012708976e-03
3.653988093959e-03
4.178004475231e-03
3.085896460737e-03
4.204471785701e-03
3.746112977575e-03
3.599895796306e-03
2.380697196441e-03
1.330422728574e-03
8.006225892784e-03
7.884132186860e-03
8.412952281303e-03
2.891764506072e-03
3.736253979255e-03
1.997486927292e-03
6.556667114443e-03
6.360475246079e-03
3.080706023087e-03
3.256688685901e-03
3.314204685951e-03
3.936194016245e-03
4.998739527800e-03
3.088696630968e-03
2.344894723847e-03
8.498885699482e-03
7.527911937388e-04
2.104291766442e-03
2.772461566279e-03
8.093790559529e-03
2.434862821782e-03
4.751183846334e-03
8.474429976808e-03
8.594959231866e-03
7.840038729063e-03
1.454750294707e-03
7.757140673885e-03
2.288021590155e-03
8.257277464350e-03
2.655372076691e-03
4.533567912468e-03
5.471453590711e-03
6.874394962373e-03
8.693432628286e-03
4.658611245436e-03
1.795253590939e-03
3.040364218869e-03
2.815648346011e-03
2.929735039391e-03
5.014626383338e-03
8.612464948921e-03
5.875178731401e-03
5.512222157996e-03
8.478965251354e-03
3.334110844175e-03
2.739193278515e-03
6.084868882967e-03
5.819258251049e-03
6.947453287013e-03
5.011682063268e-03
4.219716610609e-03
2.497003590405e-03
5.660410662292e-03
5.222593399103e-03
8.044018539260e-03
5.465837818593e-03
8.723237866004e-03
5.460350560223e-03
3.083458458685e-03
8.591802894149e-03
3.066984575807e-03
1.686739679328e-03
5.950387132246e-03
5.818696445259e-03
4.869756990067e-03
2.969106463967e-03
8.464577949810e-03
3.464733520963e-03
1.488484947060e-03
5.142205568189e-03
6.867367501765e-03
3.822125147921e-03
3.949773416722e-03
2.420649374397e-03
3.980896041744e-03
6.177321061185e-03
5.865827813318e-03
4.146159281877e-03
1.523762042360e-03
5.665570677841e-03
7.138149098224e-03
4.416411121188e-03
1.406481993074e-03
4.944269992864e-03
3.882508229958e-03
6.388706646337e-03
3.100374640402e-03
6.124940840839e-03
8.689259952534e-03
1.652274753691e-03
7.770936975627e-03
3.279026015101e-03
3.702808196929e-03
6.807876446302e-04
6.367557559606e-03
3.460711531883e-03
5.674992107963e-03
3.355218317115e-03
4.106076750899e-03
3.660384817008e-03
5.506897480938e-03
3.860938122629e-03
5.900043562171e-03
7.704063339312e-03
4.055045431580e-03
6.159929828096e-03
9.493923909246e-04
4.601893116368e-03
4.631950931630e-03
3.576191162462e-03
2.983688364425e-03
7.823736649444e-03
5.456797555471e-03
2.493601025805e-03
6.255150139598e-03
4.236472079845e-03
4.530549712519e-03
1.902772806433e-03
5.451931471884e-03
3.201380174548e-03
2.956543032027e-03
5.194185653667e-03
6.645888262874e-03
8.657246929048e-04
7.476342870555e-03
2.676610456561e-03
5.088050437285e-03
3.804593679349e-03
7.910250236738e-03
4.663811409463e-03
2.313000818113e-03
4.480954443787e-03
4.133859107135e-03
3.955259794633e-03
3.843819747795e-03
8.759057253600e-03
3.621938976971e-03
8.871966543973e-03
4.894505643526e-03
7.365627736786e-03
5.070272024385e-03
2.831371197417e-03
5.256353849232e-03
3.649721008276e-03
7.037885694029e-03
7.384238919064e-03
3.473361948991e-03
7.898911644337e-03
6.040257195265e-03
8.240382210134e-03
2.186437268146e-03
3.854457388578e-03
8.650409280790e-03
7.174357793321e-03
1.440583710539e-03
4.353267576719e-03
4.949813141433e-03
5.222747075212e-03
5.336945077225e-03
2.952235163886e-03
3.729231790048e-03
5.127124190288e-03
3.082591120245e-03
7.526149332664e-03
4.216456129862e-03
5.328750146567e-03
8.675251370282e-03
4.937118886199e-03
4.054926416776e-03
4.466955183083e-03
5.551835506364e-03
7.741943567137e-03
6.886385117386e-03
8.402538319022e-03
4.397408744589e-03
7.521444612393e-03
8.776072545951e-03
5.909176296935e-03
8.779336683036e-03
7.173201275525e-03
7.759973273044e-03
7.662962235755e-03
4.761784592885e-03
8.223667957207e-03
5.731959613084e-03
8.238911573456e-03
3.408083257762e-03
4.462887174926e-03
3.210902497820e-03
7.335946504272e-03
4.584057151071e-03
6.460492616329e-04
8.289572023799e-04
2.817874102833e-03
7.524559798804e-03
5.631379575434e-03
8.801165208784e-03
5.285984363383e-03
7.188736165003e-03
8.392520660528e-04
4.593766137224e-03
8.758329692237e-03
3.667950253419e-03
7.309158549006e-03
2.668925166135e-03
5.709243675971e-03
2.285110863556e-03
8.784054757277e-03
2.569457845169e-03
8.559577774446e-03
4.532413399905e-03
3.962767065540e-03
5.464004014187e-03
2.045547410384e-03
7.143197312690e-03
8.388014455700e-03
3.237972943768e-03
1.138634489769e-03
8.881848533536e-03
2.184102005892e-03
7.082125169215e-03
4.943580731870e-03
8.146541711290e-04
7.585016742127e-03
7.747482307380e-03
4.034461369943e-03
8.562035739249e-03
4.474290788569e-03
2.787382683796e-03
8.040678025112e-03
4.637173676342e-03
8.668666808873e-03
7.893670719177e-03
5.891838228881e-03
7.502608868687e-03
3.764058949397e-03
6.497655113503e-03
2.530670621587e-03
5.265171036310e-03
4.134266582724e-03
8.016784276633e-04
3.920164604310e-03
3.867613961571e-03
4.460635142857e-03
4.277916123311e-03
4.577719474860e-03
4.710424009336e-03
4.923842728017e-03
5.088765665694e-03
5.396894612411e-03
5.519419425043e-03
5.899288931311e-03
5.894635748560e-03
6.401595634096e-03
6.306891323630e-03
6.857891691020e-03
6.656780886921e-03


CELL_DATA 2241

SCALARS element_number int
LOOKUP_TABLE default
407
408
409
410
411
412
413
414
415
416
417
418
419
420
421
422
423
424
425
426
427
428
429
430
431
432
433
434
435
436
437
438
439
440
441
442
443
444
445
446
447
448
449
450
451
452
453
454
455
456
457
458
459
460
461
462
463
464
465
466
467
468
469
470
471
472
473
474
475
476
477
478
479
480
481
482
483
484
485
486
487
488
489
490
491
492
493
494
495
496
497
498
499
500
501
502
503
504
505
506
507
508
509
510
511
512
513
514
515
516
517
518
519
520
521
522
523
524
525
526
527
528
529
530
531
532
533
534
535
536
537
538
539
540
541
542
543
544
545
546
547
548
549
550
551
552
553
554
555
556
557
558
559
560
561
562
563
564
565
566
567
568
569
570
571
572
573
574
575
576
577
578
579
580
581
582
583
584
585
586
587
588
589
590
591
592
593
594
595
596
597
598
599
600
601
602
603
604
605
606
607
608
609
610
611
612
613
614
615
616
617
618
619
620
621
622
623
624
625
626
627
628
629
630
631
632
633
634
635
636
637
638
639
640
641
642
643
644
645
646
647
648
649
650
651
652
653
654
655
656
657
658
659
660
661
662
663
664
665
666
667
668
669
670
671
672
673
674
675
676
677
678
679
680
681
682
683
684
685
686
687
688
689
690
691
692
693
694
695
696
697
698
699
700
701
702
703
704
705
706
707
708
709
710
711
712
713
714
715
716
717
718
719
720
721
722
723
724
725
726
727
728
729
730
731
732
733
734
735
736
737
738
739
740
741
742
743
744
745
746
747
748
749
750
751
752
753
754
755
756
757
758
759
760
761
762
763
764
765
766
767
768
769
770
771
772
773
774
775
776
777
778
779
780
781
782
783
784
785
786
787
788
789
790
791
792
793
794
795
796
797
798
799
800
801
802
803
804
805
806
807
808
809
810
811
812
813
814
815
816
817
818
819
820
821
822
823
824
825
826
827
828
829
830
831
832
833
834
835
836
837
838
839
840
841
842
843
844
845
846
847
848
849
850
851
852
853
854
855
856
857
858
859
860
861
862
863
864
865
866
867
868
869
870
871
872
873
874
875
876
877
878
879
880
881
882
883
884
885
886
887
888
889
890
891
892
893
894
895
896
897
898
899
900
901
902
903
904
905
906
907
908
909
910
911
912
913
914
915
916
917
918
919
920
921
922
923
924
925
926
927
928
929
930
931
932
933
934
935
936
937
938
939
940
941
942
943
944
945
946
947
948
949
950
951
952
953
954
955
956
957
958
959
960
961
962
963
964
965
966
967
968
969
970
971
972
973
974
975
976
977
978
979
980
981
982
983
984
985
986
987
988
989
990
991
992
993
994
995
996
997
998
999
1000
1001
1002
1003
1004
1005
1006
1007
1008
1009
1010
1011
1012
1013
1014
1015
1016
1017
1018
1019
1020
1021
1022
1023
1024
1025
1026
1027
1028
1029
1030
1031
1032
1033
1034
1035
1036
1037
1038
1039
1040
1041
1042
1043
1044
1045
1046
1047
1048
1049
1050
1051
1052
1053
1054
1055
1056
1057
1058
1059
1060
1061
1062
1063
1064
1065
1066
1067
1068
1069
1070
1071
1072
1073
1074
1075
1076
1077
1078
1079
1080
1081
1082
1083
1084
1085
1086
1087
1088
1089
1090
1091
1092
1093
1094
1095
1096
1097
1098
1099
1100
1101
1102
1103
1104
1105
1106
1107
1108
1109
1110
1111
1112
1113
1114
1115
1116
1117
1118
1119
1120
1121
1122
1123
1124
1125
1126
1127
1128
1129
1130
1131
1132
1133
1134
1135
1136
1137
1138
1139
1140
1141
1142
1143
1144
1145
1146
1147
1148
1149
1150
1151
1152
1153
1154
1155
1156
1157
1158
1159
1160
1161
1162
1163
1164
1165
1166
1167
1168
1169
1170
1171
1172
1173
1174
1175
1176
1177
1178
1179
1180
1181
1182
1183
1184
1185
1186
1187
1188
1189
1190
1191
1192
1193
1194
1195
1196
1197
1198
1199
1200
1201
1202
1203
1204
1205
1206
1207
1208
1209
1210
1211
1212
1213
1214
1215
1216
1217
1218
1219
1220
1221
1222
1223
1224
1225
1226
1227
1228
1229
1230
1231
1232
1233
1234
1235
1236
1237
1238
1239
1240
1241
1242
1243
1244
1245
1246
1247
1248
1249
1250
1251
1252
1253
1254
1255
1256
1257
1258
1259
1260
1261
1262
1263
1264
1265
1266
1267
1268
1269
1270
1271
1272
1273
1274
1275
1276
1277
1278
1279
1280
1281
1282
1283
1284
1285
1286
1287
1288
1289
1290
1291
1292
1293
1294
1295
1296
1297
1298
1299
1300
1301
1302
1303
1304
1305
1306
1307
1308
1309
1310
1311
1312
1313
1314
1315
1316
1317
1318
1319
1320
1321
1322
1323
1324
1325
1326
1327
1328
1329
1330
1331
1332
1333
1334
1335
1336
1337
1338
1339
1340
1341
1342
1343
1344
1345
1346
1347
1348
1349
1350
1351
1352
1353
1354
1355
1356
1357
1358
1359
1360
1361
1362
1363
1364
1365
1366
1367
1368
1369
1370
1371
1372
1373
1374
1375
1376
1377
1378
1379
1380
1381
1382
1383
1384
1385
1386
1387
1388
1389
1390
1391
1392
1393
1394
1395
1396
1397
1398
1399
1400
1401
1402
1403
1404
1405
1406
1407
1408
1409
1410
1411
1412
1413
1414
1415
1416
1417
1418
1419
1420
1421
1422
1423
1424
1425
1426
1427
1428
1429
1430
1431
1432
1433
1434
1435
1436
1437
1438
1439
1440
1441
1442
1443
1444
1445
1446
1447
1448
1449
1450
1451
1452
1453
1454
1455
1456
1457
1458
1459
1460
1461
1462
1463
1464
1465
1466
1467
1468
1469
1470
1471
1472
1473
1474
1475
1476
1477
1478
1479
1480
1481
1482
1483
1484
1485
1486
1487
1488
1489
1490
1491
1492
1493
1494
1495
1496
1497
1498
1499
1500
1501
1502
1503
1504
1505
1506
1507
1508
1509
1510
1511
1512
1513
1514
1515
1516
1517
1518
1519
1520
1521
1522
1523
1524
1525
1526
1527
1528
1529
1530
1531
1532
1533
1534
1535
1536
1537
1538
1539
1540
1541
1542
1543
1544
1545
1546
1547
1548
1549
1550
1551
1552
1553
1554
1555
1556
1557
1558
1559
1560
1561
1562
1563
1564
1565
1566
1567
1568
1569
1570
1571
1572
1573
1574
1575
1576
1577
1578
1579
1580
1581
1582
1583
1584
1585
1586
1587
1588
1589
1590
1591
1592
1593
1594
1595
1596
1597
1598
1599
1600
1601
1602
1603
1604
1605
1606
1607
1608
1609
1610
1611
1612
1613
1614
1615
1616
1617
1618
1619
1620
1621
1622
1623
1624
1625
1626
1627
1628
1629
1630
1631
1632
1633
1634
1635
1636
1637
1638
1639
1640
1641
1642
1643
1644
1645
1646
1647
1648
1649
1650
1651
1652
1653
1654
1655
1656
1657
1658
1659
1660
1661
1662
1663
1664
1665
1666
1667
1668
1669
1670
1671
1672
1673
1674
1675
1676
1677
1678
1679
1680
1681
1682
1683
1684
1685
1686
1687
1688
1689
1690
1691
1692
1693
1694
1695
1696
1697
1698
1699
1700
1701
1702
1703
1704
1705
1706
1707
1708
1709
1710
1711
1712
1713
1714
1715
1716
1717
1718
1719
1720
1721
1722
1723
1724
1725
1726
1727
1728
1729
1730
1731
1732
1733
1734
1735
1736
1737
1738
1739
1740
1741
1742
1743
1744
1745
1746
1747
1748
1749
1750
1751
1752
1753
1754
1755
1756
1757
1758
1759
1760
1761
1762
1763
1764
1765
1766
1767
1768
1769
1770
1771
1772
1773
1774
1775
1776
1777
1778
1779
1780
1781
1782
1783
1784
1785
1786
1787
1788
1789
1790
1791
1792
1793
1794
1795
1796
1797
1798
1799
1800
1801
1802
1803
1804
1805
1806
1807
1808
1809
1810
1811
1812
1813
1814
1815
1816
1817
1818
1819
1820
1821
1822
1823
1824
1825
1826
1827
1828
1829
1830
1831
1832
1833
1834
1835
1836
1837
1838
1839
1840
1841
1842
1843
1844
1845
1846
1847
1848
1849
1850
1851
1852
1853
1854
1855
1856
1857
1858
1859
1860
1861
1862
1863
1864
1865
1866
1867
1868
1869
1870
1871
1872
1873
1874
1875
1876
1877
1878
1879
1880
1881
1882
1883
1884
1885
1886
1887
1888
1889
1890
1891
1892
1893
1894
1895
1896
1897
1898
1899
1900
1901
1902
1903
1904
1905
1906
1907
1908
1909
1910
1911
1912
1913
1914
1915
1916
1917
1918
1919
1920
1921
1922
1923
1924
1925
1926
1927
1928
1929
1930
1931
1932
1933
1934
1935
1936
1937
1938
1939
1940
1941
1942
1943
1944
1945
1946
1947
1948
1949
1950
1951
1952
1953
1954
1955
1956
1957
1958
1959
1960
1961
1962
1963
1964
1965
1966
1967
1968
1969
1970
1971
1972
1973
1974
1975
1976
1977
1978
1979
1980
1981
1982
1983
1984
1985
1986
1987
1988
1989
1990
1991
1992
1993
1994
1995
1996
1997
1998
1999
2000
2001
2002
2003
2004
2005
2006
2007
2008
2009
2010
2011
2012
2013
2014
2015
2016
2017
2018
2019
2020
2021
2022
2023
2024
2025
2026
2027
2028
2029
2030
2031
2032
2033
2034
2035
2036
2037
2038
2039
2040
2041
2042
2043
2044
2045
2046
2047
2048
2049
2050
2051
2052
2053
2054
2055
2056
2057
2058
2059
2060
2061
2062
2063
2064
2065
2066
2067
2068
2069
2070
2071
2072
2073
2074
2075
2076
2077
2078
2079
2080
2081
2082
2083
2084
2085
2086
2087
2088
2089
2090
2091
2092
2093
2094
2095
2096
2097
2098
2099
2100
2101
2102
2103
2104
2105
2106
2107
2108
2109
2110
2111
2112
2113
2114
2115
2116
2117
2118
2119
2120
2121
2122
2123
2124
2125
2126
2127
2128
2129
2130
2131
2132
2133
2134
2135
2136
2137
2138
2139
2140
2141
2142
2143
2144
2145
2146
2147
2148
2149
2150
2151
2152
2153
2154
2155
2156
2157
2158
2159
2160
2161
2162
2163
2164
2165
2166
2167
2168
2169
2170
2171
2172
2173
2174
2175
2176
2177
2178
2179
2180
2181
2182
2183
2184
2185
2186
2187
2188
2189
2190
2191
2192
2193
2194
2195
2196
2197
2198
2199
2200
2201
2202
2203
2204
2205
2206
2207
2208
2209
2210
2211
2212
2213
2214
2215
2216
2217
2218
2219
2220
2221
2222
2223
2224
2225
2226
2227
2228
2229
2230
2231
2232
2233
2234
2235
2236
2237
2238
2239
2240
2241
2242
2243
2244
2245
2246
2247
2248
2249
2250
2251
2252
2253
2254
2255
2256
2257
2258
2259
2260
2261
2262
2263
2264
2265
2266
2267
2268
2269
2270
2271
2272
2273
2274
2275
2276
2277
2278
2279
2280
2281
2282
2283
2284
2285
2286
2287
2288
2289
2290
2291
2292
2293
2294
2295
2296
2297
2298
2299
2300
2301
2302
2303
2304
2305
2306
2307
2308
2309
2310
2311
2312
2313
2314
2315
2316
2317
2318
2319
2320
2321
2322
2323
2324
2325
2509
2510
2511
2512
2513
2514
2515
2516
2517
2518
2519
2520
2521
2522
2523
2524
2525
2526
2527
2528
2529
2530
2531
2532
2533
2534
2535
2536
2537
2538
2539
2540
2541
2542
2543
2544
2545
2546
2547
2548
2549
2550
2551
2552
2553
2554
2555
2556
2557
2558
2559
2560
2561
2562
2563
2564
2565
2566
2567
2568
2569
2570
2571
2572
2573
2574
2575
2576
2577
2578
2579
2580
2581
2582
2583
2584
2585
2586
2587
2588
2589
2590
2591
2592
2593
2594
2595
2596
2597
2598
2599
2600
2601
2602
2603
2604
2605
2606
2607
2608
2609
2610
2611
2612
2613
2614
2615
2616
2617
2618
2619
2620
2621
2622
2623
2624
2625
2626
2627
2628
2629
2630
2631
2632
2633
2634
2635
2636
2637
2638
2639
2640
2641
2642
2643
2644
2645
2646
2647
2648
2649
2650
2651
2652
2653
2654
2655
2656
2657
2658
2659
2660
2661
2662
2663
2664
2665
2666
2667
2668
2669
2670
2671
2672
2673
2674
2675
2676
2677
2678
2679
2680
2681
2682
2683
2684
2685
2686
2687
2688
2689
2690
2691
2692
2693
2694
2695
2696
2697
2698
2699
2700
2701
2702
2703
2704
2705
2706
2707
2708
2709
2710
2711
2712
2713
2714
2715
2716
2717
2718
2719
2720
2721
2722
2723
2724
2725
2726
2727
2728
2729
2730
2731
2732
2733
2734
2735
2736
2737
2738
2739
2740
2741
2742
2743
2744
2745
2746
2747
2748
2749
2750
2751
2752
2753
2754
2755
2756
2757
2758
2759
2760
2761
2762
2763
2764
2765
2766
2767
2768
2769
2770
2771
2772
2773
2774
2775
2776
2777
2778
2779
2780
2781
2782
2783
2784
2785
2786
2787
2788
2789
2790
2791
2792
2793
2794
2795
2796
2797
2798
2799
2800
2801
2802
2803
2804
2805
2806
2807
2808
2809
2810
2811
2812
2813
2814
2815
2816
2817
2818
2819
2820
2821
2822
2823
2824
2825
2826
2827
2828
2829
2830

SCALARS element_group int
LOOKUP_TABLE default
0
0
0
0
0
0
0
0
0
0
0
0
0
0
0
0
0
0
0
0
0
0
0
0
0
0
0
0
0
0
0
0
0
0
0
0
0
0
0
0
0
0
0
0
0
0
0
0
0
0
0
0
0
0
0
0
0
0
0
0
0
0
0
0
0
0
0
0
0
0
0
0
0
0
0
0
0
0
0
0
0
0
0
0
0
0
0
0
0
0
0
0
0
0
0
0
0
0
0
0
0
0
0
0
0
0
0
0
0
0
0
0
0
0
0
0
0
0
0
0
0
0
0
0
0
0
0
0
0
0
0
0
0
0
0
0
0
0
0
0
0
0
0
0
0
0
0
0
0
0
0
0
0
0
0
0
0
0
0
0
0
0
0
0
0
0
0
0
0
0
0
0
0
0
0
0
0
0
0
0
0
0
0
0
0
0
0
0
0
0
0
0
0
0
0
0
0
0
0
0
0
0
0
0
0
0
0
0
0
0
0
0
0
0
0
0
0
0
0
0
0
0
0
0
0
0
0
0
0
0
0
0
0
0
0
0
0
0
0
0
0
0
0
0
0
0
0
0
0
0
0
0
0
0
0
0
0
0
0
0
0
0
0
0
0
0
0
0
0
0
0
0
0
0
0
0
0
0
0
0
0
0
0
0
0
0
0
0
0
0
0
0
0
0
0
0
0
0
0
0
0
0
0
0
0
0
0
0
0
0
0
0
0
0
0
0
0
0
0
0
0
0
0
0
0
0
0
0
0
0
0
0
0
0
0
0
0
0
0
0
0
0
0
0
0
0
0
0
0
0
0
0
0
0
0
0
0
0
0
0
0
0
0
0
0
0
0
0
0
0
0
0
0
0
0
0
0
0
0
0
0
0
0
0
0
0
0
0
0
0
0
0
0
0
0
0
0
0
0
0
0
0
0
0
0
0
0
0
0
0
0
0
0
0
0
0
0
0
0
0
0
0
0
0
0
0
0
0
0
0
0
0
0
0
0
0
0
0
0
0
0
0
0
0
0
0
0
0
0
0
0
0
0
0
0
0
0
0
0
0
0
0
0
0
0
0
0
0
0
0
0
0
0
0
0
0
0
0
0
0
0
0
0
0
0
0
0
0
0
0
0
0
0
0
0
0
0
0
0
0
0
0
0
0
0
0
0
0
0
0
0
0
0
0
0
0
0
0
0
0
0
0
0
0
0
0
0
0
0
0
0
0
0
0
0
0
0
0
0
0
0
0
0
0
0
0
0
0
0
0
0
0
0
0
0
0
0
0
0
0
0
0
0
0
0
0
0
0
0
0
0
0
0
0
0
0
0
0
0
0
0
0
0
0
0
0
0
0
0
0
0
0
0
0
0
0
0
0
0
0
0
0
0
0
0
0
0
0
0
0
0
0
0
0
0
0
0
0
0
0
0
0
0
0
0
0
0
0
0
0
0
0
0
0
0
0
0
0
0
0
0
0
0
0
0
0
0
0
0
0
0
0
0
0
0
0
0
0
0
0
0
0
0
0
0
0
0
0
0
0
0
0
0
0
0
0
0
0
0
0
0
0
0
0
0
0
0
0
0
0
0
0
0
0
0
0
0
0
0
0
0
0
0
0
0
0
0
0
0
0
0
0
0
0
0
0
0
0
0
0
0
0
0
0
0
0
0
0
0
0
0
0
0
0
0
0
0
0
0
0
0
0
0
0
0
0
0
0
0
0
0
0
0
0
0
0
0
0
0
0
0
0
0
0
0
0
0
0
0
0
0
0
0
0
0
0
0
0
0
0
0
0
0
0
0
0
0
0
0
0
0
0
0
0
0
0
0
0
0
0
0
0
0
0
0
0
0
0
0
0
0
0
0
0
0
0
0
0
0
0
0
0
0
0
0
0
0
0
0
0
0
0
0
0
0
0
0
0
0
0
0
0
0
0
0
0
0
0
0
0
0
0
0
0
0
0
0
0
0
0
0
0
0
0
0
0
0
0
0
0
0
0
0
0
0
0
0
0
0
0
0
0
0
0
0
0
0
0
0
0
0
0
0
0
0
0
0
0
0
0
0
0
0
0
0
0
0
0
0
0
0
0
0
0
0
0
0
0
0
0
0
0
0
0
0
0
0
0
0
0
0
0
0
0
0
0
0
0
0
0
0
0
0
0
0
0
0
0
0
0
0
0
0
0
0
0
0
0
0
0
0
0
0
0
0
0
0
0
0
0
0
0
0
0
0
0
0
0
0
0
0
0
0
0
0
0
0
0
0
0
0
0
0
0
0
0
0
0
0
0
0
0
0
0
0
0
0
0
0
0
0
0
0
0
0
0
0
0
0
0
0
0
0
0
0
0
0
0
0
0
0
0
0
0
0
0
0
0
0
0
0
0
0
0
0
0
0
0
0
0
0
0
0
0
0
0
0
0
0
0
0
0
0
0
0
0
0
0
0
0
0
0
0
0
0
0
0
0
0
0
0
0
0
0
0
0
0
0
0
0
0
0
0
0
0
0
0
0
0
0
0
0
0
0
0
0
0
0
0
0
0
0
0
0
0
0
0
0
0
0
0
0
0
0
0
0
0
0
0
0
0
0
0
0
0
0
0
0
0
0
0
0
0
0
0
0
0
0
0
0
0
0
0
0
0
0
0
0
0
0
0
0
0
0
0
0
0
0
0
0
0
0
0
0
0
0
0
0
0
0
0
0
0
0
0
0
0
0
0
0
0
0
0
0
0
0
0
0
0
0
0
0
0
0
0
0
0
0
0
0
0
0
0
0
0
0
0
0
0
0
0
0
0
0
0
0
0
0
0
0
0
0
0
0
0
0
0
0
0
0
0
0
0
0
0
0
0
0
0
0
0
0
0
0
0
0
0
0
0
0
0
0
0
0
0
0
0
0
0
0
0
0
0
0
0
0
0
0
0
0
0
0
0
0
0
0
0
0
0
0
0
0
0
0
0
0
0
0
0
0
0
0
0
0
0
0
0
0
0
0
0
0
0
0
0
0
0
0
0
0
0
0
0
0
0
0
0
0
0
0
0
0
0
0
0
0
0
0
0
0
0
0
0
0
0
0
0
0
0
0
0
0
0
0
0
0
0
0
0
0
0
0
0
0
0
0
0
0
0
0
0
0
0
0
0
0
0
0
0
0
0
0
0
0
0
0
0
0
0
0
0
0
0
0
0
0
0
0
0
0
0
0
0
0
0
0
0
0
0
0
0
0
0
0
0
0
0
0
0
0
0
0
0
0
0
0
0
0
0
0
0
0
0
0
0
0
0
0
0
0
0
0
0
0
0
0
0
0
0
0
0
0
0
0
0
0
0
0
0
0
0
0
0
0
0
0
0
0
0
0
0
0
0
0
0
0
0
0
0
0
0
0
0
0
0
0
0
0
0
0
0
0
0
0
0
0
0
0
0
0
0
0
0
0
0
0
0
0
0
0
0
0
0
0
0
0
0
0
0
0
0
0
0
0
0
0
0
0
0
0
0
0
0
0
0
0
0
0
0
0
0
0
0
0
0
0
0
0
0
0
0
0
0
0
0
0
0
0
0
0
0
0
0
0
0
0
0
0
0
0
0
0
0
0
0
0
0
0
0
0
0
0
0
0
0
0
0
0
0
0
0
0
0
0
0
0
0
0
0
0
0
0
0
0
0
0
0
0
0
0
0
0
0
0
0
0
0
0
0
0
0
0
0
0
0
0
0
0
0
0
0
0
0
0
0
0
0
0
0
0
0
0
0
0
0
0
0
0
0
0
0
0
0
0
0
0
0
0
0
0
0
0
0
0
0
0
0
0
0
0
0
0
0
0
0
0
0
0
0
0
0
0
0
0
0
0
0
0
0
0
0
0
0
0
0
0
0
0
0
0
0
0
0
0
0
0
0
0
0
0
0
0
0
0
0
0
0
0
0
0
0
0
0
0
0
0
0
0
0
0
0
0
0
0
0
0
0
0
0
0
0
0
0
0
0
0
0
0
0
0
0
0
0
0
0
0
0
0
0
0
0
0
0
0
0
0
0
0
0
0
0
0
0
0
0
0
0
0
0
0
0
0
0
0
0
0
0
0
0
0
0
0
0
0
0
0
0
0
0
0
0
0
0
0
0
0
0
0
0
0
0
0
0
0
0
0
0
0
0
0
0
0
0
0
0
0
0
0
0
0
0
0
0
0
0
0
0
0
0
0
0
0
0
0
0
0
0
0
0
0
0
0
0
0
0
0
0
0
0
0
0
0
0
0
0
0
0
0
0
0
0
0
0
0
0
0
0
0
0
0
0
0
0
0
0
0
0
0
0
0
0
0
0
0
0
0
0
0
0
0
0
0
0
0
0
0
0
0
0
0
0
0
0
0
0
0
0
0
0
0
0
0
0
0
0
0
0
0
0
0
0
0
0
0
0
0
0
0
0
0
0
0
0
0
0
0
0
0
0
0
0
0
0
0
0
0
0
0
0
0
0
0
0
0
0
0
0
0
0
0
0
0
0
0
0
0
0
0
0
0
0
0
0
0
0
0
0
0
0
0
0
0
0
0
0
0
0
0
0
0
0
0
0
0
0
0
0
0
0
0
0
0
0
0
0
0
0
0
0
0
0
0
0
0
0
0
0
0
0
0
0
0
0
0
0
0
0
0
0
0
0
0
0
0
0
0
0
0
0
0
0
0
0
0
0
0
0
0
0
0
0
0
0
0
0
0
0
0
0
0
0
0
0
0
0
0
0
0
0
0
0
0
0
0
0
0
0
0
0
0
0
0
0
0
0
0
0
0
0
0
0
0
0
0
0
0
0
0
0
0
0
0
0
0
0
0
0
0
0
0
0
0
0
0
0
0
0
0
0
0
0
0
0
0
0
0
0
0
0
0
0
0
0
0
0
0
0
0
0
0
0
0
0
0
0
0
0
0
0
0
0
0
0
0
0
0
0
0
0
0
0
0
0
0
0
0
0
0
0
0
0
0
0
0
0
0
0
0
0
0
0
0
0
0
0
0
0
0
0
0
0
0
0
0
0
0
0
0
0
0
0
0
0
0
0
0
0
0
0
0
0
0
0
0
0
0
0
0
0
0
0
0
0
0
0
0
0
0
0
0
0


VECTORS element_materi_velocity float
1.976682486953e-03 1.049735923010e-02 0.0 
2.137723214739e-03 9.884207983671e-03 0.0 
6.055926492450e-04 1.011384169045e-03 0.0 
7.008721317936e-05 1.487020216580e-03 0.0 
7.728120073700e-04 8.351644739211e-03 0.0 
7.392121504471e-05 2.512573237619e-03 0.0 
5.784495878341e-04 8.251512547853e-03 0.0 
2.014771258368e-03 9.565373691582e-03 0.0 
6.414918676387e-04 8.310427981724e-03 0.0 
1.031079026938e-04 1.523429807862e-03 0.0 
1.591758834769e-04 -2.131567473199e-04 0.0 
1.693127115893e-03 9.927933268897e-03 0.0 
7.324575406167e-05 1.382928985587e-05 0.0 
1.177520661150e-03 7.485500763896e-03 0.0 
6.050420883192e-05 1.449878763139e-05 0.0 
5.637140380490e-05 1.051463149186e-03 0.0 
1.008306832157e-03 8.706482685554e-03 0.0 
1.119759699756e-04 2.196319960690e-03 0.0 
8.221462467701e-05 -7.090984150376e-04 0.0 
6.783891529093e-05 -7.002344398610e-04 0.0 
1.229734509490e-04 1.561728276325e-03 0.0 
2.232016882741e-03 1.071472408674e-02 0.0 
2.380962696309e-03 1.039371807299e-02 0.0 
9.283917915403e-04 2.813372615014e-04 0.0 
1.369030211429e-03 6.500475379902e-03 0.0 
1.758588036433e-04 -1.782372484989e-04 0.0 
1.622844006468e-03 9.501958627272e-03 0.0 
9.543141358764e-04 7.274338739251e-04 0.0 
1.458456742539e-03 6.496835053391e-03 0.0 
7.622100118853e-04 2.282699977211e-04 0.0 
3.781683577784e-04 5.333371064077e-04 0.0 
7.802729256675e-05 -4.938259254879e-04 0.0 
6.950356501696e-04 1.242614687656e-03 0.0 
5.061347701006e-05 -4.824852502336e-05 0.0 
3.885615198902e-04 7.361798332904e-05 0.0 
1.112883894785e-04 1.971668480393e-05 0.0 
1.019715871766e-04 1.797535676727e-05 0.0 
8.455383135816e-04 3.906648630364e-04 0.0 
4.885681605146e-04 9.188923565939e-03 0.0 
4.443280980362e-04 9.196228734652e-03 0.0 
2.393918423132e-03 1.029003502769e-02 0.0 
3.757821936289e-04 8.796462123090e-05 0.0 
1.274995131551e-03 8.623572448928e-03 0.0 
1.698893387405e-03 9.152683367712e-03 0.0 
3.760437048378e-05 2.103325716603e-03 0.0 
1.338112896232e-03 7.767441015675e-03 0.0 
1.989101728180e-04 5.515323859379e-04 0.0 
4.261240345293e-05 1.787106638537e-03 0.0 
-7.131762438644e-05 4.109157943179e-04 0.0 
1.157384308225e-03 7.947126190243e-03 0.0 
2.409443299533e-03 1.039147521167e-02 0.0 
9.405311443197e-05 -6.786608087669e-04 0.0 
8.192361940508e-04 6.279526268803e-04 0.0 
2.314156926621e-03 1.066547955008e-02 0.0 
4.297101233237e-04 1.040166295332e-03 0.0 
1.870052942549e-04 -6.068428844192e-04 0.0 
7.817145352978e-05 -6.660922505603e-04 0.0 
1.025540762069e-04 -4.820135959465e-05 0.0 
1.490762620856e-04 -7.043459166641e-04 0.0 
6.774466011367e-05 1.060634968146e-03 0.0 
-3.214294231032e-04 8.962511161199e-04 0.0 
1.408808146733e-03 9.288499729008e-04 0.0 
3.002171081709e-03 7.376001274349e-03 0.0 
6.704281780916e-04 5.595541306304e-04 0.0 
1.191482902712e-04 1.769131549742e-05 0.0 
2.290694837083e-03 1.075417739813e-02 0.0 
-2.756629015122e-04 1.055957489704e-03 0.0 
7.488249692086e-04 1.198240779724e-03 0.0 
4.040970715583e-04 -2.654669989023e-04 0.0 
7.400390221983e-04 7.943870069382e-04 0.0 
2.645420133773e-04 -1.387924196086e-04 0.0 
6.967302979214e-05 3.000323297215e-04 0.0 
1.250490487345e-03 9.872729632197e-04 0.0 
7.947846788688e-06 -7.570495619484e-04 0.0 
1.709044074252e-04 -5.894375609998e-04 0.0 
2.437810804543e-04 1.377907987544e-03 0.0 
5.378125404841e-04 1.259693354458e-03 0.0 
7.198711500341e-04 5.590052493873e-03 0.0 
1.773069025479e-04 -6.917486433000e-04 0.0 
6.694572807884e-04 6.311943847243e-03 0.0 
4.306268621509e-04 -1.855550596649e-04 0.0 
9.456584957242e-04 8.431394083483e-03 0.0 
2.302904660239e-03 1.029945966382e-02 0.0 
2.082725707007e-03 1.066753845382e-02 0.0 
7.220116584767e-04 7.776308085132e-03 0.0 
6.597181178764e-04 7.737171713925e-03 0.0 
1.553307214952e-04 -1.191769087312e-04 0.0 
2.724799467771e-05 -6.893260240789e-05 0.0 
1.796219654611e-03 3.412397674683e-03 0.0 
8.324999334146e-04 8.325065961204e-03 0.0 
1.025025691878e-04 -4.512078397456e-04 0.0 
1.638493823376e-03 8.286008501713e-03 0.0 
1.167908347914e-04 4.198691578630e-03 0.0 
1.422778553302e-04 4.539076584653e-03 0.0 
1.394969722760e-04 5.568502452804e-04 0.0 
6.094516319822e-04 2.840971679814e-04 0.0 
1.065985779027e-03 8.477436276533e-03 0.0 
4.321927057415e-04 9.538550060433e-05 0.0 
8.981702019143e-05 6.654189419749e-03 0.0 
2.845609608538e-03 7.989410119928e-03 0.0 
7.544644586011e-04 8.833816822678e-03 0.0 
7.770318274904e-05 1.590941963548e-05 0.0 
2.413588624591e-03 1.634781591535e-03 0.0 
1.402429289962e-03 8.781450178939e-04 0.0 
2.673112516019e-03 5.736762184138e-03 0.0 
1.083500608441e-04 3.954103316403e-04 0.0 
8.509721039000e-05 -4.000256229299e-07 0.0 
1.174177795224e-04 3.620253639683e-03 0.0 
-2.012994031461e-04 5.639433209287e-04 0.0 
1.424969529397e-04 2.407292477104e-05 0.0 
1.972947240771e-03 3.834504349284e-03 0.0 
1.239241789688e-05 -7.615049496177e-04 0.0 
3.210611837654e-03 4.525703852658e-03 0.0 
2.061048582073e-03 9.173846404731e-03 0.0 
3.174338837922e-04 -4.958915492740e-04 0.0 
2.689776229294e-03 8.091127400919e-03 0.0 
3.026023613094e-03 6.874306910059e-03 0.0 
2.770236412105e-04 5.528070859903e-05 0.0 
1.147461950556e-04 7.063345719094e-03 0.0 
2.887840058639e-03 6.914183067667e-03 0.0 
3.347274397640e-04 -4.486604253548e-04 0.0 
1.710298048031e-03 8.536651049635e-03 0.0 
9.225176257540e-05 3.319292920550e-03 0.0 
2.888141393012e-03 6.361073452735e-03 0.0 
6.963614441022e-05 3.934597485247e-03 0.0 
2.266309099002e-03 9.859884932876e-03 0.0 
2.739040583318e-04 -5.170191693982e-04 0.0 
2.233414980271e-03 1.027539704190e-02 0.0 
1.851303944364e-04 9.760376196793e-04 0.0 
3.463649845712e-04 3.704300522331e-03 0.0 
2.470232874837e-04 -1.706683901422e-04 0.0 
5.545291903041e-05 1.471495403024e-03 0.0 
2.989984996323e-03 7.985540712704e-03 0.0 
2.337448437820e-03 1.011619101517e-02 0.0 
4.173376675763e-04 8.291512815868e-05 0.0 
5.025204458845e-05 1.267977722407e-05 0.0 
2.189961318069e-04 -1.149262366445e-04 0.0 
2.992146534439e-03 7.709039352912e-03 0.0 
5.383542294104e-04 1.530478054994e-04 0.0 
2.783562663668e-03 8.859926976332e-03 0.0 
1.402230209218e-04 1.089507617934e-03 0.0 
8.530393677270e-04 9.770154654674e-04 0.0 
1.251530603366e-03 7.446902694917e-03 0.0 
2.788965893150e-04 5.506548352297e-03 0.0 
2.879716520454e-03 8.565492208723e-03 0.0 
2.286033272461e-03 1.051321527316e-02 0.0 
3.064527056875e-03 7.153942876042e-03 0.0 
2.972416681531e-03 5.343348832476e-03 0.0 
5.568495198843e-04 8.727317428488e-03 0.0 
3.154666866491e-03 4.130429588719e-03 0.0 
1.126543524428e-04 -5.328390418804e-04 0.0 
1.322112435373e-04 7.957058677886e-03 0.0 
6.457955854691e-05 -7.253287687932e-04 0.0 
2.172363318661e-03 9.541696606600e-03 0.0 
4.364498905247e-04 1.203595133870e-04 0.0 
2.710071999922e-03 6.319132089639e-03 0.0 
1.178692199419e-04 -9.361929469651e-05 0.0 
1.641619202670e-03 8.782437011449e-03 0.0 
2.444998083948e-03 1.760443564606e-03 0.0 
3.118261151427e-04 8.381195288920e-03 0.0 
3.045391462795e-03 4.091262411003e-03 0.0 
1.155195045886e-04 -2.875290666251e-05 0.0 
3.612562359781e-04 -3.956261717471e-04 0.0 
1.192200582658e-04 1.304671611774e-06 0.0 
2.315736931994e-03 8.065353257285e-03 0.0 
1.629438455251e-04 2.476838939444e-05 0.0 
1.324161960237e-04 8.450046223142e-03 0.0 
2.805429554402e-03 5.275766981191e-03 0.0 
2.067747472311e-03 9.620778157557e-03 0.0 
1.020412288310e-04 -2.244436407670e-04 0.0 
1.515518202425e-03 9.571822244071e-03 0.0 
2.971969704549e-03 3.694134460979e-03 0.0 
2.418362261217e-04 4.988689382952e-03 0.0 
3.579826601491e-04 8.717772825755e-03 0.0 
3.050446768681e-03 4.908107252293e-03 0.0 
2.160094005895e-03 9.977871375918e-03 0.0 
1.807736374247e-03 2.395052061102e-03 0.0 
3.300328015285e-04 -4.579234647883e-04 0.0 
7.735058419980e-04 5.525889048491e-04 0.0 
9.042153957614e-04 9.391034815421e-04 0.0 
2.496276423387e-03 8.681498424782e-03 0.0 
2.940149630072e-04 -4.437381908620e-04 0.0 
1.372880231176e-03 4.906836533374e-04 0.0 
2.651758632265e-03 9.441274799317e-03 0.0 
2.270978371605e-03 8.773961997924e-03 0.0 
2.139798286559e-03 8.665463989774e-03 0.0 
3.168126037492e-03 4.936102096100e-03 0.0 
1.008720998843e-04 1.149751225784e-03 0.0 
1.705382200728e-03 3.940019948444e-03 0.0 
8.070308203232e-05 -1.343552808647e-05 0.0 
9.873124812774e-04 6.633290326758e-03 0.0 
2.742887689528e-03 3.235413715374e-03 0.0 
1.709863089771e-03 3.438053047356e-03 0.0 
-9.977886365851e-04 2.621564328272e-03 0.0 
2.549390440238e-03 9.697906010297e-03 0.0 
1.498979415765e-03 4.305694813966e-04 0.0 
1.429759950869e-04 -6.818379300152e-04 0.0 
6.322491721962e-04 1.342126784881e-03 0.0 
1.546740311910e-03 5.449126266319e-03 0.0 
1.203903066797e-03 -1.436175812558e-04 0.0 
1.562030644550e-03 4.843669308541e-04 0.0 
1.633960594818e-03 7.770005067352e-03 0.0 
1.351025705054e-03 6.963780545624e-03 0.0 
7.235049380131e-04 2.049910157791e-04 0.0 
7.816377664674e-04 -3.871132050485e-04 0.0 
3.186893031473e-03 6.341191579302e-03 0.0 
2.481778300792e-03 7.424474296857e-03 0.0 
1.437649171469e-03 4.963826095979e-03 0.0 
2.262787617039e-03 7.634617384233e-03 0.0 
2.248398926381e-03 8.585271633252e-03 0.0 
2.749296015041e-03 1.866473960193e-03 0.0 
1.967673572629e-03 2.799120406542e-03 0.0 
-5.253475666448e-04 2.329592903421e-03 0.0 
2.447954549005e-03 9.250190103141e-03 0.0 
2.803032307564e-03 8.477091478088e-03 0.0 
3.144020810849e-03 6.870169148404e-03 0.0 
1.541141795777e-03 3.485569167756e-03 0.0 
7.069782901573e-04 2.482660645474e-03 0.0 
1.513822993015e-03 3.770355222526e-04 0.0 
4.024104806494e-04 8.598773028337e-03 0.0 
2.830085391161e-03 3.618096586483e-03 0.0 
1.497197825096e-03 3.112714824581e-04 0.0 
1.211307065273e-04 -6.174392737147e-04 0.0 
1.405547038340e-03 4.474452275818e-03 0.0 
9.194255461812e-05 -6.318853539859e-04 0.0 
1.522214602161e-04 -6.910769832705e-04 0.0 
9.543485729636e-04 7.497760487040e-03 0.0 
6.650979924413e-04 -4.239620260414e-04 0.0 
1.275761013041e-03 3.992952141420e-03 0.0 
6.280200763964e-04 -4.149230711944e-04 0.0 
1.601977456528e-03 5.101479541246e-03 0.0 
6.751434413724e-04 1.710345666912e-04 0.0 
3.957672512378e-04 -4.685828747889e-04 0.0 
1.512850468551e-03 5.233849051630e-04 0.0 
2.426625438734e-03 7.953541269161e-03 0.0 
1.416909754954e-04 1.991574482090e-05 0.0 
-8.229265357570e-04 2.337112971335e-03 0.0 
2.114190464608e-03 4.890520218485e-03 0.0 
3.013060339480e-03 3.382856532942e-03 0.0 
2.591572988071e-03 9.759399478307e-03 0.0 
1.583831395410e-03 4.317634026206e-04 0.0 
1.757247177413e-04 2.807483253823e-05 0.0 
1.765408335556e-03 4.418397343357e-03 0.0 
2.167515309497e-03 2.900870674976e-03 0.0 
1.456397352788e-03 4.705816885342e-04 0.0 
1.297121192252e-04 -1.506119500519e-04 0.0 
3.033049907053e-03 6.871860603435e-03 0.0 
1.619630807387e-03 4.953766369238e-03 0.0 
1.177712803757e-03 7.755140020080e-04 0.0 
2.928304321607e-03 3.039586835577e-03 0.0 
1.906378437209e-03 5.296470269375e-03 0.0 
2.231887537557e-03 6.683293267154e-03 0.0 
1.121533796787e-04 5.091422955784e-04 0.0 
3.247229016013e-03 6.049161681633e-03 0.0 
2.935461752190e-03 2.132507672262e-03 0.0 
2.985783269322e-04 7.787934115076e-03 0.0 
3.448668338546e-04 -1.308433299851e-04 0.0 
2.155828137197e-03 7.710605288761e-03 0.0 
2.261350429236e-03 3.287069611565e-03 0.0 
1.190966926720e-03 2.379716956480e-03 0.0 
5.070465782365e-04 6.613448933514e-04 0.0 
1.194634840390e-03 3.992544071776e-03 0.0 
2.416286125874e-03 7.015970876968e-03 0.0 
3.018169036238e-03 5.846285398518e-03 0.0 
1.063157464888e-03 3.507963788542e-03 0.0 
1.794687756367e-03 3.911586309323e-03 0.0 
2.893401282097e-03 6.785597641551e-03 0.0 
2.002514527916e-04 3.604542784992e-05 0.0 
2.873353321032e-03 1.932592890433e-03 0.0 
2.730424384998e-03 6.617778262934e-03 0.0 
3.282405425160e-03 4.518991866614e-03 0.0 
2.875394682472e-03 1.940635707369e-03 0.0 
1.612594682727e-03 2.300364545234e-03 0.0 
1.485080975950e-03 8.395139709335e-03 0.0 
2.853868085571e-03 2.483094591663e-03 0.0 
1.629210719912e-03 8.633209898035e-04 0.0 
1.673337111755e-03 4.440961452782e-03 0.0 
-9.104180957540e-04 2.076779621207e-03 0.0 
2.094921811109e-03 7.258774563368e-03 0.0 
2.283417103673e-03 2.665376237517e-03 0.0 
2.032523607848e-03 4.355818033187e-03 0.0 
1.531207408718e-03 1.987004976061e-03 0.0 
2.246840734084e-03 6.177412583182e-03 0.0 
1.822111371894e-04 -4.437172229340e-04 0.0 
2.846452594619e-03 8.714387230868e-03 0.0 
2.783816930712e-03 1.748397775325e-03 0.0 
2.308183948861e-03 7.114301976221e-03 0.0 
1.473854597947e-03 7.769158573032e-03 0.0 
3.908482796945e-04 2.020704406515e-03 0.0 
1.716371051884e-03 1.056363266408e-03 0.0 
1.379454504387e-03 6.070933967152e-04 0.0 
2.598877053938e-03 9.147500437439e-03 0.0 
1.713026745111e-03 4.935307364091e-03 0.0 
2.913234586478e-03 8.301304237911e-03 0.0 
2.739683677122e-03 2.413833246474e-03 0.0 
2.800015985042e-03 2.968181892506e-03 0.0 
6.509996452446e-04 2.142582800480e-03 0.0 
3.289363369579e-03 4.133396977295e-03 0.0 
9.838466871240e-04 4.674822890737e-03 0.0 
2.207105506768e-04 5.110886104601e-04 0.0 
2.919047998705e-04 5.323226322403e-04 0.0 
3.259540678641e-03 5.556772372301e-03 0.0 
1.939171302781e-03 2.773176358738e-03 0.0 
1.677163481833e-03 3.715085917783e-03 0.0 
2.746242232586e-03 6.104985180952e-03 0.0 
1.781631619708e-03 3.016157177923e-03 0.0 
1.458154010188e-03 7.782152038797e-04 0.0 
2.942757598243e-03 7.107753110314e-03 0.0 
1.831935215499e-04 1.324988587206e-03 0.0 
2.572259896923e-03 3.135964181285e-03 0.0 
2.800736055090e-03 2.034224671529e-03 0.0 
1.234064633666e-03 4.350325084439e-03 0.0 
2.646462086932e-04 8.701437382669e-05 0.0 
1.866769897343e-03 3.425575406134e-03 0.0 
3.068208663009e-03 6.345671701112e-03 0.0 
8.745078281407e-04 1.931771827216e-03 0.0 
2.164857526497e-03 7.849423319440e-04 0.0 
2.946668960429e-03 2.779412373542e-03 0.0 
1.461344955063e-03 5.291414514125e-04 0.0 
2.590177250835e-03 7.292128064409e-03 0.0 
3.119004347408e-04 3.977783041242e-04 0.0 
2.550620016980e-03 2.547185699577e-03 0.0 
2.706829277990e-03 1.573609740692e-03 0.0 
1.179098826912e-03 3.853336151623e-03 0.0 
9.687667923412e-04 5.886897037947e-03 0.0 
1.572195505743e-03 3.650296396062e-04 0.0 
2.254442515711e-03 6.106870127308e-03 0.0 
9.652587555513e-04 6.377984251301e-03 0.0 
3.823371334073e-04 3.559858957461e-04 0.0 
1.374715064961e-03 3.337069588430e-04 0.0 
3.134091785346e-04 4.482995920433e-04 0.0 
1.196556394016e-03 6.441573650081e-03 0.0 
2.059154563543e-03 3.784275632342e-03 0.0 
1.707377469135e-03 6.415636791873e-03 0.0 
2.572249593008e-03 8.216757248163e-03 0.0 
2.628247973031e-03 6.767769979888e-03 0.0 
2.547386469853e-03 6.384173536178e-03 0.0 
3.309894296976e-03 5.907485269118e-03 0.0 
4.001958077382e-04 3.060805924878e-04 0.0 
1.536700597136e-03 6.944503026675e-03 0.0 
2.100176812330e-03 8.221533518334e-03 0.0 
2.704196215416e-03 2.638746085281e-03 0.0 
5.357740098152e-04 -4.510349445510e-04 0.0 
2.380439123686e-03 8.902201728237e-03 0.0 
2.445554179997e-03 5.621369217113e-03 0.0 
2.691652478483e-04 8.682122136790e-03 0.0 
1.380084318515e-03 3.854224590489e-04 0.0 
2.475811994002e-03 2.777171972712e-03 0.0 
1.443089908055e-03 3.983844647107e-03 0.0 
2.373745304385e-03 5.045585567582e-03 0.0 
2.641812493224e-03 7.676863408763e-03 0.0 
2.603443179988e-03 1.412752472272e-03 0.0 
1.586465897898e-03 1.645453165032e-04 0.0 
3.671615900378e-04 2.133543779532e-04 0.0 
2.580291406761e-03 9.349603250045e-03 0.0 
1.707089993545e-03 1.400639023297e-03 0.0 
1.199358305448e-03 -1.344434178426e-04 0.0 
2.279380235292e-03 8.177806366632e-03 0.0 
2.296601575142e-03 6.769588101836e-03 0.0 
1.525029997871e-03 3.002085232471e-03 0.0 
3.004490288653e-03 6.059851148140e-03 0.0 
2.681085564886e-03 9.449511275452e-03 0.0 
2.593119226595e-03 8.601899203588e-03 0.0 
3.475392867824e-04 1.452615241337e-04 0.0 
8.695578977496e-04 3.812312258857e-04 0.0 
1.445614259516e-03 3.021167713749e-03 0.0 
1.493610916356e-03 4.468756162733e-03 0.0 
1.636266437171e-03 1.851260487386e-04 0.0 
3.099862469520e-03 7.257183262174e-03 0.0 
1.848609519987e-03 2.423696304255e-03 0.0 
2.185490361842e-03 2.335382809947e-03 0.0 
3.142558033456e-03 6.098776404617e-03 0.0 
2.268769384076e-03 8.757930418229e-04 0.0 
8.483910989656e-04 -2.920645217555e-04 0.0 
1.213243619658e-03 3.046787961784e-03 0.0 
1.621480197736e-03 1.172924655553e-03 0.0 
3.323641952843e-03 5.671229495299e-03 0.0 
2.796214574896e-03 6.975029270155e-03 0.0 
3.223190698104e-03 6.258543214239e-03 0.0 
3.046662496960e-04 4.896026496770e-04 0.0 
2.635487501837e-04 5.396738667575e-04 0.0 
6.691894052928e-04 1.339695518099e-03 0.0 
1.618315881217e-03 2.098979446451e-04 0.0 
9.903556497363e-04 3.496950591542e-03 0.0 
1.974821612701e-03 5.937036528667e-03 0.0 
2.448984912119e-03 2.239098110144e-03 0.0 
1.123291684812e-03 2.053040034490e-03 0.0 
2.920148433766e-03 8.485659775401e-03 0.0 
1.333669507617e-03 8.408399985965e-03 0.0 
1.117091149345e-03 6.427640495452e-03 0.0 
6.675055186455e-04 2.248663245846e-04 0.0 
1.685620671635e-03 2.961824549105e-03 0.0 
2.125584879647e-03 6.751777949775e-03 0.0 
2.552786104680e-03 5.878767519103e-03 0.0 
1.297533965487e-03 1.870416175667e-03 0.0 
1.676664484747e-04 -2.210486023071e-04 0.0 
3.178660507536e-03 3.777777226478e-03 0.0 
3.347560669928e-03 5.099519392007e-03 0.0 
3.241563423118e-03 3.787456601098e-03 0.0 
1.342374948821e-04 4.477197115906e-03 0.0 
2.470022188094e-04 7.529211718300e-03 0.0 
4.855617663342e-04 -4.374394034387e-04 0.0 
2.206518498998e-03 4.020620142695e-03 0.0 
1.398676348784e-04 4.783034529665e-05 0.0 
2.554444776706e-03 1.515109589045e-03 0.0 
1.999155383572e-03 8.271301629556e-03 0.0 
4.076602058185e-05 -7.339673089898e-04 0.0 
3.268377450425e-03 6.242743021350e-03 0.0 
3.110475738772e-03 3.427332120725e-03 0.0 
2.350674592253e-03 6.092478616091e-03 0.0 
3.403529970419e-04 3.887644906632e-04 0.0 
2.465461488562e-03 8.361088876113e-03 0.0 
2.838606356938e-03 5.940523128323e-03 0.0 
9.254112533062e-04 -2.626715644344e-04 0.0 
1.215349485758e-03 3.515684169074e-03 0.0 
1.549382982529e-03 1.898655317212e-04 0.0 
3.723766767593e-04 3.844332518285e-04 0.0 
1.585436503388e-04 2.396603624501e-04 0.0 
1.029440010064e-04 2.537950887161e-04 0.0 
1.457822005133e-04 2.823803450134e-04 0.0 
2.344869129013e-03 5.593722273861e-03 0.0 
1.294614502756e-03 3.512272787845e-03 0.0 
1.399650829918e-03 2.546266280543e-03 0.0 
3.202451179515e-03 6.692706288484e-03 0.0 
3.053503275262e-03 7.694804867576e-03 0.0 
7.218590192197e-04 -3.598761019730e-04 0.0 
1.289549843808e-03 3.041344930933e-03 0.0 
3.932879127460e-04 3.316716365938e-04 0.0 
9.952000235974e-04 3.037382331205e-03 0.0 
2.748297372309e-03 1.734284573874e-03 0.0 
1.066265871817e-03 3.044694642094e-03 0.0 
2.779508538749e-03 2.916822756169e-03 0.0 
3.348486682695e-03 5.204787995502e-03 0.0 
2.837425065866e-03 8.836951828853e-03 0.0 
1.399463551158e-03 3.557808442136e-03 0.0 
2.703115811325e-04 1.086131158772e-03 0.0 
3.144454519493e-03 6.321325823638e-03 0.0 
1.255059337522e-03 1.104218522539e-03 0.0 
7.947445125346e-04 -3.352164413715e-04 0.0 
1.158883168120e-03 1.888545683402e-04 0.0 
5.216954459185e-04 1.688984553995e-04 0.0 
2.526018876418e-03 4.647883484727e-03 0.0 
1.548655281958e-04 2.086392295932e-04 0.0 
4.745951683504e-04 1.012996014600e-03 0.0 
3.003184935086e-03 5.563929175749e-03 0.0 
4.933299326268e-05 -2.144183620076e-04 0.0 
1.833180904969e-04 1.996254161322e-04 0.0 
6.052806352147e-04 2.321565587512e-04 0.0 
1.230420859535e-03 3.134616550733e-04 0.0 
2.559813777489e-03 1.403037368385e-03 0.0 
3.744625687029e-04 1.996058878300e-04 0.0 
-7.701521359807e-05 -2.695762728226e-04 0.0 
3.287782182428e-03 5.754827345847e-03 0.0 
2.828758774684e-03 5.446990367157e-03 0.0 
3.148719544034e-03 5.602325597682e-03 0.0 
2.919975216551e-03 6.263884581700e-03 0.0 
1.754543393494e-03 4.193501925678e-03 0.0 
1.932785471449e-04 1.711780600498e-04 0.0 
2.638849538423e-03 2.130614814159e-03 0.0 
3.798776099329e-04 1.702778685835e-03 0.0 
2.580102698553e-04 4.514188859487e-05 0.0 
1.396990769973e-05 -2.797068547116e-04 0.0 
2.699326221009e-03 8.776389851163e-03 0.0 
4.578873243924e-04 3.672388073994e-04 0.0 
2.274265068245e-03 9.014572497252e-03 0.0 
3.152018073520e-04 1.207749824581e-04 0.0 
2.001864421371e-04 1.455870159438e-04 0.0 
2.443823572739e-03 6.500028200810e-03 0.0 
1.979858688132e-04 2.555586704458e-04 0.0 
1.485425346867e-04 1.593860372764e-03 0.0 
3.682649474011e-04 2.455824257350e-04 0.0 
7.853338910338e-04 9.976527518985e-05 0.0 
1.413175741898e-03 8.717606402367e-03 0.0 
1.949796504975e-03 7.814672469530e-03 0.0 
1.844467223811e-04 1.117309078633e-04 0.0 
1.264675945400e-03 8.722812301226e-03 0.0 
1.914900893940e-04 5.000639223210e-04 0.0 
2.642715294579e-03 2.581389178953e-03 0.0 
1.031919001302e-03 6.910951688454e-03 0.0 
2.523056205791e-03 7.511810105520e-03 0.0 
2.627680317089e-03 1.549781435354e-03 0.0 
9.981617149613e-04 2.598526594201e-03 0.0 
1.917477010461e-04 9.798241774021e-05 0.0 
1.461225993572e-04 2.499422872269e-04 0.0 
1.177665496704e-04 2.572935217441e-04 0.0 
1.461387841715e-03 1.335160423346e-04 0.0 
5.997536360157e-04 -4.211327049660e-04 0.0 
3.344321014910e-03 4.846303751311e-03 0.0 
1.387820983117e-03 1.221812828714e-04 0.0 
1.856979196751e-04 8.098885717317e-05 0.0 
2.118144700155e-03 3.568793523538e-03 0.0 
1.702871522986e-03 7.707385806349e-04 0.0 
1.667713704196e-03 5.357296102946e-04 0.0 
8.928948193965e-04 6.347224047513e-03 0.0 
2.388844060531e-04 7.267456811055e-05 0.0 
1.241021487456e-04 1.437524904664e-04 0.0 
1.533604402448e-04 5.650231549766e-05 0.0 
1.441888836223e-03 3.268661305661e-04 0.0 
1.570349065450e-04 1.891390745310e-04 0.0 
1.473884938842e-03 2.531660969851e-03 0.0 
-1.538817547865e-04 -1.906845602134e-04 0.0 
3.312667020550e-03 4.900586138272e-03 0.0 
8.600066580858e-04 3.008103266678e-03 0.0 
1.890585862624e-04 1.848078356963e-04 0.0 
2.443417744327e-03 5.495865841504e-03 0.0 
2.493378417039e-03 2.141111229811e-03 0.0 
8.941829515672e-04 3.683095366970e-03 0.0 
9.641584301349e-04 3.548274850330e-04 0.0 
1.404348330939e-03 1.642485904550e-04 0.0 
1.577157913029e-03 3.986338838159e-04 0.0 
-1.305362947075e-04 2.800784279363e-04 0.0 
2.000093656011e-04 1.604935765439e-04 0.0 
1.446596481404e-03 2.510452666831e-03 0.0 
1.285946543356e-03 3.321942661554e-04 0.0 
1.016830481434e-03 7.453603898144e-03 0.0 
9.475472197204e-04 -2.099816521965e-04 0.0 
1.613705263938e-03 6.076808494084e-04 0.0 
2.649465455447e-03 5.749570880831e-03 0.0 
1.827148676568e-04 1.016234700898e-04 0.0 
5.814938060372e-04 -4.000331250283e-04 0.0 
1.454341070400e-03 2.375252065941e-04 0.0 
3.283052368486e-03 4.817923171822e-03 0.0 
1.997489578061e-03 5.612591467920e-04 0.0 
1.853272813287e-03 8.532409470188e-04 0.0 
1.558109410523e-03 2.280820934978e-04 0.0 
3.299148015862e-03 5.267803306681e-03 0.0 
2.687589157445e-03 3.374412341051e-03 0.0 
2.406162669696e-03 1.339801852302e-03 0.0 
3.337851683465e-03 4.664080667852e-03 0.0 
1.024188715225e-03 -2.386118324608e-04 0.0 
2.440458927791e-03 4.157620245138e-03 0.0 
6.682608105262e-04 -4.007645109322e-04 0.0 
2.651440133040e-03 2.439907113484e-03 0.0 
2.714021833108e-03 1.564144423382e-03 0.0 
2.932280751232e-04 1.043326607943e-04 0.0 
8.500141256161e-04 2.569307273557e-03 0.0 
8.397103206254e-04 -2.590467430200e-04 0.0 
1.618413671073e-04 6.427266696049e-05 0.0 
7.140279146493e-04 2.630357895059e-04 0.0 
3.227739217319e-03 3.457154152873e-03 0.0 
-2.475232954463e-05 1.527667852794e-04 0.0 
2.181057271717e-04 6.175441375622e-05 0.0 
1.047875800974e-03 2.597440813338e-03 0.0 
1.226042667853e-03 1.408759236625e-04 0.0 
1.247785738149e-04 3.918402853004e-05 0.0 
1.388170684300e-03 1.581045953003e-04 0.0 
3.045687765054e-03 7.893230560351e-03 0.0 
1.989911607646e-03 7.313073632916e-03 0.0 
2.788968124389e-03 1.730889641077e-03 0.0 
1.495156151677e-03 1.018931966870e-04 0.0 
2.078715249974e-03 6.840928484501e-04 0.0 
1.640658069813e-03 5.444762652663e-03 0.0 
2.898544680791e-03 7.972408661030e-03 0.0 
2.340794583263e-03 1.398982976582e-03 0.0 
2.313752928934e-04 6.962696447670e-03 0.0 
9.455043898950e-04 -2.751503620373e-04 0.0 
2.429148247965e-03 1.249037765077e-03 0.0 
1.321547777740e-03 6.451610701961e-05 0.0 
7.763730071849e-04 -1.017839858557e-04 0.0 
-2.300077008591e-04 -2.156934837506e-05 0.0 
2.730144790412e-03 4.762671931312e-03 0.0 
1.359384876976e-03 2.069266819128e-04 0.0 
8.219011563919e-04 -2.750497602365e-04 0.0 
3.291278274407e-03 3.741202695179e-03 0.0 
1.470463970892e-03 2.076559165401e-04 0.0 
8.825018626272e-04 6.831226332102e-03 0.0 
1.152737564540e-03 3.716736845235e-05 0.0 
1.141058322382e-04 3.349053958051e-05 0.0 
2.908822280729e-03 5.274429848143e-03 0.0 
7.146270304675e-04 -2.783341823885e-04 0.0 
3.073064820020e-03 5.353298921786e-03 0.0 
7.464733406591e-04 -2.987388672714e-04 0.0 
-1.365375443620e-04 -1.192505728325e-04 0.0 
1.918130009717e-03 6.852705276195e-03 0.0 
2.071250001866e-04 -4.899200977009e-04 0.0 
6.094922711476e-05 -6.688040735862e-04 0.0 
6.008738515789e-04 -3.375866686756e-04 0.0 
1.349267698137e-03 2.157984544224e-04 0.0 
2.319558850334e-04 3.064968672790e-03 0.0 
2.176362526622e-03 7.329353601369e-04 0.0 
2.089034279389e-03 6.583923203395e-04 0.0 
1.934910244682e-03 8.774371799511e-03 0.0 
1.270540761750e-03 9.353531270855e-03 0.0 
3.290339826802e-04 1.014217540360e-03 0.0 
3.205366204680e-03 5.352351463036e-03 0.0 
4.991080125563e-05 -6.857958392294e-04 0.0 
3.655597815662e-04 -5.120820767458e-04 0.0 
1.601603587536e-05 -5.124960791436e-05 0.0 
7.553321369763e-04 -3.837616007622e-04 0.0 
1.863195824683e-03 2.333607163473e-03 0.0 
2.658282240528e-04 3.099230429709e-03 0.0 
8.380157373639e-04 8.537869003355e-05 0.0 
6.768281229543e-04 -4.555915308572e-04 0.0 
7.050612487626e-04 -1.213073762401e-04 0.0 
1.130368465747e-03 2.862636096974e-04 0.0 
8.230046550014e-04 1.642313987622e-03 0.0 
1.467394557332e-04 -4.945132194515e-04 0.0 
1.013098252487e-04 -5.778438754959e-04 0.0 
2.026565687654e-04 5.315494194297e-05 0.0 
1.039998949335e-04 2.826387417570e-05 0.0 
1.533002607850e-04 -4.345450638633e-04 0.0 
6.408855800594e-04 -2.973931547711e-04 0.0 
1.439010994183e-03 9.089633544229e-05 0.0 
1.065321012750e-03 3.067657227334e-04 0.0 
4.122200324443e-04 -5.235722679740e-04 0.0 
1.174856210083e-03 2.557310234826e-04 0.0 
1.234873164568e-04 -7.062793262022e-04 0.0 
6.282197512459e-04 -3.602021184135e-04 0.0 
8.661334746399e-04 -2.320417215163e-04 0.0 
7.949821915079e-05 -7.309642806146e-04 0.0 
1.220163529360e-04 -4.654459950799e-04 0.0 
7.876225752557e-04 2.551041406028e-03 0.0 
5.131861497391e-05 -7.160063994695e-04 0.0 
1.409511761496e-03 9.310712770622e-03 0.0 
1.477171839265e-03 9.588163885073e-03 0.0 
2.131154414852e-03 7.973249115737e-04 0.0 
5.032356558028e-05 -5.822449295191e-04 0.0 
1.203279220463e-03 3.485643267264e-06 0.0 
1.531809269573e-03 4.533213382848e-03 0.0 
5.347865470190e-04 6.978220846683e-05 0.0 
7.520521271911e-04 6.540079050266e-04 0.0 
4.914821785697e-04 3.743001445011e-03 0.0 
2.524672723330e-03 6.866457097142e-03 0.0 
2.450291948155e-04 -4.750742533859e-04 0.0 
2.697744130187e-03 8.418025316308e-03 0.0 
8.945451109205e-04 9.305146892629e-03 0.0 
8.407700046173e-04 9.604643607186e-03 0.0 
6.272932732397e-05 -7.023236604057e-04 0.0 
9.633388031909e-05 -7.114660459011e-04 0.0 
6.541768665600e-05 -7.386911249855e-04 0.0 
5.147792770891e-04 -5.315698165130e-04 0.0 
6.163194782927e-05 -7.411791513381e-04 0.0 
1.258086970692e-04 -4.026806251753e-04 0.0 
-3.906112888128e-04 5.773259183412e-04 0.0 
6.056499607874e-04 -4.926290001170e-04 0.0 
2.025419027748e-04 5.850918160962e-03 0.0 
1.202428831430e-03 9.658064577604e-03 0.0 
1.579387870279e-03 2.064017501231e-03 0.0 
1.298306273745e-03 1.456799490631e-04 0.0 
1.843706815629e-04 6.736045336494e-03 0.0 
2.692813534782e-05 -5.563249006510e-04 0.0 
7.322436471083e-05 -7.379823202344e-04 0.0 
3.905135953468e-05 2.685597389304e-04 0.0 
8.948324834042e-05 5.596095226643e-04 0.0 
9.397772789134e-04 7.404638745580e-03 0.0 
1.015072941277e-03 9.343648114805e-03 0.0 
1.343983425941e-04 -5.496061624581e-04 0.0 
5.738447964890e-05 5.297099874752e-04 0.0 
5.873013644036e-04 -4.983914163760e-04 0.0 
1.335870343566e-03 9.632225323849e-03 0.0 
1.138824994064e-03 9.364754313652e-03 0.0 
2.384752467208e-03 9.311339394544e-03 0.0 
8.854608838764e-05 2.462688336049e-04 0.0 
7.002898338977e-05 5.286763855656e-04 0.0 
7.730472007039e-05 -7.241111893392e-04 0.0 
5.790268464527e-05 -7.272019234168e-04 0.0 
2.907822425875e-04 -5.376259977434e-04 0.0 
9.445002306982e-04 -2.041634062350e-04 0.0 
5.528563906526e-05 7.756684709141e-06 0.0 
-5.403951242274e-04 7.476257050286e-04 0.0 
6.219910230689e-05 3.858248667639e-03 0.0 
-2.914998737006e-04 2.968163884214e-04 0.0 
1.968554711069e-03 6.120411438050e-04 0.0 
-3.195100185208e-04 1.855817853986e-04 0.0 
-4.215930890462e-04 4.410363522156e-04 0.0 
1.903956419393e-03 5.039359087227e-04 0.0 
2.197360009006e-04 1.243891313586e-05 0.0 
1.705837244703e-04 6.178513497507e-03 0.0 
2.880632894418e-03 7.653204691038e-03 0.0 
5.924427893914e-05 -7.449014362420e-04 0.0 
5.801260160192e-04 -1.185757334420e-04 0.0 
1.350423852463e-05 3.148605894517e-04 0.0 
2.664920280305e-05 5.336361411172e-04 0.0 
1.076455942821e-03 9.653609755665e-03 0.0 
2.003460847134e-03 7.095254143586e-04 0.0 
3.097762385509e-05 2.601166466352e-04 0.0 
2.489294272501e-03 2.017429044036e-03 0.0 
4.401283013316e-05 -7.472434033228e-04 0.0 
4.289717909773e-05 -7.530193391826e-04 0.0 
3.547240834659e-05 -7.546525015123e-04 0.0 
2.976930558577e-05 -4.984657207468e-04 0.0 
4.430762154120e-05 1.021729013250e-05 0.0 
7.260540909223e-06 1.448400743948e-03 0.0 
3.369423598089e-05 -7.578729941858e-04 0.0 
6.475548363444e-05 -4.021630178961e-04 0.0 
1.501806546028e-05 3.949736124462e-06 0.0 
6.254202460932e-05 1.301990880504e-05 0.0 
1.882049593224e-04 4.592007332620e-05 0.0 
3.527951784050e-05 4.821981293492e-03 0.0 
1.362352738109e-05 3.371559342742e-03 0.0 
2.928955608092e-05 6.267554008033e-06 0.0 
3.325246852840e-05 6.752354797010e-06 0.0 
3.044859467046e-05 3.858138191458e-03 0.0 
2.289251897971e-05 -7.639103277116e-04 0.0 
6.298205581857e-04 9.578217065361e-03 0.0 
9.577514283999e-04 9.634913826826e-03 0.0 
4.761257713806e-05 -7.453742468887e-04 0.0 
5.472637488213e-05 1.120011549406e-05 0.0 
1.784174876917e-04 4.048604631288e-05 0.0 
8.886920220114e-05 1.945704075395e-05 0.0 
3.602196513109e-05 -7.539501867958e-04 0.0 
4.607681303446e-05 -7.382501102428e-04 0.0 
9.865667383186e-05 2.489106776727e-05 0.0 
8.954828549052e-05 2.102900555893e-05 0.0 
1.845445055113e-05 5.317821362548e-03 0.0 
3.291947500402e-04 9.549650363799e-03 0.0 
1.682506728937e-05 4.334664148943e-03 0.0 
2.315545617077e-05 7.270938089857e-03 0.0 
1.405422203377e-04 9.534129654663e-03 0.0 
4.098150988701e-05 -6.454529281408e-04 0.0 
-2.671845246249e-06 -5.231390124580e-04 0.0 
-4.029506140463e-05 -4.364614049481e-04 0.0 
-9.124993543936e-05 -3.267170054968e-04 0.0 
3.299463885376e-05 -3.695253353095e-04 0.0 
3.176084478068e-05 -4.356622737098e-04 0.0 
9.268512467304e-06 -4.868801264057e-04 0.0 
3.395663339525e-05 -1.790551091888e-04 0.0 
-2.817542679351e-05 -3.902481725480e-04 0.0 
6.982394248386e-05 2.568179155589e-04 0.0 
2.640685579381e-05 2.695933408399e-04 0.0 
5.043188880573e-05 2.910497837340e-04 0.0 
1.465896640715e-05 -7.208626130191e-04 0.0 
2.339543023246e-05 -6.080719705967e-04 0.0 
2.487749483341e-05 3.240324084123e-04 0.0 
2.336548233235e-05 -2.927732258881e-05 0.0 
1.314496427842e-05 2.187755516655e-04 0.0 
1.712417664061e-05 -1.551711368539e-06 0.0 
1.040185173462e-05 1.092403654068e-05 0.0 
6.153015036645e-05 -4.670808122056e-04 0.0 
5.128435062722e-05 5.936257492523e-04 0.0 
3.802245911183e-05 5.428079600779e-04 0.0 
4.048965897296e-05 -1.391277858407e-05 0.0 
2.752602837523e-05 7.082249461128e-06 0.0 
3.458911541556e-04 -9.988930333978e-05 0.0 
-2.081519425586e-04 6.655187329680e-05 0.0 
5.144879948326e-04 -4.159806686247e-04 0.0 
8.834255724403e-05 -7.008740409148e-04 0.0 
4.990337700283e-04 5.812581144468e-05 0.0 
7.000777899179e-04 -3.404132893919e-04 0.0 
3.961135106320e-04 -1.324472596465e-05 0.0 
4.865758975479e-04 -5.329405713646e-04 0.0 
1.652353343785e-04 -6.639540971440e-04 0.0 
2.750083989177e-04 6.159553480268e-06 0.0 
5.301065712331e-04 -3.534414411101e-04 0.0 
1.131813885114e-04 -5.252138911233e-04 0.0 
3.479899233960e-04 -2.194228564144e-05 0.0 
8.410771395297e-05 2.450407617898e-03 0.0 
5.669744093359e-05 -5.275315752930e-04 0.0 
1.307350420771e-03 2.359481023009e-04 0.0 
9.966966214334e-04 -2.863242273257e-05 0.0 
4.072634655102e-04 -9.051157539150e-05 0.0 
2.964804237719e-04 -7.921722979233e-05 0.0 
2.501726971855e-03 2.047440063533e-03 0.0 
2.800229285889e-03 8.543344788429e-03 0.0 
3.316974869899e-03 4.101913103753e-03 0.0 
6.475205394229e-04 -1.031470556160e-04 0.0 
2.478715181720e-04 -1.634010509598e-05 0.0 
1.949966134572e-04 -6.562896063046e-05 0.0 
6.801755221303e-04 -3.633340389970e-04 0.0 
1.604339360325e-04 2.530076647474e-03 0.0 
2.074451967690e-04 3.501949229842e-03 0.0 
4.119323847475e-04 8.077541489276e-03 0.0 
7.185257497427e-04 -5.254036576607e-05 0.0 
5.241321223287e-04 -9.884529842579e-05 0.0 
1.089769808638e-04 2.502239991392e-03 0.0 
1.405485084939e-04 3.003485697178e-03 0.0 
1.063134593713e-03 -3.621227426678e-05 0.0 
1.868178612057e-04 7.725355486616e-06 0.0 
4.440896456218e-04 3.708917387420e-03 0.0 
1.387638295399e-04 -6.888442166454e-05 0.0 
3.685345532250e-04 4.427584668541e-05 0.0 
1.875347145410e-04 2.556292319127e-03 0.0 
3.750330788098e-04 5.066682711277e-03 0.0 
1.275526188074e-03 1.735045181312e-04 0.0 
2.539471690934e-04 -6.441578057253e-04 0.0 
6.744552583013e-04 -2.841098749724e-04 0.0 
2.312914673105e-04 -5.205406238176e-04 0.0 
-7.435783257552e-05 5.047483366275e-05 0.0 
1.703580304570e-04 3.004084580939e-03 0.0 
1.988507792072e-04 -5.024783209939e-06 0.0 
-2.430791761062e-05 -1.328537927378e-04 0.0 
1.257600228237e-03 2.583845570382e-03 0.0 
4.809871731125e-04 7.595712967122e-03 0.0 
4.595119221305e-04 -2.568985751268e-05 0.0 
2.522446330602e-04 -3.650238723143e-05 0.0 
1.163025901617e-03 -1.037346806536e-04 0.0 
2.039174687758e-04 -4.220914115613e-05 0.0 
4.658722194277e-04 8.100681247699e-03 0.0 
2.348732680555e-03 1.220474095303e-03 0.0 
2.811076078148e-04 3.917079205316e-05 0.0 
1.347817286291e-04 -6.698031723235e-04 0.0 
4.630841409314e-04 7.205516114120e-05 0.0 
2.867933359468e-04 4.519807591800e-03 0.0 
2.095942402424e-04 -6.394167503816e-04 0.0 
7.812443321574e-04 -3.207152989514e-04 0.0 
2.874514420461e-04 -2.948444618219e-04 0.0 
5.194981277808e-04 6.136726966562e-03 0.0 
6.206569369079e-04 -4.571401637528e-04 0.0 
2.100963260765e-04 3.971942732365e-03 0.0 
3.247791132163e-04 5.511661059066e-03 0.0 
6.049811113547e-04 -2.742676131251e-04 0.0 
2.377674141709e-04 -8.611316157578e-05 0.0 
3.020367873426e-04 -5.302627492231e-05 0.0 
2.461629583149e-04 4.482115611910e-03 0.0 
2.770012507259e-04 -6.485215404465e-04 0.0 
4.982216095396e-04 -3.284185602338e-04 0.0 
1.843905922507e-03 1.105363143859e-03 0.0 
3.260414360910e-04 4.079394339784e-03 0.0 
4.904466596954e-04 -3.920044344444e-04 0.0 
9.218797343114e-04 -5.572757756941e-05 0.0 
6.035793127278e-04 9.502116111110e-05 0.0 
3.283491276549e-04 5.031494069611e-03 0.0 
1.409530617543e-04 1.336345127188e-03 0.0 
1.983221765088e-04 -6.195392726576e-04 0.0 
1.229437480545e-03 1.590638403638e-03 0.0 
2.911109981876e-04 -9.869326055016e-06 0.0 
4.202626861213e-04 5.581656249409e-03 0.0 
2.080177661594e-04 -2.402040786568e-04 0.0 
5.536138636834e-04 7.139281699786e-03 0.0 
1.081998096548e-03 2.536884346003e-04 0.0 
4.943566068004e-04 -2.641986902839e-04 0.0 
3.545425976628e-04 -4.493695237329e-05 0.0 
2.137483983470e-04 -6.540336444525e-04 0.0 
4.017572474434e-04 5.326685192411e-05 0.0 
5.330844211808e-04 -2.894382461532e-04 0.0 
1.660459931042e-04 -6.477108272477e-04 0.0 
4.295444078376e-04 -3.397695971469e-04 0.0 
5.478942435538e-04 -4.592982796386e-04 0.0 
5.506562490265e-04 -5.189366970384e-04 0.0 
2.741142874466e-04 -2.308674087812e-04 0.0 
5.544563609739e-05 -6.244938989260e-04 0.0 
3.884489523309e-05 -5.641464017203e-04 0.0 
4.605811007421e-04 -1.109930638025e-04 0.0 
2.509815934639e-04 -6.550566734991e-04 0.0 
6.527736652201e-04 -6.983850391069e-05 0.0 
7.845843823677e-04 -6.632552708691e-05 0.0 
8.835469202418e-04 -3.200016724851e-04 0.0 
1.024325856126e-03 -2.219220788095e-05 0.0 
3.790458953816e-04 3.201826983898e-03 0.0 
2.813361870256e-04 2.729713876680e-03 0.0 
4.699718527516e-04 -4.533693648601e-04 0.0 
1.018066885987e-03 2.740134496000e-04 0.0 
2.107942189665e-04 -6.754303859346e-04 0.0 
5.100645116971e-04 6.617906697125e-03 0.0 
5.373053994426e-04 7.633834456835e-03 0.0 
3.786285688547e-04 -5.582144021298e-04 0.0 
7.628912027207e-04 1.275010373843e-04 0.0 
5.739831555238e-04 4.731119585369e-03 0.0 
2.881489177445e-04 -6.420587425152e-04 0.0 
3.919764366049e-04 2.776468797164e-03 0.0 
3.524337690585e-04 2.741345180805e-03 0.0 
3.366052318147e-04 -6.181187952901e-04 0.0 
2.708154148011e-03 7.517594712949e-03 0.0 
4.683659747084e-04 -5.584550061513e-04 0.0 
4.103585454466e-04 -6.175017929502e-05 0.0 
3.838699148466e-04 -2.494091802842e-04 0.0 
9.801630701320e-04 2.591936112419e-03 0.0 
3.390582218750e-04 3.168019166310e-03 0.0 
5.276602243284e-04 -6.781427483096e-05 0.0 
5.889072438161e-04 -5.423615814190e-05 0.0 
4.147780609998e-04 -5.620326167009e-04 0.0 
4.672042826783e-04 -5.120064411121e-05 0.0 
5.204247910426e-04 4.696589647983e-03 0.0 
3.154879036326e-04 -2.587365341819e-04 0.0 
4.716507737254e-04 5.618903355647e-03 0.0 
4.601710315087e-04 4.184364375563e-03 0.0 
2.897053501992e-03 2.104395530048e-03 0.0 
3.166322681709e-04 3.605970614289e-03 0.0 
3.933256235323e-04 -3.779153627713e-04 0.0 
4.242108160923e-04 -2.762065140173e-04 0.0 
4.365388002908e-04 -5.108313720742e-04 0.0 
9.639994687557e-04 -2.965384721117e-04 0.0 
4.730810578875e-04 5.139760897752e-03 0.0 
1.362763425609e-03 -2.148250764884e-06 0.0 
4.369838726213e-04 -5.728399323485e-04 0.0 
2.696847404275e-04 -5.733550537132e-04 0.0 
5.255225348255e-04 5.175744592955e-03 0.0 
4.858943502619e-04 -5.515843029357e-04 0.0 
4.893522734199e-04 8.167665679370e-05 0.0 
3.742949434164e-04 4.590087440797e-03 0.0 
5.125858270087e-04 -1.428681451036e-05 0.0 
5.638167216650e-04 1.994845585095e-04 0.0 
4.223429136967e-04 -4.051273191924e-04 0.0 
3.795352238997e-04 -6.012136479206e-04 0.0 
3.108708158166e-04 -5.824532668714e-04 0.0 
7.128186977764e-04 -2.210321686903e-05 0.0 
3.658084894898e-04 6.027393425084e-03 0.0 
2.114126749598e-04 -5.920793931663e-04 0.0 
5.572716969636e-04 -4.778858696130e-04 0.0 
1.432948147309e-04 -6.822698676277e-04 0.0 
5.757907772251e-04 6.174339285504e-03 0.0 
4.851182714943e-04 -4.755873959363e-04 0.0 
8.549036933634e-04 -4.455270712783e-05 0.0 
3.767902479695e-04 -5.223316200663e-04 0.0 
2.419422728369e-04 3.536617650040e-03 0.0 
5.591016780758e-04 -5.078952861371e-04 0.0 
9.045127263868e-04 4.080524483941e-05 0.0 
6.276185487538e-04 -3.471816141960e-04 0.0 
8.521584984497e-04 -1.183422207589e-05 0.0 
3.258840659385e-04 -3.221077007067e-04 0.0 
6.396845764818e-04 -1.138468129158e-05 0.0 
1.948558138673e-03 1.036310498489e-03 0.0 
1.787132373106e-04 -6.747944166230e-04 0.0 
4.437937084165e-04 7.063880323509e-03 0.0 
1.885340581817e-03 5.290173776251e-04 0.0 
3.304257037267e-03 6.048511297142e-03 0.0 
4.146081112398e-04 6.062199973761e-03 0.0 
7.854782201458e-04 -2.385937438421e-04 0.0 
7.618495884727e-04 5.796585993217e-03 0.0 
1.787246335596e-04 -6.852922903312e-04 0.0 
6.337444844580e-04 7.538158087198e-05 0.0 
1.927003419875e-03 6.250911300838e-04 0.0 
2.295288207968e-03 1.285826791014e-03 0.0 
2.819752874922e-04 2.223983138762e-03 0.0 
1.351308561101e-03 3.958043694387e-05 0.0 
3.102176071297e-04 -6.317411390654e-04 0.0 
1.149450697719e-03 3.486676604907e-05 0.0 
6.405394487207e-04 1.103459476437e-04 0.0 
1.128395676609e-03 -8.205064036230e-05 0.0 
5.815252070442e-04 -2.621948441983e-05 0.0 
4.209548348900e-04 4.625918521034e-03 0.0 
1.015824923965e-03 1.240550570835e-04 0.0 
9.981945994239e-04 6.386808125221e-06 0.0 
8.000371401836e-04 7.286468137548e-03 0.0 
2.484004681150e-04 -6.137506392497e-04 0.0 
6.220244892923e-04 -4.717229895276e-04 0.0 
3.302548565945e-03 4.539616004766e-03 0.0 
7.761321354878e-04 -3.169893137941e-06 0.0 
3.112260614691e-03 7.515458645482e-03 0.0 
3.336127601163e-03 4.356271126146e-03 0.0 
6.371723897873e-04 5.246068596399e-03 0.0 
4.565625827602e-04 6.580626810562e-03 0.0 
8.139568585125e-04 6.798482131702e-03 0.0 
3.942614287708e-04 -3.127971067998e-04 0.0 
9.339738774818e-04 1.683617345479e-04 0.0 
1.304390685609e-03 7.624341740125e-05 0.0 
6.129843023128e-04 7.183703523005e-03 0.0 
1.164185557198e-03 2.077646661992e-03 0.0 
2.198035326317e-03 1.316425892911e-03 0.0 
9.206325173881e-04 1.201013834031e-05 0.0 
4.131425522942e-04 4.149676943816e-03 0.0 
8.908235276038e-04 -3.304144940838e-04 0.0 
7.520505634064e-04 -4.057140495618e-04 0.0 
3.788310052340e-04 -5.890770371062e-04 0.0 
1.221582472360e-03 1.055413683576e-04 0.0 
6.797866580086e-04 -4.181843797446e-04 0.0 
6.384763905884e-04 5.728293435850e-03 0.0 
7.582646635328e-04 6.282603018131e-03 0.0 
2.666237938525e-03 1.507215950454e-03 0.0 
7.388248496843e-04 -4.230435892264e-04 0.0 
2.276250147309e-03 2.139090955709e-03 0.0 
6.847572224098e-04 -4.457269311692e-04 0.0 
8.206868166010e-04 -3.740473417467e-04 0.0 
4.042155394014e-04 -5.868701814081e-04 0.0 
1.118394950628e-03 2.214941943123e-04 0.0 
1.273052311532e-03 -9.765915310002e-05 0.0 
3.570734929007e-04 3.640422138085e-03 0.0 
1.429389027545e-03 1.400449860742e-05 0.0 
1.228016585407e-03 7.202814912459e-05 0.0 
1.317886184083e-03 -5.489913816266e-06 0.0 
3.249842568288e-03 3.442384120496e-03 0.0 
3.642952662333e-04 -6.083731937646e-04 0.0 
8.054971080595e-04 1.477551545117e-04 0.0 
6.973213089352e-04 1.414984724117e-04 0.0 
2.836139203572e-03 3.613292603345e-03 0.0 
9.651248823171e-04 -2.924837225758e-04 0.0 
1.290255111125e-03 3.626227836604e-05 0.0 
5.803849001077e-04 5.692499369791e-03 0.0 
8.098071972221e-04 -3.506747944981e-04 0.0 
3.280972917920e-03 5.342668233011e-03 0.0 
5.023103626037e-04 -5.289133488117e-04 0.0 
9.604742435899e-04 -1.109227003949e-04 0.0 
1.036532600285e-03 -2.455323714005e-04 0.0 
4.449544559138e-04 -5.612103891259e-04 0.0 
2.975511253356e-04 -6.195506613137e-04 0.0 
1.231636939734e-03 -5.123255970686e-05 0.0 
1.071758360753e-03 3.623071038520e-05 0.0 
1.969844515841e-03 2.206655158254e-03 0.0 
2.745907969055e-05 -5.929754651479e-04 0.0 
1.827745439165e-03 3.745467891881e-04 0.0 
1.541399097655e-03 1.013079339028e-04 0.0 
1.116847596607e-03 -2.002969997497e-04 0.0 
6.947947020615e-04 6.247689969051e-03 0.0 
1.311632625289e-03 -5.094992330378e-05 0.0 
5.018479338759e-04 -5.134867580625e-04 0.0 
1.187560178891e-03 -1.505713964361e-04 0.0 
2.852237797763e-04 4.044303132453e-03 0.0 
4.438910092625e-04 -5.301431442259e-04 0.0 
2.310952723329e-04 -6.288574982333e-04 0.0 
3.171825434451e-04 -6.133013875638e-04 0.0 
1.014002408150e-03 -1.370994076912e-04 0.0 
8.844014997759e-04 -3.419341835963e-04 0.0 
1.708797665063e-03 2.394825110358e-04 0.0 
1.340113618503e-03 -4.645427509081e-05 0.0 
6.036396992221e-04 -2.575367044616e-04 0.0 
2.884894185089e-04 -6.344624771665e-04 0.0 
1.109111491254e-03 6.938236289875e-03 0.0 
3.939424391537e-04 -5.779748912703e-04 0.0 
1.186778913909e-03 2.121408668691e-04 0.0 
2.223071555693e-03 2.381116140057e-03 0.0 
2.039012307055e-03 6.305808507159e-03 0.0 
6.148368656015e-04 3.361900834891e-03 0.0 
1.689054111261e-03 1.973865817955e-03 0.0 
2.806029861822e-03 1.875739096479e-03 0.0 
2.564002180277e-03 2.991155108352e-03 0.0 
7.693257730976e-04 -1.314546088793e-04 0.0 
1.084821099708e-03 -1.915557315534e-04 0.0 
3.111839653328e-03 3.131469957940e-03 0.0 
1.214011891750e-03 5.265329467333e-04 0.0 
5.606288416458e-04 -1.413922542170e-04 0.0 
7.484475513895e-04 -3.927543239120e-04 0.0 
1.449830569550e-03 2.760681494418e-05 0.0 
1.613583286479e-03 1.562605852485e-04 0.0 
3.933414212302e-04 -5.623342371196e-04 0.0 
1.452330960122e-03 5.391896123997e-05 0.0 
1.730194983509e-03 2.739586681589e-04 0.0 
2.003833032235e-03 5.443163175137e-04 0.0 
8.153902023343e-04 -3.815122817232e-04 0.0 
2.150375665342e-03 8.959432626896e-04 0.0 
6.970756262004e-04 5.279448104686e-03 0.0 
2.129252990637e-03 7.409910800183e-04 0.0 
9.838289332872e-04 1.947978722509e-04 0.0 
9.545727152845e-04 1.671683607255e-05 0.0 
8.424325909052e-04 2.253060064260e-04 0.0 
1.583101299673e-03 1.341310300818e-04 0.0 
1.361574971481e-03 1.656194160980e-03 0.0 
2.717881319783e-03 5.122026691996e-03 0.0 
8.397869546810e-04 -1.633519457223e-04 0.0 
2.143050142832e-03 5.750405308607e-03 0.0 
7.964811118064e-04 2.989627642986e-03 0.0 
1.730729494640e-03 2.614312336067e-04 0.0 
2.983657165148e-03 4.458541831135e-03 0.0 
2.224780613583e-03 5.189302697347e-03 0.0 
3.328353199784e-03 5.424934863780e-03 0.0 
6.442014794831e-04 -1.801232364883e-04 0.0 
3.001392030720e-04 1.422581373374e-03 0.0 
4.935372707923e-04 -2.987176614277e-04 0.0 
1.335294870252e-03 6.098411765787e-04 0.0 
2.476659652134e-04 2.640504464725e-03 0.0 
1.936153536250e-03 7.072408165643e-04 0.0 
6.257275997707e-04 6.699940839286e-03 0.0 
6.484374583623e-04 3.837855279139e-03 0.0 
1.903743768385e-03 4.326280042647e-04 0.0 
2.626728322330e-03 1.392331494994e-03 0.0 
4.726673546912e-04 2.395622003344e-03 0.0 
9.701626800419e-04 6.634244684225e-05 0.0 
7.500330816710e-04 4.827508683650e-03 0.0 
1.770653112485e-03 4.735592917859e-04 0.0 
8.202599211652e-04 -4.011631959846e-05 0.0 
7.955193218897e-04 4.373482419336e-03 0.0 
9.275023875955e-04 7.821113053997e-04 0.0 
7.299322668580e-04 1.595890498215e-04 0.0 
1.167877567052e-03 -1.487506671796e-04 0.0 
6.866400341265e-04 6.737497456774e-03 0.0 
7.361902772688e-04 7.260396511700e-03 0.0 
1.490475568843e-03 6.557606239931e-05 0.0 
1.131104456291e-03 9.954051749998e-05 0.0 
1.170807120119e-03 1.591272796190e-04 0.0 
2.853718461729e-04 -6.104958319002e-04 0.0 
1.979026784872e-03 2.221397192923e-03 0.0 
2.309152919930e-03 9.464802274925e-04 0.0 
2.027107289413e-03 6.070693861174e-04 0.0 
3.341670919842e-03 4.433225606111e-03 0.0 
3.738809811880e-04 1.908798409694e-03 0.0 
1.185426623725e-03 2.592097903131e-03 0.0 
2.804547383059e-04 2.674841677531e-03 0.0 
3.073232873024e-03 7.664571117783e-03 0.0 
9.677202904013e-04 3.960497199157e-03 0.0 
1.059846232373e-03 6.739124260314e-05 0.0 
3.524549534110e-04 2.309255856474e-03 0.0 
9.522570761367e-04 4.906319753404e-03 0.0 
1.224888706479e-03 -1.003340720565e-04 0.0 
2.438609451578e-03 1.220162389556e-03 0.0 
7.324006431755e-04 4.345849194860e-03 0.0 
5.223565139776e-04 2.859506640177e-03 0.0 
5.611219289379e-04 4.252978370539e-03 0.0 
6.884249895022e-04 4.797129157472e-03 0.0 
8.349958400833e-04 1.209424881778e-04 0.0 
1.575899853871e-03 7.973950763219e-04 0.0 
1.005738104234e-03 1.605311702185e-04 0.0 
1.142324908669e-03 -2.556987745122e-06 0.0 
2.476234555015e-03 9.544708009447e-03 0.0 
1.910535130485e-03 7.717922423520e-04 0.0 
1.349616333416e-03 4.966037860031e-03 0.0 
3.430418637762e-04 -6.065095818624e-04 0.0 
2.206675583297e-03 8.004196980723e-04 0.0 
2.156117226804e-03 6.949317379261e-04 0.0 
2.524387411673e-03 1.265278109468e-03 0.0 
1.431551550506e-03 1.078866296095e-03 0.0 
2.335404842219e-03 1.046849212689e-03 0.0 
2.359550635022e-03 1.125817995392e-03 0.0 
2.780735408694e-03 7.865776283584e-03 0.0 
1.189770262450e-03 -9.727504540817e-05 0.0 
1.043406696184e-03 5.909268680677e-03 0.0 
6.854378594701e-04 8.831736436399e-03 0.0 
6.629049077134e-06 5.220025832049e-03 0.0 
1.206755221874e-03 -5.376743704814e-06 0.0 
1.785142252095e-03 6.218278754958e-04 0.0 
9.426266447263e-04 2.168938455313e-03 0.0 
2.607859636757e-03 1.364144673807e-03 0.0 
1.181559427501e-03 -4.780123101757e-05 0.0 
8.279347402217e-04 5.828462822199e-03 0.0 
1.567214257178e-04 7.875976497041e-03 0.0 
2.004212197645e-03 7.910104671014e-04 0.0 
2.452308684219e-03 1.109590088012e-03 0.0 
2.745673405318e-03 7.509756331464e-03 0.0 
1.103109189721e-03 1.253018596933e-04 0.0 
1.146238883445e-03 3.766201974550e-04 0.0 
1.123977123320e-03 1.776139804784e-04 0.0 
9.296710255939e-04 2.169356028037e-04 0.0 
2.220156998198e-03 9.981478103807e-04 0.0 
6.156605265032e-04 4.285608434356e-03 0.0 
2.313667195444e-03 1.968149858562e-03 0.0 
8.879631217876e-04 1.922818696245e-04 0.0 
5.807132309316e-04 1.025684834016e-02 0.0 
8.932369860828e-04 5.369378471806e-03 0.0 
1.636954438771e-03 9.797034324016e-04 0.0 
5.933054338589e-04 3.807994044813e-03 0.0 
2.411160396231e-03 1.132343235894e-03 0.0 
2.512526125489e-03 1.276572297741e-03 0.0 
7.109027921527e-04 -2.168932110081e-04 0.0 
5.885258023437e-04 1.535199240206e-03 0.0 
4.659810958759e-04 3.271034657848e-03 0.0 
2.961585824618e-04 -6.037603889091e-04 0.0 
1.299578094868e-03 1.130621001879e-02 0.0 
2.473367351194e-03 2.389099934793e-03 0.0 
2.499839302463e-04 2.191287453076e-03 0.0 
9.296223962835e-04 1.768706912960e-04 0.0 
3.221183037127e-03 4.646545560915e-03 0.0 
8.816198763498e-04 4.882815920086e-03 0.0 
9.845674185513e-04 -1.605596540162e-04 0.0 
1.355385694931e-03 8.771991210267e-04 0.0 
2.830342314008e-03 4.380688361438e-03 0.0 
6.012234828561e-04 -4.953392216662e-05 0.0 
9.884986643492e-04 3.048287449343e-04 0.0 
7.838405351985e-04 1.127221747265e-04 0.0 
2.540479998897e-03 1.254322449500e-03 0.0 
1.640122057267e-04 4.888646160624e-04 0.0 
1.765376691297e-03 1.170489505957e-02 0.0 
6.762691176783e-04 9.099903786376e-05 0.0 
2.656190827797e-03 1.944072079717e-03 0.0 
1.116060875205e-03 5.432295466705e-03 0.0 
1.003692026730e-03 1.483804422866e-03 0.0 
8.024070997108e-04 2.008033347267e-04 0.0 
7.357302687609e-04 3.073384842966e-06 0.0 
3.318493386899e-04 -5.543878104055e-04 0.0 
2.191527316211e-03 1.073531078556e-03 0.0 
1.772778735726e-03 2.936581407372e-04 0.0 
1.820122410768e-03 1.029825693443e-03 0.0 
3.136298608265e-03 5.846413927030e-03 0.0 
1.236388027637e-03 4.476255970227e-03 0.0 
1.343488387194e-03 6.463484817213e-04 0.0 
8.247688701182e-04 5.341704459846e-03 0.0 
1.003871243326e-03 2.169038575958e-03 0.0 
8.311466245305e-04 3.918725845366e-03 0.0 
8.538640908759e-04 3.463432469499e-03 0.0 
1.525071635592e-03 2.876765245037e-03 0.0 
6.874242243782e-04 6.328863888921e-05 0.0 
9.302985083083e-04 4.421942505484e-03 0.0 
3.014707901659e-03 2.366881427847e-03 0.0 
2.002748730241e-03 1.166410473458e-02 0.0 
1.115705163746e-03 5.403843651081e-04 0.0 
1.673756984064e-03 1.811789926759e-03 0.0 
3.410483029789e-04 -5.750786553071e-04 0.0 
2.002579980714e-03 1.130435744596e-03 0.0 
3.201603326792e-05 -7.064218211545e-04 0.0 
3.281347813041e-03 3.686471155501e-03 0.0 
1.969090846782e-03 8.530017908788e-04 0.0 
6.728461205704e-04 2.517539305245e-03 0.0 
6.430404906647e-04 2.068779991164e-03 0.0 
2.132549246798e-03 9.744245633194e-04 0.0 
6.702853664237e-04 3.390181923812e-03 0.0 
2.853795382721e-03 2.265176054079e-03 0.0 
2.382407692115e-03 2.740713549118e-03 0.0 
2.032860893392e-03 1.124980360608e-02 0.0 
1.336854595866e-03 2.134227834244e-03 0.0 
1.946090072612e-03 1.058395951808e-02 0.0 
1.874352725694e-03 1.018981139813e-02 0.0 
2.760052915377e-03 1.702147989337e-03 0.0 
1.784389923623e-03 9.768468623111e-03 0.0 
3.064799426143e-03 2.736423358663e-03 0.0 
3.166200216293e-03 3.151612615467e-03 0.0 
2.370705947809e-03 9.994376377503e-04 0.0 
1.169487034313e-03 7.910821606343e-04 0.0 
2.612911530735e-03 1.462255106565e-03 0.0 
4.759174264792e-04 2.830864233445e-03 0.0 
1.101550693871e-03 2.096143470552e-03 0.0 
8.171837880115e-04 4.341691204408e-05 0.0 
1.597062638295e-03 8.551506277506e-04 0.0 
1.870174383391e-03 3.862155129370e-04 0.0 
7.895011390733e-04 3.441575428373e-03 0.0 
2.470874544010e-03 1.156216531132e-03 0.0 
5.489356260044e-04 4.762864734343e-05 0.0 
7.670046378988e-04 3.893769592537e-03 0.0 
1.040686302982e-03 3.975539697509e-03 0.0 
2.210010571666e-03 8.999731093676e-04 0.0 
2.741498029778e-03 1.828982021140e-03 0.0 
2.012552276461e-03 2.130327341802e-03 0.0 
2.630952124898e-03 5.260145153039e-03 0.0 
1.106812736933e-03 6.115377935053e-04 0.0 
1.589889591306e-03 1.544238879056e-03 0.0 
3.208225522368e-03 5.371472204795e-03 0.0 
3.183104210542e-03 4.892004786509e-03 0.0 
4.225480089723e-04 3.670352635265e-05 0.0 
1.002509222377e-03 4.441856818149e-03 0.0 
2.642194675543e-03 1.610430070110e-03 0.0 
2.925433459603e-03 4.019208519916e-03 0.0 
1.740941427070e-03 6.711238151016e-04 0.0 
5.132657535997e-04 3.303397193834e-03 0.0 
1.743812857769e-03 1.930486132120e-03 0.0 
1.200418726348e-03 5.940243354157e-03 0.0 
1.340202491764e-03 3.743289083409e-04 0.0 
2.512881647488e-03 1.198828063309e-03 0.0 
1.683607210075e-03 6.049290987826e-04 0.0 
3.301501089855e-03 3.970227084110e-03 0.0 
5.196244978253e-04 2.434525492132e-03 0.0 
1.415781762027e-03 1.627487375332e-03 0.0 
2.356457366496e-03 9.969054096464e-04 0.0 
1.379243531018e-03 1.439676156328e-03 0.0 
2.121664355457e-03 1.687928589657e-03 0.0 
3.180174400488e-03 3.270610486341e-03 0.0 
2.756952263647e-03 2.009371974447e-03 0.0 
2.331401665731e-03 1.008702897561e-03 0.0 
1.311995100887e-03 2.898188912674e-04 0.0 
1.306515286027e-03 1.202017941112e-03 0.0 
2.443579018383e-03 1.082282523008e-03 0.0 
2.126795485571e-03 5.261051765001e-03 0.0 
3.853880197571e-04 2.768430751626e-05 0.0 
2.188048912772e-03 4.708445738009e-03 0.0 
2.302380968060e-03 2.074656498074e-03 0.0 
2.041524373713e-03 5.810316549963e-03 0.0 
1.818018314313e-03 6.885229905499e-03 0.0 
2.673748894048e-03 4.654225383810e-03 0.0 
1.766278330441e-03 8.883493884959e-04 0.0 
7.826307039286e-04 6.451951072468e-05 0.0 
1.102014575698e-03 4.943275584921e-03 0.0 
5.917895822587e-04 2.053753514073e-03 0.0 
1.936567640589e-03 6.352436764031e-03 0.0 
2.398296991865e-03 1.785209182182e-03 0.0 
1.908488478218e-03 1.504027515050e-03 0.0 
3.891112855615e-04 2.331288756770e-03 0.0 
3.204684787498e-03 3.132411955825e-03 0.0 
3.225144913382e-03 3.347983611704e-03 0.0 
2.553607961247e-03 1.703176197390e-03 0.0 
1.155241305380e-03 4.470264792959e-03 0.0 
3.203826377698e-03 6.951402973530e-03 0.0 
2.961786638649e-03 2.461621096689e-03 0.0 
3.247657748264e-03 6.566272221935e-03 0.0 
2.119847655120e-03 1.119548953825e-03 0.0 
1.425671117727e-03 1.049597418349e-03 0.0 
2.451866224143e-03 1.345339269362e-03 0.0 
5.560568065053e-04 1.283688133896e-03 0.0 
7.494098367184e-04 2.090770619267e-03 0.0 
3.154888165114e-03 7.104296030354e-03 0.0 
2.020901975319e-03 5.390171513747e-04 0.0 
1.680108328340e-03 1.241707807559e-03 0.0 
1.181780646121e-03 4.956641061379e-03 0.0 
9.382187751018e-04 8.981329335580e-05 0.0 
3.032788892857e-03 2.826819908121e-03 0.0 
3.398191411621e-04 1.193752333950e-03 0.0 
2.746654843010e-04 2.329165850397e-05 0.0 
3.172478308368e-03 4.225749456671e-03 0.0 
2.508952262046e-03 1.597249123237e-03 0.0 
1.810085395661e-03 1.787862524419e-03 0.0 
-5.068346952783e-05 1.261442897125e-03 0.0 
9.999070608629e-04 1.166234313100e-04 0.0 
2.473700126334e-03 3.410367382678e-03 0.0 
1.284453516847e-03 5.948935913881e-03 0.0 
9.661528667538e-04 -1.059640680249e-04 0.0 
2.555066042863e-03 1.549924141091e-03 0.0 
5.056725591668e-04 3.519736749011e-05 0.0 
3.094475273001e-03 2.952545397893e-03 0.0 
2.432836691884e-03 1.627488050482e-03 0.0 
3.078793536280e-03 4.039777915717e-03 0.0 
3.229579790225e-04 9.622382579891e-04 0.0 
2.598742036920e-03 2.858745130708e-03 0.0 
2.073516752504e-03 1.026580998365e-03 0.0 
1.119516024939e-03 1.354993419915e-03 0.0 
2.256848325412e-03 2.283061595414e-03 0.0 
1.896674700316e-03 1.500658771506e-03 0.0 
7.572772160509e-04 2.328613448294e-05 0.0 
3.367639995567e-04 1.873107569852e-03 0.0 
8.703373385172e-04 4.458942663771e-04 0.0 
1.969898684812e-03 1.046714991078e-03 0.0 
2.929364789022e-03 2.313442534340e-03 0.0 
2.871788503291e-03 3.444319855824e-03 0.0 
3.126479247358e-04 1.264445506383e-05 0.0 
2.209360520480e-04 -3.024687192457e-04 0.0 
2.450924318477e-03 2.510249026831e-03 0.0 
1.038514089712e-03 5.415253947854e-03 0.0 
6.383681429153e-04 4.719210238281e-05 0.0 
9.493659721745e-04 1.333660409758e-04 0.0 
2.775945387589e-04 9.258720659945e-03 0.0 
1.852242388887e-04 9.253608237908e-03 0.0 
1.998160865196e-03 4.831621393029e-03 0.0 
2.757978313807e-03 3.073029615886e-03 0.0 
8.342432607992e-04 -1.175070184423e-04 0.0 
2.534435029865e-03 4.327211722489e-03 0.0 
3.115271234205e-03 2.799247822118e-03 0.0 
1.201877831056e-03 4.157367029800e-04 0.0 
3.015557424300e-03 2.578768606505e-03 0.0 
1.452900598229e-04 4.994136980164e-04 0.0 
1.843233577763e-03 7.872926689723e-03 0.0 
3.189917593957e-03 3.092742986711e-03 0.0 
1.045039896415e-03 -7.604806701347e-05 0.0 
1.885561522957e-03 1.922850384600e-03 0.0 
1.105951611178e-03 -1.373370933075e-04 0.0 
2.997794174484e-03 3.644931652697e-03 0.0 
3.044295336746e-03 4.887832802593e-03 0.0 
1.279861736128e-03 5.454353502887e-03 0.0 
2.455270505762e-03 3.883158017294e-03 0.0 
2.287282701377e-03 3.554607290657e-03 0.0 
7.927329545128e-05 -7.283739394578e-04 0.0 
1.058013587863e-03 -1.832011843296e-04 0.0 
3.218908820150e-03 6.768899800970e-03 0.0 
2.416099541444e-03 5.012866930929e-03 0.0 
2.280819225319e-03 4.629866403948e-03 0.0 
1.535019459271e-03 6.943007340519e-04 0.0 
1.735706686077e-05 -6.908992728077e-04 0.0 
1.042109015849e-03 9.000993239771e-04 0.0 
3.260533509188e-03 4.133627116968e-03 0.0 
9.772880667909e-04 -2.177784876340e-04 0.0 
1.963693462149e-03 1.013617419050e-02 0.0 
1.874540122737e-03 9.733555063709e-03 0.0 
1.366550701167e-03 5.457759124271e-03 0.0 
1.332509982552e-03 3.128905997601e-03 0.0 
9.394215279289e-04 -1.469822784390e-04 0.0 
1.720018802333e-03 5.540689241962e-04 0.0 
1.102971411988e-03 1.109367929386e-03 0.0 
7.689246152874e-04 6.053620529106e-04 0.0 
6.798359439518e-04 2.953128469618e-03 0.0 
7.523780016857e-04 -2.372330047317e-04 0.0 
6.736680505051e-04 2.829219665715e-05 0.0 
1.242180736400e-04 -7.128182454100e-04 0.0 
1.721436481092e-03 4.865395088718e-04 0.0 
3.192332582970e-03 3.991138179780e-03 0.0 
9.537195103290e-05 -7.281538111001e-04 0.0 
6.247621579339e-04 2.926691217887e-03 0.0 
9.499542031637e-04 1.240192163831e-03 0.0 
2.506954571248e-03 4.906342880736e-03 0.0 
3.097688066622e-03 4.676512801963e-03 0.0 
2.068328144937e-03 5.993869966417e-04 0.0 
1.644881196900e-03 2.886540249600e-04 0.0 
6.205639045184e-04 2.502897173004e-03 0.0 
1.533516269836e-03 2.895570394019e-04 0.0 
3.196086325693e-03 3.510918684046e-03 0.0 
3.261210115400e-03 3.872047738018e-03 0.0 
-4.867945893994e-04 4.426178403368e-03 0.0 
7.367978355966e-04 1.147190622277e-03 0.0 
2.101208278856e-03 1.874048118334e-03 0.0 
1.738303132552e-03 6.409180172858e-03 0.0 
1.899318629001e-03 1.583640404215e-03 0.0 
2.564434826045e-03 3.829091397095e-03 0.0 
1.457250984581e-03 3.497494052190e-03 0.0 
1.841875018406e-03 1.716893850897e-03 0.0 
1.957181968955e-03 9.232986103247e-03 0.0 
2.078118668925e-03 1.961304123636e-03 0.0 
6.193888486474e-04 1.255470461371e-05 0.0 
2.913878383540e-03 3.094274211004e-03 0.0 
1.065293277959e-03 -1.283106443932e-04 0.0 
1.099034416998e-03 -8.481726780457e-05 0.0 
8.084929330148e-04 2.106087147240e-03 0.0 
1.710041931311e-03 2.785477549774e-04 0.0 
3.042082121118e-03 4.245082035415e-03 0.0 
2.947158922235e-03 2.143375178163e-03 0.0 
1.376105348294e-03 2.793892975288e-04 0.0 
3.150465538499e-03 2.867858689676e-03 0.0 
1.980011032968e-03 1.363431546063e-03 0.0 
2.269955354784e-03 8.494865981263e-04 0.0 
2.244808669173e-03 1.695350312274e-03 0.0 
2.454569901950e-03 4.441210758371e-03 0.0 
2.143919954442e-03 1.455868132747e-03 0.0 
2.748780200757e-03 4.512491419500e-03 0.0 
1.733591452784e-03 8.217623513685e-04 0.0 
1.890880904539e-03 8.871599984907e-04 0.0 
3.134084318262e-03 2.872289316942e-03 0.0 
1.460569012997e-03 5.948701208753e-03 0.0 
5.408258742200e-04 1.902333048605e-05 0.0 
4.921822220190e-04 7.016614490232e-06 0.0 
8.432673098670e-04 3.240064716997e-03 0.0 
2.677902496017e-03 4.070632826455e-03 0.0 
3.044107728135e-04 2.947321350385e-05 0.0 
2.589223735574e-03 9.721127683675e-03 0.0 
7.385253432864e-04 -1.775552350839e-04 0.0 
-1.501465612957e-04 4.700042235947e-03 0.0 
4.198689177505e-04 1.417143265790e-05 0.0 
1.991278836971e-03 1.755319085105e-03 0.0 
1.828759923475e-04 -2.756974614812e-04 0.0 
2.552374249678e-03 1.732480423925e-03 0.0 
1.552725785688e-03 5.942280114854e-03 0.0 
1.641407644795e-03 6.425725015446e-03 0.0 
3.119207466190e-03 3.611327853723e-03 0.0 
2.091642220588e-03 1.082943258860e-02 0.0 
2.037874770008e-03 1.050473825446e-02 0.0 
3.768741112418e-04 5.313135205337e-06 0.0 
1.636410956705e-03 3.202596808101e-04 0.0 
2.058871964091e-03 5.848809531237e-04 0.0 
1.794572659229e-03 5.550475809899e-04 0.0 
2.318047704272e-03 9.030580478655e-04 0.0 
2.175503884353e-03 1.857574039190e-03 0.0 
2.002317103431e-03 1.094078735812e-02 0.0 
1.783236985029e-03 7.403852482414e-03 0.0 
2.346496142189e-04 9.542189182248e-03 0.0 
1.845433068230e-03 8.126873062412e-04 0.0 
3.062492286739e-03 2.604095357797e-03 0.0 
1.134454407310e-03 5.786202078818e-04 0.0 
1.606501132402e-04 -2.601614925806e-05 0.0 
2.348913671368e-03 9.432914009462e-04 0.0 
2.541438166186e-04 3.338737770799e-05 0.0 
2.093333270460e-03 1.120167703300e-03 0.0 
1.399508703919e-03 7.913552301592e-04 0.0 
3.122284602699e-03 3.392687736939e-03 0.0 
2.794190026994e-03 2.597284049384e-03 0.0 
1.231878540918e-03 3.611505250163e-04 0.0 
1.120986160243e-03 -2.000249409762e-04 0.0 
2.875313371980e-03 4.194571900954e-03 0.0 
2.218844087871e-03 7.712496228348e-04 0.0 
2.938569303620e-03 4.631765417084e-03 0.0 
2.750192298268e-03 3.937371066810e-03 0.0 
2.640501869291e-03 2.157111407118e-03 0.0 
2.169024994775e-03 7.215686832994e-04 0.0 
9.094306769300e-04 -9.322343011507e-05 0.0 
2.872976132537e-03 4.807732208671e-03 0.0 
-3.128374457916e-04 3.254455496004e-03 0.0 
2.812629853205e-03 1.906686013346e-03 0.0 
4.456642638464e-04 4.741638743941e-03 0.0 
2.357902576691e-04 -6.547587917511e-04 0.0 
8.132214182553e-04 -1.564393379489e-04 0.0 
2.136180679876e-03 2.565281562769e-03 0.0 
1.743539031348e-03 5.921371658610e-03 0.0 
2.122307338127e-03 1.128914720614e-02 0.0 
7.546611733904e-05 2.425957824575e-04 0.0 
-7.665350681345e-04 3.735656059395e-03 0.0 
2.123218487715e-03 1.109279231737e-02 0.0 
1.987572562580e-03 5.257514017869e-04 0.0 
6.372473522299e-04 -2.348688470190e-04 0.0 
2.490644465672e-03 9.155368497845e-03 0.0 
1.827286574761e-03 5.426621690870e-04 0.0 
1.727880819000e-03 3.190872735157e-04 0.0 
3.018353829791e-03 3.451092867594e-03 0.0 
2.611727993761e-03 1.659400674413e-03 0.0 
1.625963905542e-03 2.518101095317e-03 0.0 
1.061229616606e-03 2.981403057115e-03 0.0 
8.284566301253e-04 -2.146296508944e-04 0.0 
5.934984883728e-04 -2.121705423301e-04 0.0 
7.196554882393e-04 -4.278571056063e-04 0.0 
1.846733064765e-03 8.804823014758e-03 0.0 
1.841691843980e-03 5.897152879088e-03 0.0 
5.829398427657e-05 -9.362031001116e-05 0.0 
9.925813658274e-05 -7.248580563842e-04 0.0 
-2.747253561455e-04 1.408322864760e-03 0.0 
4.926397455969e-04 -4.936686071295e-04 0.0 
5.225044331172e-04 -2.263297525669e-04 0.0 
2.243394937764e-03 1.087115022922e-03 0.0 
1.800695983426e-03 6.112159622605e-04 0.0 
1.885317180344e-03 1.146850408710e-03 0.0 
6.882354274081e-04 -1.581463059616e-04 0.0 
1.902485832181e-03 4.872535182413e-03 0.0 
4.777312376656e-04 -2.019811571815e-04 0.0 
2.347001098999e-03 1.276008523211e-03 0.0 
2.738842496158e-03 3.928680099497e-03 0.0 
1.073886618460e-03 7.942513925912e-03 0.0 
2.227407380013e-03 1.416993207175e-03 0.0 
4.092425101031e-04 -2.130527611654e-04 0.0 
6.168640124173e-04 -1.747859771970e-04 0.0 
1.977548445069e-03 1.141022424938e-02 0.0 
2.141380938601e-03 8.233349889554e-04 0.0 
3.631831000471e-04 -1.877639253696e-04 0.0 
3.918053615585e-05 5.794901126157e-03 0.0 
4.388154177548e-05 6.754333257818e-03 0.0 
2.075849856285e-03 1.140313926497e-02 0.0 
5.662953103682e-04 -1.533757253015e-04 0.0 
1.523650730014e-03 2.303210241474e-04 0.0 
1.000769513407e-03 5.237807982053e-03 0.0 
1.383400415183e-03 7.423398759237e-04 0.0 
5.252508595390e-04 -3.851751052810e-04 0.0 
1.545821533637e-03 1.911314609712e-04 0.0 
2.919913651371e-03 2.123538685590e-03 0.0 
2.039254049892e-03 1.149327972797e-02 0.0 
2.964368886045e-04 -1.962512190877e-04 0.0 
4.333665135328e-05 -6.306000268621e-04 0.0 
1.804415276443e-03 8.360007064996e-03 0.0 
4.981565908721e-04 -1.664116950492e-04 0.0 
1.922837477623e-03 4.375339809189e-04 0.0 
8.616774955612e-04 -1.731739600359e-04 0.0 
-1.899825929726e-04 2.681578915582e-03 0.0 
4.722167159454e-05 2.979275191374e-03 0.0 
1.839445663413e-03 4.240881191915e-04 0.0 
1.421172666637e-03 5.408005320235e-04 0.0 
2.787335907782e-03 2.438170528794e-03 0.0 
4.484362749366e-04 -1.437594685664e-04 0.0 
3.819515116740e-04 -1.540400949029e-04 0.0 
2.125155523975e-03 1.013035250838e-03 0.0 
3.113643174790e-04 -3.035895105497e-04 0.0 
-1.115937565768e-04 3.038311157567e-03 0.0 
3.327240261250e-04 -1.306514180873e-04 0.0 
1.285022173157e-03 4.036058557521e-04 0.0 
1.267429849234e-03 -4.737164115749e-05 0.0 
2.640412537654e-03 3.514436456164e-03 0.0 
2.534494135640e-03 9.594621658937e-03 0.0 
2.523706665206e-03 3.768313085570e-03 0.0 
4.618568371931e-04 1.105882887577e-04 0.0 
-7.928402502968e-04 1.561100845252e-03 0.0 
6.741027788155e-06 2.604123153344e-04 0.0 
1.209058216380e-05 4.856922003942e-06 0.0 
2.813514371054e-05 8.277463187756e-03 0.0 
1.553338121608e-03 1.263396932120e-04 0.0 
2.919835033324e-03 2.916217569690e-03 0.0 
2.329429648355e-03 1.404905248031e-03 0.0 
2.102068087653e-04 -6.519593684815e-04 0.0 
-5.244880375016e-04 3.959010187647e-03 0.0 
1.965888688788e-04 2.152244484434e-03 0.0 
1.929594683437e-03 5.361876795741e-03 0.0 
1.778854589923e-03 9.298350877897e-03 0.0 
3.881069558079e-04 2.700235072907e-04 0.0 
3.729828798159e-05 -6.721433333076e-04 0.0 
3.723672360519e-04 2.361673992102e-04 0.0 
1.832206820169e-03 5.402084867994e-03 0.0 
1.285256635801e-03 -9.097739669310e-05 0.0 
3.027387616085e-03 3.054396109495e-03 0.0 
1.464448816382e-03 6.880431003445e-05 0.0 
1.358112484019e-03 6.155167325488e-03 0.0 
1.283391097332e-03 -6.563749749894e-05 0.0 
1.950388924211e-03 4.349049914852e-03 0.0 
1.599565385597e-04 -8.994073447316e-06 0.0 
1.742787897843e-03 3.612102928107e-04 0.0 
2.416876572982e-03 3.350940732174e-03 0.0 
-6.312311291613e-04 1.320042948227e-03 0.0 
2.038761311209e-03 7.558888356005e-04 0.0 
1.529420165730e-03 3.974508942303e-03 0.0 
1.039545750361e-03 -2.493150621630e-04 0.0 
1.086555629487e-03 -1.743162888178e-04 0.0 
3.015490211591e-03 2.854561968154e-03 0.0 
7.270997009232e-04 2.973056688193e-04 0.0 
1.600522862965e-03 1.115387936095e-02 0.0 
1.799666175737e-03 1.137747368693e-02 0.0 
9.399017806598e-04 -2.932342711594e-04 0.0 
1.894132436963e-03 4.353993059351e-04 0.0 
3.088529315581e-03 2.602489419497e-03 0.0 
2.472642445289e-03 3.239016829726e-03 0.0 
1.008608423710e-03 1.659132337128e-03 0.0 
1.911649277839e-03 1.173818010247e-02 0.0 
7.163555771879e-05 4.800459842355e-03 0.0 
1.219158347754e-03 1.303192230778e-03 0.0 
2.194001233606e-03 1.323144200204e-03 0.0 
4.601719142874e-04 5.318906334409e-03 0.0 
2.671867397407e-03 9.337295692543e-03 0.0 
1.772655005461e-03 3.095003117036e-04 0.0 
2.216042449449e-03 3.644133918581e-03 0.0 
1.867367340778e-03 3.930456868160e-04 0.0 
5.324586535024e-04 2.730133067378e-03 0.0 
1.817165956284e-03 4.254223071435e-04 0.0 
1.720341789662e-03 7.163440321777e-03 0.0 
3.024363710264e-03 2.369706116812e-03 0.0 
1.817258989335e-03 3.923934493610e-04 0.0 
2.901083509619e-03 2.557269907758e-03 0.0 
2.771434248624e-04 5.988871343649e-03 0.0 
8.698184253539e-04 -3.427215905417e-04 0.0 
6.884406733105e-04 4.449799812088e-03 0.0 
1.719317545754e-03 3.837217871483e-04 0.0 
2.014340170347e-03 8.110423289518e-03 0.0 
-2.908348273165e-04 1.623488765748e-03 0.0 
1.734041479296e-05 1.951297622790e-03 0.0 
2.370340126482e-05 2.908218657148e-03 0.0 
7.377403635147e-05 -3.446482231010e-04 0.0 
1.691420539532e-03 4.067773028883e-04 0.0 
6.110582988185e-04 -4.656239882174e-04 0.0 
6.393101651255e-04 -4.661674634961e-04 0.0 
2.084290735226e-03 2.648853882154e-03 0.0 
2.877055783535e-03 2.380451075523e-03 0.0 
2.338224576918e-03 2.848551155378e-03 0.0 
1.938244323643e-03 6.113979434177e-04 0.0 
5.322101116008e-04 9.611398425411e-03 0.0 
3.334846736361e-04 7.279799345359e-05 0.0 
5.308461185554e-04 -4.992186959489e-04 0.0 
1.618477121007e-03 6.396965001681e-04 0.0 
3.068102204828e-03 2.573547521053e-03 0.0 
1.169419099198e-04 -6.999914792478e-04 0.0 
2.221269479094e-03 4.168815276482e-03 0.0 
2.245055453550e-03 9.831325922064e-04 0.0 
2.192618234039e-04 -1.462784943428e-04 0.0 
1.897088833469e-03 7.656695677581e-04 0.0 
3.104598959887e-05 -1.190023846197e-04 0.0 
2.042291843775e-03 4.297623327486e-03 0.0 
4.619851406567e-04 -3.632843230236e-04 0.0 
1.229987341250e-04 -2.871202265329e-04 0.0 
2.169411047799e-03 3.132869003970e-03 0.0 
2.055735546150e-03 1.306540509276e-03 0.0 
1.106926785221e-03 -1.867591696654e-04 0.0 
8.838001971851e-05 -6.257117925125e-04 0.0 
2.976691328647e-03 2.320927725795e-03 0.0 
2.072608560472e-05 6.296282174184e-03 0.0 
1.997329315172e-04 3.466607754430e-05 0.0 
8.995372256500e-04 8.378562192187e-04 0.0 
5.398914511338e-04 1.003213513301e-03 0.0 
9.694586035015e-05 7.630456824766e-03 0.0 
3.387356561843e-04 1.475984416777e-03 0.0 
6.027640978554e-04 8.850984899494e-04 0.0 
1.938718249811e-03 5.449224028718e-04 0.0 
1.647812318965e-03 2.534787963292e-04 0.0 
7.673016524295e-04 3.073804580544e-04 0.0 
-7.226872431062e-04 1.806414098544e-03 0.0 
1.994122112082e-05 -6.531648026031e-04 0.0 
9.100585329108e-05 -2.629137371555e-04 0.0 
1.030031136687e-03 -2.452234542653e-04 0.0 
1.613956352857e-03 3.447668688550e-04 0.0 
1.008941894433e-03 1.028867227692e-02 0.0 
1.332918528048e-03 1.080300036509e-02 0.0 
9.167415820512e-04 7.861227340606e-03 0.0 
2.024196412369e-03 8.416066667674e-04 0.0 
2.388538348201e-04 -5.961859018981e-04 0.0 
2.312361357072e-03 1.758114564989e-03 0.0 
1.165897756332e-04 2.400898102808e-05 0.0 
1.507326029522e-04 3.226590628796e-05 0.0 
1.646919628878e-03 2.157685016808e-04 0.0 
1.192859960406e-03 8.488337558093e-03 0.0 
-4.197099546774e-04 1.276718886277e-03 0.0 
3.989878274022e-04 8.222540476786e-03 0.0 
6.288327492429e-04 3.857034718620e-04 0.0 
7.206654678045e-04 9.381133744798e-03 0.0 
2.920847570531e-03 2.271825764887e-03 0.0 
1.351068181502e-03 3.534286288612e-05 0.0 
1.731102735359e-03 4.133088021603e-04 0.0 
6.719091607938e-05 7.218865484755e-04 0.0 
5.386209990427e-05 2.632867125326e-03 0.0 
1.456039538325e-03 9.588578314522e-05 0.0 
1.703299572257e-04 2.102294095754e-03 0.0 
1.440995731690e-04 3.493859530175e-03 0.0 
2.024526631279e-05 5.752729047861e-04 0.0 
2.710864762407e-05 8.806658128405e-06 0.0 
5.129059988131e-05 7.737905357461e-03 0.0 
1.375438707657e-03 -1.000446656610e-05 0.0 
1.525348570549e-03 1.164109457876e-02 0.0 
1.372759484778e-03 -2.617020234713e-05 0.0 
4.480815614852e-05 8.962422239727e-06 0.0 
3.055207556959e-04 5.574448302477e-03 0.0 
3.942269707902e-04 6.829850027781e-03 0.0 
1.511288888666e-03 6.470615177138e-04 0.0 
8.892182873640e-04 8.738792578536e-03 0.0 
1.017161972564e-04 2.010542183317e-03 0.0 
2.230568759961e-03 3.044047377210e-03 0.0 
1.654141904619e-03 1.043778049723e-03 0.0 
1.762994641353e-03 2.938717054876e-03 0.0 
3.287234360622e-04 7.417575000699e-03 0.0 
9.157120157556e-04 -2.859681907735e-04 0.0 
9.854702160494e-04 -2.255144930318e-04 0.0 
9.015982348560e-05 5.279667341488e-03 0.0 
1.891679217433e-03 1.270449604423e-03 0.0 
1.551158137015e-03 9.230026637173e-03 0.0 
1.804021248296e-04 8.703622108258e-03 0.0 
2.124829684208e-04 7.855955284798e-03 0.0 
3.783180927952e-04 7.536543810240e-03 0.0 
5.035606227668e-04 8.460104534563e-04 0.0 
8.193230309586e-04 -3.321039058696e-04 0.0 
1.506918566351e-04 1.288613998984e-03 0.0 
3.590337153731e-04 6.509790863426e-03 0.0 
6.155014133532e-04 3.010907285484e-04 0.0 
1.107043353455e-03 1.730318820072e-03 0.0 
2.304165125920e-03 4.086683681099e-03 0.0 
5.053001981096e-04 2.043039371026e-03 0.0 
3.901263816239e-04 -4.399148069825e-04 0.0 
3.691118519631e-04 -4.978988975382e-04 0.0 
5.692645119746e-04 1.171969957966e-04 0.0 
-1.533509746542e-04 7.187920207888e-04 0.0 
1.058577550342e-04 -6.422254855062e-04 0.0 
1.879205136708e-04 1.244364913469e-04 0.0 
2.257820468894e-05 -7.322819716969e-04 0.0 
2.213982092493e-04 8.415604529443e-03 0.0 
1.025344386924e-03 3.611207271547e-04 0.0 
1.706325226745e-04 -5.429687097287e-04 0.0 
9.167572419162e-05 -6.709061218084e-04 0.0 
9.291223869233e-05 5.001597495909e-04 0.0 
7.827901653616e-04 9.368102600992e-03 0.0 
2.255110491934e-04 1.397627733364e-03 0.0 
1.003864585895e-03 4.025144533271e-04 0.0 
6.783618732832e-04 9.359879583391e-03 0.0 
-4.810335797899e-04 1.819566207455e-03 0.0 
3.533317316568e-05 1.077575099298e-03 0.0 
2.173652116424e-04 -6.693704384427e-04 0.0 
2.509006377728e-04 1.820645314022e-03 0.0 
3.549135384663e-05 7.221094203070e-06 0.0 
9.046052923256e-04 1.711721128843e-03 0.0 
8.534567854267e-04 8.247599539428e-04 0.0 
1.326320806818e-03 7.843171992562e-03 0.0 
2.362559512845e-04 -4.590776968098e-04 0.0 
2.289402668448e-03 1.643667023489e-03 0.0 
3.241395400616e-04 1.599308765968e-04 0.0 
8.493161480409e-05 4.313253173987e-03 0.0 
3.180897586906e-04 1.429373160298e-04 0.0 
1.107536018430e-04 9.057580671500e-04 0.0 
2.120053112394e-04 3.559957492006e-05 0.0 
9.452141270940e-04 5.237476297855e-04 0.0 
1.029210599999e-04 -7.197307224895e-04 0.0 
5.877320448593e-04 1.820202763909e-04 0.0 
4.170512924767e-04 1.223333162644e-03 0.0 
2.043715354228e-04 9.850201656668e-04 0.0 
5.005903778079e-04 8.614607618047e-03 0.0 
1.689608885174e-03 7.381891816956e-03 0.0 
1.321155646903e-03 5.481576334153e-03 0.0 
7.193383948993e-04 1.015451135542e-03 0.0 
1.855731189830e-04 -5.429203403360e-04 0.0 
3.492176533320e-04 3.296930627152e-03 0.0 
2.086321375227e-03 1.407552352519e-03 0.0 
4.214336833767e-04 9.606932941692e-03 0.0 
5.638697507060e-04 1.680696408835e-03 0.0 
2.838086345933e-06 5.462210122098e-04 0.0 
2.838086345933e-06 2.305966184745e-04 0.0 
9.015471646853e-06 -7.685323995034e-04 0.0 
4.444571108192e-06 -7.667829704939e-04 0.0 
2.241419289924e-05 9.234358794669e-03 0.0 
5.385324686472e-05 9.569216547363e-03 0.0 
4.693408975952e-06 3.620725542605e-06 0.0 
4.693408975952e-06 7.396342111168e-06 0.0 
2.203981200321e-05 -7.604248357141e-04 0.0 
-5.191616870097e-04 9.117022029472e-04 0.0 
2.138565412081e-04 2.436811897038e-05 0.0 
1.443681995987e-03 1.124594855100e-03 0.0 
2.078083085997e-04 -6.797654397434e-04 0.0 
3.504170419155e-04 5.546641771234e-05 0.0 
5.401465276631e-05 -2.096411022003e-04 0.0 
5.591589670909e-05 -3.352896639947e-04 0.0 
2.418687972482e-04 6.125070136868e-03 0.0 
5.435063436330e-04 1.042138404523e-04 0.0 
2.619164369362e-03 2.014573469188e-03 0.0 
1.811828578618e-04 -6.850186291142e-04 0.0 
3.309734676426e-04 -3.817544856332e-04 0.0 
9.638341959975e-04 1.399779908261e-03 0.0 
1.007987388373e-05 2.409782497288e-03 0.0 
1.079667969141e-04 -3.262017232746e-04 0.0 
1.587965705728e-04 7.097590640684e-03 0.0 
1.358006679584e-03 1.271332243494e-03 0.0 
1.692272988047e-03 2.495170278601e-03 0.0 
2.033793186182e-03 3.281051345134e-03 0.0 
5.783853949368e-04 9.307804874221e-03 0.0 
2.706590021442e-03 1.962382686437e-03 0.0 
7.144936337269e-04 1.721348440483e-03 0.0 
1.530036804116e-04 -6.327016986370e-04 0.0 
4.586342369952e-05 -3.980488082633e-04 0.0 
1.598119089979e-03 1.574253324516e-03 0.0 
1.664413045870e-03 7.000504427808e-04 0.0 
4.188658772527e-04 1.325326897254e-04 0.0 
1.251242475299e-04 5.384410458604e-03 0.0 
1.184802710414e-04 2.093646763151e-05 0.0 
1.654595356719e-03 1.442315574855e-03 0.0 
1.392657916682e-03 1.187308359345e-03 0.0 
6.500262299412e-05 -1.504364106258e-04 0.0 
-4.452760063252e-04 2.602789216886e-03 0.0 
9.112755025396e-04 1.097829609055e-02 0.0 
2.029944992658e-03 7.347558033100e-03 0.0 
1.394600663095e-03 7.526397272661e-03 0.0 
2.741970681769e-03 2.118813758629e-03 0.0 
1.944813512916e-04 1.760018132409e-03 0.0 
6.629207442419e-04 2.769877389345e-04 0.0 
1.412523216778e-04 -5.804406921986e-05 0.0 
1.589308028445e-04 -3.449492766037e-04 0.0 
2.284224869244e-04 9.249782301290e-03 0.0 
2.045748207754e-04 4.945295618938e-03 0.0 
2.774129848779e-04 -5.655048066559e-04 0.0 
4.722771716847e-04 1.652598636986e-03 0.0 
1.229546083384e-04 -7.075786160350e-04 0.0 
1.131531230971e-03 4.944434228149e-04 0.0 
8.455464474361e-04 7.775800932973e-03 0.0 
7.401224744128e-04 4.428215450520e-04 0.0 
2.124442661622e-03 1.601575481859e-03 0.0 
1.539643686736e-03 7.488124259027e-03 0.0 
4.979669873413e-04 1.305216468923e-04 0.0 
3.636296508128e-04 1.206588816739e-03 0.0 
2.908947555027e-05 1.260968771177e-03 0.0 
2.899896814444e-04 6.363500642478e-03 0.0 
4.594345774344e-04 2.001104941886e-03 0.0 
7.298315974673e-04 7.003277864821e-04 0.0 
1.161457010929e-03 4.853339311364e-04 0.0 
1.906841815204e-03 1.350025192263e-03 0.0 
6.186340075105e-05 1.280886553401e-05 0.0 
1.959800947101e-03 3.339061463511e-03 0.0 
-8.790994748463e-04 2.848551850933e-03 0.0 
6.537427445072e-04 3.955061221138e-03 0.0 
1.411559592848e-03 2.143775453940e-03 0.0 
1.262586678141e-03 6.913571375526e-03 0.0 
1.124021964143e-04 1.061089457564e-05 0.0 
1.675683359161e-03 1.174058592570e-03 0.0 
2.191567488455e-04 4.206786401275e-05 0.0 
1.765602244395e-04 3.964451916459e-03 0.0 
7.037918732732e-04 3.848329208001e-04 0.0 
6.224312130078e-04 1.466282991515e-04 0.0 
6.531981420542e-04 1.631888508776e-04 0.0 
2.039639507967e-04 -5.618129321497e-04 0.0 
9.953453103065e-05 2.016253773379e-05 0.0 
1.135120939390e-03 8.825746263770e-03 0.0 
1.233636304620e-04 2.037779955638e-03 0.0 
2.174601294048e-04 -2.866381485137e-04 0.0 
8.076521062979e-05 2.823870668891e-03 0.0 
1.885500594910e-04 5.339100636347e-03 0.0 
1.586708507047e-05 -7.499367360711e-04 0.0 
7.011628139977e-04 9.410270177978e-04 0.0 
1.903295962939e-03 2.857776119782e-03 0.0 
1.634313728236e-04 1.055207138572e-03 0.0 
6.221263619660e-05 1.943184996266e-03 0.0 
9.083047697960e-04 4.899614473956e-04 0.0 
3.950644627794e-04 7.027850925050e-03 0.0 
8.541231282267e-05 -5.669006320605e-04 0.0 
-1.067407022391e-04 2.018657910934e-03 0.0 
1.226539931602e-04 -5.923857858477e-04 0.0 
3.000756120343e-04 -3.691820217987e-04 0.0 
-9.517754520408e-04 3.160503102744e-03 0.0 
2.953572263482e-04 -4.087580980841e-04 0.0 
1.411057587067e-04 1.306228821310e-05 0.0 
8.790994462928e-04 1.776363901500e-03 0.0 
1.627494726700e-03 6.879814082629e-03 0.0 
4.137139855417e-04 -4.641806184699e-04 0.0 
5.550885570989e-04 1.062985881559e-04 0.0 
9.804000353510e-04 3.135783300558e-04 0.0 
8.838076107916e-04 5.568162413840e-04 0.0 
1.177934828116e-03 1.133073340547e-03 0.0 
1.528302093768e-03 2.105480005490e-03 0.0 
2.107287581942e-04 -3.908592449545e-04 0.0 
-6.402176729954e-05 1.062369913048e-03 0.0 
1.965665836258e-04 2.000027518582e-05 0.0 
3.405490096338e-05 -7.455647579918e-04 0.0 
7.919238281787e-06 -7.424169288718e-04 0.0 
-2.524413598698e-04 3.690274389567e-03 0.0 
1.718512324837e-04 -5.787784231075e-04 0.0 
3.782794978201e-04 9.680761502875e-05 0.0 
6.424119288330e-04 7.562007848887e-04 0.0 
1.738750630167e-04 1.755312376573e-03 0.0 
6.987672400874e-04 4.517855656320e-04 0.0 
1.170472888800e-03 3.814621220236e-04 0.0 
3.162511746469e-04 6.476381488760e-03 0.0 
4.248034988660e-05 2.091099658570e-04 0.0 
8.946730628150e-04 3.669513304929e-04 0.0 
7.355767938054e-04 9.682358398874e-03 0.0 
3.242175814364e-04 3.342252151399e-05 0.0 
1.062505282525e-04 -6.864482679607e-04 0.0 
6.874382237503e-05 1.397344900008e-05 0.0 
1.555403293297e-03 8.630108829691e-03 0.0 
1.112130375267e-04 -7.202193988829e-04 0.0 
2.071543146801e-04 -4.327698873439e-04 0.0 
7.342117857188e-04 9.265883767990e-04 0.0 
2.818376361452e-04 1.870794415376e-03 0.0 
3.549735165295e-04 9.517753270629e-04 0.0 
1.194250582662e-04 -5.987826822238e-04 0.0 
-5.920346776646e-05 1.734124043689e-03 0.0 
2.907214122216e-04 5.388255082975e-05 0.0 
9.579114134088e-06 4.910089338089e-04 0.0 
1.678399113975e-05 8.477647546547e-06 0.0 
5.054933660978e-05 8.700950116086e-03 0.0 
8.789026684187e-04 2.947107977027e-04 0.0 
1.399574115221e-04 -7.084513154211e-04 0.0 
4.380700035876e-04 1.656526626180e-03 0.0 
1.082049254846e-04 -6.549464314229e-04 0.0 
4.447886398722e-04 1.336267343986e-04 0.0 
4.754270007887e-04 1.234584178329e-03 0.0 
-3.711854633256e-04 2.082411662205e-03 0.0 
1.688949357383e-03 1.396318133475e-03 0.0 
1.753654513317e-04 4.431231031990e-03 0.0 
1.069046748969e-04 9.973761074561e-04 0.0 
1.323918390155e-04 6.194845885663e-05 0.0 
7.452986921203e-05 5.778268556234e-03 0.0 
5.870183821235e-04 7.677913121668e-04 0.0 
6.078475463993e-04 1.684421169409e-03 0.0 
1.470124426489e-04 5.084242415304e-03 0.0 
9.642488149991e-04 1.260478110391e-03 0.0 
2.247417093537e-04 -5.139349472507e-04 0.0 
3.669220041361e-04 9.309629377479e-03 0.0 
1.190150805572e-03 8.286122324675e-04 0.0 
1.009862725516e-05 1.044475273540e-03 0.0 
1.866286575318e-05 -7.648290069102e-04 0.0 
9.971345981998e-05 9.286988264866e-03 0.0 
1.509526071058e-05 1.193895898237e-05 0.0 
2.368480160785e-04 -6.658545252392e-04 0.0 
1.091974084166e-03 4.190822495510e-04 0.0 
7.809146145962e-04 1.778695047636e-03 0.0 
1.255148002989e-04 1.293384937353e-03 0.0 
1.493189093984e-04 -7.003548781232e-04 0.0 
1.584111730852e-04 3.070711908701e-03 0.0 
2.292125785533e-05 -3.028257785593e-04 0.0 
6.889230534723e-05 3.442726353149e-03 0.0 
-6.849163399026e-04 1.114732638481e-03 0.0 
2.684318163431e-04 9.380538080004e-04 0.0 
1.347036860675e-04 5.966864016192e-03 0.0 
5.176966515543e-04 -6.705858521939e-06 0.0 
2.569152302742e-04 6.679316584589e-03 0.0 
8.997194038964e-04 6.226200553271e-04 0.0 
4.297927722638e-05 -2.695313484618e-04 0.0 
-7.517670342719e-04 3.344695609903e-03 0.0 
2.586239876842e-04 -5.485371603270e-04 0.0 
2.988148891156e-04 -3.529193139158e-04 0.0 
2.005801937106e-05 -2.379250052500e-04 0.0 
1.188530127325e-03 6.717027431357e-04 0.0 
1.548970207163e-04 -3.761580892592e-04 0.0 
1.989867043980e-04 -3.319882111846e-04 0.0 
1.572374473998e-04 -6.312917904658e-04 0.0 
3.759911584129e-04 6.259832990727e-05 0.0 
1.574554312707e-03 1.640549115765e-03 0.0 
6.056797715678e-04 3.104660675986e-03 0.0 
1.683965504331e-05 9.892631951393e-04 0.0 
2.718584287437e-05 1.302026441774e-05 0.0 
9.640954956505e-05 8.752890962996e-03 0.0 
1.020108970768e-04 6.179505766193e-03 0.0 
2.133994952427e-04 -3.799613924445e-04 0.0 
2.384329175732e-04 -3.551755669699e-04 0.0 
1.458947074866e-04 -3.442984501619e-04 0.0 
1.341490079604e-03 5.534924685621e-04 0.0 
3.913419820478e-04 -4.385246089248e-05 0.0 
1.323172151926e-03 1.359633657046e-03 0.0 
1.712819315147e-04 7.650985318357e-03 0.0 
3.237803078606e-04 1.224738939034e-03 0.0 
1.297309782438e-03 5.075854254845e-04 0.0 
3.026872653202e-04 6.875472740843e-03 0.0 
1.279465366941e-03 1.826096349985e-03 0.0 
1.174263247520e-03 6.944179135492e-04 0.0 
8.850050566020e-04 5.163176701587e-04 0.0 
-5.701160895608e-04 3.132230844592e-03 0.0 
1.329898785356e-03 1.810731718252e-03 0.0 
1.138925615325e-03 1.468068472928e-03 0.0 
1.450390688370e-04 -6.526047447040e-04 0.0 
2.381652254907e-04 -4.047087518412e-04 0.0 
-6.241658136986e-04 2.837296807460e-03 0.0 
1.061551212502e-03 1.486009818478e-03 0.0 
1.992365935977e-04 1.655944748636e-02 0.0 
2.362753154462e-04 1.621920179838e-02 0.0 
3.361127597604e-04 1.656855744237e-02 0.0 
3.668008409394e-04 1.623208972155e-02 0.0 
4.660424536708e-04 1.658155139614e-02 0.0 
4.943907661651e-04 1.624449924885e-02 0.0 
5.930892531193e-04 1.659314689380e-02 0.0 
6.174117399170e-04 1.625710801362e-02 0.0 
7.150667168595e-04 1.660517659154e-02 0.0 
7.343374580919e-04 1.627061271386e-02 0.0 
8.299183886840e-04 1.661780192266e-02 0.0 
8.433549579732e-04 1.628479797219e-02 0.0 
9.353856502898e-04 1.663038240571e-02 0.0 
9.423886492403e-04 1.629886382683e-02 0.0 
1.029005911785e-03 1.664181875763e-02 0.0 
1.029152588503e-03 1.631154649386e-02 0.0 
1.108076818541e-03 1.665055056025e-02 0.0 
1.101142879172e-03 1.632107366927e-02 0.0 
1.169637281031e-03 1.665451865920e-02 0.0 
-3.564327277583e-04 1.174958405089e-02 0.0 
1.155714809257e-03 1.632512429905e-02 0.0 
1.210541908645e-03 1.665106660259e-02 0.0 
1.190213941152e-03 1.632057878262e-02 0.0 
-1.233040435404e-04 1.205806669346e-02 0.0 
1.227780113914e-03 1.663664273873e-02 0.0 
1.202389237743e-03 1.630316044394e-02 0.0 
1.219262995512e-03 1.660630996231e-02 0.0 
1.190962454986e-03 1.626690462007e-02 0.0 
1.185157705071e-03 1.655347092763e-02 0.0 
-9.292794865453e-04 1.187177102075e-02 0.0 
1.156301220444e-03 1.620463990372e-02 0.0 
1.129572078971e-03 1.647213031377e-02 0.0 
1.100834625832e-03 1.611133204936e-02 0.0 
1.062110781223e-03 1.635954204267e-02 0.0 
1.027423355385e-03 1.598690198981e-02 0.0 
1.001557053218e-03 1.621673068326e-02 0.0 
9.331716601976e-04 1.587197246226e-02 0.0 
7.095298356815e-04 1.607810563755e-02 0.0 
5.698331543963e-04 1.569644843684e-02 0.0 
1.253265254826e-04 1.577652448106e-02 0.0 
1.514289921315e-04 1.525405220445e-02 0.0 
4.328876302785e-05 1.091515089113e-02 0.0 
2.388756734760e-05 1.465210259350e-02 0.0 
-2.457067070973e-04 1.523521975979e-02 0.0 
-8.228544226431e-05 1.399224595583e-02 0.0 
-3.714971735084e-04 1.462969074101e-02 0.0 
-1.476914922094e-04 1.316509848993e-02 0.0 
-5.113408700554e-04 1.390687332765e-02 0.0 
-6.152256335715e-04 1.296988117089e-02 0.0 
-5.295579957592e-04 1.103733786099e-02 0.0 
2.423804647352e-05 1.638559882163e-02 0.0 
1.219380265103e-04 1.638576145945e-02 0.0 
6.956298177439e-05 1.604172192577e-02 0.0 
7.661309120945e-05 1.672963835531e-02 0.0 
-4.843765087355e-04 1.024768386651e-02 0.0 
1.640837970046e-04 1.519611537617e-02 0.0 
2.138459050583e-04 1.553851423961e-02 0.0 
2.864580803799e-04 1.520651509843e-02 0.0 
3.395755719468e-04 1.555073493638e-02 0.0 
4.059663751577e-04 1.522004305386e-02 0.0 
4.615399566445e-04 1.556434569175e-02 0.0 
5.215250868775e-04 1.523460919985e-02 0.0 
5.786983831957e-04 1.557872387678e-02 0.0 
6.319846642804e-04 1.525054468198e-02 0.0 
6.899687622341e-04 1.559436494113e-02 0.0 
7.362157399338e-04 1.526785701252e-02 0.0 
7.940210050809e-04 1.561110083478e-02 0.0 
8.329479568899e-04 1.528599750160e-02 0.0 
8.892849087327e-04 1.562817606014e-02 0.0 
9.207713704671e-04 1.530393807467e-02 0.0 
9.740217876928e-04 1.564435357759e-02 0.0 
9.981916755009e-04 1.532016127942e-02 0.0 
1.046388536942e-03 1.565787730470e-02 0.0 
7.388623560748e-04 1.247190159864e-02 0.0 
1.063697587181e-03 1.533256854005e-02 0.0 
1.104529457638e-03 1.566637054445e-02 0.0 
1.115871955246e-03 1.533832966925e-02 0.0 
4.252320440545e-04 1.264877565180e-02 0.0 
1.146729339373e-03 1.566659560388e-02 0.0 
8.718637831686e-04 1.262166017223e-02 0.0 
1.153509266991e-03 1.533358811609e-02 0.0 
1.171602992599e-03 1.565408900005e-02 0.0 
1.175689494082e-03 1.531321932624e-02 0.0 
1.178175198699e-03 1.562288542788e-02 0.0 
1.181590311358e-03 1.527104119371e-02 0.0 
1.165521083018e-03 1.556622936199e-02 0.0 
1.169914356849e-03 1.520136198707e-02 0.0 
1.131957041136e-03 1.547897426439e-02 0.0 
9.589370155926e-04 1.187699738355e-02 0.0 
1.138223203691e-03 1.510249617290e-02 0.0 
1.072413362550e-03 1.536221390501e-02 0.0 
1.081093935325e-03 1.498713506786e-02 0.0 
9.677185351406e-04 1.526706493166e-02 0.0 
8.267286059637e-04 1.509188265950e-02 0.0 
1.000972162192e-03 1.486863232961e-02 0.0 
6.880748168794e-04 1.464334020730e-02 0.0 
9.188678017980e-04 1.456124670656e-02 0.0 
5.887696941357e-04 1.403476341206e-02 0.0 
5.556289805534e-04 1.336034288775e-02 0.0 
8.558212444387e-04 1.400716858119e-02 0.0 
8.312993760974e-04 1.338044849148e-02 0.0 
6.453067035723e-04 1.205387143670e-02 0.0 
2.118284141984e-05 1.536010375062e-02 0.0 
1.061594352514e-04 1.536185338905e-02 0.0 
6.650777672070e-05 1.570045840679e-02 0.0 
6.083449995055e-05 1.502149873288e-02 0.0 
5.643047573395e-04 1.165837979740e-02 0.0 
1.563026872190e-04 1.451913824224e-02 0.0 
1.917924282809e-04 1.418413894405e-02 0.0 
2.721857133882e-04 1.452911693680e-02 0.0 
3.054294112726e-04 1.419591613375e-02 0.0 
3.860925814752e-04 1.454262241286e-02 0.0 
4.169495302970e-04 1.421051386774e-02 0.0 
4.968084542125e-04 1.455819801685e-02 0.0 
5.251309796160e-04 1.422739760927e-02 0.0 
6.031338933657e-04 1.457562959747e-02 0.0 
6.289943628037e-04 1.424629976505e-02 0.0 
7.040921114182e-04 1.459470692094e-02 0.0 
7.276718817972e-04 1.426679380137e-02 0.0 
7.987224621218e-04 1.461484055978e-02 0.0 
8.203134741690e-04 1.428807020430e-02 0.0 
8.860254306714e-04 1.463498916066e-02 0.0 
9.060819558454e-04 1.430884326145e-02 0.0 
9.649977834491e-04 1.465359987730e-02 0.0 
1.395696273081e-03 1.265667053437e-02 0.0 
9.841983226837e-04 1.432726170054e-02 0.0 
1.034701264975e-03 1.466851433801e-02 0.0 
1.469537384131e-03 1.271746660533e-02 0.0 
1.054009310977e-03 1.434078797060e-02 0.0 
1.094348130792e-03 1.467680129744e-02 0.0 
1.115051270240e-03 1.434601401138e-02 0.0 
1.143355022313e-03 1.467453489542e-02 0.0 
1.167042824759e-03 1.433849968244e-02 0.0 
1.196676642604e-03 1.286861296910e-02 0.0 
1.181283570921e-03 1.465668322931e-02 0.0 
1.209750315475e-03 1.431284240108e-02 0.0 
1.207571351296e-03 1.461753426383e-02 0.0 
1.242793465828e-03 1.426346092648e-02 0.0 
1.221205699721e-03 1.455210048144e-02 0.0 
1.265680623424e-03 1.418612523330e-02 0.0 
1.220655443107e-03 1.445890864744e-02 0.0 
1.279169865661e-03 1.408060013955e-02 0.0 
1.205418199021e-03 1.434910882787e-02 0.0 
1.293164566632e-03 1.394435892887e-02 0.0 
1.540201550001e-03 1.219536314455e-02 0.0 
1.338450860840e-03 1.370593050785e-02 0.0 
1.202093929987e-03 1.418395256682e-02 0.0 
1.403553827912e-03 1.328865033917e-02 0.0 
1.229468288879e-03 1.385997431771e-02 0.0 
1.260699768390e-03 1.335375110192e-02 0.0 
1.341181919523e-03 1.240730557928e-02 0.0 
1.897397757565e-05 1.434433522703e-02 0.0 
9.616946162158e-05 1.434652427231e-02 0.0 
5.651780309087e-05 1.400771274927e-02 0.0 
5.862563610636e-05 1.468314675008e-02 0.0 
1.292039455632e-03 1.218045838614e-02 0.0 
1.414365644989e-04 1.317058702764e-02 0.0 
1.819372006442e-04 1.350976862895e-02 0.0 
2.481180838766e-04 1.318016744688e-02 0.0 
2.912170093977e-04 1.352133695893e-02 0.0 
3.539283811532e-04 1.319385026895e-02 0.0 
3.989977318500e-04 1.353632089865e-02 0.0 
4.580533338023e-04 1.321061141957e-02 0.0 
5.043276576529e-04 1.355400398109e-02 0.0 
5.597387423793e-04 1.322985053570e-02 0.0 
6.064025337804e-04 1.357391433146e-02 0.0 
6.583978266735e-04 1.325104318986e-02 0.0 
7.045694260758e-04 1.359551550388e-02 0.0 
7.535732884081e-04 1.327343195218e-02 0.0 
7.982667561767e-04 1.361793989419e-02 0.0 
8.449104734684e-04 1.329587034700e-02 0.0 
8.870137166348e-04 1.363985475790e-02 0.0 
1.731630786170e-03 1.250199382358e-02 0.0 
9.321542667567e-04 1.331669894320e-02 0.0 
9.704230452020e-04 1.365934927000e-02 0.0 
1.622443640666e-03 1.276992732600e-02 0.0 
1.015185811086e-03 1.333363657960e-02 0.0 
1.048269134570e-03 1.367382264273e-02 0.0 
1.743307626169e-03 1.245934429375e-02 0.0 
1.094082491028e-03 1.334367581832e-02 0.0 
1.120525806883e-03 1.367985386014e-02 0.0 
1.169116353297e-03 1.334298538630e-02 0.0 
1.187329619100e-03 1.367311032457e-02 0.0 
1.240714594777e-03 1.332692117047e-02 0.0 
1.248894544991e-03 1.364846970012e-02 0.0 
1.848600348808e-03 1.211670705550e-02 0.0 
1.309427839021e-03 1.329016944963e-02 0.0 
1.305505724037e-03 1.360046881325e-02 0.0 
1.376297013505e-03 1.322735800696e-02 0.0 
1.358059678999e-03 1.352437487205e-02 0.0 
1.409914877653e-03 1.341627477534e-02 0.0 
1.443779510675e-03 1.313283292198e-02 0.0 
1.476159924157e-03 1.325572045768e-02 0.0 
1.519158568538e-03 1.299614499246e-02 0.0 
1.570936225373e-03 1.299667860686e-02 0.0 
1.617574652045e-03 1.278606219464e-02 0.0 
1.739413203304e-03 1.238464055792e-02 0.0 
1.787666442215e-05 1.333368589619e-02 0.0 
9.006125338473e-05 1.333548455691e-02 0.0 
5.542048993737e-05 1.367085393336e-02 0.0 
5.251742786951e-05 1.299831651974e-02 0.0 
1.729361006290e-03 1.226707907450e-02 0.0 
1.378501963325e-04 1.249863529060e-02 0.0 
1.712251319566e-04 1.216541677826e-02 0.0 
2.409923833554e-04 1.250776733324e-02 0.0 
2.737974473488e-04 1.217624342262e-02 0.0 
3.436345196255e-04 1.252115684628e-02 0.0 
3.758905465779e-04 1.219095389310e-02 0.0 
4.452400100580e-04 1.253793783669e-02 0.0 
4.770856433340e-04 1.220890048147e-02 0.0 
5.453100518047e-04 1.255742061896e-02 0.0 
5.770692436751e-04 1.222937825628e-02 0.0 
6.434932271428e-04 1.257893703142e-02 0.0 
6.756399620213e-04 1.225160713341e-02 0.0 
7.395484238843e-04 1.260162974015e-02 0.0 
7.727467663267e-04 1.227451637009e-02 0.0 
8.334153481423e-04 1.262424903492e-02 0.0 
1.815590040354e-03 1.196023029801e-02 0.0 
8.684920298586e-04 1.229663011128e-02 0.0 
1.797898117552e-03 1.185063893740e-02 0.0 
9.251277053067e-04 1.264509560866e-02 0.0 
9.630811576392e-04 1.231591662174e-02 0.0 
1.014870484973e-03 1.266180726588e-02 0.0 
1.056936413603e-03 1.232961730982e-02 0.0 
1.103065096173e-03 1.267129979913e-02 0.0 
1.150713952424e-03 1.233425299587e-02 0.0 
1.759353989275e-03 1.226355691813e-02 0.0 
1.190321893692e-03 1.266976054122e-02 0.0 
1.245257792412e-03 1.232557443247e-02 0.0 
1.277437227693e-03 1.265261012344e-02 0.0 
1.341663228034e-03 1.229858641989e-02 0.0 
1.365473889148e-03 1.261459721644e-02 0.0 
1.441384713220e-03 1.224722705996e-02 0.0 
1.456129952561e-03 1.254968848686e-02 0.0 
1.547133906509e-03 1.216459672161e-02 0.0 
1.663074227633e-03 1.203973997797e-02 0.0 
1.553020799129e-03 1.245072429163e-02 0.0 
1.918304392002e-03 1.166512005328e-02 0.0 
1.663076630063e-03 1.230171882544e-02 0.0 
1.862068340924e-03 1.196844667340e-02 0.0 
1.687430585238e-05 1.232581057713e-02 0.0 
8.547252664855e-05 1.232761632507e-02 0.0 
5.083176320119e-05 1.199102687726e-02 0.0 
5.151506929974e-05 1.266240002495e-02 0.0 
1.892660404490e-03 1.195361763679e-02 0.0 
1.294500225170e-04 1.115660196220e-02 0.0 
1.656394125089e-04 1.149424808684e-02 0.0 
2.273481965569e-04 1.116496991013e-02 0.0 
2.657389799980e-04 1.150461469094e-02 0.0 
3.255542710027e-04 1.117751848814e-02 0.0 
3.658687653059e-04 1.151894426665e-02 0.0 
4.239697724083e-04 1.119356575608e-02 0.0 
4.658371869562e-04 1.153653802731e-02 0.0 
5.225519942149e-04 1.121228101042e-02 0.0 
5.655596424631e-04 1.155660110190e-02 0.0 
6.213948964684e-04 1.123293129491e-02 0.0 
6.650512325588e-04 1.157837855127e-02 0.0 
7.206270180924e-04 1.125447783693e-02 0.0 
1.775245457571e-03 1.121493581425e-02 0.0 
7.644140899973e-04 1.160059304900e-02 0.0 
8.206078337376e-04 1.127555025092e-02 0.0 
1.751333908208e-03 1.153713793340e-02 0.0 
8.640171917833e-04 1.162185464836e-02 0.0 
9.218040338597e-04 1.129449881480e-02 0.0 
1.740455647587e-03 1.106796225005e-02 0.0 
9.642323242675e-04 1.164009529080e-02 0.0 
1.024752328672e-03 1.130881032377e-02 0.0 
1.065667090674e-03 1.165244169866e-02 0.0 
1.130268702938e-03 1.131534842279e-02 0.0 
1.169186882118e-03 1.165547723069e-02 0.0 
1.863970599121e-03 1.096848646521e-02 0.0 
1.239385144145e-03 1.131043317868e-02 0.0 
1.275848113171e-03 1.164502283511e-02 0.0 
1.386936956225e-03 1.161607395400e-02 0.0 
1.353301276643e-03 1.128954606019e-02 0.0 
1.504255615692e-03 1.156258634557e-02 0.0 
1.473618519811e-03 1.124744403615e-02 0.0 
1.629568435557e-03 1.147655797108e-02 0.0 
1.601435384081e-03 1.117700902195e-02 0.0 
1.840059049759e-03 1.129068858436e-02 0.0 
1.623482353528e-05 1.131978700798e-02 0.0 
8.201858996367e-05 1.132141820658e-02 0.0 
5.019228088410e-05 1.165569339574e-02 0.0 
4.806113261485e-05 1.098551181882e-02 0.0 
1.886620856673e-03 1.134221074089e-02 0.0 
1.269316191337e-04 1.048674132345e-02 0.0 
1.583482634711e-04 1.015402927995e-02 0.0 
2.225754509024e-04 1.049461174199e-02 0.0 
2.541947830993e-04 1.016329306104e-02 0.0 
3.187828197585e-04 1.050655502639e-02 0.0 
3.508378621595e-04 1.017638085146e-02 0.0 
4.157103205060e-04 1.052196580264e-02 0.0 
4.485788876274e-04 1.019253887920e-02 0.0 
5.135531467884e-04 1.053988181575e-02 0.0 
5.476527496998e-04 1.021081176554e-02 0.0 
6.124868511317e-04 1.055954115322e-02 0.0 
6.484793762815e-04 1.023054000423e-02 0.0 
1.653650655027e-03 1.035059510857e-02 0.0 
7.129632071518e-04 1.058002943157e-02 0.0 
1.604771376588e-03 1.017861467385e-02 0.0 
7.515193095783e-04 1.025018530819e-02 0.0 
8.153768642592e-04 1.059959091546e-02 0.0 
8.574141877421e-04 1.026830501234e-02 0.0 
9.204319992968e-04 1.061690851424e-02 0.0 
9.669941336514e-04 1.028301404328e-02 0.0 
1.028886172619e-03 1.062931937682e-02 0.0 
1.081026468911e-03 1.029118080123e-02 0.0 
1.655655258115e-03 1.068078275695e-02 0.0 
1.141494237229e-03 1.063357847231e-02 0.0 
1.200527548504e-03 1.028931769070e-02 0.0 
1.259500276240e-03 1.062604358917e-02 0.0 
1.326731140982e-03 1.027348452907e-02 0.0 
1.460868452712e-03 1.023858925289e-02 0.0 
1.384069172359e-03 1.060239734366e-02 0.0 
1.516782120582e-03 1.055710805157e-02 0.0 
1.727535188583e-03 1.013709441357e-02 0.0 
1.729539791670e-03 1.046728206195e-02 0.0 
1.554434156735e-05 1.031498612738e-02 0.0 
7.880970461240e-05 1.031660494297e-02 0.0 
4.698339553283e-05 9.981031876398e-03 0.0 
4.737065064692e-05 1.065055919395e-02 0.0 
1.786207129667e-03 1.055491260592e-02 0.0 

VECTORS element_materi_displacement float
0.0 0.0 0.0 
0.0 0.0 0.0 
0.0 0.0 0.0 
0.0 0.0 0.0 
0.0 0.0 0.0 
0.0 0.0 0.0 
0.0 0.0 0.0 
0.0 0.0 0.0 
0.0 0.0 0.0 
0.0 0.0 0.0 
0.0 0.0 0.0 
0.0 0.0 0.0 
0.0 0.0 0.0 
0.0 0.0 0.0 
0.0 0.0 0.0 
0.0 0.0 0.0 
0.0 0.0 0.0 
0.0 0.0 0.0 
0.0 0.0 0.0 
0.0 0.0 0.0 
0.0 0.0 0.0 
0.0 0.0 0.0 
0.0 0.0 0.0 
0.0 0.0 0.0 
0.0 0.0 0.0 
0.0 0.0 0.0 
0.0 0.0 0.0 
0.0 0.0 0.0 
0.0 0.0 0.0 
0.0 0.0 0.0 
0.0 0.0 0.0 
0.0 0.0 0.0 
0.0 0.0 0.0 
0.0 0.0 0.0 
0.0 0.0 0.0 
0.0 0.0 0.0 
0.0 0.0 0.0 
0.0 0.0 0.0 
0.0 0.0 0.0 
0.0 0.0 0.0 
0.0 0.0 0.0 
0.0 0.0 0.0 
0.0 0.0 0.0 
0.0 0.0 0.0 
0.0 0.0 0.0 
0.0 0.0 0.0 
0.0 0.0 0.0 
0.0 0.0 0.0 
0.0 0.0 0.0 
0.0 0.0 0.0 
0.0 0.0 0.0 
0.0 0.0 0.0 
0.0 0.0 0.0 
0.0 0.0 0.0 
0.0 0.0 0.0 
0.0 0.0 0.0 
0.0 0.0 0.0 
0.0 0.0 0.0 
0.0 0.0 0.0 
0.0 0.0 0.0 
0.0 0.0 0.0 
0.0 0.0 0.0 
0.0 0.0 0.0 
0.0 0.0 0.0 
0.0 0.0 0.0 
0.0 0.0 0.0 
0.0 0.0 0.0 
0.0 0.0 0.0 
0.0 0.0 0.0 
0.0 0.0 0.0 
0.0 0.0 0.0 
0.0 0.0 0.0 
0.0 0.0 0.0 
0.0 0.0 0.0 
0.0 0.0 0.0 
0.0 0.0 0.0 
0.0 0.0 0.0 
0.0 0.0 0.0 
0.0 0.0 0.0 
0.0 0.0 0.0 
0.0 0.0 0.0 
0.0 0.0 0.0 
0.0 0.0 0.0 
0.0 0.0 0.0 
0.0 0.0 0.0 
0.0 0.0 0.0 
0.0 0.0 0.0 
0.0 0.0 0.0 
0.0 0.0 0.0 
0.0 0.0 0.0 
0.0 0.0 0.0 
0.0 0.0 0.0 
0.0 0.0 0.0 
0.0 0.0 0.0 
0.0 0.0 0.0 
0.0 0.0 0.0 
0.0 0.0 0.0 
0.0 0.0 0.0 
0.0 0.0 0.0 
0.0 0.0 0.0 
0.0 0.0 0.0 
0.0 0.0 0.0 
0.0 0.0 0.0 
0.0 0.0 0.0 
0.0 0.0 0.0 
0.0 0.0 0.0 
0.0 0.0 0.0 
0.0 0.0 0.0 
0.0 0.0 0.0 
0.0 0.0 0.0 
0.0 0.0 0.0 
0.0 0.0 0.0 
0.0 0.0 0.0 
0.0 0.0 0.0 
0.0 0.0 0.0 
0.0 0.0 0.0 
0.0 0.0 0.0 
0.0 0.0 0.0 
0.0 0.0 0.0 
0.0 0.0 0.0 
0.0 0.0 0.0 
0.0 0.0 0.0 
0.0 0.0 0.0 
0.0 0.0 0.0 
0.0 0.0 0.0 
0.0 0.0 0.0 
0.0 0.0 0.0 
0.0 0.0 0.0 
0.0 0.0 0.0 
0.0 0.0 0.0 
0.0 0.0 0.0 
0.0 0.0 0.0 
0.0 0.0 0.0 
0.0 0.0 0.0 
0.0 0.0 0.0 
0.0 0.0 0.0 
0.0 0.0 0.0 
0.0 0.0 0.0 
0.0 0.0 0.0 
0.0 0.0 0.0 
0.0 0.0 0.0 
0.0 0.0 0.0 
0.0 0.0 0.0 
0.0 0.0 0.0 
0.0 0.0 0.0 
0.0 0.0 0.0 
0.0 0.0 0.0 
0.0 0.0 0.0 
0.0 0.0 0.0 
0.0 0.0 0.0 
0.0 0.0 0.0 
0.0 0.0 0.0 
0.0 0.0 0.0 
0.0 0.0 0.0 
0.0 0.0 0.0 
0.0 0.0 0.0 
0.0 0.0 0.0 
0.0 0.0 0.0 
0.0 0.0 0.0 
0.0 0.0 0.0 
0.0 0.0 0.0 
0.0 0.0 0.0 
0.0 0.0 0.0 
0.0 0.0 0.0 
0.0 0.0 0.0 
0.0 0.0 0.0 
0.0 0.0 0.0 
0.0 0.0 0.0 
0.0 0.0 0.0 
0.0 0.0 0.0 
0.0 0.0 0.0 
0.0 0.0 0.0 
0.0 0.0 0.0 
0.0 0.0 0.0 
0.0 0.0 0.0 
0.0 0.0 0.0 
0.0 0.0 0.0 
0.0 0.0 0.0 
0.0 0.0 0.0 
0.0 0.0 0.0 
0.0 0.0 0.0 
0.0 0.0 0.0 
0.0 0.0 0.0 
0.0 0.0 0.0 
0.0 0.0 0.0 
0.0 0.0 0.0 
0.0 0.0 0.0 
0.0 0.0 0.0 
0.0 0.0 0.0 
0.0 0.0 0.0 
0.0 0.0 0.0 
0.0 0.0 0.0 
0.0 0.0 0.0 
0.0 0.0 0.0 
0.0 0.0 0.0 
0.0 0.0 0.0 
0.0 0.0 0.0 
0.0 0.0 0.0 
0.0 0.0 0.0 
0.0 0.0 0.0 
0.0 0.0 0.0 
0.0 0.0 0.0 
0.0 0.0 0.0 
0.0 0.0 0.0 
0.0 0.0 0.0 
0.0 0.0 0.0 
0.0 0.0 0.0 
0.0 0.0 0.0 
0.0 0.0 0.0 
0.0 0.0 0.0 
0.0 0.0 0.0 
0.0 0.0 0.0 
0.0 0.0 0.0 
0.0 0.0 0.0 
0.0 0.0 0.0 
0.0 0.0 0.0 
0.0 0.0 0.0 
0.0 0.0 0.0 
0.0 0.0 0.0 
0.0 0.0 0.0 
0.0 0.0 0.0 
0.0 0.0 0.0 
0.0 0.0 0.0 
0.0 0.0 0.0 
0.0 0.0 0.0 
0.0 0.0 0.0 
0.0 0.0 0.0 
0.0 0.0 0.0 
0.0 0.0 0.0 
0.0 0.0 0.0 
0.0 0.0 0.0 
0.0 0.0 0.0 
0.0 0.0 0.0 
0.0 0.0 0.0 
0.0 0.0 0.0 
0.0 0.0 0.0 
0.0 0.0 0.0 
0.0 0.0 0.0 
0.0 0.0 0.0 
0.0 0.0 0.0 
0.0 0.0 0.0 
0.0 0.0 0.0 
0.0 0.0 0.0 
0.0 0.0 0.0 
0.0 0.0 0.0 
0.0 0.0 0.0 
0.0 0.0 0.0 
0.0 0.0 0.0 
0.0 0.0 0.0 
0.0 0.0 0.0 
0.0 0.0 0.0 
0.0 0.0 0.0 
0.0 0.0 0.0 
0.0 0.0 0.0 
0.0 0.0 0.0 
0.0 0.0 0.0 
0.0 0.0 0.0 
0.0 0.0 0.0 
0.0 0.0 0.0 
0.0 0.0 0.0 
0.0 0.0 0.0 
0.0 0.0 0.0 
0.0 0.0 0.0 
0.0 0.0 0.0 
0.0 0.0 0.0 
0.0 0.0 0.0 
0.0 0.0 0.0 
0.0 0.0 0.0 
0.0 0.0 0.0 
0.0 0.0 0.0 
0.0 0.0 0.0 
0.0 0.0 0.0 
0.0 0.0 0.0 
0.0 0.0 0.0 
0.0 0.0 0.0 
0.0 0.0 0.0 
0.0 0.0 0.0 
0.0 0.0 0.0 
0.0 0.0 0.0 
0.0 0.0 0.0 
0.0 0.0 0.0 
0.0 0.0 0.0 
0.0 0.0 0.0 
0.0 0.0 0.0 
0.0 0.0 0.0 
0.0 0.0 0.0 
0.0 0.0 0.0 
0.0 0.0 0.0 
0.0 0.0 0.0 
0.0 0.0 0.0 
0.0 0.0 0.0 
0.0 0.0 0.0 
0.0 0.0 0.0 
0.0 0.0 0.0 
0.0 0.0 0.0 
0.0 0.0 0.0 
0.0 0.0 0.0 
0.0 0.0 0.0 
0.0 0.0 0.0 
0.0 0.0 0.0 
0.0 0.0 0.0 
0.0 0.0 0.0 
0.0 0.0 0.0 
0.0 0.0 0.0 
0.0 0.0 0.0 
0.0 0.0 0.0 
0.0 0.0 0.0 
0.0 0.0 0.0 
0.0 0.0 0.0 
0.0 0.0 0.0 
0.0 0.0 0.0 
0.0 0.0 0.0 
0.0 0.0 0.0 
0.0 0.0 0.0 
0.0 0.0 0.0 
0.0 0.0 0.0 
0.0 0.0 0.0 
0.0 0.0 0.0 
0.0 0.0 0.0 
0.0 0.0 0.0 
0.0 0.0 0.0 
0.0 0.0 0.0 
0.0 0.0 0.0 
0.0 0.0 0.0 
0.0 0.0 0.0 
0.0 0.0 0.0 
0.0 0.0 0.0 
0.0 0.0 0.0 
0.0 0.0 0.0 
0.0 0.0 0.0 
0.0 0.0 0.0 
0.0 0.0 0.0 
0.0 0.0 0.0 
0.0 0.0 0.0 
0.0 0.0 0.0 
0.0 0.0 0.0 
0.0 0.0 0.0 
0.0 0.0 0.0 
0.0 0.0 0.0 
0.0 0.0 0.0 
0.0 0.0 0.0 
0.0 0.0 0.0 
0.0 0.0 0.0 
0.0 0.0 0.0 
0.0 0.0 0.0 
0.0 0.0 0.0 
0.0 0.0 0.0 
0.0 0.0 0.0 
0.0 0.0 0.0 
0.0 0.0 0.0 
0.0 0.0 0.0 
0.0 0.0 0.0 
0.0 0.0 0.0 
0.0 0.0 0.0 
0.0 0.0 0.0 
0.0 0.0 0.0 
0.0 0.0 0.0 
0.0 0.0 0.0 
0.0 0.0 0.0 
0.0 0.0 0.0 
0.0 0.0 0.0 
0.0 0.0 0.0 
0.0 0.0 0.0 
0.0 0.0 0.0 
0.0 0.0 0.0 
0.0 0.0 0.0 
0.0 0.0 0.0 
0.0 0.0 0.0 
0.0 0.0 0.0 
0.0 0.0 0.0 
0.0 0.0 0.0 
0.0 0.0 0.0 
0.0 0.0 0.0 
0.0 0.0 0.0 
0.0 0.0 0.0 
0.0 0.0 0.0 
0.0 0.0 0.0 
0.0 0.0 0.0 
0.0 0.0 0.0 
0.0 0.0 0.0 
0.0 0.0 0.0 
0.0 0.0 0.0 
0.0 0.0 0.0 
0.0 0.0 0.0 
0.0 0.0 0.0 
0.0 0.0 0.0 
0.0 0.0 0.0 
0.0 0.0 0.0 
0.0 0.0 0.0 
0.0 0.0 0.0 
0.0 0.0 0.0 
0.0 0.0 0.0 
0.0 0.0 0.0 
0.0 0.0 0.0 
0.0 0.0 0.0 
0.0 0.0 0.0 
0.0 0.0 0.0 
0.0 0.0 0.0 
0.0 0.0 0.0 
0.0 0.0 0.0 
0.0 0.0 0.0 
0.0 0.0 0.0 
0.0 0.0 0.0 
0.0 0.0 0.0 
0.0 0.0 0.0 
0.0 0.0 0.0 
0.0 0.0 0.0 
0.0 0.0 0.0 
0.0 0.0 0.0 
0.0 0.0 0.0 
0.0 0.0 0.0 
0.0 0.0 0.0 
0.0 0.0 0.0 
0.0 0.0 0.0 
0.0 0.0 0.0 
0.0 0.0 0.0 
0.0 0.0 0.0 
0.0 0.0 0.0 
0.0 0.0 0.0 
0.0 0.0 0.0 
0.0 0.0 0.0 
0.0 0.0 0.0 
0.0 0.0 0.0 
0.0 0.0 0.0 
0.0 0.0 0.0 
0.0 0.0 0.0 
0.0 0.0 0.0 
0.0 0.0 0.0 
0.0 0.0 0.0 
0.0 0.0 0.0 
0.0 0.0 0.0 
0.0 0.0 0.0 
0.0 0.0 0.0 
0.0 0.0 0.0 
0.0 0.0 0.0 
0.0 0.0 0.0 
0.0 0.0 0.0 
0.0 0.0 0.0 
0.0 0.0 0.0 
0.0 0.0 0.0 
0.0 0.0 0.0 
0.0 0.0 0.0 
0.0 0.0 0.0 
0.0 0.0 0.0 
0.0 0.0 0.0 
0.0 0.0 0.0 
0.0 0.0 0.0 
0.0 0.0 0.0 
0.0 0.0 0.0 
0.0 0.0 0.0 
0.0 0.0 0.0 
0.0 0.0 0.0 
0.0 0.0 0.0 
0.0 0.0 0.0 
0.0 0.0 0.0 
0.0 0.0 0.0 
0.0 0.0 0.0 
0.0 0.0 0.0 
0.0 0.0 0.0 
0.0 0.0 0.0 
0.0 0.0 0.0 
0.0 0.0 0.0 
0.0 0.0 0.0 
0.0 0.0 0.0 
0.0 0.0 0.0 
0.0 0.0 0.0 
0.0 0.0 0.0 
0.0 0.0 0.0 
0.0 0.0 0.0 
0.0 0.0 0.0 
0.0 0.0 0.0 
0.0 0.0 0.0 
0.0 0.0 0.0 
0.0 0.0 0.0 
0.0 0.0 0.0 
0.0 0.0 0.0 
0.0 0.0 0.0 
0.0 0.0 0.0 
0.0 0.0 0.0 
0.0 0.0 0.0 
0.0 0.0 0.0 
0.0 0.0 0.0 
0.0 0.0 0.0 
0.0 0.0 0.0 
0.0 0.0 0.0 
0.0 0.0 0.0 
0.0 0.0 0.0 
0.0 0.0 0.0 
0.0 0.0 0.0 
0.0 0.0 0.0 
0.0 0.0 0.0 
0.0 0.0 0.0 
0.0 0.0 0.0 
0.0 0.0 0.0 
0.0 0.0 0.0 
0.0 0.0 0.0 
0.0 0.0 0.0 
0.0 0.0 0.0 
0.0 0.0 0.0 
0.0 0.0 0.0 
0.0 0.0 0.0 
0.0 0.0 0.0 
0.0 0.0 0.0 
0.0 0.0 0.0 
0.0 0.0 0.0 
0.0 0.0 0.0 
0.0 0.0 0.0 
0.0 0.0 0.0 
0.0 0.0 0.0 
0.0 0.0 0.0 
0.0 0.0 0.0 
0.0 0.0 0.0 
0.0 0.0 0.0 
0.0 0.0 0.0 
0.0 0.0 0.0 
0.0 0.0 0.0 
0.0 0.0 0.0 
0.0 0.0 0.0 
0.0 0.0 0.0 
0.0 0.0 0.0 
0.0 0.0 0.0 
0.0 0.0 0.0 
0.0 0.0 0.0 
0.0 0.0 0.0 
0.0 0.0 0.0 
0.0 0.0 0.0 
0.0 0.0 0.0 
0.0 0.0 0.0 
0.0 0.0 0.0 
0.0 0.0 0.0 
0.0 0.0 0.0 
0.0 0.0 0.0 
0.0 0.0 0.0 
0.0 0.0 0.0 
0.0 0.0 0.0 
0.0 0.0 0.0 
0.0 0.0 0.0 
0.0 0.0 0.0 
0.0 0.0 0.0 
0.0 0.0 0.0 
0.0 0.0 0.0 
0.0 0.0 0.0 
0.0 0.0 0.0 
0.0 0.0 0.0 
0.0 0.0 0.0 
0.0 0.0 0.0 
0.0 0.0 0.0 
0.0 0.0 0.0 
0.0 0.0 0.0 
0.0 0.0 0.0 
0.0 0.0 0.0 
0.0 0.0 0.0 
0.0 0.0 0.0 
0.0 0.0 0.0 
0.0 0.0 0.0 
0.0 0.0 0.0 
0.0 0.0 0.0 
0.0 0.0 0.0 
0.0 0.0 0.0 
0.0 0.0 0.0 
0.0 0.0 0.0 
0.0 0.0 0.0 
0.0 0.0 0.0 
0.0 0.0 0.0 
0.0 0.0 0.0 
0.0 0.0 0.0 
0.0 0.0 0.0 
0.0 0.0 0.0 
0.0 0.0 0.0 
0.0 0.0 0.0 
0.0 0.0 0.0 
0.0 0.0 0.0 
0.0 0.0 0.0 
0.0 0.0 0.0 
0.0 0.0 0.0 
0.0 0.0 0.0 
0.0 0.0 0.0 
0.0 0.0 0.0 
0.0 0.0 0.0 
0.0 0.0 0.0 
0.0 0.0 0.0 
0.0 0.0 0.0 
0.0 0.0 0.0 
0.0 0.0 0.0 
0.0 0.0 0.0 
0.0 0.0 0.0 
0.0 0.0 0.0 
0.0 0.0 0.0 
0.0 0.0 0.0 
0.0 0.0 0.0 
0.0 0.0 0.0 
0.0 0.0 0.0 
0.0 0.0 0.0 
0.0 0.0 0.0 
0.0 0.0 0.0 
0.0 0.0 0.0 
0.0 0.0 0.0 
0.0 0.0 0.0 
0.0 0.0 0.0 
0.0 0.0 0.0 
0.0 0.0 0.0 
0.0 0.0 0.0 
0.0 0.0 0.0 
0.0 0.0 0.0 
0.0 0.0 0.0 
0.0 0.0 0.0 
0.0 0.0 0.0 
0.0 0.0 0.0 
0.0 0.0 0.0 
0.0 0.0 0.0 
0.0 0.0 0.0 
0.0 0.0 0.0 
0.0 0.0 0.0 
0.0 0.0 0.0 
0.0 0.0 0.0 
0.0 0.0 0.0 
0.0 0.0 0.0 
0.0 0.0 0.0 
0.0 0.0 0.0 
0.0 0.0 0.0 
0.0 0.0 0.0 
0.0 0.0 0.0 
0.0 0.0 0.0 
0.0 0.0 0.0 
0.0 0.0 0.0 
0.0 0.0 0.0 
0.0 0.0 0.0 
0.0 0.0 0.0 
0.0 0.0 0.0 
0.0 0.0 0.0 
0.0 0.0 0.0 
0.0 0.0 0.0 
0.0 0.0 0.0 
0.0 0.0 0.0 
0.0 0.0 0.0 
0.0 0.0 0.0 
0.0 0.0 0.0 
0.0 0.0 0.0 
0.0 0.0 0.0 
0.0 0.0 0.0 
0.0 0.0 0.0 
0.0 0.0 0.0 
0.0 0.0 0.0 
0.0 0.0 0.0 
0.0 0.0 0.0 
0.0 0.0 0.0 
0.0 0.0 0.0 
0.0 0.0 0.0 
0.0 0.0 0.0 
0.0 0.0 0.0 
0.0 0.0 0.0 
0.0 0.0 0.0 
0.0 0.0 0.0 
0.0 0.0 0.0 
0.0 0.0 0.0 
0.0 0.0 0.0 
0.0 0.0 0.0 
0.0 0.0 0.0 
0.0 0.0 0.0 
0.0 0.0 0.0 
0.0 0.0 0.0 
0.0 0.0 0.0 
0.0 0.0 0.0 
0.0 0.0 0.0 
0.0 0.0 0.0 
0.0 0.0 0.0 
0.0 0.0 0.0 
0.0 0.0 0.0 
0.0 0.0 0.0 
0.0 0.0 0.0 
0.0 0.0 0.0 
0.0 0.0 0.0 
0.0 0.0 0.0 
0.0 0.0 0.0 
0.0 0.0 0.0 
0.0 0.0 0.0 
0.0 0.0 0.0 
0.0 0.0 0.0 
0.0 0.0 0.0 
0.0 0.0 0.0 
0.0 0.0 0.0 
0.0 0.0 0.0 
0.0 0.0 0.0 
0.0 0.0 0.0 
0.0 0.0 0.0 
0.0 0.0 0.0 
0.0 0.0 0.0 
0.0 0.0 0.0 
0.0 0.0 0.0 
0.0 0.0 0.0 
0.0 0.0 0.0 
0.0 0.0 0.0 
0.0 0.0 0.0 
0.0 0.0 0.0 
0.0 0.0 0.0 
0.0 0.0 0.0 
0.0 0.0 0.0 
0.0 0.0 0.0 
0.0 0.0 0.0 
0.0 0.0 0.0 
0.0 0.0 0.0 
0.0 0.0 0.0 
0.0 0.0 0.0 
0.0 0.0 0.0 
0.0 0.0 0.0 
0.0 0.0 0.0 
0.0 0.0 0.0 
0.0 0.0 0.0 
0.0 0.0 0.0 
0.0 0.0 0.0 
0.0 0.0 0.0 
0.0 0.0 0.0 
0.0 0.0 0.0 
0.0 0.0 0.0 
0.0 0.0 0.0 
0.0 0.0 0.0 
0.0 0.0 0.0 
0.0 0.0 0.0 
0.0 0.0 0.0 
0.0 0.0 0.0 
0.0 0.0 0.0 
0.0 0.0 0.0 
0.0 0.0 0.0 
0.0 0.0 0.0 
0.0 0.0 0.0 
0.0 0.0 0.0 
0.0 0.0 0.0 
0.0 0.0 0.0 
0.0 0.0 0.0 
0.0 0.0 0.0 
0.0 0.0 0.0 
0.0 0.0 0.0 
0.0 0.0 0.0 
0.0 0.0 0.0 
0.0 0.0 0.0 
0.0 0.0 0.0 
0.0 0.0 0.0 
0.0 0.0 0.0 
0.0 0.0 0.0 
0.0 0.0 0.0 
0.0 0.0 0.0 
0.0 0.0 0.0 
0.0 0.0 0.0 
0.0 0.0 0.0 
0.0 0.0 0.0 
0.0 0.0 0.0 
0.0 0.0 0.0 
0.0 0.0 0.0 
0.0 0.0 0.0 
0.0 0.0 0.0 
0.0 0.0 0.0 
0.0 0.0 0.0 
0.0 0.0 0.0 
0.0 0.0 0.0 
0.0 0.0 0.0 
0.0 0.0 0.0 
0.0 0.0 0.0 
0.0 0.0 0.0 
0.0 0.0 0.0 
0.0 0.0 0.0 
0.0 0.0 0.0 
0.0 0.0 0.0 
0.0 0.0 0.0 
0.0 0.0 0.0 
0.0 0.0 0.0 
0.0 0.0 0.0 
0.0 0.0 0.0 
0.0 0.0 0.0 
0.0 0.0 0.0 
0.0 0.0 0.0 
0.0 0.0 0.0 
0.0 0.0 0.0 
0.0 0.0 0.0 
0.0 0.0 0.0 
0.0 0.0 0.0 
0.0 0.0 0.0 
0.0 0.0 0.0 
0.0 0.0 0.0 
0.0 0.0 0.0 
0.0 0.0 0.0 
0.0 0.0 0.0 
0.0 0.0 0.0 
0.0 0.0 0.0 
0.0 0.0 0.0 
0.0 0.0 0.0 
0.0 0.0 0.0 
0.0 0.0 0.0 
0.0 0.0 0.0 
0.0 0.0 0.0 
0.0 0.0 0.0 
0.0 0.0 0.0 
0.0 0.0 0.0 
0.0 0.0 0.0 
0.0 0.0 0.0 
0.0 0.0 0.0 
0.0 0.0 0.0 
0.0 0.0 0.0 
0.0 0.0 0.0 
0.0 0.0 0.0 
0.0 0.0 0.0 
0.0 0.0 0.0 
0.0 0.0 0.0 
0.0 0.0 0.0 
0.0 0.0 0.0 
0.0 0.0 0.0 
0.0 0.0 0.0 
0.0 0.0 0.0 
0.0 0.0 0.0 
0.0 0.0 0.0 
0.0 0.0 0.0 
0.0 0.0 0.0 
0.0 0.0 0.0 
0.0 0.0 0.0 
0.0 0.0 0.0 
0.0 0.0 0.0 
0.0 0.0 0.0 
0.0 0.0 0.0 
0.0 0.0 0.0 
0.0 0.0 0.0 
0.0 0.0 0.0 
0.0 0.0 0.0 
0.0 0.0 0.0 
0.0 0.0 0.0 
0.0 0.0 0.0 
0.0 0.0 0.0 
0.0 0.0 0.0 
0.0 0.0 0.0 
0.0 0.0 0.0 
0.0 0.0 0.0 
0.0 0.0 0.0 
0.0 0.0 0.0 
0.0 0.0 0.0 
0.0 0.0 0.0 
0.0 0.0 0.0 
0.0 0.0 0.0 
0.0 0.0 0.0 
0.0 0.0 0.0 
0.0 0.0 0.0 
0.0 0.0 0.0 
0.0 0.0 0.0 
0.0 0.0 0.0 
0.0 0.0 0.0 
0.0 0.0 0.0 
0.0 0.0 0.0 
0.0 0.0 0.0 
0.0 0.0 0.0 
0.0 0.0 0.0 
0.0 0.0 0.0 
0.0 0.0 0.0 
0.0 0.0 0.0 
0.0 0.0 0.0 
0.0 0.0 0.0 
0.0 0.0 0.0 
0.0 0.0 0.0 
0.0 0.0 0.0 
0.0 0.0 0.0 
0.0 0.0 0.0 
0.0 0.0 0.0 
0.0 0.0 0.0 
0.0 0.0 0.0 
0.0 0.0 0.0 
0.0 0.0 0.0 
0.0 0.0 0.0 
0.0 0.0 0.0 
0.0 0.0 0.0 
0.0 0.0 0.0 
0.0 0.0 0.0 
0.0 0.0 0.0 
0.0 0.0 0.0 
0.0 0.0 0.0 
0.0 0.0 0.0 
0.0 0.0 0.0 
0.0 0.0 0.0 
0.0 0.0 0.0 
0.0 0.0 0.0 
0.0 0.0 0.0 
0.0 0.0 0.0 
0.0 0.0 0.0 
0.0 0.0 0.0 
0.0 0.0 0.0 
0.0 0.0 0.0 
0.0 0.0 0.0 
0.0 0.0 0.0 
0.0 0.0 0.0 
0.0 0.0 0.0 
0.0 0.0 0.0 
0.0 0.0 0.0 
0.0 0.0 0.0 
0.0 0.0 0.0 
0.0 0.0 0.0 
0.0 0.0 0.0 
0.0 0.0 0.0 
0.0 0.0 0.0 
0.0 0.0 0.0 
0.0 0.0 0.0 
0.0 0.0 0.0 
0.0 0.0 0.0 
0.0 0.0 0.0 
0.0 0.0 0.0 
0.0 0.0 0.0 
0.0 0.0 0.0 
0.0 0.0 0.0 
0.0 0.0 0.0 
0.0 0.0 0.0 
0.0 0.0 0.0 
0.0 0.0 0.0 
0.0 0.0 0.0 
0.0 0.0 0.0 
0.0 0.0 0.0 
0.0 0.0 0.0 
0.0 0.0 0.0 
0.0 0.0 0.0 
0.0 0.0 0.0 
0.0 0.0 0.0 
0.0 0.0 0.0 
0.0 0.0 0.0 
0.0 0.0 0.0 
0.0 0.0 0.0 
0.0 0.0 0.0 
0.0 0.0 0.0 
0.0 0.0 0.0 
0.0 0.0 0.0 
0.0 0.0 0.0 
0.0 0.0 0.0 
0.0 0.0 0.0 
0.0 0.0 0.0 
0.0 0.0 0.0 
0.0 0.0 0.0 
0.0 0.0 0.0 
0.0 0.0 0.0 
0.0 0.0 0.0 
0.0 0.0 0.0 
0.0 0.0 0.0 
0.0 0.0 0.0 
0.0 0.0 0.0 
0.0 0.0 0.0 
0.0 0.0 0.0 
0.0 0.0 0.0 
0.0 0.0 0.0 
0.0 0.0 0.0 
0.0 0.0 0.0 
0.0 0.0 0.0 
0.0 0.0 0.0 
0.0 0.0 0.0 
0.0 0.0 0.0 
0.0 0.0 0.0 
0.0 0.0 0.0 
0.0 0.0 0.0 
0.0 0.0 0.0 
0.0 0.0 0.0 
0.0 0.0 0.0 
0.0 0.0 0.0 
0.0 0.0 0.0 
0.0 0.0 0.0 
0.0 0.0 0.0 
0.0 0.0 0.0 
0.0 0.0 0.0 
0.0 0.0 0.0 
0.0 0.0 0.0 
0.0 0.0 0.0 
0.0 0.0 0.0 
0.0 0.0 0.0 
0.0 0.0 0.0 
0.0 0.0 0.0 
0.0 0.0 0.0 
0.0 0.0 0.0 
0.0 0.0 0.0 
0.0 0.0 0.0 
0.0 0.0 0.0 
0.0 0.0 0.0 
0.0 0.0 0.0 
0.0 0.0 0.0 
0.0 0.0 0.0 
0.0 0.0 0.0 
0.0 0.0 0.0 
0.0 0.0 0.0 
0.0 0.0 0.0 
0.0 0.0 0.0 
0.0 0.0 0.0 
0.0 0.0 0.0 
0.0 0.0 0.0 
0.0 0.0 0.0 
0.0 0.0 0.0 
0.0 0.0 0.0 
0.0 0.0 0.0 
0.0 0.0 0.0 
0.0 0.0 0.0 
0.0 0.0 0.0 
0.0 0.0 0.0 
0.0 0.0 0.0 
0.0 0.0 0.0 
0.0 0.0 0.0 
0.0 0.0 0.0 
0.0 0.0 0.0 
0.0 0.0 0.0 
0.0 0.0 0.0 
0.0 0.0 0.0 
0.0 0.0 0.0 
0.0 0.0 0.0 
0.0 0.0 0.0 
0.0 0.0 0.0 
0.0 0.0 0.0 
0.0 0.0 0.0 
0.0 0.0 0.0 
0.0 0.0 0.0 
0.0 0.0 0.0 
0.0 0.0 0.0 
0.0 0.0 0.0 
0.0 0.0 0.0 
0.0 0.0 0.0 
0.0 0.0 0.0 
0.0 0.0 0.0 
0.0 0.0 0.0 
0.0 0.0 0.0 
0.0 0.0 0.0 
0.0 0.0 0.0 
0.0 0.0 0.0 
0.0 0.0 0.0 
0.0 0.0 0.0 
0.0 0.0 0.0 
0.0 0.0 0.0 
0.0 0.0 0.0 
0.0 0.0 0.0 
0.0 0.0 0.0 
0.0 0.0 0.0 
0.0 0.0 0.0 
0.0 0.0 0.0 
0.0 0.0 0.0 
0.0 0.0 0.0 
0.0 0.0 0.0 
0.0 0.0 0.0 
0.0 0.0 0.0 
0.0 0.0 0.0 
0.0 0.0 0.0 
0.0 0.0 0.0 
0.0 0.0 0.0 
0.0 0.0 0.0 
0.0 0.0 0.0 
0.0 0.0 0.0 
0.0 0.0 0.0 
0.0 0.0 0.0 
0.0 0.0 0.0 
0.0 0.0 0.0 
0.0 0.0 0.0 
0.0 0.0 0.0 
0.0 0.0 0.0 
0.0 0.0 0.0 
0.0 0.0 0.0 
0.0 0.0 0.0 
0.0 0.0 0.0 
0.0 0.0 0.0 
0.0 0.0 0.0 
0.0 0.0 0.0 
0.0 0.0 0.0 
0.0 0.0 0.0 
0.0 0.0 0.0 
0.0 0.0 0.0 
0.0 0.0 0.0 
0.0 0.0 0.0 
0.0 0.0 0.0 
0.0 0.0 0.0 
0.0 0.0 0.0 
0.0 0.0 0.0 
0.0 0.0 0.0 
0.0 0.0 0.0 
0.0 0.0 0.0 
0.0 0.0 0.0 
0.0 0.0 0.0 
0.0 0.0 0.0 
0.0 0.0 0.0 
0.0 0.0 0.0 
0.0 0.0 0.0 
0.0 0.0 0.0 
0.0 0.0 0.0 
0.0 0.0 0.0 
0.0 0.0 0.0 
0.0 0.0 0.0 
0.0 0.0 0.0 
0.0 0.0 0.0 
0.0 0.0 0.0 
0.0 0.0 0.0 
0.0 0.0 0.0 
0.0 0.0 0.0 
0.0 0.0 0.0 
0.0 0.0 0.0 
0.0 0.0 0.0 
0.0 0.0 0.0 
0.0 0.0 0.0 
0.0 0.0 0.0 
0.0 0.0 0.0 
0.0 0.0 0.0 
0.0 0.0 0.0 
0.0 0.0 0.0 
0.0 0.0 0.0 
0.0 0.0 0.0 
0.0 0.0 0.0 
0.0 0.0 0.0 
0.0 0.0 0.0 
0.0 0.0 0.0 
0.0 0.0 0.0 
0.0 0.0 0.0 
0.0 0.0 0.0 
0.0 0.0 0.0 
0.0 0.0 0.0 
0.0 0.0 0.0 
0.0 0.0 0.0 
0.0 0.0 0.0 
0.0 0.0 0.0 
0.0 0.0 0.0 
0.0 0.0 0.0 
0.0 0.0 0.0 
0.0 0.0 0.0 
0.0 0.0 0.0 
0.0 0.0 0.0 
0.0 0.0 0.0 
0.0 0.0 0.0 
0.0 0.0 0.0 
0.0 0.0 0.0 
0.0 0.0 0.0 
0.0 0.0 0.0 
0.0 0.0 0.0 
0.0 0.0 0.0 
0.0 0.0 0.0 
0.0 0.0 0.0 
0.0 0.0 0.0 
0.0 0.0 0.0 
0.0 0.0 0.0 
0.0 0.0 0.0 
0.0 0.0 0.0 
0.0 0.0 0.0 
0.0 0.0 0.0 
0.0 0.0 0.0 
0.0 0.0 0.0 
0.0 0.0 0.0 
0.0 0.0 0.0 
0.0 0.0 0.0 
0.0 0.0 0.0 
0.0 0.0 0.0 
0.0 0.0 0.0 
0.0 0.0 0.0 
0.0 0.0 0.0 
0.0 0.0 0.0 
0.0 0.0 0.0 
0.0 0.0 0.0 
0.0 0.0 0.0 
0.0 0.0 0.0 
0.0 0.0 0.0 
0.0 0.0 0.0 
0.0 0.0 0.0 
0.0 0.0 0.0 
0.0 0.0 0.0 
0.0 0.0 0.0 
0.0 0.0 0.0 
0.0 0.0 0.0 
0.0 0.0 0.0 
0.0 0.0 0.0 
0.0 0.0 0.0 
0.0 0.0 0.0 
0.0 0.0 0.0 
0.0 0.0 0.0 
0.0 0.0 0.0 
0.0 0.0 0.0 
0.0 0.0 0.0 
0.0 0.0 0.0 
0.0 0.0 0.0 
0.0 0.0 0.0 
0.0 0.0 0.0 
0.0 0.0 0.0 
0.0 0.0 0.0 
0.0 0.0 0.0 
0.0 0.0 0.0 
0.0 0.0 0.0 
0.0 0.0 0.0 
0.0 0.0 0.0 
0.0 0.0 0.0 
0.0 0.0 0.0 
0.0 0.0 0.0 
0.0 0.0 0.0 
0.0 0.0 0.0 
0.0 0.0 0.0 
0.0 0.0 0.0 
0.0 0.0 0.0 
0.0 0.0 0.0 
0.0 0.0 0.0 
0.0 0.0 0.0 
0.0 0.0 0.0 
0.0 0.0 0.0 
0.0 0.0 0.0 
0.0 0.0 0.0 
0.0 0.0 0.0 
0.0 0.0 0.0 
0.0 0.0 0.0 
0.0 0.0 0.0 
0.0 0.0 0.0 
0.0 0.0 0.0 
0.0 0.0 0.0 
0.0 0.0 0.0 
0.0 0.0 0.0 
0.0 0.0 0.0 
0.0 0.0 0.0 
0.0 0.0 0.0 
0.0 0.0 0.0 
0.0 0.0 0.0 
0.0 0.0 0.0 
0.0 0.0 0.0 
0.0 0.0 0.0 
0.0 0.0 0.0 
0.0 0.0 0.0 
0.0 0.0 0.0 
0.0 0.0 0.0 
0.0 0.0 0.0 
0.0 0.0 0.0 
0.0 0.0 0.0 
0.0 0.0 0.0 
0.0 0.0 0.0 
0.0 0.0 0.0 
0.0 0.0 0.0 
0.0 0.0 0.0 
0.0 0.0 0.0 
0.0 0.0 0.0 
0.0 0.0 0.0 
0.0 0.0 0.0 
0.0 0.0 0.0 
0.0 0.0 0.0 
0.0 0.0 0.0 
0.0 0.0 0.0 
0.0 0.0 0.0 
0.0 0.0 0.0 
0.0 0.0 0.0 
0.0 0.0 0.0 
0.0 0.0 0.0 
0.0 0.0 0.0 
0.0 0.0 0.0 
0.0 0.0 0.0 
0.0 0.0 0.0 
0.0 0.0 0.0 
0.0 0.0 0.0 
0.0 0.0 0.0 
0.0 0.0 0.0 
0.0 0.0 0.0 
0.0 0.0 0.0 
0.0 0.0 0.0 
0.0 0.0 0.0 
0.0 0.0 0.0 
0.0 0.0 0.0 
0.0 0.0 0.0 
0.0 0.0 0.0 
0.0 0.0 0.0 
0.0 0.0 0.0 
0.0 0.0 0.0 
0.0 0.0 0.0 
0.0 0.0 0.0 
0.0 0.0 0.0 
0.0 0.0 0.0 
0.0 0.0 0.0 
0.0 0.0 0.0 
0.0 0.0 0.0 
0.0 0.0 0.0 
0.0 0.0 0.0 
0.0 0.0 0.0 
0.0 0.0 0.0 
0.0 0.0 0.0 
0.0 0.0 0.0 
0.0 0.0 0.0 
0.0 0.0 0.0 
0.0 0.0 0.0 
0.0 0.0 0.0 
0.0 0.0 0.0 
0.0 0.0 0.0 
0.0 0.0 0.0 
0.0 0.0 0.0 
0.0 0.0 0.0 
0.0 0.0 0.0 
0.0 0.0 0.0 
0.0 0.0 0.0 
0.0 0.0 0.0 
0.0 0.0 0.0 
0.0 0.0 0.0 
0.0 0.0 0.0 
0.0 0.0 0.0 
0.0 0.0 0.0 
0.0 0.0 0.0 
0.0 0.0 0.0 
0.0 0.0 0.0 
0.0 0.0 0.0 
0.0 0.0 0.0 
0.0 0.0 0.0 
0.0 0.0 0.0 
0.0 0.0 0.0 
0.0 0.0 0.0 
0.0 0.0 0.0 
0.0 0.0 0.0 
0.0 0.0 0.0 
0.0 0.0 0.0 
0.0 0.0 0.0 
0.0 0.0 0.0 
0.0 0.0 0.0 
0.0 0.0 0.0 
0.0 0.0 0.0 
0.0 0.0 0.0 
0.0 0.0 0.0 
0.0 0.0 0.0 
0.0 0.0 0.0 
0.0 0.0 0.0 
0.0 0.0 0.0 
0.0 0.0 0.0 
0.0 0.0 0.0 
0.0 0.0 0.0 
0.0 0.0 0.0 
0.0 0.0 0.0 
0.0 0.0 0.0 
0.0 0.0 0.0 
0.0 0.0 0.0 
0.0 0.0 0.0 
0.0 0.0 0.0 
0.0 0.0 0.0 
0.0 0.0 0.0 
0.0 0.0 0.0 
0.0 0.0 0.0 
0.0 0.0 0.0 
0.0 0.0 0.0 
0.0 0.0 0.0 
0.0 0.0 0.0 
0.0 0.0 0.0 
0.0 0.0 0.0 
0.0 0.0 0.0 
0.0 0.0 0.0 
0.0 0.0 0.0 
0.0 0.0 0.0 
0.0 0.0 0.0 
0.0 0.0 0.0 
0.0 0.0 0.0 
0.0 0.0 0.0 
0.0 0.0 0.0 
0.0 0.0 0.0 
0.0 0.0 0.0 
0.0 0.0 0.0 
0.0 0.0 0.0 
0.0 0.0 0.0 
0.0 0.0 0.0 
0.0 0.0 0.0 
0.0 0.0 0.0 
0.0 0.0 0.0 
0.0 0.0 0.0 
0.0 0.0 0.0 
0.0 0.0 0.0 
0.0 0.0 0.0 
0.0 0.0 0.0 
0.0 0.0 0.0 
0.0 0.0 0.0 
0.0 0.0 0.0 
0.0 0.0 0.0 
0.0 0.0 0.0 
0.0 0.0 0.0 
0.0 0.0 0.0 
0.0 0.0 0.0 
0.0 0.0 0.0 
0.0 0.0 0.0 
0.0 0.0 0.0 
0.0 0.0 0.0 
0.0 0.0 0.0 
0.0 0.0 0.0 
0.0 0.0 0.0 
0.0 0.0 0.0 
0.0 0.0 0.0 
0.0 0.0 0.0 
0.0 0.0 0.0 
0.0 0.0 0.0 
0.0 0.0 0.0 
0.0 0.0 0.0 
0.0 0.0 0.0 
0.0 0.0 0.0 
0.0 0.0 0.0 
0.0 0.0 0.0 
0.0 0.0 0.0 
0.0 0.0 0.0 
0.0 0.0 0.0 
0.0 0.0 0.0 
0.0 0.0 0.0 
0.0 0.0 0.0 
0.0 0.0 0.0 
0.0 0.0 0.0 
0.0 0.0 0.0 
0.0 0.0 0.0 
0.0 0.0 0.0 
0.0 0.0 0.0 
0.0 0.0 0.0 
0.0 0.0 0.0 
0.0 0.0 0.0 
0.0 0.0 0.0 
0.0 0.0 0.0 
0.0 0.0 0.0 
0.0 0.0 0.0 
0.0 0.0 0.0 
0.0 0.0 0.0 
0.0 0.0 0.0 
0.0 0.0 0.0 
0.0 0.0 0.0 
0.0 0.0 0.0 
0.0 0.0 0.0 
0.0 0.0 0.0 
0.0 0.0 0.0 
0.0 0.0 0.0 
0.0 0.0 0.0 
0.0 0.0 0.0 
0.0 0.0 0.0 
0.0 0.0 0.0 
0.0 0.0 0.0 
0.0 0.0 0.0 
0.0 0.0 0.0 
0.0 0.0 0.0 
0.0 0.0 0.0 
0.0 0.0 0.0 
0.0 0.0 0.0 
0.0 0.0 0.0 
0.0 0.0 0.0 
0.0 0.0 0.0 
0.0 0.0 0.0 
0.0 0.0 0.0 
0.0 0.0 0.0 
0.0 0.0 0.0 
0.0 0.0 0.0 
0.0 0.0 0.0 
0.0 0.0 0.0 
0.0 0.0 0.0 
0.0 0.0 0.0 
0.0 0.0 0.0 
0.0 0.0 0.0 
0.0 0.0 0.0 
0.0 0.0 0.0 
0.0 0.0 0.0 
0.0 0.0 0.0 
0.0 0.0 0.0 
0.0 0.0 0.0 
0.0 0.0 0.0 
0.0 0.0 0.0 
0.0 0.0 0.0 
0.0 0.0 0.0 
0.0 0.0 0.0 
0.0 0.0 0.0 
0.0 0.0 0.0 
0.0 0.0 0.0 
0.0 0.0 0.0 
0.0 0.0 0.0 
0.0 0.0 0.0 
0.0 0.0 0.0 
0.0 0.0 0.0 
0.0 0.0 0.0 
0.0 0.0 0.0 
0.0 0.0 0.0 
0.0 0.0 0.0 
0.0 0.0 0.0 
0.0 0.0 0.0 
0.0 0.0 0.0 
0.0 0.0 0.0 
0.0 0.0 0.0 
0.0 0.0 0.0 
0.0 0.0 0.0 
0.0 0.0 0.0 
0.0 0.0 0.0 
0.0 0.0 0.0 
0.0 0.0 0.0 
0.0 0.0 0.0 
0.0 0.0 0.0 
0.0 0.0 0.0 
0.0 0.0 0.0 
0.0 0.0 0.0 
0.0 0.0 0.0 
0.0 0.0 0.0 
0.0 0.0 0.0 
0.0 0.0 0.0 
0.0 0.0 0.0 
0.0 0.0 0.0 
0.0 0.0 0.0 
0.0 0.0 0.0 
0.0 0.0 0.0 
0.0 0.0 0.0 
0.0 0.0 0.0 
0.0 0.0 0.0 
0.0 0.0 0.0 
0.0 0.0 0.0 
0.0 0.0 0.0 
0.0 0.0 0.0 
0.0 0.0 0.0 
0.0 0.0 0.0 
0.0 0.0 0.0 
0.0 0.0 0.0 
0.0 0.0 0.0 
0.0 0.0 0.0 
0.0 0.0 0.0 
0.0 0.0 0.0 
0.0 0.0 0.0 
0.0 0.0 0.0 
0.0 0.0 0.0 
0.0 0.0 0.0 
0.0 0.0 0.0 
0.0 0.0 0.0 
0.0 0.0 0.0 
0.0 0.0 0.0 
0.0 0.0 0.0 
0.0 0.0 0.0 
0.0 0.0 0.0 
0.0 0.0 0.0 
0.0 0.0 0.0 
0.0 0.0 0.0 
0.0 0.0 0.0 
0.0 0.0 0.0 
0.0 0.0 0.0 
0.0 0.0 0.0 
0.0 0.0 0.0 
0.0 0.0 0.0 
0.0 0.0 0.0 
0.0 0.0 0.0 
0.0 0.0 0.0 
0.0 0.0 0.0 
0.0 0.0 0.0 
0.0 0.0 0.0 
0.0 0.0 0.0 
0.0 0.0 0.0 
0.0 0.0 0.0 
0.0 0.0 0.0 
0.0 0.0 0.0 
0.0 0.0 0.0 
0.0 0.0 0.0 
0.0 0.0 0.0 
0.0 0.0 0.0 
0.0 0.0 0.0 
0.0 0.0 0.0 
0.0 0.0 0.0 
0.0 0.0 0.0 
0.0 0.0 0.0 
0.0 0.0 0.0 
0.0 0.0 0.0 
0.0 0.0 0.0 
0.0 0.0 0.0 
0.0 0.0 0.0 
0.0 0.0 0.0 
0.0 0.0 0.0 
0.0 0.0 0.0 
0.0 0.0 0.0 
0.0 0.0 0.0 
0.0 0.0 0.0 
0.0 0.0 0.0 
0.0 0.0 0.0 
0.0 0.0 0.0 
0.0 0.0 0.0 
0.0 0.0 0.0 
0.0 0.0 0.0 
0.0 0.0 0.0 
0.0 0.0 0.0 
0.0 0.0 0.0 
0.0 0.0 0.0 
0.0 0.0 0.0 
0.0 0.0 0.0 
0.0 0.0 0.0 
0.0 0.0 0.0 
0.0 0.0 0.0 
0.0 0.0 0.0 
0.0 0.0 0.0 
0.0 0.0 0.0 
0.0 0.0 0.0 
0.0 0.0 0.0 
0.0 0.0 0.0 
0.0 0.0 0.0 
0.0 0.0 0.0 
0.0 0.0 0.0 
0.0 0.0 0.0 
0.0 0.0 0.0 
0.0 0.0 0.0 
0.0 0.0 0.0 
0.0 0.0 0.0 
0.0 0.0 0.0 
0.0 0.0 0.0 
0.0 0.0 0.0 
0.0 0.0 0.0 
0.0 0.0 0.0 
0.0 0.0 0.0 
0.0 0.0 0.0 
0.0 0.0 0.0 
0.0 0.0 0.0 
0.0 0.0 0.0 
0.0 0.0 0.0 
0.0 0.0 0.0 
0.0 0.0 0.0 
0.0 0.0 0.0 
0.0 0.0 0.0 
0.0 0.0 0.0 
0.0 0.0 0.0 
0.0 0.0 0.0 
0.0 0.0 0.0 
0.0 0.0 0.0 
0.0 0.0 0.0 
0.0 0.0 0.0 
0.0 0.0 0.0 
0.0 0.0 0.0 
0.0 0.0 0.0 
0.0 0.0 0.0 
0.0 0.0 0.0 
0.0 0.0 0.0 
0.0 0.0 0.0 
0.0 0.0 0.0 
0.0 0.0 0.0 
0.0 0.0 0.0 
0.0 0.0 0.0 
0.0 0.0 0.0 
0.0 0.0 0.0 
0.0 0.0 0.0 
0.0 0.0 0.0 
0.0 0.0 0.0 
0.0 0.0 0.0 
0.0 0.0 0.0 
0.0 0.0 0.0 
0.0 0.0 0.0 
0.0 0.0 0.0 
0.0 0.0 0.0 
0.0 0.0 0.0 
0.0 0.0 0.0 
0.0 0.0 0.0 
0.0 0.0 0.0 
0.0 0.0 0.0 
0.0 0.0 0.0 
0.0 0.0 0.0 
0.0 0.0 0.0 
0.0 0.0 0.0 
0.0 0.0 0.0 
0.0 0.0 0.0 
0.0 0.0 0.0 
0.0 0.0 0.0 
0.0 0.0 0.0 
0.0 0.0 0.0 
0.0 0.0 0.0 
0.0 0.0 0.0 
0.0 0.0 0.0 
0.0 0.0 0.0 
0.0 0.0 0.0 
0.0 0.0 0.0 
0.0 0.0 0.0 
0.0 0.0 0.0 
0.0 0.0 0.0 
0.0 0.0 0.0 
0.0 0.0 0.0 
0.0 0.0 0.0 
0.0 0.0 0.0 
0.0 0.0 0.0 
0.0 0.0 0.0 
0.0 0.0 0.0 
0.0 0.0 0.0 
0.0 0.0 0.0 
0.0 0.0 0.0 
0.0 0.0 0.0 
0.0 0.0 0.0 
0.0 0.0 0.0 
0.0 0.0 0.0 
0.0 0.0 0.0 
0.0 0.0 0.0 
0.0 0.0 0.0 
0.0 0.0 0.0 
0.0 0.0 0.0 
0.0 0.0 0.0 
0.0 0.0 0.0 
0.0 0.0 0.0 
0.0 0.0 0.0 
0.0 0.0 0.0 
0.0 0.0 0.0 
0.0 0.0 0.0 
0.0 0.0 0.0 
0.0 0.0 0.0 
0.0 0.0 0.0 
0.0 0.0 0.0 
0.0 0.0 0.0 
0.0 0.0 0.0 
0.0 0.0 0.0 
0.0 0.0 0.0 
0.0 0.0 0.0 
0.0 0.0 0.0 
0.0 0.0 0.0 
0.0 0.0 0.0 
0.0 0.0 0.0 
0.0 0.0 0.0 
0.0 0.0 0.0 
0.0 0.0 0.0 
0.0 0.0 0.0 
0.0 0.0 0.0 
0.0 0.0 0.0 
0.0 0.0 0.0 
0.0 0.0 0.0 
0.0 0.0 0.0 
0.0 0.0 0.0 
0.0 0.0 0.0 
0.0 0.0 0.0 
0.0 0.0 0.0 
0.0 0.0 0.0 
0.0 0.0 0.0 
0.0 0.0 0.0 
0.0 0.0 0.0 
0.0 0.0 0.0 
0.0 0.0 0.0 
0.0 0.0 0.0 
0.0 0.0 0.0 
0.0 0.0 0.0 
0.0 0.0 0.0 
0.0 0.0 0.0 
0.0 0.0 0.0 
0.0 0.0 0.0 
0.0 0.0 0.0 
0.0 0.0 0.0 
0.0 0.0 0.0 
0.0 0.0 0.0 
0.0 0.0 0.0 
0.0 0.0 0.0 
0.0 0.0 0.0 
0.0 0.0 0.0 
0.0 0.0 0.0 
0.0 0.0 0.0 
0.0 0.0 0.0 
0.0 0.0 0.0 
0.0 0.0 0.0 
0.0 0.0 0.0 
0.0 0.0 0.0 
0.0 0.0 0.0 
0.0 0.0 0.0 
0.0 0.0 0.0 
0.0 0.0 0.0 
0.0 0.0 0.0 
0.0 0.0 0.0 
0.0 0.0 0.0 
0.0 0.0 0.0 
0.0 0.0 0.0 
0.0 0.0 0.0 
0.0 0.0 0.0 
0.0 0.0 0.0 
0.0 0.0 0.0 
0.0 0.0 0.0 
0.0 0.0 0.0 
0.0 0.0 0.0 
0.0 0.0 0.0 
0.0 0.0 0.0 
0.0 0.0 0.0 
0.0 0.0 0.0 
0.0 0.0 0.0 
0.0 0.0 0.0 
0.0 0.0 0.0 
0.0 0.0 0.0 
0.0 0.0 0.0 
0.0 0.0 0.0 
0.0 0.0 0.0 
0.0 0.0 0.0 
0.0 0.0 0.0 
0.0 0.0 0.0 
0.0 0.0 0.0 
0.0 0.0 0.0 
0.0 0.0 0.0 
0.0 0.0 0.0 
0.0 0.0 0.0 
0.0 0.0 0.0 
0.0 0.0 0.0 
0.0 0.0 0.0 
0.0 0.0 0.0 
0.0 0.0 0.0 
0.0 0.0 0.0 
0.0 0.0 0.0 
0.0 0.0 0.0 
0.0 0.0 0.0 
0.0 0.0 0.0 
0.0 0.0 0.0 
0.0 0.0 0.0 
0.0 0.0 0.0 
0.0 0.0 0.0 
0.0 0.0 0.0 
0.0 0.0 0.0 
0.0 0.0 0.0 
0.0 0.0 0.0 
0.0 0.0 0.0 
0.0 0.0 0.0 
0.0 0.0 0.0 
0.0 0.0 0.0 
0.0 0.0 0.0 
0.0 0.0 0.0 
0.0 0.0 0.0 
0.0 0.0 0.0 
0.0 0.0 0.0 
0.0 0.0 0.0 
0.0 0.0 0.0 
0.0 0.0 0.0 
0.0 0.0 0.0 
0.0 0.0 0.0 
0.0 0.0 0.0 
0.0 0.0 0.0 
0.0 0.0 0.0 
0.0 0.0 0.0 
0.0 0.0 0.0 
0.0 0.0 0.0 
0.0 0.0 0.0 
0.0 0.0 0.0 
0.0 0.0 0.0 
0.0 0.0 0.0 
0.0 0.0 0.0 
0.0 0.0 0.0 
0.0 0.0 0.0 
0.0 0.0 0.0 
0.0 0.0 0.0 
0.0 0.0 0.0 
0.0 0.0 0.0 
0.0 0.0 0.0 
0.0 0.0 0.0 
0.0 0.0 0.0 
0.0 0.0 0.0 
0.0 0.0 0.0 
0.0 0.0 0.0 
0.0 0.0 0.0 
0.0 0.0 0.0 
0.0 0.0 0.0 
0.0 0.0 0.0 
0.0 0.0 0.0 
0.0 0.0 0.0 
0.0 0.0 0.0 
0.0 0.0 0.0 
0.0 0.0 0.0 
0.0 0.0 0.0 
0.0 0.0 0.0 
0.0 0.0 0.0 
0.0 0.0 0.0 
0.0 0.0 0.0 
0.0 0.0 0.0 
0.0 0.0 0.0 
0.0 0.0 0.0 
0.0 0.0 0.0 
0.0 0.0 0.0 
0.0 0.0 0.0 
0.0 0.0 0.0 
0.0 0.0 0.0 
0.0 0.0 0.0 
0.0 0.0 0.0 
0.0 0.0 0.0 
0.0 0.0 0.0 
0.0 0.0 0.0 
0.0 0.0 0.0 
0.0 0.0 0.0 
0.0 0.0 0.0 
0.0 0.0 0.0 
0.0 0.0 0.0 
0.0 0.0 0.0 
0.0 0.0 0.0 
0.0 0.0 0.0 
0.0 0.0 0.0 
0.0 0.0 0.0 
0.0 0.0 0.0 
0.0 0.0 0.0 
0.0 0.0 0.0 
0.0 0.0 0.0 
0.0 0.0 0.0 
0.0 0.0 0.0 
0.0 0.0 0.0 
0.0 0.0 0.0 
0.0 0.0 0.0 
0.0 0.0 0.0 
0.0 0.0 0.0 
0.0 0.0 0.0 
0.0 0.0 0.0 
0.0 0.0 0.0 
0.0 0.0 0.0 
0.0 0.0 0.0 
0.0 0.0 0.0 
0.0 0.0 0.0 
0.0 0.0 0.0 
0.0 0.0 0.0 
0.0 0.0 0.0 
0.0 0.0 0.0 
0.0 0.0 0.0 
0.0 0.0 0.0 
0.0 0.0 0.0 
0.0 0.0 0.0 
0.0 0.0 0.0 
0.0 0.0 0.0 
0.0 0.0 0.0 
0.0 0.0 0.0 
0.0 0.0 0.0 
0.0 0.0 0.0 
0.0 0.0 0.0 
0.0 0.0 0.0 
0.0 0.0 0.0 
0.0 0.0 0.0 
0.0 0.0 0.0 
0.0 0.0 0.0 
0.0 0.0 0.0 
0.0 0.0 0.0 
0.0 0.0 0.0 
0.0 0.0 0.0 
0.0 0.0 0.0 
0.0 0.0 0.0 
0.0 0.0 0.0 
0.0 0.0 0.0 
0.0 0.0 0.0 
0.0 0.0 0.0 
0.0 0.0 0.0 
0.0 0.0 0.0 
0.0 0.0 0.0 
0.0 0.0 0.0 
0.0 0.0 0.0 
0.0 0.0 0.0 
0.0 0.0 0.0 
0.0 0.0 0.0 
0.0 0.0 0.0 
0.0 0.0 0.0 
0.0 0.0 0.0 
0.0 0.0 0.0 
0.0 0.0 0.0 
0.0 0.0 0.0 
0.0 0.0 0.0 
0.0 0.0 0.0 
0.0 0.0 0.0 
0.0 0.0 0.0 
0.0 0.0 0.0 
0.0 0.0 0.0 
0.0 0.0 0.0 
0.0 0.0 0.0 
0.0 0.0 0.0 
0.0 0.0 0.0 
0.0 0.0 0.0 
0.0 0.0 0.0 
0.0 0.0 0.0 
0.0 0.0 0.0 
0.0 0.0 0.0 
0.0 0.0 0.0 
0.0 0.0 0.0 
0.0 0.0 0.0 
0.0 0.0 0.0 
0.0 0.0 0.0 
0.0 0.0 0.0 
0.0 0.0 0.0 
0.0 0.0 0.0 
0.0 0.0 0.0 
0.0 0.0 0.0 
0.0 0.0 0.0 
0.0 0.0 0.0 
0.0 0.0 0.0 
0.0 0.0 0.0 
0.0 0.0 0.0 
0.0 0.0 0.0 
0.0 0.0 0.0 
0.0 0.0 0.0 
0.0 0.0 0.0 
0.0 0.0 0.0 
0.0 0.0 0.0 
0.0 0.0 0.0 
0.0 0.0 0.0 
0.0 0.0 0.0 
0.0 0.0 0.0 
0.0 0.0 0.0 
0.0 0.0 0.0 
0.0 0.0 0.0 
0.0 0.0 0.0 
0.0 0.0 0.0 
0.0 0.0 0.0 
0.0 0.0 0.0 
0.0 0.0 0.0 
0.0 0.0 0.0 
0.0 0.0 0.0 
0.0 0.0 0.0 
0.0 0.0 0.0 
0.0 0.0 0.0 
0.0 0.0 0.0 
0.0 0.0 0.0 
0.0 0.0 0.0 
0.0 0.0 0.0 
0.0 0.0 0.0 
0.0 0.0 0.0 
0.0 0.0 0.0 
0.0 0.0 0.0 
0.0 0.0 0.0 
0.0 0.0 0.0 
0.0 0.0 0.0 
0.0 0.0 0.0 
0.0 0.0 0.0 
0.0 0.0 0.0 
0.0 0.0 0.0 
0.0 0.0 0.0 
0.0 0.0 0.0 
0.0 0.0 0.0 
0.0 0.0 0.0 
0.0 0.0 0.0 
0.0 0.0 0.0 
0.0 0.0 0.0 
0.0 0.0 0.0 
0.0 0.0 0.0 
0.0 0.0 0.0 
0.0 0.0 0.0 
0.0 0.0 0.0 
0.0 0.0 0.0 
0.0 0.0 0.0 
0.0 0.0 0.0 
0.0 0.0 0.0 
0.0 0.0 0.0 
0.0 0.0 0.0 
0.0 0.0 0.0 
0.0 0.0 0.0 
0.0 0.0 0.0 
0.0 0.0 0.0 
0.0 0.0 0.0 
0.0 0.0 0.0 
0.0 0.0 0.0 
0.0 0.0 0.0 
0.0 0.0 0.0 
0.0 0.0 0.0 
0.0 0.0 0.0 
0.0 0.0 0.0 
0.0 0.0 0.0 
0.0 0.0 0.0 
0.0 0.0 0.0 
0.0 0.0 0.0 
0.0 0.0 0.0 
0.0 0.0 0.0 
0.0 0.0 0.0 
0.0 0.0 0.0 
0.0 0.0 0.0 
0.0 0.0 0.0 
0.0 0.0 0.0 
0.0 0.0 0.0 
0.0 0.0 0.0 
0.0 0.0 0.0 
0.0 0.0 0.0 
0.0 0.0 0.0 
0.0 0.0 0.0 
0.0 0.0 0.0 
0.0 0.0 0.0 
0.0 0.0 0.0 
0.0 0.0 0.0 
0.0 0.0 0.0 
0.0 0.0 0.0 
0.0 0.0 0.0 
0.0 0.0 0.0 
0.0 0.0 0.0 
0.0 0.0 0.0 
0.0 0.0 0.0 
0.0 0.0 0.0 
0.0 0.0 0.0 
0.0 0.0 0.0 
0.0 0.0 0.0 
0.0 0.0 0.0 
0.0 0.0 0.0 
0.0 0.0 0.0 
0.0 0.0 0.0 
0.0 0.0 0.0 
0.0 0.0 0.0 
0.0 0.0 0.0 
0.0 0.0 0.0 
0.0 0.0 0.0 
0.0 0.0 0.0 
0.0 0.0 0.0 
0.0 0.0 0.0 
0.0 0.0 0.0 
0.0 0.0 0.0 
0.0 0.0 0.0 
0.0 0.0 0.0 
0.0 0.0 0.0 
0.0 0.0 0.0 
0.0 0.0 0.0 
0.0 0.0 0.0 
0.0 0.0 0.0 
0.0 0.0 0.0 
0.0 0.0 0.0 
0.0 0.0 0.0 
0.0 0.0 0.0 
0.0 0.0 0.0 
0.0 0.0 0.0 
0.0 0.0 0.0 
0.0 0.0 0.0 
0.0 0.0 0.0 
0.0 0.0 0.0 
0.0 0.0 0.0 
0.0 0.0 0.0 
0.0 0.0 0.0 
0.0 0.0 0.0 
0.0 0.0 0.0 
0.0 0.0 0.0 
0.0 0.0 0.0 
0.0 0.0 0.0 
0.0 0.0 0.0 
0.0 0.0 0.0 
0.0 0.0 0.0 
0.0 0.0 0.0 
0.0 0.0 0.0 
0.0 0.0 0.0 
0.0 0.0 0.0 
0.0 0.0 0.0 
0.0 0.0 0.0 
0.0 0.0 0.0 
0.0 0.0 0.0 
0.0 0.0 0.0 
0.0 0.0 0.0 
0.0 0.0 0.0 
0.0 0.0 0.0 
0.0 0.0 0.0 
0.0 0.0 0.0 
0.0 0.0 0.0 
0.0 0.0 0.0 
0.0 0.0 0.0 
0.0 0.0 0.0 
0.0 0.0 0.0 
0.0 0.0 0.0 
0.0 0.0 0.0 
0.0 0.0 0.0 
0.0 0.0 0.0 
0.0 0.0 0.0 
0.0 0.0 0.0 
0.0 0.0 0.0 
0.0 0.0 0.0 
0.0 0.0 0.0 
0.0 0.0 0.0 
0.0 0.0 0.0 
0.0 0.0 0.0 
0.0 0.0 0.0 
0.0 0.0 0.0 
0.0 0.0 0.0 
0.0 0.0 0.0 
0.0 0.0 0.0 
0.0 0.0 0.0 
0.0 0.0 0.0 
0.0 0.0 0.0 
0.0 0.0 0.0 
0.0 0.0 0.0 
0.0 0.0 0.0 
0.0 0.0 0.0 
0.0 0.0 0.0 
0.0 0.0 0.0 
0.0 0.0 0.0 
0.0 0.0 0.0 
0.0 0.0 0.0 
0.0 0.0 0.0 
0.0 0.0 0.0 
0.0 0.0 0.0 
0.0 0.0 0.0 
0.0 0.0 0.0 
0.0 0.0 0.0 
0.0 0.0 0.0 
0.0 0.0 0.0 
0.0 0.0 0.0 
0.0 0.0 0.0 
0.0 0.0 0.0 
0.0 0.0 0.0 
0.0 0.0 0.0 
0.0 0.0 0.0 
0.0 0.0 0.0 
0.0 0.0 0.0 
0.0 0.0 0.0 
0.0 0.0 0.0 
0.0 0.0 0.0 
0.0 0.0 0.0 
0.0 0.0 0.0 
0.0 0.0 0.0 
0.0 0.0 0.0 
0.0 0.0 0.0 
0.0 0.0 0.0 
0.0 0.0 0.0 
0.0 0.0 0.0 
0.0 0.0 0.0 
0.0 0.0 0.0 
0.0 0.0 0.0 
0.0 0.0 0.0 
0.0 0.0 0.0 
0.0 0.0 0.0 
0.0 0.0 0.0 
0.0 0.0 0.0 
0.0 0.0 0.0 
0.0 0.0 0.0 
0.0 0.0 0.0 
0.0 0.0 0.0 
0.0 0.0 0.0 
0.0 0.0 0.0 
0.0 0.0 0.0 
0.0 0.0 0.0 
0.0 0.0 0.0 
0.0 0.0 0.0 
0.0 0.0 0.0 
0.0 0.0 0.0 
0.0 0.0 0.0 
0.0 0.0 0.0 
0.0 0.0 0.0 
0.0 0.0 0.0 
0.0 0.0 0.0 
0.0 0.0 0.0 
0.0 0.0 0.0 
0.0 0.0 0.0 
0.0 0.0 0.0 
0.0 0.0 0.0 
0.0 0.0 0.0 
0.0 0.0 0.0 
0.0 0.0 0.0 
0.0 0.0 0.0 
0.0 0.0 0.0 
0.0 0.0 0.0 
0.0 0.0 0.0 
0.0 0.0 0.0 
0.0 0.0 0.0 
0.0 0.0 0.0 
0.0 0.0 0.0 
0.0 0.0 0.0 
0.0 0.0 0.0 
0.0 0.0 0.0 
0.0 0.0 0.0 
0.0 0.0 0.0 
0.0 0.0 0.0 
0.0 0.0 0.0 
0.0 0.0 0.0 
0.0 0.0 0.0 
0.0 0.0 0.0 
0.0 0.0 0.0 
0.0 0.0 0.0 
0.0 0.0 0.0 
0.0 0.0 0.0 
0.0 0.0 0.0 
0.0 0.0 0.0 
0.0 0.0 0.0 
0.0 0.0 0.0 
0.0 0.0 0.0 
0.0 0.0 0.0 
0.0 0.0 0.0 
0.0 0.0 0.0 
0.0 0.0 0.0 
0.0 0.0 0.0 
0.0 0.0 0.0 
0.0 0.0 0.0 
0.0 0.0 0.0 
0.0 0.0 0.0 
0.0 0.0 0.0 
0.0 0.0 0.0 
0.0 0.0 0.0 
0.0 0.0 0.0 
0.0 0.0 0.0 
0.0 0.0 0.0 
0.0 0.0 0.0 
0.0 0.0 0.0 
0.0 0.0 0.0 
0.0 0.0 0.0 
0.0 0.0 0.0 
0.0 0.0 0.0 
0.0 0.0 0.0 
0.0 0.0 0.0 
0.0 0.0 0.0 
0.0 0.0 0.0 
0.0 0.0 0.0 

TENSORS element_materi_stress float
-4.861488420813e+01 1.315921629560e+01 0.0 
1.315921629560e+01 -7.031040037452e+01 0.0 
0.0 0.0 -3.133762543966e+01 
-5.186713593835e+01 1.702567993201e+01 0.0 
1.702567993201e+01 -6.810674250154e+01 0.0 
0.0 0.0 -3.304821390739e+01 
-1.404345087370e+02 1.320681895403e+01 0.0 
1.320681895403e+01 -3.233921518327e+02 0.0 
0.0 0.0 -1.387479981709e+02 
-1.333818067955e+02 2.251143882063e+00 0.0 
2.251143882063e+00 -3.060177903244e+02 0.0 
0.0 0.0 -1.314198791360e+02 
-8.253235645881e+01 8.002791309632e-01 0.0 
8.002791309632e-01 -1.680556390710e+02 0.0 
0.0 0.0 -7.477639865893e+01 
-3.616426056202e+01 2.961719672830e+01 0.0 
2.961719672830e+01 -9.446893807767e+01 0.0 
0.0 0.0 -3.997425206596e+01 
-8.193179812843e+01 8.938026999308e-02 0.0 
8.938026999308e-02 -1.680682694944e+02 0.0 
0.0 0.0 -7.460002028684e+01 
-5.160077577998e+01 1.875820292207e+01 0.0 
1.875820292207e+01 -6.942782991258e+01 0.0 
0.0 0.0 -3.248070694551e+01 
-8.277217512748e+01 2.521055680433e+00 0.0 
2.521055680433e+00 -1.687975253598e+02 0.0 
0.0 0.0 -7.507091014619e+01 
-1.327527241930e+02 1.559084750858e+00 0.0 
1.559084750858e+00 -3.044615656753e+02 0.0 
0.0 0.0 -1.307642869605e+02 
-1.162103972129e+02 -1.266390129076e+00 0.0 
-1.266390129076e+00 -2.590478246669e+02 0.0 
0.0 0.0 -1.093975517418e+02 
-4.229853545290e+01 1.565577452310e+01 0.0 
1.565577452310e+01 -5.068136104997e+01 0.0 
0.0 0.0 -2.505476130490e+01 
-1.575430936182e+02 -4.600203144624e-01 0.0 
-4.600203144624e-01 -3.719369393187e+02 0.0 
0.0 0.0 -1.584440098811e+02 
-9.155204655965e+01 3.272950841114e+00 0.0 
3.272950841114e+00 -1.864850811301e+02 0.0 
0.0 0.0 -8.301113830693e+01 
-1.615344423640e+02 1.396554700478e+00 0.0 
1.396554700478e+00 -3.800991058399e+02 0.0 
0.0 0.0 -1.620900644612e+02 
-1.355988313655e+02 1.169400126435e+00 0.0 
1.169400126435e+00 -3.141716651642e+02 0.0 
0.0 0.0 -1.345311489589e+02 
-8.221622150319e+01 2.416027507364e+00 0.0 
2.416027507364e+00 -1.644038728879e+02 0.0 
0.0 0.0 -7.358602831733e+01 
-2.825276560103e+01 1.936059067600e+01 0.0 
1.936059067600e+01 -1.110506495111e+02 0.0 
0.0 0.0 -4.413038131989e+01 
-2.308668522579e+01 -2.740183851500e-01 0.0 
-2.740183851500e-01 -7.703189691561e+01 0.0 
0.0 0.0 -2.963557464242e+01 
-3.330543601902e+01 -1.747457142232e+00 0.0 
-1.747457142232e+00 -7.974245670181e+01 0.0 
0.0 0.0 -3.133425785165e+01 
-1.338100848515e+02 3.578544475445e+00 0.0 
3.578544475445e+00 -3.053955520113e+02 0.0 
0.0 0.0 -1.313616910588e+02 
-5.469819210370e+01 1.009968079654e+01 0.0 
1.009968079654e+01 -8.145646811069e+01 0.0 
0.0 0.0 -3.610257696009e+01 
-6.198180251580e+01 1.237507557093e+01 0.0 
1.237507557093e+01 -9.449499218674e+01 0.0 
0.0 0.0 -4.175481160120e+01 
-1.449297527168e+02 9.175032802372e+00 0.0 
9.175032802372e+00 -3.534988432221e+02 0.0 
0.0 0.0 -1.491285787817e+02 
-9.949247722627e+01 4.959067932952e+00 0.0 
4.959067932952e+00 -2.056419403413e+02 0.0 
0.0 0.0 -9.114032527027e+01 
-1.209273582195e+02 -1.013236288974e-01 0.0 
-1.013236288974e-01 -2.728907892512e+02 0.0 
0.0 0.0 -1.153141589456e+02 
-7.822684713888e+01 4.638167111400e+00 0.0 
4.638167111400e+00 -1.495474764087e+02 0.0 
0.0 0.0 -6.793229706427e+01 
-1.469858900602e+02 1.655158942262e+01 0.0 
1.655158942262e+01 -3.464107874866e+02 0.0 
0.0 0.0 -1.476190032640e+02 
-1.008745769925e+02 7.444233382508e+00 0.0 
7.444233382508e+00 -2.065377217397e+02 0.0 
0.0 0.0 -9.182368961964e+01 
-1.489553936336e+02 7.618199965784e+00 0.0 
7.618199965784e+00 -3.620404023945e+02 0.0 
0.0 0.0 -1.528987388084e+02 
-4.057157142850e+01 -2.184413158906e+01 0.0 
-2.184413158906e+01 -9.906624620331e+01 0.0 
0.0 0.0 -3.831499471183e+01 
-1.534777200069e+01 4.430890219757e-01 0.0 
4.430890219757e-01 -2.487421780155e+01 0.0 
0.0 0.0 -1.166659694067e+01 
-1.415406374557e+02 1.303515121153e+01 0.0 
1.303515121153e+01 -3.238825070800e+02 0.0 
0.0 0.0 -1.392269433607e+02 
-1.348210096685e+02 8.065384065308e-01 0.0 
8.065384065308e-01 -3.221640172720e+02 0.0 
0.0 0.0 -1.366955080821e+02 
-1.555944535986e+02 4.732866626185e+00 0.0 
4.732866626185e+00 -3.714592741512e+02 0.0 
0.0 0.0 -1.577161183250e+02 
-1.646705727574e+02 6.853563324060e-01 0.0 
6.853563324060e-01 -3.889085311800e+02 0.0 
0.0 0.0 -1.656737311812e+02 
-1.650290299226e+02 3.613802019691e+00 0.0 
3.613802019691e+00 -3.888037848577e+02 0.0 
0.0 0.0 -1.657498444341e+02 
-1.496868894968e+02 1.240858804845e+01 0.0 
1.240858804845e+01 -3.587892112168e+02 0.0 
0.0 0.0 -1.521428302141e+02 
-7.413857008002e+01 1.882689890324e+00 0.0 
1.882689890324e+00 -1.491378325247e+02 0.0 
0.0 0.0 -6.658292078141e+01 
-7.386046787167e+01 -9.079835414682e-01 0.0 
-9.079835414682e-01 -1.496753214646e+02 0.0 
0.0 0.0 -6.666073680088e+01 
-6.959121343322e+01 9.662204316050e+00 0.0 
9.662204316050e+00 -1.132471277613e+02 0.0 
0.0 0.0 -4.998163979000e+01 
-1.581319727714e+02 5.465156634787e+00 0.0 
5.465156634787e+00 -3.756725488726e+02 0.0 
0.0 0.0 -1.597413564932e+02 
-4.098193763203e+01 2.054320669233e+01 0.0 
2.054320669233e+01 -4.820138747809e+01 0.0 
0.0 0.0 -2.355953344616e+01 
-7.987880230820e+01 4.389486978536e+00 0.0 
4.389486978536e+00 -1.503781613668e+02 0.0 
0.0 0.0 -6.836651929591e+01 
-1.294775728404e+02 9.592577253641e-01 0.0 
9.592577253641e-01 -2.946059182117e+02 0.0 
0.0 0.0 -1.268250473156e+02 
-4.552189415976e+01 2.436465071657e+01 0.0 
2.436465071657e+01 -4.990593744939e+01 0.0 
0.0 0.0 -2.514619225152e+01 
-3.724078067513e+01 -2.424905063966e+01 0.0 
-2.424905063966e+01 -9.538901013237e+01 0.0 
0.0 0.0 -3.895748954433e+01 
-1.291828086101e+02 6.032545979787e-01 0.0 
6.032545979787e-01 -2.960346145853e+02 0.0 
0.0 0.0 -1.271652269586e+02 
-3.502743114402e+01 -2.630920587089e+01 0.0 
-2.630920587089e+01 -5.768184848683e+01 0.0 
0.0 0.0 -2.815156463975e+01 
-8.900492161745e+01 4.322969264269e+00 0.0 
4.322969264269e+00 -1.776662375993e+02 0.0 
0.0 0.0 -7.960134776503e+01 
-6.594446067757e+01 1.087502341065e+01 0.0 
1.087502341065e+01 -1.042879046117e+02 0.0 
0.0 0.0 -4.488620699858e+01 
-3.718124618196e+01 -5.005123300644e-01 0.0 
-5.005123300644e-01 -9.711611521275e+01 0.0 
0.0 0.0 -3.882854727494e+01 
-4.488543278712e+01 -1.557985860390e+01 0.0 
-1.557985860390e+01 -1.261733290164e+02 0.0 
0.0 0.0 -4.679946598932e+01 
-6.339216855755e+01 7.330401487742e+00 0.0 
7.330401487742e+00 -1.015296360135e+02 0.0 
0.0 0.0 -4.432622958581e+01 
-1.387345714679e+02 1.050018448621e+01 0.0 
1.050018448621e+01 -3.190508306749e+02 0.0 
0.0 0.0 -1.369356206428e+02 
-6.168508681787e+01 -1.708856084292e+00 0.0 
-1.708856084292e+00 -1.299649254561e+02 0.0 
0.0 0.0 -5.317028780043e+01 
-4.764402092024e+01 -2.016737124829e+00 0.0 
-2.016737124829e+00 -1.004343175094e+02 0.0 
0.0 0.0 -4.063818366707e+01 
-1.344116889453e+02 -7.336948151159e-01 0.0 
-7.336948151159e-01 -3.220492330720e+02 0.0 
0.0 0.0 -1.365382766052e+02 
-1.966427396009e+01 -5.143452437695e-01 0.0 
-5.143452437695e-01 -5.921753573899e+01 0.0 
0.0 0.0 -2.186598504974e+01 
-1.360791906780e+02 2.981652707571e+00 0.0 
2.981652707571e+00 -3.144143723379e+02 0.0 
0.0 0.0 -1.347480689048e+02 
-5.976341859505e+01 -2.463566712181e+01 0.0 
-2.463566712181e+01 -9.400013804144e+01 0.0 
0.0 0.0 -4.715896727414e+01 
-1.395193247499e+02 1.399117231911e+01 0.0 
1.399117231911e+01 -3.343710774318e+02 0.0 
0.0 0.0 -1.417671206545e+02 
-6.760506722991e+01 2.165513874619e+01 0.0 
2.165513874619e+01 -1.220039736949e+02 0.0 
0.0 0.0 -5.457598103195e+01 
-3.948267814529e+01 -1.644218853689e+01 0.0 
-1.644218853689e+01 -1.125417964330e+02 0.0 
0.0 0.0 -3.862367324214e+01 
-1.573152690220e+02 1.634895880210e+00 0.0 
1.634895880210e+00 -3.717556408952e+02 0.0 
0.0 0.0 -1.583212729751e+02 
-5.917754797027e+01 8.466897037937e+00 0.0 
8.466897037937e+00 -9.117473966870e+01 0.0 
0.0 0.0 -3.953153314685e+01 
-4.484752683564e+01 -8.155084246019e+00 0.0 
-8.155084246019e+00 -1.195376541825e+02 0.0 
0.0 0.0 -5.055044118811e+01 
-1.426462914198e+02 1.426544604785e+01 0.0 
1.426544604785e+01 -3.254919397453e+02 0.0 
0.0 0.0 -1.400414693495e+02 
-4.225249517653e+01 -1.056691695203e+01 0.0 
-1.056691695203e+01 -7.133119200134e+01 0.0 
0.0 0.0 -2.847242797321e+01 
-1.441377024561e+02 1.548664073411e+01 0.0 
1.548664073411e+01 -3.351184315462e+02 0.0 
0.0 0.0 -1.433768402007e+02 
-1.236369023729e+02 -1.707332754770e-02 0.0 
-1.707332754770e-02 -2.838726245335e+02 0.0 
0.0 0.0 -1.199864958914e+02 
-1.411769104117e+02 7.206834358642e+00 0.0 
7.206834358642e+00 -3.307461242940e+02 0.0 
0.0 0.0 -1.411769104117e+02 
-1.409780459054e+02 1.547013894944e+01 0.0 
1.547013894944e+01 -3.317462105420e+02 0.0 
0.0 0.0 -1.414172769342e+02 
-1.167790721954e+01 -6.180495475245e-01 0.0 
-6.180495475245e-01 -2.984409113382e+01 0.0 
0.0 0.0 -9.681411307815e+00 
-6.807158433040e+01 -3.099561079469e+00 0.0 
-3.099561079469e+00 -1.349386766488e+02 0.0 
0.0 0.0 -5.549410468248e+01 
-1.357210164980e+02 6.241238930701e+00 0.0 
6.241238930701e+00 -3.096700226950e+02 0.0 
0.0 0.0 -1.332173117579e+02 
-1.408253274853e+02 1.126665640414e+01 0.0 
1.126665640414e+01 -3.208204813281e+02 0.0 
0.0 0.0 -1.380937426440e+02 
-4.377937623005e+01 2.921342859132e+01 0.0 
2.921342859132e+01 -4.878368014830e+01 0.0 
0.0 0.0 -2.370930718656e+01 
-2.086248038007e+01 -2.540683255374e+00 0.0 
-2.540683255374e+00 -5.871837627429e+01 0.0 
0.0 0.0 -2.196213946091e+01 
-4.456964900381e+01 2.730294797306e+01 0.0 
2.730294797306e+01 -4.936315708981e+01 0.0 
0.0 0.0 -2.387309677067e+01 
-4.361647658776e+01 -1.366708276308e+01 0.0 
-1.366708276308e+01 -7.219493125341e+01 0.0 
0.0 0.0 -2.918287337528e+01 
-8.164946426932e+01 2.044119604817e+00 0.0 
2.044119604817e+00 -1.636561607784e+02 0.0 
0.0 0.0 -7.319168751433e+01 
-5.848248576925e+01 1.418660343871e+01 0.0 
1.418660343871e+01 -8.578397277934e+01 0.0 
0.0 0.0 -3.880063607098e+01 
-4.979201555504e+01 1.193854799576e+01 0.0 
1.193854799576e+01 -6.945636379693e+01 0.0 
0.0 0.0 -3.249328274030e+01 
-8.729242351151e+01 2.861796479922e+00 0.0 
2.861796479922e+00 -1.792923003266e+02 0.0 
0.0 0.0 -7.957541715144e+01 
-8.634566582887e+01 7.714748386939e-01 0.0 
7.714748386939e-01 -1.788561974071e+02 0.0 
0.0 0.0 -7.916055897078e+01 
-1.259503763901e+02 4.371699330799e-01 0.0 
4.371699330799e-01 -2.921837463485e+02 0.0 
0.0 0.0 -1.236328930453e+02 
-1.310355246884e+02 -8.192056319375e-01 0.0 
-8.192056319375e-01 -3.136584693264e+02 0.0 
0.0 0.0 -1.329897318450e+02 
-1.230567176904e+02 1.359611970987e+01 0.0 
1.359611970987e+01 -2.704289803340e+02 0.0 
0.0 0.0 -1.176457094073e+02 
-8.313830313029e+01 3.140634678157e+00 0.0 
3.140634678157e+00 -1.675613095588e+02 0.0 
0.0 0.0 -7.480988380674e+01 
-1.822789136145e+01 -2.843355256094e+00 0.0 
-2.843355256094e+00 -2.662629603616e+01 0.0 
0.0 0.0 -1.243412793543e+01 
-8.568431507532e+01 5.247581520373e+00 0.0 
5.247581520373e+00 -1.677964698059e+02 0.0 
0.0 0.0 -7.564423546438e+01 
-1.115313520397e+02 1.175662990100e+00 0.0 
1.175662990100e+00 -2.473183305971e+02 0.0 
0.0 0.0 -1.072549047910e+02 
-1.110219907919e+02 5.304286023483e-01 0.0 
5.304286023483e-01 -2.439214453684e+02 0.0 
0.0 0.0 -1.060830308481e+02 
-1.439783461613e+02 7.919701057667e+00 0.0 
7.919701057667e+00 -3.324299909507e+02 0.0 
0.0 0.0 -1.425225011336e+02 
-1.547617816615e+02 1.464540462802e+01 0.0 
1.464540462802e+01 -3.661436675545e+02 0.0 
0.0 0.0 -1.558716347648e+02 
-8.244070982688e+01 3.056071949202e+00 0.0 
3.056071949202e+00 -1.635455435676e+02 0.0 
0.0 0.0 -7.339587601834e+01 
-1.557450547917e+02 5.200816570264e+00 0.0 
5.200816570264e+00 -3.750011138309e+02 0.0 
0.0 0.0 -1.588238505868e+02 
-9.306928161954e+01 8.692743902186e-01 0.0 
8.692743902186e-01 -1.983186231264e+02 0.0 
0.0 0.0 -8.701637142377e+01 
-6.470021733613e+01 2.048224694694e+01 0.0 
2.048224694694e+01 -1.083854432552e+02 0.0 
0.0 0.0 -4.800988356123e+01 
-7.932833038065e+01 2.168724612026e+00 0.0 
2.168724612026e+00 -1.588191700386e+02 0.0 
0.0 0.0 -7.104425012576e+01 
-1.610996352262e+02 -4.497664696122e-02 0.0 
-4.497664696122e-02 -3.797842995763e+02 0.0 
0.0 0.0 -1.618651804408e+02 
-1.162091588603e+02 1.479037031404e+01 0.0 
1.479037031404e+01 -2.894354038229e+02 0.0 
0.0 0.0 -1.212933688049e+02 
-1.402816013635e+02 1.569359407870e+01 0.0 
1.569359407870e+01 -3.350816750624e+02 0.0 
0.0 0.0 -1.422089829278e+02 
-5.661566006834e+01 2.751827509069e+01 0.0 
2.751827509069e+01 -1.128506701378e+02 0.0 
0.0 0.0 -4.801618533464e+01 
-5.014523420294e+01 -2.908379614608e+01 0.0 
-2.908379614608e+01 -7.810197738222e+01 0.0 
0.0 0.0 -3.622672259731e+01 
-1.482167733375e+02 1.131585711564e+00 0.0 
1.131585711564e+00 -3.517010027266e+02 0.0 
0.0 0.0 -1.495753328192e+02 
-1.181175836521e+02 8.214236199473e-01 0.0 
8.214236199473e-01 -2.631593315440e+02 0.0 
0.0 0.0 -1.139830745588e+02 
-5.264250673294e+01 -3.694013568916e+01 0.0 
-3.694013568916e+01 -7.194261571587e+01 0.0 
0.0 0.0 -3.853273410663e+01 
-1.606534310784e+02 1.939311476382e+00 0.0 
1.939311476382e+00 -3.779713251759e+02 0.0 
0.0 0.0 -1.611874268763e+02 
-1.178906033941e+02 1.183442961014e+01 0.0 
1.183442961014e+01 -2.594398768547e+02 0.0 
0.0 0.0 -1.127991440747e+02 
-1.188661220660e+01 9.014888714917e-02 0.0 
9.014888714917e-02 -2.151832774941e+01 0.0 
0.0 0.0 -7.855997149948e+00 
-7.471972926222e+01 2.408448035671e+01 0.0 
2.408448035671e+01 -1.679191628328e+02 0.0 
0.0 0.0 -7.327569326544e+01 
-8.223841466892e+01 7.488937873986e+00 0.0 
7.488937873986e+00 -1.503135268213e+02 0.0 
0.0 0.0 -6.822525643504e+01 
-8.323957707802e+01 -3.219071055822e+00 0.0 
-3.219071055822e+00 -1.659936155923e+02 0.0 
0.0 0.0 -6.864653346139e+01 
-5.954040779747e+01 2.159638708374e+01 0.0 
2.159638708374e+01 -9.841054443039e+01 0.0 
0.0 0.0 -4.538691196957e+01 
-6.661607772631e+01 2.287758984928e+01 0.0 
2.287758984928e+01 -1.218762956497e+02 0.0 
0.0 0.0 -5.368027579527e+01 
-1.590646401071e+02 3.091230849293e+00 0.0 
3.091230849293e+00 -3.780138854218e+02 0.0 
0.0 0.0 -1.607235576587e+02 
-9.071196137127e+01 -3.895285552728e-01 0.0 
-3.895285552728e-01 -1.917090956348e+02 0.0 
0.0 0.0 -8.432631710183e+01 
-6.313709532437e+01 2.476692536354e+01 0.0 
2.476692536354e+01 -1.168130699294e+02 0.0 
0.0 0.0 -5.208448251045e+01 
-3.380642446912e+01 -5.116369747806e+00 0.0 
-5.116369747806e+00 -6.294327202433e+01 0.0 
0.0 0.0 -2.404070843212e+01 
-8.607936939508e+01 5.287961614061e+00 0.0 
5.287961614061e+00 -1.677940979975e+02 0.0 
0.0 0.0 -7.576204021777e+01 
-1.182142616464e+02 1.246274822447e+00 0.0 
1.246274822447e+00 -2.645852608243e+02 0.0 
0.0 0.0 -1.144398567412e+02 
-6.159620552413e+01 2.526508098427e+01 0.0 
2.526508098427e+01 -1.161744348974e+02 0.0 
0.0 0.0 -5.095658540012e+01 
-4.400311085215e+01 3.409345315664e+01 0.0 
3.409345315664e+01 -5.486648474204e+01 0.0 
0.0 0.0 -2.690445821159e+01 
-7.653710825299e+01 8.236548426719e+00 0.0 
8.236548426719e+00 -1.320015015949e+02 0.0 
0.0 0.0 -5.951765218692e+01 
-7.990395456606e+01 -3.563009792368e+00 0.0 
-3.563009792368e+00 -1.637229120649e+02 0.0 
0.0 0.0 -6.758399926332e+01 
-7.073108654808e+01 5.867810938445e+00 0.0 
5.867810938445e+00 -1.209511839127e+02 0.0 
0.0 0.0 -5.418575350017e+01 
-1.376015667036e+02 5.478749717124e+00 0.0 
5.478749717124e+00 -3.179276851468e+02 0.0 
0.0 0.0 -1.362587755551e+02 
-4.289917288989e+01 3.335092113328e+01 0.0 
3.335092113328e+01 -7.699273629799e+01 0.0 
0.0 0.0 -3.100120805510e+01 
-1.189732774006e+02 -1.455769712460e+00 0.0 
-1.455769712460e+00 -2.715712554041e+02 0.0 
0.0 0.0 -1.146825859136e+02 
-1.329583050074e+02 4.731148575545e-01 0.0 
4.731148575545e-01 -3.059119498087e+02 0.0 
0.0 0.0 -1.312610764448e+02 
-8.085445390436e+01 1.420910179873e+01 0.0 
1.420910179873e+01 -1.457105061081e+02 0.0 
0.0 0.0 -6.299953606200e+01 
-7.334897655304e+01 8.828769174576e+00 0.0 
8.828769174576e+00 -1.229505328527e+02 0.0 
0.0 0.0 -5.501295908034e+01 
-1.545587404287e+02 3.154719277681e+00 0.0 
3.154719277681e+00 -3.710607916522e+02 0.0 
0.0 0.0 -1.572858596243e+02 
-1.579324892603e+02 1.432489743452e+00 0.0 
1.432489743452e+00 -3.726188795111e+02 0.0 
0.0 0.0 -1.587654106314e+02 
-1.245619077259e+02 -1.057424619071e+00 0.0 
-1.057424619071e+00 -2.920743238720e+02 0.0 
0.0 0.0 -1.234854473864e+02 
-8.373848107607e+01 1.486259562520e+01 0.0 
1.486259562520e+01 -1.548611627392e+02 0.0 
0.0 0.0 -6.739136057699e+01 
-1.548278652790e+02 7.812807694492e+00 0.0 
7.812807694492e+00 -3.737843834660e+02 0.0 
0.0 0.0 -1.581836746235e+02 
-7.692206854189e+01 1.163671548163e+01 0.0 
1.163671548163e+01 -1.337123644356e+02 0.0 
0.0 0.0 -5.770006927198e+01 
-1.354992041188e+02 4.281374556857e+00 0.0 
4.281374556857e+00 -3.122483979111e+02 0.0 
0.0 0.0 -1.339242806090e+02 
-1.446238324468e+02 1.568099057968e+01 0.0 
1.568099057968e+01 -3.348826102278e+02 0.0 
0.0 0.0 -1.434519328024e+02 
-9.215462815983e+01 5.504436664535e+00 0.0 
5.504436664535e+00 -1.861017557263e+02 0.0 
0.0 0.0 -8.307691516583e+01 
-1.030640637165e+02 6.152396726918e-01 0.0 
6.152396726918e-01 -2.229150208048e+02 0.0 
0.0 0.0 -9.739372535641e+01 
-7.698121845509e+01 1.440253670129e+01 0.0 
1.440253670129e+01 -1.340174928850e+02 0.0 
0.0 0.0 -5.787115948197e+01 
-6.751948188185e+01 6.411454129627e+00 0.0 
6.411454129627e+00 -1.118227684045e+02 0.0 
0.0 0.0 -4.955051911847e+01 
-8.754712967622e+01 1.470934322697e+01 0.0 
1.470934322697e+01 -1.663632993256e+02 0.0 
0.0 0.0 -7.144452788643e+01 
-6.218298344474e+01 2.611689186668e+01 0.0 
2.611689186668e+01 -1.331990309630e+02 0.0 
0.0 0.0 -5.617802153259e+01 
-7.952538488102e+01 1.775147539254e+00 0.0 
1.775147539254e+00 -1.614828852740e+02 0.0 
0.0 0.0 -7.190248104650e+01 
-6.945490245097e+01 2.293471718835e+01 0.0 
2.293471718835e+01 -1.644302216706e+02 0.0 
0.0 0.0 -6.909062595840e+01 
-1.340702287022e+01 -4.057676887423e-01 0.0 
-4.057676887423e-01 -2.569659632236e+01 0.0 
0.0 0.0 -1.051639555478e+01 
-8.440097422656e+01 3.422426012376e-01 0.0 
3.422426012376e-01 -1.763631985962e+02 0.0 
0.0 0.0 -7.782925184683e+01 
-1.780760188831e+01 -8.886646947369e-01 0.0 
-8.886646947369e-01 -5.973747703427e+01 0.0 
0.0 0.0 -2.221901782084e+01 
-7.942384744475e+01 7.852075937421e+00 0.0 
7.852075937421e+00 -1.413197829258e+02 0.0 
0.0 0.0 -6.395772696458e+01 
-1.577042470015e+02 7.349463738129e+00 0.0 
7.349463738129e+00 -3.750332690014e+02 0.0 
0.0 0.0 -1.594212548009e+02 
-5.945474083837e+01 2.722589100057e+01 0.0 
2.722589100057e+01 -1.138705454181e+02 0.0 
0.0 0.0 -5.019406483054e+01 
-1.277802553420e+02 -9.323086646424e-01 0.0 
-9.323086646424e-01 -3.023300083957e+02 0.0 
0.0 0.0 -1.280132168715e+02 
-4.717160275139e+01 2.158032346860e+01 0.0 
2.158032346860e+01 -5.368389774528e+01 0.0 
0.0 0.0 -2.701264320351e+01 
-1.166134475212e+02 1.318131720105e+01 0.0 
1.318131720105e+01 -2.893999925127e+02 0.0 
0.0 0.0 -1.214040320102e+02 
-7.872887932432e+01 4.520281091591e-01 0.0 
4.520281091591e-01 -1.627635477877e+02 0.0 
0.0 0.0 -7.204772813362e+01 
-6.992975982530e+01 2.478149611901e+01 0.0 
2.478149611901e+01 -1.636581575438e+02 0.0 
0.0 0.0 -6.950245491032e+01 
-1.389823013205e+02 1.094804524646e+00 0.0 
1.094804524646e+00 -3.317966672629e+02 0.0 
0.0 0.0 -1.408336905750e+02 
-3.870075965375e+01 -9.438095110122e+00 0.0 
-9.438095110122e+00 -6.402228890164e+01 0.0 
0.0 0.0 -2.729212893125e+01 
-1.479464035158e+02 -5.271403620061e-01 0.0 
-5.271403620061e-01 -3.513350403046e+02 0.0 
0.0 0.0 -1.493844331461e+02 
-8.822974441868e+01 8.221128446697e+00 0.0 
8.221128446697e+00 -1.694702336051e+02 0.0 
0.0 0.0 -7.573269043321e+01 
-1.587506268742e+02 1.324437886018e+00 0.0 
1.324437886018e+00 -3.765644876764e+02 0.0 
0.0 0.0 -1.601945343652e+02 
-7.810256082465e+01 9.389307687248e-02 0.0 
9.389307687248e-02 -1.616847344172e+02 0.0 
0.0 0.0 -7.153618857255e+01 
-6.215530621803e+01 2.716036372988e+01 0.0 
2.716036372988e+01 -1.300501895790e+02 0.0 
0.0 0.0 -5.664724696220e+01 
-7.707389577366e+01 5.272043435470e+00 0.0 
5.272043435470e+00 -1.395710670052e+02 0.0 
0.0 0.0 -6.315191624161e+01 
-1.168932999962e+02 -7.204880170598e-02 0.0 
-7.204880170598e-02 -2.602661227397e+02 0.0 
0.0 0.0 -1.098015234120e+02 
-4.358497003505e+01 1.783910866088e+01 0.0 
1.783910866088e+01 -5.317384618326e+01 0.0 
0.0 0.0 -2.578175127128e+01 
-6.462384888835e+01 2.262053244000e+01 0.0 
2.262053244000e+01 -1.598382755914e+02 0.0 
0.0 0.0 -6.529292641044e+01 
-1.072507761266e+02 2.244849176210e+00 0.0 
2.244849176210e+00 -2.337471675529e+02 0.0 
0.0 0.0 -1.018993831039e+02 
-7.853592695600e+01 -9.344383953469e-02 0.0 
-9.344383953469e-02 -1.616162038703e+02 0.0 
0.0 0.0 -7.164563924790e+01 
-6.830572122628e+01 2.562212230801e+01 0.0 
2.562212230801e+01 -1.486341635516e+02 0.0 
0.0 0.0 -6.496142221960e+01 
-7.411534175433e+01 5.563646599988e+00 0.0 
5.563646599988e+00 -1.301416679921e+02 0.0 
0.0 0.0 -5.864823338081e+01 
-1.285437286161e+02 1.386935431063e+01 0.0 
1.386935431063e+01 -2.935118804689e+02 0.0 
0.0 0.0 -1.262166827255e+02 
-8.892072636236e+01 -3.167128387657e+00 0.0 
-3.167128387657e+00 -1.835049663430e+02 0.0 
0.0 0.0 -7.615899148037e+01 
-1.482787936440e+02 1.558975907909e+01 0.0 
1.558975907909e+01 -3.485957090867e+02 0.0 
0.0 0.0 -1.486623508192e+02 
-1.453494537186e+02 1.650585340022e+01 0.0 
1.650585340022e+01 -3.371070620064e+02 0.0 
0.0 0.0 -1.443369547175e+02 
-5.764898576112e+01 1.994732669334e+01 0.0 
1.994732669334e+01 -8.708296675619e+01 0.0 
0.0 0.0 -3.944046996754e+01 
-9.140062571310e+01 -3.085303726134e+00 0.0 
-3.085303726134e+00 -1.842922758355e+02 0.0 
0.0 0.0 -7.698573327176e+01 
-1.348626547698e+02 1.050591217422e+01 0.0 
1.050591217422e+01 -3.343483189256e+02 0.0 
0.0 0.0 -1.403632921086e+02 
-7.335025389203e+01 1.207260178148e+01 0.0 
1.207260178148e+01 -1.230073515183e+02 0.0 
0.0 0.0 -5.369460417957e+01 
-5.129466617009e+01 2.012700547689e+01 0.0 
2.012700547689e+01 -7.495067050811e+01 0.0 
0.0 0.0 -3.599404049149e+01 
-8.429147776470e+01 6.631117234503e+00 0.0 
6.631117234503e+00 -1.593458861996e+02 0.0 
0.0 0.0 -7.164972428191e+01 
-6.840101336878e+01 2.430499927725e+01 0.0 
2.430499927725e+01 -1.527113969404e+02 0.0 
0.0 0.0 -6.415893259446e+01 
-1.342947640448e+02 2.575643252119e+00 0.0 
2.575643252119e+00 -3.108528626300e+02 0.0 
0.0 0.0 -1.331442880024e+02 
-1.181965432231e+02 1.035268767549e+01 0.0 
1.035268767549e+01 -2.581255030263e+02 0.0 
0.0 0.0 -1.124966138748e+02 
-1.435808350003e+02 -7.776213663182e-01 0.0 
-7.776213663182e-01 -3.417846346477e+02 0.0 
0.0 0.0 -1.452096408944e+02 
-4.543898181609e+01 2.658029356847e+01 0.0 
2.658029356847e+01 -4.984111728248e+01 0.0 
0.0 0.0 -2.469987723952e+01 
-6.026043667357e+01 2.147352107497e+01 0.0 
2.147352107497e+01 -1.567352511209e+02 0.0 
0.0 0.0 -6.188604739582e+01 
-1.217534072232e+02 1.133966710376e+01 0.0 
1.133966710376e+01 -2.690558204375e+02 0.0 
0.0 0.0 -1.168427682982e+02 
-8.649546237733e+01 2.778474594705e+01 0.0 
2.778474594705e+01 -7.846936983245e+01 0.0 
0.0 0.0 -4.975740801544e+01 
-7.261042729611e+01 9.145921258229e+00 0.0 
9.145921258229e+00 -1.227943591741e+02 0.0 
0.0 0.0 -5.365578522528e+01 
-1.255614348286e+02 7.838880752693e+00 0.0 
7.838880752693e+00 -3.180507093550e+02 0.0 
0.0 0.0 -1.326836432551e+02 
-1.787760439939e+01 -2.715671203611e-02 0.0 
-2.715671203611e-02 -4.224140643109e+01 0.0 
0.0 0.0 -1.553784943739e+01 
-1.389054244679e+02 1.080636402547e+01 0.0 
1.080636402547e+01 -3.170135159476e+02 0.0 
0.0 0.0 -1.363756821247e+02 
-1.075231717299e+02 7.235948286708e+00 0.0 
7.235948286708e+00 -2.269387993624e+02 0.0 
0.0 0.0 -9.993859132768e+01 
-7.639323138740e+01 -1.025167694770e+01 0.0 
-1.025167694770e+01 -1.799328974324e+02 0.0 
0.0 0.0 -7.463871609365e+01 
-1.240754361970e+02 6.554831886300e+00 0.0 
6.554831886300e+00 -3.172904678207e+02 0.0 
0.0 0.0 -1.320097712053e+02 
-9.266358165841e+01 6.295226389996e+00 0.0 
6.295226389996e+00 -1.838603053917e+02 0.0 
0.0 0.0 -8.255716611504e+01 
-9.804032023452e+01 6.108508164440e+00 0.0 
6.108508164440e+00 -1.985365291466e+02 0.0 
0.0 0.0 -8.857305481433e+01 
-1.500570765828e+02 8.418492639015e+00 0.0 
8.418492639015e+00 -3.621961616086e+02 0.0 
0.0 0.0 -1.532759714574e+02 
-6.234911734273e+01 -1.225406891158e+01 0.0 
-1.225406891158e+01 -1.337072510457e+02 0.0 
0.0 0.0 -5.520298400220e+01 
-9.055074988448e+01 1.658522422831e+01 0.0 
1.658522422831e+01 -1.791606380933e+02 0.0 
0.0 0.0 -7.665840577460e+01 
-9.197759767791e+01 9.835471587902e+00 0.0 
9.835471587902e+00 -1.801241863083e+02 0.0 
0.0 0.0 -7.998785331529e+01 
-1.124848292303e+02 8.951441323318e+00 0.0 
8.951441323318e+00 -2.379826069653e+02 0.0 
0.0 0.0 -1.047402308587e+02 
-9.215474478744e+01 1.025709461376e+01 0.0 
1.025709461376e+01 -1.795750346078e+02 0.0 
0.0 0.0 -8.060324391391e+01 
-8.591156752163e+01 9.070980627911e+00 0.0 
9.070980627911e+00 -1.597674918199e+02 0.0 
0.0 0.0 -7.207698572086e+01 
-9.974280224271e+01 1.475443329753e+01 0.0 
1.475443329753e+01 -2.625070112886e+02 0.0 
0.0 0.0 -1.090308907294e+02 
-1.251997137433e+02 1.535828111951e+01 0.0 
1.535828111951e+01 -2.821439410456e+02 0.0 
0.0 0.0 -1.218030964367e+02 
-5.926806603722e+01 2.630422594173e+01 0.0 
2.630422594173e+01 -9.142167273218e+01 0.0 
0.0 0.0 -4.633072873598e+01 
-5.681810947937e+01 1.831755437504e+01 0.0 
1.831755437504e+01 -8.653546940017e+01 0.0 
0.0 0.0 -4.032122896966e+01 
-6.431081581976e+01 1.854816981631e+01 0.0 
1.854816981631e+01 -1.072789138228e+02 0.0 
0.0 0.0 -4.854742856244e+01 
-8.617920185599e+01 1.643482758576e+01 0.0 
1.643482758576e+01 -1.668397837536e+02 0.0 
0.0 0.0 -7.191466825914e+01 
-1.232897907106e+02 1.211791305775e+01 0.0 
1.211791305775e+01 -2.692348540759e+02 0.0 
0.0 0.0 -1.173573934359e+02 
-3.727424240398e+01 2.276812963742e+01 0.0 
2.276812963742e+01 -1.162945486924e+02 0.0 
0.0 0.0 -4.411409119055e+01 
-1.210023865154e+02 6.238257711932e+00 0.0 
6.238257711932e+00 -3.091378157950e+02 0.0 
0.0 0.0 -1.286420606931e+02 
-7.848175345805e+01 1.548388431329e+00 0.0 
1.548388431329e+00 -1.603306005346e+02 0.0 
0.0 0.0 -7.124370619780e+01 
-6.503436970263e+01 2.417261136646e+01 0.0 
2.417261136646e+01 -1.608021069861e+02 0.0 
0.0 0.0 -6.614955847913e+01 
-1.167967481017e+02 4.616924077368e+00 0.0 
4.616924077368e+00 -2.999053290205e+02 0.0 
0.0 0.0 -1.246106231367e+02 
-1.426669661558e+01 3.856005321871e-01 0.0 
3.856005321871e-01 -2.822781026374e+01 0.0 
0.0 0.0 -1.088253094961e+01 
-1.146629930313e+02 7.883290605886e+00 0.0 
7.883290605886e+00 -2.470681928368e+02 0.0 
0.0 0.0 -1.081193557604e+02 
-1.445112538028e+01 -1.706019761601e-02 0.0 
-1.706019761601e-02 -2.405113592845e+01 0.0 
0.0 0.0 -9.920780649759e+00 
-1.435389320977e+01 -1.051239852554e+00 0.0 
-1.051239852554e+00 -4.272612492484e+01 0.0 
0.0 0.0 -1.511812922727e+01 
-4.183652359434e+01 2.413753287254e+01 0.0 
2.413753287254e+01 -4.845315160454e+01 0.0 
0.0 0.0 -2.333523816849e+01 
-5.468738433613e+01 -1.216614449219e+01 0.0 
-1.216614449219e+01 -1.130444549989e+02 0.0 
0.0 0.0 -4.672477779622e+01 
-1.195203556721e+02 9.546791495713e+00 0.0 
9.546791495713e+00 -2.580165133879e+02 0.0 
0.0 0.0 -1.128610607180e+02 
-5.207195194048e+01 -1.240373889830e+01 0.0 
-1.240373889830e+01 -1.057267762504e+02 0.0 
0.0 0.0 -4.381135078722e+01 
-4.883004953699e+01 2.961575794909e+01 0.0 
2.961575794909e+01 -9.153434670668e+01 0.0 
0.0 0.0 -3.821376712009e+01 
-5.150085247524e+01 -2.047041160000e+01 0.0 
-2.047041160000e+01 -1.109110489485e+02 0.0 
0.0 0.0 -4.289186229719e+01 
-3.951448534399e+01 -9.348212991851e+00 0.0 
-9.348212991851e+00 -7.126849799664e+01 0.0 
0.0 0.0 -2.990990038014e+01 
-1.290119398045e+02 7.958037650381e+00 0.0 
7.958037650381e+00 -3.254994304709e+02 0.0 
0.0 0.0 -1.359534110826e+02 
-8.954339913903e+01 1.072460443359e+01 0.0 
1.072460443359e+01 -1.700897020720e+02 0.0 
0.0 0.0 -7.626015862316e+01 
-1.570288957526e+02 -1.512965372167e-02 0.0 
-1.512965372167e-02 -3.717630439788e+02 0.0 
0.0 0.0 -1.582375819194e+02 
-6.529205886113e+01 1.224867904734e+01 0.0 
1.224867904734e+01 -1.092724067867e+02 0.0 
0.0 0.0 -5.291103921920e+01 
-5.313875902154e+01 2.893970031075e+01 0.0 
2.893970031075e+01 -1.102429788616e+02 0.0 
0.0 0.0 -4.554775707016e+01 
-7.137505152182e+01 2.273727154001e+01 0.0 
2.273727154001e+01 -1.780872815857e+02 0.0 
0.0 0.0 -7.439254178794e+01 
-6.840443397993e+01 1.032574707160e+01 0.0 
1.032574707160e+01 -1.126506382513e+02 0.0 
0.0 0.0 -4.886020160043e+01 
-1.192094721239e+02 5.105239304672e+00 0.0 
5.105239304672e+00 -3.082600515449e+02 0.0 
0.0 0.0 -1.278408571006e+02 
-1.595373796268e+02 8.893611605442e-01 0.0 
8.893611605442e-01 -3.783840686501e+02 0.0 
0.0 0.0 -1.609764344831e+02 
-1.161341357144e+02 1.156268522032e+01 0.0 
1.156268522032e+01 -2.488093590112e+02 0.0 
0.0 0.0 -1.090830484177e+02 
-5.056332726382e+01 2.059600681598e+01 0.0 
2.059600681598e+01 -1.387152359217e+02 0.0 
0.0 0.0 -5.125638830692e+01 
-1.299944366128e+02 9.129425745171e+00 0.0 
9.129425745171e+00 -3.259320046879e+02 0.0 
0.0 0.0 -1.363779323902e+02 
-1.222985779213e+02 -1.370109789442e+00 0.0 
-1.370109789442e+00 -2.813273667788e+02 0.0 
0.0 0.0 -1.189240997675e+02 
-8.965613427526e+01 1.527468402513e+01 0.0 
1.527468402513e+01 -1.752089144975e+02 0.0 
0.0 0.0 -7.651117991556e+01 
-1.110747677056e+02 8.231967286753e+00 0.0 
8.231967286753e+00 -2.369194364269e+02 0.0 
0.0 0.0 -1.039982612397e+02 
-1.439511706618e+02 1.592549549881e+01 0.0 
1.592549549881e+01 -3.404885888111e+02 0.0 
0.0 0.0 -1.449319278419e+02 
-6.673389803491e+01 1.994369221987e+01 0.0 
1.994369221987e+01 -1.735482054248e+02 0.0 
0.0 0.0 -7.006015513329e+01 
-4.826859030423e+01 2.882984278825e+01 0.0 
2.882984278825e+01 -9.024080825667e+01 0.0 
0.0 0.0 -3.747342318580e+01 
-9.817425846530e+01 1.118890878511e+01 0.0 
1.118890878511e+01 -1.991752208433e+02 0.0 
0.0 0.0 -8.880484379259e+01 
-1.433924230721e+02 6.658400395314e+00 0.0 
6.658400395314e+00 -3.320673246081e+02 0.0 
0.0 0.0 -1.422379243041e+02 
-8.823150970579e+01 1.751709598846e+01 0.0 
1.751709598846e+01 -1.792490321185e+02 0.0 
0.0 0.0 -7.661742944989e+01 
-8.129187819251e+01 1.461990160865e+01 0.0 
1.461990160865e+01 -2.184995955736e+02 0.0 
0.0 0.0 -9.280298699156e+01 
-8.623993928555e+01 8.942657387746e-01 0.0 
8.942657387746e-01 -1.802244019041e+02 0.0 
0.0 0.0 -7.953930235690e+01 
-4.527824374474e+01 -1.473284985918e+01 0.0 
-1.473284985918e+01 -6.948596757905e+01 0.0 
0.0 0.0 -2.801066384886e+01 
-9.033877576241e+01 7.800946991542e+00 0.0 
7.800946991542e+00 -1.783626985928e+02 0.0 
0.0 0.0 -7.977176215838e+01 
-5.474245096571e+01 2.426834675622e+01 0.0 
2.426834675622e+01 -1.428572052521e+02 0.0 
0.0 0.0 -5.602304333655e+01 
-4.162458780144e+01 2.035859910361e+01 0.0 
2.035859910361e+01 -1.290869203018e+02 0.0 
0.0 0.0 -4.862324025250e+01 
-4.144742776921e+01 -1.925759565078e+01 0.0 
-1.925759565078e+01 -1.179399692164e+02 0.0 
0.0 0.0 -4.455813390552e+01 
-1.180688027493e+02 7.569187513718e+00 0.0 
7.569187513718e+00 -2.570348357696e+02 0.0 
0.0 0.0 -1.121310915557e+02 
-9.534127469772e+01 1.168656459581e+01 0.0 
1.168656459581e+01 -1.900975187765e+02 0.0 
0.0 0.0 -8.482196895026e+01 
-6.610866751703e+01 2.641581552136e+01 0.0 
2.641581552136e+01 -1.347609609593e+02 0.0 
0.0 0.0 -5.937523431920e+01 
-1.228613937312e+02 9.184490864317e+00 0.0 
9.184490864317e+00 -2.679651687662e+02 0.0 
0.0 0.0 -1.168479687492e+02 
-1.195813900774e+02 1.257954011438e+01 0.0 
1.257954011438e+01 -2.593575870791e+02 0.0 
0.0 0.0 -1.132816931470e+02 
-9.270412853206e+01 1.435570530616e+01 0.0 
1.435570530616e+01 -1.836192113376e+02 0.0 
0.0 0.0 -8.081377126323e+01 
-1.605942339646e+02 2.250177382243e+00 0.0 
2.250177382243e+00 -3.787430520918e+02 0.0 
0.0 0.0 -1.614011858169e+02 
-8.625067952980e+01 1.395634562403e+01 0.0 
1.395634562403e+01 -2.349472790042e+02 0.0 
0.0 0.0 -1.008090743039e+02 
-9.548044184617e+01 1.362055351540e+01 0.0 
1.362055351540e+01 -1.921354870862e+02 0.0 
0.0 0.0 -8.497151827173e+01 
-7.479941033083e+01 2.188565965102e+01 0.0 
2.188565965102e+01 -1.718118627784e+02 0.0 
0.0 0.0 -7.236088861005e+01 
-8.797498493340e+01 1.344463588710e+01 0.0 
1.344463588710e+01 -2.357955040993e+02 0.0 
0.0 0.0 -1.010004700172e+02 
-4.618554090597e+01 1.810535213643e+01 0.0 
1.810535213643e+01 -1.411545220997e+02 0.0 
0.0 0.0 -5.279506919426e+01 
-8.388621074834e+01 4.250925494836e+00 0.0 
4.250925494836e+00 -1.654755145444e+02 0.0 
0.0 0.0 -7.440851758781e+01 
-6.882933838524e+01 1.676478880454e+01 0.0 
1.676478880454e+01 -1.860416937866e+02 0.0 
0.0 0.0 -7.479224321969e+01 
-5.566305541573e+01 -5.004162645905e+00 0.0 
-5.004162645905e+00 -1.635914070916e+02 0.0 
0.0 0.0 -6.285804096306e+01 
-1.147243275269e+02 9.344649792581e+00 0.0 
9.344649792581e+00 -2.476128679318e+02 0.0 
0.0 0.0 -1.083011586376e+02 
-1.215019407996e+02 5.211029028672e+00 0.0 
5.211029028672e+00 -1.012910013825e+02 0.0 
0.0 0.0 -6.711162382699e+01 
-9.477930534180e+01 9.899117188801e+00 0.0 
9.899117188801e+00 -1.888918978160e+02 0.0 
0.0 0.0 -8.470136094733e+01 
-5.580275393749e+01 2.007062363262e+01 0.0 
2.007062363262e+01 -1.563240708646e+02 0.0 
0.0 0.0 -6.049734148845e+01 
-4.843422156738e+01 2.735655473500e+01 0.0 
2.735655473500e+01 -1.072851845075e+02 0.0 
0.0 0.0 -4.185459397276e+01 
-4.310178864287e+01 1.201581374489e+01 0.0 
1.201581374489e+01 -1.378802407228e+02 0.0 
0.0 0.0 -5.012832082767e+01 
-1.006080507080e+02 1.007209586444e+01 0.0 
1.007209586444e+01 -2.089404853652e+02 0.0 
0.0 0.0 -9.246456082194e+01 
-2.413114291644e+01 -2.192618178312e+00 0.0 
-2.192618178312e+00 -4.198381521642e+01 0.0 
0.0 0.0 -1.599781107375e+01 
-6.882006483704e+01 1.564458670176e+01 0.0 
1.564458670176e+01 -1.156607434004e+02 0.0 
0.0 0.0 -5.143163262251e+01 
-9.268139848907e+01 1.257674843396e+01 0.0 
1.257674843396e+01 -2.510551140632e+02 0.0 
0.0 0.0 -1.082432416576e+02 
-9.411280861165e+01 9.305033878376e+00 0.0 
9.305033878376e+00 -1.889043491260e+02 0.0 
0.0 0.0 -8.403347738237e+01 
-9.178641457821e+01 5.484364128703e+00 0.0 
5.484364128703e+00 -1.837467895377e+02 0.0 
0.0 0.0 -8.225996123477e+01 
-3.424618892343e+01 2.044594833093e+01 0.0 
2.044594833093e+01 -1.212965206953e+02 0.0 
0.0 0.0 -4.917357409539e+01 
-5.278232202754e+01 2.020476210261e-01 0.0 
2.020476210261e-01 -1.631389775334e+02 0.0 
0.0 0.0 -6.112323236511e+01 
-5.522801066515e+01 -1.039712618420e+01 0.0 
-1.039712618420e+01 -1.543273249635e+02 0.0 
0.0 0.0 -5.943671880523e+01 
-6.132528477609e+01 1.780611635682e+01 0.0 
1.780611635682e+01 -9.491707035719e+01 0.0 
0.0 0.0 -4.239011080042e+01 
-1.125254276930e+02 1.052627040124e+01 0.0 
1.052627040124e+01 -2.381472550937e+02 0.0 
0.0 0.0 -1.048018048360e+02 
-6.904121574540e+01 1.829302275382e+01 0.0 
1.829302275382e+01 -1.165971659039e+02 0.0 
0.0 0.0 -5.113147964619e+01 
-6.801095206441e+01 1.761761726497e+01 0.0 
1.761761726497e+01 -1.861604110808e+02 0.0 
0.0 0.0 -7.508603951284e+01 
-6.649039117981e+01 2.111608075120e+01 0.0 
2.111608075120e+01 -1.741931000464e+02 0.0 
0.0 0.0 -7.075071670543e+01 
-3.237065225002e+01 1.593191436298e+01 0.0 
1.593191436298e+01 -1.137045540383e+02 0.0 
0.0 0.0 -4.384890054908e+01 
-8.136186185193e+01 2.248529617940e+01 0.0 
2.248529617940e+01 -1.873851400884e+02 0.0 
0.0 0.0 -8.151913406278e+01 
-4.309104099024e+01 3.034478780771e+01 0.0 
3.034478780771e+01 -7.067711450243e+01 0.0 
0.0 0.0 -2.929996561596e+01 
-1.466291733423e+02 1.162411740938e+01 0.0 
1.162411740938e+01 -3.377305615862e+02 0.0 
0.0 0.0 -1.449079204785e+02 
-1.470925440974e+02 1.347360414671e+01 0.0 
1.347360414671e+01 -3.399822991873e+02 0.0 
0.0 0.0 -1.457224529854e+02 
-9.301049952063e+01 1.799777006234e+01 0.0 
1.799777006234e+01 -1.923320568408e+02 0.0 
0.0 0.0 -8.239521422442e+01 
-5.044950789184e+01 2.161710156619e+01 0.0 
2.161710156619e+01 -1.417951669144e+02 0.0 
0.0 0.0 -5.382411972954e+01 
-4.469690708519e+01 2.644444713217e+01 0.0 
2.644444713217e+01 -1.066813833583e+02 0.0 
0.0 0.0 -3.944860483341e+01 
-9.860689372997e+01 1.286677881226e+01 0.0 
1.286677881226e+01 -2.027587549717e+02 0.0 
0.0 0.0 -8.881803966067e+01 
-4.522029852907e+01 2.238967756740e+01 0.0 
2.238967756740e+01 -1.233724664702e+02 0.0 
0.0 0.0 -4.471027816743e+01 
-5.051875882563e+01 -5.827650538355e+00 0.0 
-5.827650538355e+00 -1.532248337462e+02 0.0 
0.0 0.0 -5.704130999760e+01 
-9.043887076898e+01 1.330969257915e+01 0.0 
1.330969257915e+01 -1.743638533956e+02 0.0 
0.0 0.0 -7.590721285698e+01 
-1.368939086877e+02 4.830214461683e+00 0.0 
4.830214461683e+00 -3.134732662403e+02 0.0 
0.0 0.0 -1.347101524784e+02 
-6.026415365766e+01 2.262986496267e+01 0.0 
2.262986496267e+01 -1.583253943925e+02 0.0 
0.0 0.0 -6.318069592231e+01 
-1.019484421714e+02 1.349513351614e+01 0.0 
1.349513351614e+01 -2.632291979111e+02 0.0 
0.0 0.0 -1.121041124691e+02 
-4.657909584050e+01 3.025978624769e+01 0.0 
3.025978624769e+01 -9.234158089129e+01 0.0 
0.0 0.0 -3.743917718803e+01 
-1.623623016289e+02 1.044748128382e+01 0.0 
1.044748128382e+01 -3.861060611594e+02 0.0 
0.0 0.0 -1.641405088365e+02 
-4.991729044582e+01 2.596072012112e+01 0.0 
2.596072012112e+01 -1.273345531601e+02 0.0 
0.0 0.0 -4.921700370921e+01 
-9.354699578160e+01 1.504020444502e+01 0.0 
1.504020444502e+01 -1.867027235216e+02 0.0 
0.0 0.0 -8.054856771120e+01 
-3.786735372065e+01 1.592232514213e+01 0.0 
1.592232514213e+01 -1.303414032589e+02 0.0 
0.0 0.0 -5.002204016096e+01 
-9.877423931613e+01 5.413173820392e+00 0.0 
5.413173820392e+00 -2.707519392852e+02 0.0 
0.0 0.0 -1.148250182015e+02 
-7.273909052761e+01 1.989257627183e+01 0.0 
1.989257627183e+01 -1.909718293032e+02 0.0 
0.0 0.0 -7.904356199656e+01 
-5.490169306847e+01 -8.984284615715e+00 0.0 
-8.984284615715e+00 -1.558871785843e+02 0.0 
0.0 0.0 -5.872707958107e+01 
-9.274498031899e+01 1.224302382764e+01 0.0 
1.224302382764e+01 -1.810456052438e+02 0.0 
0.0 0.0 -8.061730174516e+01 
-1.500631201880e+02 1.586382163230e+01 0.0 
1.586382163230e+01 -3.480644956655e+02 0.0 
0.0 0.0 -1.490382847561e+02 
-6.177092331758e+01 1.872596904263e+01 0.0 
1.872596904263e+01 -1.709009914296e+02 0.0 
0.0 0.0 -6.754685543035e+01 
-9.094752634428e+01 1.203880576259e+01 0.0 
1.203880576259e+01 -2.483827179680e+02 0.0 
0.0 0.0 -1.060992684181e+02 
-4.263381472192e+01 2.901130731371e+01 0.0 
2.901130731371e+01 -8.971926117486e+01 0.0 
0.0 0.0 -3.426327509882e+01 
-1.027495012314e+02 3.664653485499e+00 0.0 
3.664653485499e+00 -2.171266750655e+02 0.0 
0.0 0.0 -9.556285288907e+01 
-1.146916724915e+02 3.576174472324e+00 0.0 
3.576174472324e+00 -2.988219150964e+02 0.0 
0.0 0.0 -1.236540762764e+02 
-5.225483954943e+01 2.763346768940e+01 0.0 
2.763346768940e+01 -9.221775566128e+01 0.0 
0.0 0.0 -3.973759606410e+01 
-1.001868359784e+02 4.781194309300e+00 0.0 
4.781194309300e+00 -2.085745497821e+02 0.0 
0.0 0.0 -9.222841572816e+01 
-1.523965165953e+02 1.720397388299e+01 0.0 
1.720397388299e+01 -3.556743143808e+02 0.0 
0.0 0.0 -1.520212492928e+02 
-1.246106728197e+02 4.604146525539e+00 0.0 
4.604146525539e+00 -3.175985260664e+02 0.0 
0.0 0.0 -1.322627596658e+02 
-1.493265714776e+02 1.512245521312e+01 0.0 
1.512245521312e+01 -3.454138935670e+02 0.0 
0.0 0.0 -1.480221395134e+02 
-1.007677100481e+02 5.978468060675e+00 0.0 
5.978468060675e+00 -2.076630375068e+02 0.0 
0.0 0.0 -9.212922426647e+01 
-1.187846946482e+02 1.396403964773e+01 0.0 
1.396403964773e+01 -2.604328526444e+02 0.0 
0.0 0.0 -1.133652641878e+02 
-4.796589749304e+01 2.735182890002e+01 0.0 
2.735182890002e+01 -7.130773793857e+01 0.0 
0.0 0.0 -3.192218078506e+01 
-8.693640702657e+01 1.127975577833e+01 0.0 
1.127975577833e+01 -1.612880442846e+02 0.0 
0.0 0.0 -7.206035968688e+01 
-9.545621822210e+01 1.139584578056e+01 0.0 
1.139584578056e+01 -1.912343837153e+02 0.0 
0.0 0.0 -8.434887525148e+01 
-9.814189796882e+01 1.303013107117e+01 0.0 
1.303013107117e+01 -2.008825347249e+02 0.0 
0.0 0.0 -8.909270396495e+01 
-8.427169297431e+01 1.878026035567e+01 0.0 
1.878026035567e+01 -1.717999324820e+02 0.0 
0.0 0.0 -7.296710395459e+01 
-1.541201986814e+02 1.747191534880e+01 0.0 
1.747191534880e+01 -3.613850414216e+02 0.0 
0.0 0.0 -1.542515720309e+02 
-9.737732647629e+01 5.835353825533e+00 0.0 
5.835353825533e+00 -1.983091386593e+02 0.0 
0.0 0.0 -8.830593954068e+01 
-8.869584602908e+01 8.784374945534e+00 0.0 
8.784374945534e+00 -1.695885920199e+02 0.0 
0.0 0.0 -7.654493249229e+01 
-6.243414808072e+01 1.817381885005e+01 0.0 
1.817381885005e+01 -1.703297426418e+02 0.0 
0.0 0.0 -6.685686990777e+01 
-4.734698315391e+01 -1.135503236915e+01 0.0 
-1.135503236915e+01 -9.235426838687e+01 0.0 
0.0 0.0 -3.844185735269e+01 
-8.336957929138e+01 9.585692088669e+00 0.0 
9.585692088669e+00 -1.506495085119e+02 0.0 
0.0 0.0 -6.778656950497e+01 
-5.637871574771e+01 2.822813963051e+01 0.0 
2.822813963051e+01 -1.110647712429e+02 0.0 
0.0 0.0 -4.805585634276e+01 
-7.894885875624e+01 5.686099294504e-01 0.0 
5.686099294504e-01 -1.625577055898e+02 0.0 
0.0 0.0 -7.205196930381e+01 
-5.966606028090e+01 -1.251546760461e+01 0.0 
-1.251546760461e+01 -1.581417097422e+02 0.0 
0.0 0.0 -6.289557205106e+01 
-5.629640337382e+01 1.929979473550e+01 0.0 
1.929979473550e+01 -1.544260422626e+02 0.0 
0.0 0.0 -5.888755140127e+01 
-1.182709980768e+02 8.887435145504e+00 0.0 
8.887435145504e+00 -2.574725239669e+02 0.0 
0.0 0.0 -1.123230566131e+02 
-5.217032197969e+01 2.753227533765e+01 0.0 
2.753227533765e+01 -1.091807673875e+02 0.0 
0.0 0.0 -4.459320075693e+01 
-8.942193428355e+01 1.048659743141e+01 0.0 
1.048659743141e+01 -1.712641341095e+02 0.0 
0.0 0.0 -7.572076522354e+01 
-9.523430786503e+01 9.926281653750e+00 0.0 
9.926281653750e+00 -2.595272540752e+02 0.0 
0.0 0.0 -1.120527076619e+02 
-9.474607623333e+01 -1.965366080664e+00 0.0 
-1.965366080664e+00 -2.412722107165e+02 0.0 
0.0 0.0 -1.016182365631e+02 
-1.571326211259e+02 1.650426412550e+01 0.0 
1.650426412550e+01 -3.702440982339e+02 0.0 
0.0 0.0 -1.578130158079e+02 
-7.712066181126e+01 1.099260554687e+01 0.0 
1.099260554687e+01 -1.327280805831e+02 0.0 
0.0 0.0 -5.881787804481e+01 
-4.967541610919e+01 5.610856223665e+00 0.0 
5.610856223665e+00 -1.581920117365e+02 0.0 
0.0 0.0 -5.899307485445e+01 
-7.560737560007e+01 -1.406287728746e+01 0.0 
-1.406287728746e+01 -1.747589942693e+02 0.0 
0.0 0.0 -7.397191531954e+01 
-5.299477810509e+01 2.264457851713e+01 0.0 
2.264457851713e+01 -7.719253907351e+01 0.0 
0.0 0.0 -3.547225910152e+01 
-5.291002272378e+01 2.736458191768e+01 0.0 
2.736458191768e+01 -9.229189817672e+01 0.0 
0.0 0.0 -4.121697803266e+01 
-1.266717944923e+02 1.303318042044e+01 0.0 
1.303318042044e+01 -2.798631010066e+02 0.0 
0.0 0.0 -1.215604686497e+02 
-9.489668350056e+01 1.555361189152e+01 0.0 
1.555361189152e+01 -1.952207690432e+02 0.0 
0.0 0.0 -8.529463091304e+01 
-6.967287416317e+01 1.370337234750e+01 0.0 
1.370337234750e+01 -1.132236674038e+02 0.0 
0.0 0.0 -4.913669898274e+01 
-8.285594329445e+01 9.357984097036e+00 0.0 
9.357984097036e+00 -1.513869865748e+02 0.0 
0.0 0.0 -6.703323229199e+01 
-1.597617402832e+02 1.356152749361e+01 0.0 
1.356152749361e+01 -3.794335893144e+02 0.0 
0.0 0.0 -1.613585988793e+02 
-1.496802072842e+02 1.376535963802e+01 0.0 
1.376535963802e+01 -3.594917363914e+02 0.0 
0.0 0.0 -1.523515831027e+02 
-1.253807451196e+02 1.088218539674e+01 0.0 
1.088218539674e+01 -2.786502973840e+02 0.0 
0.0 0.0 -1.208093127511e+02 
-1.161952818998e+02 1.000665412875e+01 0.0 
1.000665412875e+01 -2.482449291194e+02 0.0 
0.0 0.0 -1.089320633058e+02 
-9.379201924064e+01 -5.559472750706e+00 0.0 
-5.559472750706e+00 -2.364658034639e+02 0.0 
0.0 0.0 -1.009739626622e+02 
-7.174436384999e+01 2.019226797634e+01 0.0 
2.019226797634e+01 -1.300100120158e+02 0.0 
0.0 0.0 -5.661682678335e+01 
-4.654155758961e+01 1.730633882278e+01 0.0 
1.730633882278e+01 -1.380911940388e+02 0.0 
0.0 0.0 -5.009344395449e+01 
-5.260184406927e+01 1.595184294266e+01 0.0 
1.595184294266e+01 -1.526583328895e+02 0.0 
0.0 0.0 -5.647104210513e+01 
-9.175177751641e+01 1.644065545952e+01 0.0 
1.644065545952e+01 -1.871686165765e+02 0.0 
0.0 0.0 -8.108411390238e+01 
-9.521109451233e+01 7.034464062214e+00 0.0 
7.034464062214e+00 -2.627151411187e+02 0.0 
0.0 0.0 -1.123541345938e+02 
-9.514056774242e+01 -6.329704092603e+00 0.0 
-6.329704092603e+00 -2.042330397658e+02 0.0 
0.0 0.0 -8.524952973303e+01 
-1.252643033973e+02 9.555522490310e+00 0.0 
9.555522490310e+00 -2.778553363310e+02 0.0 
0.0 0.0 -1.205358919185e+02 
-5.104721586030e+01 -5.646871304984e-01 0.0 
-5.646871304984e-01 -1.571991538920e+02 0.0 
0.0 0.0 -5.902755777858e+01 
-7.989275961400e+01 2.019272065819e+01 0.0 
2.019272065819e+01 -1.647237438045e+02 0.0 
0.0 0.0 -7.041233549069e+01 
-9.295849183919e+01 1.221409880685e+01 0.0 
1.221409880685e+01 -1.825809515971e+02 0.0 
0.0 0.0 -8.013463285820e+01 
-7.370734352096e+01 2.134211565313e+01 0.0 
2.134211565313e+01 -1.441053883452e+02 0.0 
0.0 0.0 -6.219536414415e+01 
-1.488532817068e+02 1.436948634462e+01 0.0 
1.436948634462e+01 -3.429945698168e+02 0.0 
0.0 0.0 -1.471543554571e+02 
-1.463193936928e+02 1.226654073670e+01 0.0 
1.226654073670e+01 -3.383600563704e+02 0.0 
0.0 0.0 -1.450038350189e+02 
-1.402368708218e+02 1.304926727283e+01 0.0 
1.304926727283e+01 -3.180534653058e+02 0.0 
0.0 0.0 -1.370871008383e+02 
-1.007441721446e+02 -2.537302695415e+00 0.0 
-2.537302695415e+00 -2.545803128313e+02 0.0 
0.0 0.0 -1.085939200398e+02 
-1.214000124834e+02 7.248038691425e+00 0.0 
7.248038691425e+00 -2.669894429414e+02 0.0 
0.0 0.0 -1.161168366274e+02 
-5.069260671453e+01 2.880713381728e+01 0.0 
2.880713381728e+01 -9.120336972213e+01 0.0 
0.0 0.0 -3.960662820844e+01 
-5.869609547514e+01 1.511543758790e+01 0.0 
1.511543758790e+01 -1.675069894853e+02 0.0 
0.0 0.0 -6.391972337127e+01 
-3.765790760189e+01 1.302139035174e+01 0.0 
1.302139035174e+01 -1.257698677232e+02 0.0 
0.0 0.0 -4.613014042245e+01 
-7.319109243743e+01 1.614756319932e+01 0.0 
1.614756319932e+01 -1.252293335340e+02 0.0 
0.0 0.0 -5.428702824627e+01 
-8.389920093596e+01 3.813292289184e+00 0.0 
3.813292289184e+00 -1.651108243955e+02 0.0 
0.0 0.0 -7.430300759944e+01 
-9.913471947245e+01 3.817101329496e+00 0.0 
3.817101329496e+00 -2.066744313536e+02 0.0 
0.0 0.0 -9.134274524781e+01 
-1.527929105818e+02 1.033873347153e+01 0.0 
1.033873347153e+01 -3.692707649957e+02 0.0 
0.0 0.0 -1.562191026732e+02 
-1.249231339568e+02 1.210577278005e+01 0.0 
1.210577278005e+01 -2.796049458754e+02 0.0 
0.0 0.0 -1.209584239497e+02 
-9.707259350836e+01 8.819842318457e+00 0.0 
8.819842318457e+00 -1.981905971132e+02 0.0 
0.0 0.0 -8.817895718647e+01 
-1.009115328653e+02 1.210357185455e+01 0.0 
1.210357185455e+01 -2.111731314384e+02 0.0 
0.0 0.0 -9.285143122657e+01 
-4.208613705842e+01 1.302434138216e+01 0.0 
1.302434138216e+01 -1.396112350440e+02 0.0 
0.0 0.0 -5.229288989460e+01 
-3.515205460906e+01 -9.072212791462e+00 0.0 
-9.072212791462e+00 -4.704795728865e+01 0.0 
0.0 0.0 -1.989597100120e+01 
-7.651526153940e+01 2.307592754031e+01 0.0 
2.307592754031e+01 -1.821526628772e+02 0.0 
0.0 0.0 -7.866840376090e+01 
-8.580738367657e+01 1.904860518881e+01 0.0 
1.904860518881e+01 -1.848241975754e+02 0.0 
0.0 0.0 -7.832769280615e+01 
-7.578819921919e+01 2.103682231368e+01 0.0 
2.103682231368e+01 -1.837691418175e+02 0.0 
0.0 0.0 -7.742532835928e+01 
-4.244459061695e+01 3.255257659388e+01 0.0 
3.255257659388e+01 -5.511934258359e+01 0.0 
0.0 0.0 -2.559511906651e+01 
-8.521012407706e+01 2.477941877956e-01 0.0 
2.477941877956e-01 -1.791132799920e+02 0.0 
0.0 0.0 -7.889702122073e+01 
-4.370096716662e+01 -9.414921051101e+00 0.0 
-9.414921051101e+00 -8.453101732083e+01 0.0 
0.0 0.0 -3.415115609299e+01 
-5.391076790353e+01 2.724401641606e+01 0.0 
2.724401641606e+01 -1.272244246708e+02 0.0 
0.0 0.0 -5.086484509517e+01 
-1.651067531059e+02 1.055598195292e+01 0.0 
1.055598195292e+01 -3.865824239139e+02 0.0 
0.0 0.0 -1.651067531059e+02 
-1.045772097321e+02 1.350153152004e+01 0.0 
1.350153152004e+01 -2.740466856965e+02 0.0 
0.0 0.0 -1.136295412143e+02 
-8.648585144349e+01 6.392064278137e+00 0.0 
6.392064278137e+00 -1.684354936612e+02 0.0 
0.0 0.0 -7.567971166970e+01 
-1.824485749063e+01 -6.861970126982e-01 0.0 
-6.861970126982e-01 -5.879002984752e+01 0.0 
0.0 0.0 -2.132062726183e+01 
-8.694043852298e+01 1.855332350715e+01 0.0 
1.855332350715e+01 -1.720400933822e+02 0.0 
0.0 0.0 -7.464409162373e+01 
-7.106968101958e+01 2.082544992132e+01 0.0 
2.082544992132e+01 -1.780840069272e+02 0.0 
0.0 0.0 -7.408700217942e+01 
-1.013798356414e+02 1.245010109673e+01 0.0 
1.245010109673e+01 -2.097008595879e+02 0.0 
0.0 0.0 -9.292420856880e+01 
-1.506750537164e+02 1.624161730002e+01 0.0 
1.624161730002e+01 -3.504703885564e+02 0.0 
0.0 0.0 -1.499436326819e+02 
-8.551539864586e+01 8.693371496347e+00 0.0 
8.693371496347e+00 -1.603488207694e+02 0.0 
0.0 0.0 -7.140434970032e+01 
-9.772444436490e+01 1.480672770120e+01 0.0 
1.480672770120e+01 -2.034500174643e+02 0.0 
0.0 0.0 -8.934686860697e+01 
-9.113859063056e+01 -6.533360372332e+00 0.0 
-6.533360372332e+00 -2.034124741075e+02 0.0 
0.0 0.0 -8.349295631691e+01 
-1.217315880684e+02 8.582010631826e+00 0.0 
8.582010631826e+00 -2.673761440036e+02 0.0 
0.0 0.0 -1.163323196216e+02 
-9.988607120918e+01 3.350289474984e-01 0.0 
3.350289474984e-01 -2.598847108418e+02 0.0 
0.0 0.0 -1.087168997146e+02 
-1.518741760535e+02 1.696803230655e+01 0.0 
1.696803230655e+01 -3.530564904054e+02 0.0 
0.0 0.0 -1.510791999377e+02 
-1.465047805963e+02 1.411157804141e+01 0.0 
1.411157804141e+01 -3.431778213913e+02 0.0 
0.0 0.0 -1.465047805963e+02 
-1.432880263499e+02 1.073686046973e+01 0.0 
1.073686046973e+01 -3.356720614831e+02 0.0 
0.0 0.0 -1.432880263499e+02 
-1.441304481117e+02 1.241067539243e+01 0.0 
1.241067539243e+01 -3.376377122606e+02 0.0 
0.0 0.0 -1.441304481117e+02 
-1.040413926745e+02 1.122465727119e+01 0.0 
1.122465727119e+01 -2.199727718035e+02 0.0 
0.0 0.0 -9.680424934338e+01 
-1.231175569352e+02 1.055362726645e+01 0.0 
1.055362726645e+01 -2.683332413034e+02 0.0 
0.0 0.0 -1.170352394716e+02 
-1.289524336276e+02 1.185309084802e+01 0.0 
1.185309084802e+01 -2.898700677680e+02 0.0 
0.0 0.0 -1.252467504187e+02 
-7.557112866107e+01 2.166460455487e+01 0.0 
2.166460455487e+01 -1.443269179734e+02 0.0 
0.0 0.0 -6.386519838422e+01 
-7.254145124643e+01 1.895915614365e+01 0.0 
1.895915614365e+01 -1.294949631294e+02 0.0 
0.0 0.0 -5.754760857436e+01 
-9.138280826138e+01 -5.973489357667e+00 0.0 
-5.973489357667e+00 -1.919965828130e+02 0.0 
0.0 0.0 -7.958072258624e+01 
-1.267139594290e+02 1.165860526228e+01 0.0 
1.165860526228e+01 -2.789157586106e+02 0.0 
0.0 0.0 -1.212889154119e+02 
-1.531966789389e+02 1.744993820735e+01 0.0 
1.744993820735e+01 -3.584150485557e+02 0.0 
0.0 0.0 -1.530835182484e+02 
-1.250068552792e+02 8.217923536006e+00 0.0 
8.217923536006e+00 -2.771101379194e+02 0.0 
0.0 0.0 -1.202350979596e+02 
-9.516036678247e+01 1.370933741801e+01 0.0 
1.370933741801e+01 -2.555699276746e+02 0.0 
0.0 0.0 -1.074877085363e+02 
-1.263912272640e+02 1.014927930321e+01 0.0 
1.014927930321e+01 -2.780754705090e+02 0.0 
0.0 0.0 -1.209400093319e+02 
-1.099486605252e+02 1.684122506705e+01 0.0 
1.684122506705e+01 -2.622602383023e+02 0.0 
0.0 0.0 -1.112626696483e+02 
-8.448549320629e+01 2.205957230938e+01 0.0 
2.205957230938e+01 -1.796711069185e+02 0.0 
0.0 0.0 -7.834138229766e+01 
-7.294604987140e+01 1.341688121381e+01 0.0 
1.341688121381e+01 -1.245862526206e+02 0.0 
0.0 0.0 -5.447474067980e+01 
-4.643712391454e+01 2.846009239982e+01 0.0 
2.846009239982e+01 -1.120511175334e+02 0.0 
0.0 0.0 -4.350044077000e+01 
-1.363979841566e+02 7.041440023345e+00 0.0 
7.041440023345e+00 -3.149592335582e+02 0.0 
0.0 0.0 -1.350071653144e+02 
-7.078913695209e+01 2.433359444055e+01 0.0 
2.433359444055e+01 -1.389852059394e+02 0.0 
0.0 0.0 -6.143870821524e+01 
-1.403561109282e+02 1.557588523760e+01 0.0 
1.557588523760e+01 -3.280582079434e+02 0.0 
0.0 0.0 -1.401242956615e+02 
-8.824789203943e+01 -6.884924978705e+00 0.0 
-6.884924978705e+00 -1.912275127930e+02 0.0 
0.0 0.0 -7.822554233076e+01 
-5.928179407508e+01 -1.584752707232e+01 0.0 
-1.584752707232e+01 -1.455242585400e+02 0.0 
0.0 0.0 -5.811592969056e+01 
-1.561888772785e+02 9.198750855947e+00 0.0 
9.198750855947e+00 -3.718928022498e+02 0.0 
0.0 0.0 -1.580245038585e+02 
-5.797607980167e+01 2.780302112313e+01 0.0 
2.780302112313e+01 -1.282544431503e+02 0.0 
0.0 0.0 -5.331831112761e+01 
-1.476428407724e+02 1.487209609879e+01 0.0 
1.487209609879e+01 -3.458332951355e+02 0.0 
0.0 0.0 -1.476428407724e+02 
-1.390781056476e+02 1.122272806868e+01 0.0 
1.122272806868e+01 -3.204371473197e+02 0.0 
0.0 0.0 -1.374545758902e+02 
-9.889524289167e+01 1.517628636241e+01 0.0 
1.517628636241e+01 -2.067576482902e+02 0.0 
0.0 0.0 -8.936856317814e+01 
-2.343641223123e+01 -4.928356730680e+00 0.0 
-4.928356730680e+00 -2.783702199048e+01 0.0 
0.0 0.0 -1.303972956127e+01 
-1.498196478333e+02 1.597453162701e+01 0.0 
1.597453162701e+01 -3.509125116110e+02 0.0 
0.0 0.0 -1.498196478333e+02 
-1.546974302961e+02 1.147852254024e+01 0.0 
1.147852254024e+01 -3.676680898573e+02 0.0 
0.0 0.0 -1.563096560460e+02 
-5.358910698349e+01 -1.294190073271e+01 0.0 
-1.294190073271e+01 -1.430599850945e+02 0.0 
0.0 0.0 -5.419835902555e+01 
-9.863230606980e+01 1.232540789713e+01 0.0 
1.232540789713e+01 -2.665715832409e+02 0.0 
0.0 0.0 -1.114819580908e+02 
-1.575936869045e+02 1.588667485516e+01 0.0 
1.588667485516e+01 -3.725737071202e+02 0.0 
0.0 0.0 -1.586502182074e+02 
-1.186261468376e+01 -7.677100249505e-01 0.0 
-7.677100249505e-01 -9.111456972235e+00 0.0 
0.0 0.0 -6.862134639587e+00 
-7.780397143005e+01 2.348795920611e+01 0.0 
2.348795920611e+01 -1.596159423136e+02 0.0 
0.0 0.0 -7.014104516462e+01 
-1.013242245178e+02 1.415587858725e+01 0.0 
1.415587858725e+01 -2.145467217794e+02 0.0 
0.0 0.0 -9.332482908681e+01 
-9.618691658393e+01 1.643796394511e+01 0.0 
1.643796394511e+01 -1.993498679939e+02 0.0 
0.0 0.0 -8.528401005987e+01 
-9.615182972025e+01 1.382820942122e+01 0.0 
1.382820942122e+01 -1.945647609574e+02 0.0 
0.0 0.0 -8.472037372806e+01 
-4.959277098570e+01 2.890332088928e+01 0.0 
2.890332088928e+01 -1.102976458747e+02 0.0 
0.0 0.0 -4.396124005144e+01 
-1.523227119219e+02 1.666203906105e+01 0.0 
1.666203906105e+01 -3.567529944845e+02 0.0 
0.0 0.0 -1.523227119219e+02 
-6.499371315475e+01 1.438546106694e+01 0.0 
1.438546106694e+01 -1.825045507438e+02 0.0 
0.0 0.0 -7.168508560456e+01 
-2.821278572940e+01 5.800160901391e+00 0.0 
5.800160901391e+00 -1.186115466409e+02 0.0 
0.0 0.0 -4.690724512872e+01 
-1.585973412650e+02 2.540526731093e+00 0.0 
2.540526731093e+00 -3.780026519457e+02 0.0 
0.0 0.0 -1.605799979632e+02 
-1.992872539000e+01 -2.409847223969e+00 0.0 
-2.409847223969e+00 -2.611259302371e+01 0.0 
0.0 0.0 -1.099579808131e+01 
-7.987777147562e+01 1.025786683190e+01 0.0 
1.025786683190e+01 -1.424729312994e+02 0.0 
0.0 0.0 -6.247066734379e+01 
-4.026425961243e+01 -2.068492097925e+01 0.0 
-2.068492097925e+01 -9.972605529087e+01 0.0 
0.0 0.0 -3.869927028986e+01 
-8.142014947296e+01 6.900916393435e+00 0.0 
6.900916393435e+00 -1.496745475184e+02 0.0 
0.0 0.0 -6.714874766121e+01 
-1.606980944981e+02 1.261247826200e+01 0.0 
1.261247826200e+01 -3.817640511981e+02 0.0 
0.0 0.0 -1.623386437089e+02 
-1.551041373697e+02 1.664914389823e+01 0.0 
1.664914389823e+01 -3.632429871961e+02 0.0 
0.0 0.0 -1.551041373697e+02 
-9.763193261378e+01 1.076046519596e+01 0.0 
1.076046519596e+01 -1.998966831232e+02 0.0 
0.0 0.0 -8.840449387251e+01 
-3.903449588176e+01 -2.235923822441e+01 0.0 
-2.235923822441e+01 -7.110919431244e+01 0.0 
0.0 0.0 -2.669699032970e+01 
-2.805208771827e+01 9.510935219401e+00 0.0 
9.510935219401e+00 -1.231662540188e+02 0.0 
0.0 0.0 -4.772255753086e+01 
-4.889695376088e+01 -2.374565930696e+01 0.0 
-2.374565930696e+01 -8.859828129067e+01 0.0 
0.0 0.0 -3.534579298208e+01 
-1.362293761948e+02 3.443709330733e+00 0.0 
3.443709330733e+00 -3.339576268582e+02 0.0 
0.0 0.0 -1.406561009159e+02 
-8.471701916876e+01 4.128619463455e+00 0.0 
4.128619463455e+00 -1.658168161114e+02 0.0 
0.0 0.0 -7.476015058405e+01 
-9.102609982786e+01 8.589545859071e+00 0.0 
8.589545859071e+00 -1.785598389629e+02 0.0 
0.0 0.0 -8.047578163723e+01 
-1.577254599757e+02 1.608834777648e+01 0.0 
1.608834777648e+01 -3.693594066100e+02 0.0 
0.0 0.0 -1.577254599757e+02 
-8.369243814592e+01 3.739354547515e+00 0.0 
3.739354547515e+00 -1.652447971238e+02 0.0 
0.0 0.0 -7.428117058092e+01 
-1.454509636658e+02 1.055158109041e+01 0.0 
1.055158109041e+01 -3.363171970496e+02 0.0 
0.0 0.0 -1.441304482146e+02 
-1.142869933332e+02 1.482055184469e+01 0.0 
1.482055184469e+01 -2.739235444189e+02 0.0 
0.0 0.0 -1.160631613256e+02 
-9.496973256264e+01 2.997279566517e+00 0.0 
2.997279566517e+00 -1.968985561913e+02 0.0 
0.0 0.0 -8.716048662618e+01 
-5.592545848764e+01 2.509785459223e+01 0.0 
2.509785459223e+01 -9.412975463731e+01 0.0 
0.0 0.0 -4.301738916168e+01 
-9.982315055825e+01 1.137154944015e+01 0.0 
1.137154944015e+01 -2.673116707458e+02 0.0 
0.0 0.0 -1.140463579234e+02 
-3.660108521735e+01 2.163566588775e+01 0.0 
2.163566588775e+01 -1.091416210644e+02 0.0 
0.0 0.0 -3.818633489727e+01 
-1.599317482734e+02 1.501688003015e+01 0.0 
1.501688003015e+01 -3.745074126380e+02 0.0 
0.0 0.0 -1.599317482734e+02 
-1.452991952838e+02 1.318586738507e+01 0.0 
1.318586738507e+01 -3.403647889956e+02 0.0 
0.0 0.0 -1.452991952838e+02 
-1.438461537368e+02 1.164195282921e+01 0.0 
1.164195282921e+01 -3.369743587192e+02 0.0 
0.0 0.0 -1.438461537368e+02 
-1.057640038467e+02 -1.965495050917e+00 0.0 
-1.965495050917e+00 -2.623907744693e+02 0.0 
0.0 0.0 -1.110732260858e+02 
-8.702635885423e+01 -5.368421134957e+00 0.0 
-5.368421134957e+00 -1.797451428019e+02 0.0 
0.0 0.0 -7.386490170444e+01 
-8.140076370942e+01 2.003721383016e+01 0.0 
2.003721383016e+01 -1.781586687589e+02 0.0 
0.0 0.0 -7.579368116110e+01 
-1.037641603421e+02 -8.951274957065e-03 0.0 
-8.951274957065e-03 -2.682125454216e+02 0.0 
0.0 0.0 -1.111930117291e+02 
-1.619575070821e+02 1.353958285127e+01 0.0 
1.353958285127e+01 -3.792341831915e+02 0.0 
0.0 0.0 -1.619575070821e+02 
-4.920041937417e+01 2.456401039222e+01 0.0 
2.456401039222e+01 -1.233956880010e+02 0.0 
0.0 0.0 -4.635696082974e+01 
-5.660893587098e+01 -3.988199874865e+00 0.0 
-3.988199874865e+00 -1.674203668767e+02 0.0 
0.0 0.0 -6.378064899009e+01 
-6.050196235379e+01 -7.141939744940e+00 0.0 
-7.141939744940e+00 -1.713801937627e+02 0.0 
0.0 0.0 -6.687633157503e+01 
-9.883913933775e+01 2.913672778677e+00 0.0 
2.913672778677e+00 -2.076971401944e+02 0.0 
0.0 0.0 -9.156088385966e+01 
-1.630856160914e+02 9.348377067843e+00 0.0 
9.348377067843e+00 -3.878317531113e+02 0.0 
0.0 0.0 -1.648752107608e+02 
-4.978601505524e+01 -2.416784080471e+01 0.0 
-2.416784080471e+01 -6.366430313545e+01 0.0 
0.0 0.0 -2.830807032577e+01 
-1.640670149309e+02 1.156370253219e+01 0.0 
1.156370253219e+01 -3.841563681722e+02 0.0 
0.0 0.0 -1.640670149309e+02 
-5.887521140190e+01 -1.094178415730e+01 0.0 
-1.094178415730e+01 -1.595900435003e+02 0.0 
0.0 0.0 -6.235641855777e+01 
-1.489265148977e+02 1.552266576592e+01 0.0 
1.552266576592e+01 -3.488285347612e+02 0.0 
0.0 0.0 -1.489265148977e+02 
-1.302040208130e+02 1.393718057925e+01 0.0 
1.393718057925e+01 -2.909087091058e+02 0.0 
0.0 0.0 -1.259338189756e+02 
-1.164532352214e+01 5.177875525250e-01 0.0 
5.177875525250e-01 -9.269732029664e+00 0.0 
0.0 0.0 -4.992509377527e+00 
-7.912108530985e+01 2.407748662527e+01 0.0 
2.407748662527e+01 -1.744999794929e+02 0.0 
0.0 0.0 -7.601643922296e+01 
-1.262044129936e+02 8.853194672853e+00 0.0 
8.853194672853e+00 -2.781145626665e+02 0.0 
0.0 0.0 -1.208956926980e+02 
-1.511571454721e+02 1.643893690571e+01 0.0 
1.643893690571e+01 -3.540333394349e+02 0.0 
0.0 0.0 -1.511571454721e+02 
-1.044678045968e+02 1.357471592729e+01 0.0 
1.357471592729e+01 -2.205965447422e+02 0.0 
0.0 0.0 -9.711930480170e+01 
-1.175664279124e+02 1.427412650087e+01 0.0 
1.427412650087e+01 -2.850782583913e+02 0.0 
0.0 0.0 -1.203934058911e+02 
-4.361283559517e+01 3.033626075201e+01 0.0 
3.033626075201e+01 -9.539306316896e+01 0.0 
0.0 0.0 -3.801187447802e+01 
-1.463948577362e+02 1.034121584280e+01 0.0 
1.034121584280e+01 -3.535914125073e+02 0.0 
0.0 0.0 -1.495958810730e+02 
-6.216168689072e+01 -1.199979089203e+01 0.0 
-1.199979089203e+01 -1.624512360228e+02 0.0 
0.0 0.0 -6.549461873414e+01 
-6.458332734866e+01 -1.060704264689e+01 0.0 
-1.060704264689e+01 -1.734913442096e+02 0.0 
0.0 0.0 -7.059331924401e+01 
-4.955765053968e+01 -2.679685591201e+01 0.0 
-2.679685591201e+01 -4.835048524069e+01 0.0 
0.0 0.0 -2.679652204181e+01 
-1.536716995940e+02 1.672951674766e+01 0.0 
1.672951674766e+01 -3.599006323861e+02 0.0 
0.0 0.0 -1.536716995940e+02 
-4.106998135105e+01 1.900580447954e+01 0.0 
1.900580447954e+01 -1.236124396451e+02 0.0 
0.0 0.0 -4.414928023174e+01 
-1.307545403326e+02 7.158562349926e+00 0.0 
7.158562349926e+00 -3.278623917169e+02 0.0 
0.0 0.0 -1.371850796149e+02 
-9.197634137187e+01 4.282413291757e+00 0.0 
4.282413291757e+00 -1.871611853705e+02 0.0 
0.0 0.0 -8.334125802271e+01 
-6.229620607477e+01 -1.715771978684e+01 0.0 
-1.715771978684e+01 -1.364609482892e+02 0.0 
0.0 0.0 -5.733572471594e+01 
-6.027635467828e+01 -8.154622608383e+00 0.0 
-8.154622608383e+00 -1.688389679671e+02 0.0 
0.0 0.0 -6.661172125274e+01 
-1.006740284960e+02 1.423001955158e+01 0.0 
1.423001955158e+01 -2.119699730231e+02 0.0 
0.0 0.0 -9.339320045574e+01 
-1.588777746924e+02 1.567407731381e+01 0.0 
1.567407731381e+01 -3.720481409489e+02 0.0 
0.0 0.0 -1.588777746924e+02 
-8.922338330290e+01 -5.784100376130e+00 0.0 
-5.784100376130e+00 -1.872506253031e+02 0.0 
0.0 0.0 -7.671235957231e+01 
-1.128906355945e+02 3.056445794895e+00 0.0 
3.056445794895e+00 -2.902276833398e+02 0.0 
0.0 0.0 -1.211160854105e+02 
-9.494675523804e+01 1.883503153029e+01 0.0 
1.883503153029e+01 -2.054785879301e+02 0.0 
0.0 0.0 -8.803005801285e+01 
-9.752394314565e+01 3.860249153090e+00 0.0 
3.860249153090e+00 -2.637657366955e+02 0.0 
0.0 0.0 -1.132481076483e+02 
-6.142058755502e+01 -3.274350424582e+00 0.0 
-3.274350424582e+00 -1.773515859907e+02 0.0 
0.0 0.0 -6.955792377038e+01 
-1.063883474544e+02 4.925927861920e-01 0.0 
4.925927861920e-01 -2.723831711927e+02 0.0 
0.0 0.0 -1.152950729997e+02 
-8.986139607853e+01 1.802362682327e+01 0.0 
1.802362682327e+01 -1.919622992742e+02 0.0 
0.0 0.0 -8.145341403593e+01 
-1.119089962874e+02 1.671991384937e+01 0.0 
1.671991384937e+01 -2.580685007308e+02 0.0 
0.0 0.0 -1.105932491055e+02 
-1.100266881446e+02 1.106080821703e+01 0.0 
1.106080821703e+01 -2.847912215657e+02 0.0 
0.0 0.0 -1.199323429713e+02 
-9.076612362667e+01 2.054625197542e+01 0.0 
2.054625197542e+01 -1.992777964455e+02 0.0 
0.0 0.0 -8.616271263223e+01 
-8.642604349507e+01 -7.519530667137e+00 0.0 
-7.519530667137e+00 -1.954421592367e+02 0.0 
0.0 0.0 -8.062213793894e+01 
-5.304107350698e+01 2.563656957274e+01 0.0 
2.563656957274e+01 -1.248075481950e+02 0.0 
0.0 0.0 -4.904554485836e+01 
-8.484240499409e+01 -6.878251507821e+00 0.0 
-6.878251507821e+00 -1.789130131626e+02 0.0 
0.0 0.0 -7.293601207473e+01 
-1.131905242017e+02 1.632753026111e+01 0.0 
1.632753026111e+01 -2.738400298308e+02 0.0 
0.0 0.0 -1.157091662098e+02 
-8.814955205307e+01 1.094665159449e+01 0.0 
1.094665159449e+01 -2.443965292558e+02 0.0 
0.0 0.0 -1.050865462496e+02 
-1.615663801401e+02 1.165689525833e+01 0.0 
1.165689525833e+01 -3.840664161137e+02 0.0 
0.0 0.0 -1.632898388761e+02 
-1.297468892279e+02 9.792102666664e+00 0.0 
9.792102666664e+00 -2.879107790699e+02 0.0 
0.0 0.0 -1.248973004894e+02 
-5.648215683309e+01 -1.430102564223e+01 0.0 
-1.430102564223e+01 -1.210246384796e+02 0.0 
0.0 0.0 -4.960806892272e+01 
-1.630404063841e+02 1.253819425883e+01 0.0 
1.253819425883e+01 -3.817609482295e+02 0.0 
0.0 0.0 -1.630404063841e+02 
-1.523133517087e+02 1.148168545221e+01 0.0 
1.148168545221e+01 -3.674148135246e+02 0.0 
0.0 0.0 -1.555184495700e+02 
-8.283045878518e+01 2.129569120719e+01 0.0 
2.129569120719e+01 -2.005105349071e+02 0.0 
0.0 0.0 -8.688171111423e+01 
-3.278003264313e+01 -1.381314505907e+01 0.0 
-1.381314505907e+01 -3.513273683474e+01 0.0 
0.0 0.0 -1.412248984752e+01 
-1.638067756049e+02 8.145600636465e+00 0.0 
8.145600636465e+00 -3.893188051896e+02 0.0 
0.0 0.0 -1.655376742383e+02 
-1.298128975429e+02 1.107714446962e+01 0.0 
1.107714446962e+01 -2.881566872414e+02 0.0 
0.0 0.0 -1.249908754353e+02 
-5.736475313266e+01 -1.381502194535e+01 0.0 
-1.381502194535e+01 -1.457594757461e+02 0.0 
0.0 0.0 -5.690365952602e+01 
-1.658521445716e+02 9.492787169674e+00 0.0 
9.492787169674e+00 -3.883216706670e+02 0.0 
0.0 0.0 -1.658521445716e+02 
-1.108381871254e+02 8.928071635097e-01 0.0 
8.928071635097e-01 -2.805125078852e+02 0.0 
0.0 0.0 -1.173887516228e+02 
-7.687165255144e+01 1.635209694777e+01 0.0 
1.635209694777e+01 -1.373264868865e+02 0.0 
0.0 0.0 -6.032038701952e+01 
-9.347757624464e+01 7.555615772914e+00 0.0 
7.555615772914e+00 -1.878707202297e+02 0.0 
0.0 0.0 -8.400448894231e+01 
-8.389866427032e+01 1.225207061520e+01 0.0 
1.225207061520e+01 -2.301092733935e+02 0.0 
0.0 0.0 -9.818016039346e+01 
-9.964379281676e+01 -4.661688787861e+00 0.0 
-4.661688787861e+00 -2.440089940893e+02 0.0 
0.0 0.0 -1.039717177428e+02 
-1.011128539525e+02 6.187972031044e+00 0.0 
6.187972031044e+00 -2.719221638646e+02 0.0 
0.0 0.0 -1.157965884592e+02 
-1.090278612349e+02 9.400047754355e+00 0.0 
9.400047754355e+00 -2.280195852168e+02 0.0 
0.0 0.0 -1.007142339355e+02 
-8.400327950952e+01 1.252618355416e+01 0.0 
1.252618355416e+01 -1.541227415788e+02 0.0 
0.0 0.0 -6.690172470717e+01 
-1.156268987215e+02 1.189566497059e+01 0.0 
1.189566497059e+01 -2.925648136183e+02 0.0 
0.0 0.0 -1.221871402772e+02 
-9.245002119581e+01 7.568182243254e-01 0.0 
7.568182243254e-01 -1.960667253532e+02 0.0 
0.0 0.0 -8.615502396469e+01 
-9.073524744316e+01 -8.013256484992e+00 0.0 
-8.013256484992e+00 -1.963163165074e+02 0.0 
0.0 0.0 -8.265935466022e+01 
-1.040302877162e+02 9.845636372641e+00 0.0 
9.845636372641e+00 -2.769991282833e+02 0.0 
0.0 0.0 -1.173546972630e+02 
-6.798461825231e+01 -1.505678509864e+01 0.0 
-1.505678509864e+01 -1.668004280763e+02 0.0 
0.0 0.0 -6.973268033104e+01 
-1.129104808304e+02 -2.238232187006e+00 0.0 
-2.238232187006e+00 -2.699567941224e+02 0.0 
0.0 0.0 -1.130487128947e+02 
-1.361076930513e+01 -1.341795891193e+00 0.0 
-1.341795891193e+00 -8.961494816955e+00 0.0 
0.0 0.0 -5.599699644077e+00 
-5.699896485246e+01 2.608175267689e+01 0.0 
2.608175267689e+01 -1.274733741936e+02 0.0 
0.0 0.0 -5.226251263529e+01 
-6.378064959277e+01 -1.403257576940e+01 0.0 
-1.403257576940e+01 -1.621148070651e+02 0.0 
0.0 0.0 -6.639736748918e+01 
-9.550079603479e+01 -5.672245845601e+00 0.0 
-5.672245845601e+00 -2.114284515589e+02 0.0 
0.0 0.0 -8.675014497999e+01 
-8.713556188977e+01 2.125361605293e+01 0.0 
2.125361605293e+01 -2.066925541099e+02 0.0 
0.0 0.0 -8.937055329833e+01 
-1.069407071500e+02 7.402445155896e-01 0.0 
7.402445155896e-01 -2.789793451077e+02 0.0 
0.0 0.0 -1.153760156773e+02 
-9.641695676009e+01 3.966139154412e+00 0.0 
3.966139154412e+00 -1.993055139395e+02 0.0 
0.0 0.0 -8.831674120987e+01 
-6.276842925037e+01 -1.615883930653e+01 0.0 
-1.615883930653e+01 -1.485399910538e+02 0.0 
0.0 0.0 -6.117450567966e+01 
-1.665857519788e+02 8.399103093842e+00 0.0 
8.399103093842e+00 -3.900334212840e+02 0.0 
0.0 0.0 -1.665857519788e+02 
-9.962080074616e+01 1.573294106576e+01 0.0 
1.573294106576e+01 -2.151156950449e+02 0.0 
0.0 0.0 -9.382298777445e+01 
-9.952286196779e+01 -4.914015452866e+00 0.0 
-4.914015452866e+00 -2.193865478494e+02 0.0 
0.0 0.0 -9.090490255187e+01 
-9.661224877384e+01 1.637307106229e+01 0.0 
1.637307106229e+01 -2.071159417044e+02 0.0 
0.0 0.0 -8.983457464874e+01 
-9.911284855778e+01 -4.990465373047e+00 0.0 
-4.990465373047e+00 -2.121843695230e+02 0.0 
0.0 0.0 -8.766951006396e+01 
-1.668319551905e+01 -1.265727289753e+00 0.0 
-1.265727289753e+00 -9.389519883591e+00 0.0 
0.0 0.0 -8.396060600040e+00 
-9.823945086528e+01 9.190773795173e+00 0.0 
9.190773795173e+00 -1.984603770156e+02 0.0 
0.0 0.0 -8.860994836425e+01 
-8.602022255138e+01 -3.133015283472e+00 0.0 
-3.133015283472e+00 -1.725526233140e+02 0.0 
0.0 0.0 -7.195018441215e+01 
-8.064336173050e+00 -3.482714825349e-01 0.0 
-3.482714825349e-01 -8.830378998145e+00 0.0 
0.0 0.0 -3.344905000312e+00 
-9.666637726558e+01 -5.046318810055e+00 0.0 
-5.046318810055e+00 -2.073683660931e+02 0.0 
0.0 0.0 -8.590583692701e+01 
-1.156950459592e+02 1.781554283144e+00 0.0 
1.781554283144e+00 -2.976518737191e+02 0.0 
0.0 0.0 -1.236040759035e+02 
-1.212398338274e+02 1.747628048903e+00 0.0 
1.747628048903e+00 -2.720869519989e+02 0.0 
0.0 0.0 -1.175980357479e+02 
-9.176338296451e+01 4.285195708951e+00 0.0 
4.285195708951e+00 -2.552753729968e+02 0.0 
0.0 0.0 -1.093646819545e+02 
-9.520096750196e+01 3.737279521070e+00 0.0 
3.737279521070e+00 -2.619962534740e+02 0.0 
0.0 0.0 -1.118586772417e+02 
-8.512039149852e+01 7.247870612692e+00 0.0 
7.247870612692e+00 -1.599177217497e+02 0.0 
0.0 0.0 -7.260391947247e+01 
-7.556346104067e+01 2.756943680868e+00 0.0 
2.756943680868e+00 -1.464130924488e+02 0.0 
0.0 0.0 -6.619296604683e+01 
-1.381130055057e+02 9.049270670446e+00 0.0 
9.049270670446e+00 -3.176176895552e+02 0.0 
0.0 0.0 -1.363192085182e+02 
-9.344101258619e+01 1.715269518707e+01 0.0 
1.715269518707e+01 -1.993999087273e+02 0.0 
0.0 0.0 -8.575976004264e+01 
-1.271125316772e+01 2.004767617171e-01 0.0 
2.004767617171e-01 -7.155611373018e+00 0.0 
0.0 0.0 -4.882781984435e+00 
-3.508468051141e+01 -5.794814175006e+00 0.0 
-5.794814175006e+00 -7.052642296497e+01 0.0 
0.0 0.0 -2.732257339729e+01 
-2.861568057126e+01 -8.003354397612e+00 0.0 
-8.003354397612e+00 -2.974092865817e+01 0.0 
0.0 0.0 -1.389806618406e+01 
-6.072944049287e+01 -1.358934312124e+01 0.0 
-1.358934312124e+01 -1.267953348822e+02 0.0 
0.0 0.0 -5.318581190246e+01 
-1.287346383596e+02 1.585907248065e+01 0.0 
1.585907248065e+01 -2.937183221822e+02 0.0 
0.0 0.0 -1.263358881625e+02 
-1.220967483759e+02 3.487389811358e+00 0.0 
3.487389811358e+00 -2.727496374086e+02 0.0 
0.0 0.0 -1.180539157353e+02 
-1.302738487212e+02 1.205136876107e+00 0.0 
1.205136876107e+00 -3.223815355808e+02 0.0 
0.0 0.0 -1.353966152906e+02 
-6.795991237667e+01 -9.370179849360e+00 0.0 
-9.370179849360e+00 -1.422137114363e+02 0.0 
0.0 0.0 -5.886311404771e+01 
-1.174986322693e+02 -1.475995425128e+00 0.0 
-1.475995425128e+00 -2.709131826276e+02 0.0 
0.0 0.0 -1.135949847745e+02 
-1.346421226360e+02 5.401977829427e+00 0.0 
5.401977829427e+00 -3.361282379998e+02 0.0 
0.0 0.0 -1.408311081907e+02 
-3.456005815521e+01 4.969330498057e+00 0.0 
4.969330498057e+00 -1.272925745444e+02 0.0 
0.0 0.0 -4.856504110458e+01 
-8.584537469447e+01 -6.941787372752e-01 0.0 
-6.941787372752e-01 -1.729144802379e+02 0.0 
0.0 0.0 -7.228947802582e+01 
-7.150385704947e+01 -2.209238608034e+00 0.0 
-2.209238608034e+00 -1.413027930236e+02 0.0 
0.0 0.0 -5.864798693459e+01 
-1.641301135837e+02 6.943288454562e+00 0.0 
6.943288454562e+00 -3.901495768352e+02 0.0 
0.0 0.0 -1.658839071256e+02 
-1.670854818740e+02 7.345668882591e+00 0.0 
7.345668882591e+00 -3.911994577060e+02 0.0 
0.0 0.0 -1.670854818740e+02 
-9.440093383730e+01 -8.105988587335e-01 0.0 
-8.105988587335e-01 -1.923390780795e+02 0.0 
0.0 0.0 -8.068871316446e+01 
-1.028143349253e+02 -3.859222689967e+00 0.0 
-3.859222689967e+00 -2.201732592487e+02 0.0 
0.0 0.0 -9.133031464156e+01 
-9.911185857272e+01 -1.761899724464e+00 0.0 
-1.761899724464e+00 -2.494508150599e+02 0.0 
0.0 0.0 -1.041094566090e+02 
-1.395436451001e+02 6.835665720261e+00 0.0 
6.835665720261e+00 -3.453014799439e+02 0.0 
0.0 0.0 -1.450535375132e+02 
-4.067193506110e+01 -9.156755120831e+00 0.0 
-9.156755120831e+00 -7.898889587211e+01 0.0 
0.0 0.0 -3.271366893621e+01 
-1.297179797612e+02 4.047822818934e+00 0.0 
4.047822818934e+00 -3.264363257788e+02 0.0 
0.0 0.0 -1.364462916620e+02 
-1.747631052070e+01 -4.938844996496e-01 0.0 
-4.938844996496e-01 -4.301502756240e+01 0.0 
0.0 0.0 -1.535607460679e+01 
-9.530632965666e+01 -4.685538999713e+00 0.0 
-4.685538999713e+00 -2.000859558891e+02 0.0 
0.0 0.0 -8.214456033588e+01 
-1.023096675974e+02 -5.007442129991e+00 0.0 
-5.007442129991e+00 -2.241850429873e+02 0.0 
0.0 0.0 -9.307942516802e+01 
-1.024965728958e+01 -2.630076665976e-01 0.0 
-2.630076665976e-01 -2.544157932534e+01 0.0 
0.0 0.0 -8.123272955290e+00 
-9.020082262395e+01 -2.070774842522e+00 0.0 
-2.070774842522e+00 -1.821139329227e+02 0.0 
0.0 0.0 -7.639115093010e+01 
-1.280421161288e+02 8.006200817344e+00 0.0 
8.006200817344e+00 -2.867453714816e+02 0.0 
0.0 0.0 -1.240362462831e+02 
-1.243166130264e+01 1.186891187398e-01 0.0 
1.186891187398e-01 -7.485077396335e+00 0.0 
0.0 0.0 -4.889570823048e+00 
-7.669830535343e+01 3.274612303899e+00 0.0 
3.274612303899e+00 -1.472169837447e+02 0.0 
0.0 0.0 -6.677458672945e+01 
-7.750851291171e+01 3.837945807244e+00 0.0 
3.837945807244e+00 -1.483101009849e+02 0.0 
0.0 0.0 -6.734558416897e+01 
-1.051030614623e+02 8.255786841375e+00 0.0 
8.255786841375e+00 -2.799046865246e+02 0.0 
0.0 0.0 -1.179343767720e+02 
-7.008153850994e+01 2.839419463576e-01 0.0 
2.839419463576e-01 -1.412209082766e+02 0.0 
0.0 0.0 -5.866168617214e+01 
-6.025251108668e+01 -1.385745600492e+01 0.0 
-1.385745600492e+01 -1.486407508098e+02 0.0 
0.0 0.0 -6.016108204061e+01 
-4.564263380856e+01 2.911960564383e+01 0.0 
2.911960564383e+01 -8.959251731745e+01 0.0 
0.0 0.0 -3.581062675683e+01 
-1.442504081445e+02 1.665579438190e+00 0.0 
1.665579438190e+00 -3.490989074235e+02 0.0 
0.0 0.0 -1.476047946704e+02 
-1.463496645011e+02 1.601553814598e+01 0.0 
1.601553814598e+01 -3.423138381480e+02 0.0 
0.0 0.0 -1.461990507947e+02 
-1.184850729602e+02 4.720685885766e+00 0.0 
4.720685885766e+00 -2.604327122009e+02 0.0 
0.0 0.0 -1.132753355483e+02 
-5.550800661666e+01 2.535895661900e+01 0.0 
2.535895661900e+01 -9.468517603851e+01 0.0 
0.0 0.0 -4.187132130372e+01 
-2.952565986305e+01 -6.587701968279e+00 0.0 
-6.587701968279e+00 -4.909608340050e+01 0.0 
0.0 0.0 -2.082422039435e+01 
-8.402245338766e+01 1.201905496078e+01 0.0 
1.201905496078e+01 -1.523392454344e+02 0.0 
0.0 0.0 -6.764925265979e+01 
-7.441326853902e+01 1.400245539036e+00 0.0 
1.400245539036e+00 -1.465044605159e+02 0.0 
0.0 0.0 -6.587531871647e+01 
-7.400179122402e+01 1.404553723012e+00 0.0 
1.404553723012e+00 -1.464564794761e+02 0.0 
0.0 0.0 -6.573748121005e+01 
-7.692564464926e+00 -3.048783027518e-01 0.0 
-3.048783027518e-01 -9.169749930080e+00 0.0 
0.0 0.0 -3.250519225746e+00 
-1.043922306081e+01 -3.712569209616e-01 0.0 
-3.712569209616e-01 -2.531263761927e+01 0.0 
0.0 0.0 -8.088068506734e+00 
-1.270026454252e+01 -1.324233729231e-01 0.0 
-1.324233729231e-01 -4.168141132562e+01 0.0 
0.0 0.0 -1.411958326657e+01 
-5.280995317091e+01 -9.842811348551e+00 0.0 
-9.842811348551e+00 -1.082466446685e+02 0.0 
0.0 0.0 -4.423323957684e+01 
-1.386229480030e+01 9.750267187376e-02 0.0 
9.750267187376e-02 -2.591936992782e+01 0.0 
0.0 0.0 -9.329496926686e+00 
-9.798764061129e+01 -1.874444680148e+00 0.0 
-1.874444680148e+00 -2.026601345834e+02 0.0 
0.0 0.0 -8.510809635713e+01 
-4.972180900126e+01 -1.392073266294e+01 0.0 
-1.392073266294e+01 -5.986763432729e+01 0.0 
0.0 0.0 -3.344516836372e+01 
-6.217795154760e+01 -9.954873924791e+00 0.0 
-9.954873924791e+00 -1.290914369329e+02 0.0 
0.0 0.0 -5.282987999196e+01 
-9.883542716278e+01 5.798091043283e-01 0.0 
5.798091043283e-01 -2.130781792450e+02 0.0 
0.0 0.0 -9.317408192233e+01 
-7.607350914319e+01 2.498993894126e+00 0.0 
2.498993894126e+00 -1.469743696469e+02 0.0 
0.0 0.0 -6.651436363702e+01 
-1.328178380666e+02 1.556043688151e+01 0.0 
1.556043688151e+01 -3.017366262331e+02 0.0 
0.0 0.0 -1.299663392899e+02 
-1.117170247292e+02 5.326835931277e-01 0.0 
5.326835931277e-01 -2.871566473541e+02 0.0 
0.0 0.0 -1.192621016250e+02 
-9.161771109630e+01 2.542175792955e-01 0.0 
2.542175792955e-01 -1.952640043140e+02 0.0 
0.0 0.0 -8.566451462309e+01 
-7.583867618035e+01 -1.251070664746e+00 0.0 
-1.251070664746e+00 -1.510222476906e+02 0.0 
0.0 0.0 -6.295516396675e+01 
-1.635426419619e+01 -5.108385408831e-02 0.0 
-5.108385408831e-02 -4.272548786696e+01 0.0 
0.0 0.0 -1.449405255305e+01 
-1.405099964916e+02 4.986546485086e+00 0.0 
4.986546485086e+00 -3.291899918137e+02 0.0 
0.0 0.0 -1.405099964916e+02 
-1.426515116033e+02 5.416325293990e+00 0.0 
5.416325293990e+00 -3.302425270245e+02 0.0 
0.0 0.0 -1.414682115883e+02 
-9.065838337697e+01 2.036664818969e+00 0.0 
2.036664818969e+00 -1.863578317550e+02 0.0 
0.0 0.0 -8.270486453960e+01 
-7.447787097963e+01 1.763329755013e+00 0.0 
1.763329755013e+00 -1.461444432256e+02 0.0 
0.0 0.0 -6.578669426157e+01 
-7.604324567247e+01 -9.711430892524e-01 0.0 
-9.711430892524e-01 -1.535711540757e+02 0.0 
0.0 0.0 -6.390351367607e+01 
-1.422411666777e+02 3.966616195754e+00 0.0 
3.966616195754e+00 -3.294536155335e+02 0.0 
0.0 0.0 -1.411084346634e+02 
-5.756585130807e+01 -9.470434341706e+00 0.0 
-9.470434341706e+00 -1.207978657589e+02 0.0 
0.0 0.0 -4.947423603325e+01 
-7.680884586719e+01 3.192917608662e+00 0.0 
3.192917608662e+00 -1.473881958358e+02 0.0 
0.0 0.0 -6.685911251091e+01 
-7.551849401749e+01 2.163140339683e+00 0.0 
2.163140339683e+00 -1.462530796407e+02 0.0 
0.0 0.0 -6.613147209745e+01 
-7.853666828390e+01 7.409532044262e+00 0.0 
7.409532044262e+00 -1.405967025978e+02 0.0 
0.0 0.0 -6.278366604500e+01 
-1.429712313174e+02 9.957232029201e+00 0.0 
9.957232029201e+00 -3.349328730740e+02 0.0 
0.0 0.0 -1.429712313174e+02 
-1.432054914731e+02 4.560782808200e+00 0.0 
4.560782808200e+00 -3.303104233045e+02 0.0 
0.0 0.0 -1.416547744333e+02 
-1.398736079746e+01 8.921063024491e-03 0.0 
8.921063024491e-03 -2.568645299806e+01 0.0 
0.0 0.0 -9.270574733089e+00 
-7.854282137773e+00 -1.414791602319e-01 0.0 
-1.414791602319e-01 -9.307861336270e+00 0.0 
0.0 0.0 -3.380138548658e+00 
-3.176298413330e+01 -6.740850532304e+00 0.0 
-6.740850532304e+00 -5.852967744660e+01 0.0 
0.0 0.0 -2.446147847114e+01 
-9.798720852375e+01 -5.160011538403e+00 0.0 
-5.160011538403e+00 -2.233390787103e+02 0.0 
0.0 0.0 -9.180809187048e+01 
-1.528791633814e+02 -7.355602986044e-01 0.0 
-7.355602986044e-01 -3.619058299984e+02 0.0 
0.0 0.0 -1.540354980139e+02 
-1.019424294369e+02 -2.331651147181e+01 0.0 
-2.331651147181e+01 -7.606157160266e+01 0.0 
0.0 0.0 -5.367724214626e+01 
-1.151066690616e+02 1.306662102415e+00 0.0 
1.306662102415e+00 -2.559193733053e+02 0.0 
0.0 0.0 -1.109078127101e+02 
-3.202457009085e+01 -1.227997690108e+01 0.0 
-1.227997690108e+01 -1.190669405720e+01 0.0 
0.0 0.0 -1.317370345571e+01 
-1.041702275317e+02 4.771450626731e+00 0.0 
4.771450626731e+00 -2.802234877627e+02 0.0 
0.0 0.0 -1.175319699578e+02 
-2.248130711294e+01 -6.211463332859e+00 0.0 
-6.211463332859e+00 -1.352844632566e+01 0.0 
0.0 0.0 -9.693885467975e+00 
-5.464276947120e+01 -2.641884108758e+01 0.0 
-2.641884108758e+01 -3.410264375181e+01 0.0 
0.0 0.0 -2.691591749765e+01 
-1.002501204477e+02 2.991488513771e+00 0.0 
2.991488513771e+00 -2.712665893758e+02 0.0 
0.0 0.0 -1.141697110003e+02 
-1.479488066295e+02 -3.098558965690e-03 0.0 
-3.098558965690e-03 -3.523832442650e+02 0.0 
0.0 0.0 -1.496996152684e+02 
-9.887257598366e+01 1.069481013067e+00 0.0 
1.069481013067e+00 -2.119925539846e+02 0.0 
0.0 0.0 -9.285953899046e+01 
-8.706538011512e+01 1.372537181720e+01 0.0 
1.372537181720e+01 -1.635266974695e+02 0.0 
0.0 0.0 -7.202039917026e+01 
-1.002274559685e+01 -5.078141348733e-02 0.0 
-5.078141348733e-02 -2.535192154493e+01 0.0 
0.0 0.0 -8.115017248938e+00 
-1.205356638835e+02 -7.804142890472e-01 0.0 
-7.804142890472e-01 -2.788643726553e+02 0.0 
0.0 0.0 -1.173042551010e+02 
-1.395785039304e+02 1.674180178587e+00 0.0 
1.674180178587e+00 -3.270165091709e+02 0.0 
0.0 0.0 -1.395785039304e+02 
-1.417112118044e+02 2.439160182325e+00 0.0 
2.439160182325e+00 -3.285966762929e+02 0.0 
0.0 0.0 -1.406923664292e+02 
-7.527849133598e+01 1.961392489666e+00 0.0 
1.961392489666e+00 -1.466145394571e+02 0.0 
0.0 0.0 -6.616790923792e+01 
-1.088509243356e+02 6.544387594624e+00 0.0 
6.544387594624e+00 -2.888760784593e+02 0.0 
0.0 0.0 -1.208885860807e+02 
-1.404722503750e+02 4.062761840642e+00 0.0 
4.062761840642e+00 -3.291019175416e+02 0.0 
0.0 0.0 -1.404722503750e+02 
-1.168308573262e+02 1.581604808982e+01 0.0 
1.581604808982e+01 -2.850868110594e+02 0.0 
0.0 0.0 -1.201753005157e+02 
-1.543969036166e+01 -1.556643359484e-01 0.0 
-1.556643359484e-01 -4.144877479128e+01 0.0 
0.0 0.0 -1.375368581614e+01 
-1.364242520648e+01 1.048938847615e-01 0.0 
1.048938847615e-01 -2.569522929873e+01 0.0 
0.0 0.0 -9.233043741952e+00 
-9.736824454163e+00 6.201077367439e-02 0.0 
6.201077367439e-02 -2.467716777849e+01 0.0 
0.0 0.0 -8.001433618246e+00 
-8.578613748683e+01 -1.167624953322e+00 0.0 
-1.167624953322e+00 -1.717227784586e+02 0.0 
0.0 0.0 -7.197257327959e+01 
-1.668300357500e+02 1.393235747676e+00 0.0 
1.393235747676e+00 -3.926232684225e+02 0.0 
0.0 0.0 -1.674359912517e+02 
-1.335684545699e+02 1.041812774762e+00 0.0 
1.041812774762e+00 -3.065880783279e+02 0.0 
0.0 0.0 -1.316469598694e+02 
-7.627746460440e+00 1.276257822863e-01 0.0 
1.276257822863e-01 -9.253760807511e+00 0.0 
0.0 0.0 -3.252529560908e+00 
-9.870451544649e+01 1.571075005528e-01 0.0 
1.571075005528e-01 -2.029180904388e+02 0.0 
0.0 0.0 -8.536834984158e+01 
-1.683551933755e+02 7.355959564613e-01 0.0 
7.355959564613e-01 -3.941621178763e+02 0.0 
0.0 0.0 -1.683551933755e+02 
-1.663646771439e+02 1.078610683956e+00 0.0 
1.078610683956e+00 -3.921973723512e+02 0.0 
0.0 0.0 -1.671686148485e+02 
-1.645730883636e+02 5.973843307711e+00 0.0 
5.973843307711e+00 -3.907663436623e+02 0.0 
0.0 0.0 -1.662018296078e+02 
-1.075624122507e+02 -6.003146829548e-01 0.0 
-6.003146829548e-01 -2.361813855456e+02 0.0 
0.0 0.0 -1.027231393389e+02 
-1.190494431245e+02 9.398522994082e-01 0.0 
9.398522994082e-01 -2.662719613475e+02 0.0 
0.0 0.0 -1.151964213416e+02 
-1.675825449297e+02 1.083792567956e+00 0.0 
1.083792567956e+00 -3.923592715026e+02 0.0 
0.0 0.0 -1.675825449297e+02 
-1.679687369433e+02 1.538358447416e+00 0.0 
1.538358447416e+00 -3.932603862011e+02 0.0 
0.0 0.0 -1.679687369433e+02 
-1.152147245526e+02 -3.755339249240e-01 0.0 
-3.755339249240e-01 -2.560504290327e+02 0.0 
0.0 0.0 -1.109795460756e+02 
-1.266913208332e+01 -2.572791331450e-01 0.0 
-2.572791331450e-01 -6.444974264149e+00 0.0 
0.0 0.0 -4.702156875802e+00 
-7.278676198747e+01 7.661132421349e-01 0.0 
7.661132421349e-01 -1.453983419211e+02 0.0 
0.0 0.0 -6.505553117258e+01 
-7.464534262516e+01 1.473918392646e+00 0.0 
1.473918392646e+00 -1.466720535592e+02 0.0 
0.0 0.0 -6.599521885532e+01 
-7.711972290671e+00 -3.014405146099e-02 0.0 
-3.014405146099e-02 -9.261434194317e+00 0.0 
0.0 0.0 -3.303160126439e+00 
-1.682838955078e+02 2.988882035340e+00 0.0 
2.988882035340e+00 -3.939957561848e+02 0.0 
0.0 0.0 -1.682838955078e+02 
-1.645619660140e+02 4.874362775829e+00 0.0 
4.874362775829e+00 -3.909158280152e+02 0.0 
0.0 0.0 -1.662433382088e+02 
-1.674816123354e+02 4.439491833051e+00 0.0 
4.439491833051e+00 -3.921237621159e+02 0.0 
0.0 0.0 -1.674816123354e+02 
-1.249273589979e+01 1.483188513469e-01 0.0 
1.483188513469e-01 -7.666006587703e+00 0.0 
0.0 0.0 -4.903924420924e+00 
-1.237706766218e+01 7.390715465114e-02 0.0 
7.390715465114e-02 -7.798054279354e+00 0.0 
0.0 0.0 -4.879131273902e+00 
-1.673082841256e+02 6.311112739416e+00 0.0 
6.311112739416e+00 -3.917193296264e+02 0.0 
0.0 0.0 -1.673082841256e+02 
-1.675292853184e+02 5.408346259809e+00 0.0 
5.408346259809e+00 -3.922349990763e+02 0.0 
0.0 0.0 -1.675292853184e+02 
-1.035520657595e+02 9.844897763512e-01 0.0 
9.844897763512e-01 -2.261573850556e+02 0.0 
0.0 0.0 -9.851283524452e+01 
-7.168286744435e+01 1.695318767293e-01 0.0 
1.695318767293e-01 -1.449314901390e+02 0.0 
0.0 0.0 -6.458430727500e+01 
-1.115695591196e+02 9.787527804799e-01 0.0 
9.787527804799e-01 -2.461963498718e+02 0.0 
0.0 0.0 -1.069297726974e+02 
-8.793769092357e+01 9.334186731261e-01 0.0 
9.334186731261e-01 -1.864251762578e+02 0.0 
0.0 0.0 -8.190886015442e+01 
-7.163030411254e+01 5.511410875576e-02 0.0 
5.511410875576e-02 -1.450321378618e+02 0.0 
0.0 0.0 -6.459873259229e+01 
-1.304718383656e+01 8.163793271491e-02 0.0 
8.163793271491e-02 -7.579073934149e+00 0.0 
0.0 0.0 -5.045864718355e+00 
-1.323882377331e+01 4.887900865007e-01 0.0 
4.887900865007e-01 -7.645439957133e+00 0.0 
0.0 0.0 -5.865279119134e+00 
-1.266541696331e+01 8.920132226345e-01 0.0 
8.920132226345e-01 -6.848947048244e+00 0.0 
0.0 0.0 -5.454309203466e+00 
-1.176294038161e+01 1.222052225189e+00 0.0 
1.222052225189e+00 -7.234361655725e+00 0.0 
0.0 0.0 -5.299190611200e+00 
-1.022912670085e+02 -1.150771464584e+00 0.0 
-1.150771464584e+00 -2.133061940116e+02 0.0 
0.0 0.0 -8.980789150243e+01 
-9.449106750909e+01 -1.125362098890e+00 0.0 
-1.125362098890e+00 -1.924648171143e+02 0.0 
0.0 0.0 -8.091078761115e+01 
-7.899186161117e+00 -1.951516591769e-01 0.0 
-1.951516591769e-01 -9.369371383209e+00 0.0 
0.0 0.0 -4.018506545379e+00 
-1.207337530985e+02 -9.759281198447e-01 0.0 
-9.759281198447e-01 -2.733890540941e+02 0.0 
0.0 0.0 -1.155875584291e+02 
-9.665154608241e+00 -2.389094809381e-01 0.0 
-2.389094809381e-01 -9.540526347740e+00 0.0 
0.0 0.0 -5.264821545136e+00 
-1.417082194059e+02 8.084478211739e+00 0.0 
8.084478211739e+00 -3.319858452805e+02 0.0 
0.0 0.0 -1.417082194059e+02 
-1.400521946383e+02 3.401371835218e+00 0.0 
3.401371835218e+00 -3.281217874894e+02 0.0 
0.0 0.0 -1.400521946383e+02 
-1.406565670083e+02 5.711887814773e+00 0.0 
5.711887814773e+00 -3.295319896861e+02 0.0 
0.0 0.0 -1.406565670083e+02 
-2.013390094573e+01 -1.480543684818e+00 0.0 
-1.480543684818e+00 -6.869712367487e+01 0.0 
0.0 0.0 -2.624930738618e+01 
-6.438627746666e+01 -1.294430623002e+00 0.0 
-1.294430623002e+00 -1.303267894336e+02 0.0 
0.0 0.0 -5.391368240434e+01 
-1.397095814108e+02 2.770992290940e+00 0.0 
2.770992290940e+00 -3.273223566251e+02 0.0 
0.0 0.0 -1.397095814108e+02 
-1.396925944331e+02 -7.625116162859e-01 0.0 
-7.625116162859e-01 -3.331831559051e+02 0.0 
0.0 0.0 -1.414627251015e+02 
-1.405316511871e+02 2.264450597540e+00 0.0 
2.264450597540e+00 -3.292405194366e+02 0.0 
0.0 0.0 -1.405316511871e+02 
-1.486453828999e+02 -7.960630531081e-01 0.0 
-7.960630531081e-01 -3.527899225620e+02 0.0 
0.0 0.0 -1.500305916386e+02 
-1.577713553724e+02 -8.869971391545e-01 0.0 
-8.869971391545e-01 -3.723630364295e+02 0.0 
0.0 0.0 -1.586403175406e+02 
-9.033651981626e+01 1.894344561896e-01 0.0 
1.894344561896e-01 -1.821960291698e+02 0.0 
0.0 0.0 -7.647936422849e+01 
-1.418171537894e+02 3.273225182813e+00 0.0 
3.273225182813e+00 -3.285371925363e+02 0.0 
0.0 0.0 -1.407063038977e+02 
-1.415824383805e+02 2.096464237548e+00 0.0 
2.096464237548e+00 -3.287179330995e+02 0.0 
0.0 0.0 -1.406901114440e+02 
-1.437809230279e+02 9.794731163450e-01 0.0 
9.794731163450e-01 -3.420228692304e+02 0.0 
0.0 0.0 -1.453411376775e+02 
-1.530144288075e+02 1.012869319138e+00 0.0 
1.012869319138e+00 -3.621051432313e+02 0.0 
0.0 0.0 -1.541358716116e+02 
-1.261868562626e+02 2.337912036056e-01 0.0 
2.337912036056e-01 -2.950287982364e+02 0.0 
0.0 0.0 -1.246979141718e+02 
-2.349311793335e+01 -3.886912519673e+00 0.0 
-3.886912519673e+00 -9.924930772531e+00 0.0 
0.0 0.0 -1.060189079464e+01 
-9.097551375398e+01 -4.173184198449e+00 0.0 
-4.173184198449e+00 -1.879532175346e+02 0.0 
0.0 0.0 -7.721442043898e+01 
-1.420748032579e+01 9.789673401776e-02 0.0 
9.789673401776e-02 -2.520991465869e+01 0.0 
0.0 0.0 -9.306399106270e+00 
-1.451375809475e+02 2.952725080857e+00 0.0 
2.952725080857e+00 -3.496635215724e+02 0.0 
0.0 0.0 -1.480403307560e+02 
-9.262089147177e+01 -5.882197603156e+00 0.0 
-5.882197603156e+00 -1.993665919973e+02 0.0 
0.0 0.0 -8.171196771661e+01 
-1.346256166711e+02 -2.026302655953e-01 0.0 
-2.026302655953e-01 -3.248692990142e+02 0.0 
0.0 0.0 -1.374484747056e+02 
-4.658484573683e+01 -8.531669672335e+00 0.0 
-8.531669672335e+00 -9.936534341806e+01 0.0 
0.0 0.0 -3.991165629624e+01 
-1.551406970286e+01 -1.426135329600e+00 0.0 
-1.426135329600e+00 -4.157377234732e+01 0.0 
0.0 0.0 -1.522946883162e+01 
-1.442090704572e+02 1.614509732628e+00 0.0 
1.614509732628e+00 -3.445067793035e+02 0.0 
0.0 0.0 -1.462147549282e+02 
-9.909545578760e+01 -3.544308525066e+00 0.0 
-3.544308525066e+00 -2.082243997538e+02 0.0 
0.0 0.0 -8.646077583438e+01 
-8.111649861673e+01 -2.214341922129e+00 0.0 
-2.214341922129e+00 -1.614854999657e+02 0.0 
0.0 0.0 -6.732963448460e+01 
-1.353768765583e+02 1.305460835443e+00 0.0 
1.305460835443e+00 -3.255303204081e+02 0.0 
0.0 0.0 -1.378721590899e+02 
-1.253717773030e+02 4.424314246960e-01 0.0 
4.424314246960e-01 -2.842144463298e+02 0.0 
0.0 0.0 -1.224758670898e+02 
-8.095910680683e+01 2.311425379018e-01 0.0 
2.311425379018e-01 -1.617022782867e+02 0.0 
0.0 0.0 -6.759924706812e+01 
-1.218347764699e+02 4.220778449034e+00 0.0 
4.220778449034e+00 -3.087764568314e+02 0.0 
0.0 0.0 -1.287833699904e+02 
-1.104867906329e+02 -1.505826702624e+00 0.0 
-1.505826702624e+00 -2.733232173799e+02 0.0 
0.0 0.0 -1.140775326884e+02 
-1.234499210417e+02 -1.182396410736e+00 0.0 
-1.182396410736e+00 -2.942650155253e+02 0.0 
0.0 0.0 -1.242003968255e+02 
-1.267048158198e+02 -9.061559689947e-01 0.0 
-9.061559689947e-01 -3.028862959669e+02 0.0 
0.0 0.0 -1.280877097352e+02 
-6.362383301766e+01 1.444528816174e+01 0.0 
1.444528816174e+01 -1.816498907213e+02 0.0 
0.0 0.0 -7.161579899725e+01 
-8.073688028893e+01 1.297292588794e+01 0.0 
1.297292588794e+01 -1.433987125707e+02 0.0 
0.0 0.0 -6.300746108705e+01 
-8.140841549081e+01 1.980736217226e+01 0.0 
1.980736217226e+01 -1.906323237790e+02 0.0 
0.0 0.0 -8.059889893096e+01 
-1.165461954741e+02 -1.861907327989e+00 0.0 
-1.861907327989e+00 -2.779763303116e+02 0.0 
0.0 0.0 -1.167473444721e+02 
-1.395212923606e+02 1.331795045208e+00 0.0 
1.331795045208e+00 -3.338647982188e+02 0.0 
0.0 0.0 -1.416158271738e+02 
-1.296642708158e+02 -8.225615382062e-01 0.0 
-8.225615382062e-01 -3.117040216821e+02 0.0 
0.0 0.0 -1.320104877494e+02 
-5.300377383570e+01 -1.314301532238e+01 0.0 
-1.314301532238e+01 -1.067710786047e+02 0.0 
0.0 0.0 -4.429987537737e+01 
-1.254005364152e+02 1.302552035701e+00 0.0 
1.302552035701e+00 -2.832513653495e+02 0.0 
0.0 0.0 -1.221955705294e+02 
-1.177554944293e+02 1.092526849501e+00 0.0 
1.092526849501e+00 -2.629245365420e+02 0.0 
0.0 0.0 -1.138040092914e+02 
-8.281391518785e+01 -8.219274296270e-02 0.0 
-8.219274296270e-02 -1.717915314575e+02 0.0 
0.0 0.0 -7.598163399361e+01 
-1.182569850012e+02 -1.046488145746e+00 0.0 
-1.046488145746e+00 -2.892801411404e+02 0.0 
0.0 0.0 -1.214757086468e+02 
-1.200900156725e+02 -1.494397431020e+00 0.0 
-1.494397431020e+00 -2.861049808444e+02 0.0 
0.0 0.0 -1.204753452894e+02 
-1.260190027118e+02 2.248371733422e+00 0.0 
2.248371733422e+00 -2.852146704315e+02 0.0 
0.0 0.0 -1.229701019430e+02 
-1.217526904786e+02 9.004201671844e-01 0.0 
9.004201671844e-01 -2.737762419155e+02 0.0 
0.0 0.0 -1.182586797182e+02 
-1.126727854982e+02 -2.133041818678e+00 0.0 
-2.133041818678e+00 -2.667332490045e+02 0.0 
0.0 0.0 -1.108405374605e+02 
-1.484072868060e+02 1.503288362373e+00 0.0 
1.503288362373e+00 -3.527726226409e+02 0.0 
0.0 0.0 -1.499539728341e+02 
-1.173038804600e+02 2.950653559166e+00 0.0 
2.950653559166e+00 -2.596315499772e+02 0.0 
0.0 0.0 -1.126806291312e+02 
-1.307094948369e+02 7.252099974513e-01 0.0 
7.252099974513e-01 -3.118145845914e+02 0.0 
0.0 0.0 -1.321209980430e+02 
-1.500041685407e+02 2.909477645637e+00 0.0 
2.909477645637e+00 -3.587257279650e+02 0.0 
0.0 0.0 -1.522189689517e+02 
-1.259105563877e+02 3.205175283006e+00 0.0 
3.205175283006e+00 -2.839185412338e+02 0.0 
0.0 0.0 -1.225487292864e+02 
-1.073472594201e+02 2.849608059487e+00 0.0 
2.849608059487e+00 -2.326205371878e+02 0.0 
0.0 0.0 -1.015903389824e+02 
-1.177871498260e+02 2.844315194815e+00 0.0 
2.844315194815e+00 -2.987689387813e+02 0.0 
0.0 0.0 -1.245668265822e+02 
-4.755271767963e+01 -4.905192826605e+00 0.0 
-4.905192826605e+00 -1.006775304876e+02 0.0 
0.0 0.0 -3.955110802903e+01 
-5.167506205692e+01 -1.409552554030e+01 0.0 
-1.409552554030e+01 -1.007646998956e+02 0.0 
0.0 0.0 -4.167211410725e+01 
-2.457231424882e+01 -2.063347881858e+00 0.0 
-2.063347881858e+00 -4.865744344881e+01 0.0 
0.0 0.0 -1.815909402458e+01 
-3.519135115027e+01 -1.401093463651e+01 0.0 
-1.401093463651e+01 -3.458934770756e+01 0.0 
0.0 0.0 -1.747858760153e+01 
-1.223417397300e+02 2.596307525644e+00 0.0 
2.596307525644e+00 -2.742634567287e+02 0.0 
0.0 0.0 -1.185815589376e+02 
-1.431662193031e+02 -3.197754054808e-01 0.0 
-3.197754054808e-01 -3.415655268822e+02 0.0 
0.0 0.0 -1.450195238556e+02 
-2.546971922316e+01 -6.058382376601e+00 0.0 
-6.058382376601e+00 -2.841984447723e+01 0.0 
0.0 0.0 -1.292122958478e+01 
-1.302142336807e+02 1.256769145574e+01 0.0 
1.256769145574e+01 -2.890943827226e+02 0.0 
0.0 0.0 -1.253925849210e+02 
-8.698306184167e+01 3.425230830423e-01 0.0 
3.425230830423e-01 -1.809434296549e+02 0.0 
0.0 0.0 -7.997794744899e+01 
-1.314664955567e+02 1.235332529073e+00 0.0 
1.235332529073e+00 -3.175697644298e+02 0.0 
0.0 0.0 -1.343108779959e+02 
-1.340332723902e+02 -5.855251992527e-01 0.0 
-5.855251992527e-01 -3.221280232656e+02 0.0 
0.0 0.0 -1.364483886967e+02 
-6.393566233070e+01 -1.363295298505e+01 0.0 
-1.363295298505e+01 -1.539954869238e+02 0.0 
0.0 0.0 -6.322291752779e+01 
-1.347716145637e+02 9.989026910823e-01 0.0 
9.989026910823e-01 -3.227675331984e+02 0.0 
0.0 0.0 -1.368617443286e+02 
-8.348369969246e+01 2.065707601704e+00 0.0 
2.065707601704e+00 -1.720103839490e+02 0.0 
0.0 0.0 -7.624822509243e+01 
-1.096183026478e+02 1.237363865926e+01 0.0 
1.237363865926e+01 -2.848945827573e+02 0.0 
0.0 0.0 -1.180873929798e+02 
-1.541840458203e+02 1.016337751588e+00 0.0 
1.016337751588e+00 -3.669143456506e+02 0.0 
0.0 0.0 -1.559295174412e+02 
-4.422181524580e+01 -2.806273872686e+00 0.0 
-2.806273872686e+00 -9.673586885735e+01 0.0 
0.0 0.0 -3.871259723220e+01 
-1.498878956676e+02 3.659889535421e+00 0.0 
3.659889535421e+00 -3.604488557982e+02 0.0 
0.0 0.0 -1.527010254397e+02 
-1.112248931148e+02 2.552869145959e+00 0.0 
2.552869145959e+00 -2.435461529863e+02 0.0 
0.0 0.0 -1.060313138303e+02 
-5.258932629350e+01 -4.126863154910e+00 0.0 
-4.126863154910e+00 -1.091782652654e+02 0.0 
0.0 0.0 -4.379782764452e+01 
-5.817135702526e+01 -1.541723458642e+01 0.0 
-1.541723458642e+01 -1.208006794093e+02 0.0 
0.0 0.0 -5.076702460743e+01 
-1.076270222533e+02 -2.550179810588e+00 0.0 
-2.550179810588e+00 -2.325384148020e+02 0.0 
0.0 0.0 -9.784133372130e+01 
-9.855305311816e+01 1.320354926672e+00 0.0 
1.320354926672e+00 -2.103574154254e+02 0.0 
0.0 0.0 -9.227314056307e+01 
-7.628736217790e+01 -7.855181667135e+00 0.0 
-7.855181667135e+00 -1.582341808038e+02 0.0 
0.0 0.0 -6.458039580840e+01 
-1.150430484567e+02 2.370587231254e+00 0.0 
2.370587231254e+00 -2.543646829976e+02 0.0 
0.0 0.0 -1.104223194363e+02 
-1.034700010438e+02 2.416331971090e+00 0.0 
2.416331971090e+00 -2.229952565825e+02 0.0 
0.0 0.0 -9.753957728788e+01 
-1.033060130933e+02 -4.151985885480e+00 0.0 
-4.151985885480e+00 -2.274929707736e+02 0.0 
0.0 0.0 -9.490343109202e+01 
-1.285233395937e+02 5.518228534275e-01 0.0 
5.518228534275e-01 -3.032387828861e+02 0.0 
0.0 0.0 -1.283212366012e+02 
-1.310570065892e+02 9.089263011480e-01 0.0 
9.089263011480e-01 -3.145503810888e+02 0.0 
0.0 0.0 -1.331667911464e+02 
-1.102257509291e+02 7.756651276358e-01 0.0 
7.756651276358e-01 -2.427604211570e+02 0.0 
0.0 0.0 -1.054958516258e+02 
-3.446026918323e+01 -3.610579354081e+00 0.0 
-3.610579354081e+00 -8.447240540148e+01 0.0 
0.0 0.0 -3.235442595443e+01 
-1.005121276482e+02 -4.145595545098e+00 0.0 
-4.145595545098e+00 -2.156952130706e+02 0.0 
0.0 0.0 -9.000887206436e+01 
-1.303774137711e+02 1.274550703631e+01 0.0 
1.274550703631e+01 -3.190323095496e+02 0.0 
0.0 0.0 -1.344229169962e+02 
-1.148547838070e+02 3.157790425514e+00 0.0 
3.157790425514e+00 -2.527125644734e+02 0.0 
0.0 0.0 -1.098702044841e+02 
-9.329875937214e+01 -4.922534953017e+00 0.0 
-4.922534953017e+00 -1.951125217679e+02 0.0 
0.0 0.0 -8.085963884086e+01 
-1.162216155237e+02 -1.377478345724e+00 0.0 
-1.377478345724e+00 -2.745236230712e+02 0.0 
0.0 0.0 -1.146783458761e+02 
-1.455869687923e+02 4.109140652864e+00 0.0 
4.109140652864e+00 -3.525390369552e+02 0.0 
0.0 0.0 -1.490378017242e+02 
-1.065837479497e+02 1.103675877416e+00 0.0 
1.103675877416e+00 -2.320041668621e+02 0.0 
0.0 0.0 -1.011763744436e+02 
-2.848866054969e+01 -8.037434854264e+00 0.0 
-8.037434854264e+00 -1.208815902154e+02 0.0 
0.0 0.0 -4.712116853770e+01 
-1.880363934452e+01 1.451128829697e-01 0.0 
1.451128829697e-01 -4.642599344394e+01 0.0 
0.0 0.0 -1.754688517913e+01 
-4.069901766072e+01 4.706144854836e+00 0.0 
4.706144854836e+00 -1.375883388845e+02 0.0 
0.0 0.0 -5.160596125750e+01 
-1.389006126355e+02 -2.753371381838e-01 0.0 
-2.753371381838e-01 -3.332541588497e+02 0.0 
0.0 0.0 -1.412464314456e+02 
-1.025024686266e+02 1.247227973841e+00 0.0 
1.247227973841e+00 -2.211632225178e+02 0.0 
0.0 0.0 -9.669970734332e+01 
-1.151322268290e+02 -2.550180326850e-01 0.0 
-2.550180326850e-01 -2.531373276970e+02 0.0 
0.0 0.0 -1.068705392624e+02 
-9.087925641965e+01 9.178633004207e-01 0.0 
9.178633004207e-01 -1.905193321868e+02 0.0 
0.0 0.0 -8.401957658194e+01 
-1.357859303605e+02 6.531905681678e+00 0.0 
6.531905681678e+00 -3.368478960967e+02 0.0 
0.0 0.0 -1.413901479372e+02 
-1.068978065447e+02 -3.424023066912e+00 0.0 
-3.424023066912e+00 -2.356734038013e+02 0.0 
0.0 0.0 -9.877514896147e+01 
-1.298297594028e+02 -6.504409365294e-01 0.0 
-6.504409365294e-01 -3.138402553662e+02 0.0 
0.0 0.0 -1.327010044307e+02 
-4.399303832458e+01 -2.106591587739e+00 0.0 
-2.106591587739e+00 -1.017368224224e+02 0.0 
0.0 0.0 -4.043127261994e+01 
-1.492997540495e+02 1.230587071348e+00 0.0 
1.230587071348e+00 -3.585237339385e+02 0.0 
0.0 0.0 -1.519470463964e+02 
-1.062514330322e+02 -2.858720806020e+00 0.0 
-2.858720806020e+00 -2.282657069659e+02 0.0 
0.0 0.0 -9.535259875873e+01 
-4.931047258684e+01 -1.289569572206e+00 0.0 
-1.289569572206e+00 -1.101057492683e+02 0.0 
0.0 0.0 -4.444377777728e+01 
-1.027741543367e+02 -2.517105590622e+00 0.0 
-2.517105590622e+00 -2.164975280180e+02 0.0 
0.0 0.0 -9.049676548970e+01 
-8.090798260974e+01 -6.599096170604e+00 0.0 
-6.599096170604e+00 -1.665651719957e+02 0.0 
0.0 0.0 -6.767149179731e+01 
-6.189834381308e+01 -7.851380257404e+00 0.0 
-7.851380257404e+00 -1.295964935492e+02 0.0 
0.0 0.0 -5.272381295735e+01 
-1.135733418224e+02 -2.034831798222e+00 0.0 
-2.034831798222e+00 -2.522265663021e+02 0.0 
0.0 0.0 -1.063218270188e+02 
-9.028992386781e+00 -3.465279444068e-01 0.0 
-3.465279444068e-01 -9.418169423039e+00 0.0 
0.0 0.0 -3.902605353806e+00 
-8.843516825261e+00 -2.805664202188e-01 0.0 
-2.805664202188e-01 -9.946702974490e+00 0.0 
0.0 0.0 -4.641258586798e+00 
-1.234131756675e+02 -2.036270382652e-01 0.0 
-2.036270382652e-01 -2.869216247064e+02 0.0 
0.0 0.0 -1.210016899810e+02 
-3.834486107426e+01 -2.777658820726e+00 0.0 
-2.777658820726e+00 -9.338365261438e+01 0.0 
0.0 0.0 -3.643201425923e+01 
-1.227656244058e+02 -1.256305129607e-01 0.0 
-1.256305129607e-01 -2.902505783845e+02 0.0 
0.0 0.0 -1.221067887115e+02 
-1.195855767550e+02 -7.126033616192e-01 0.0 
-7.126033616192e-01 -2.823633407568e+02 0.0 
0.0 0.0 -1.184192277490e+02 
-8.359709144502e+01 -7.980399779166e+00 0.0 
-7.980399779166e+00 -1.831871054139e+02 0.0 
0.0 0.0 -7.527143118428e+01 
-5.576744788760e+01 -1.525918316683e+01 0.0 
-1.525918316683e+01 -1.309743545283e+02 0.0 
0.0 0.0 -5.146344773105e+01 
-1.220851877924e+02 4.485504946249e+00 0.0 
4.485504946249e+00 -2.712532108390e+02 0.0 
0.0 0.0 -1.176015195894e+02 
-3.461623407849e+01 2.739702828250e+01 0.0 
2.739702828250e+01 -9.616006553964e+01 0.0 
0.0 0.0 -3.890480301849e+01 
-8.539932280136e+01 -5.449795928155e+00 0.0 
-5.449795928155e+00 -1.751236792655e+02 0.0 
0.0 0.0 -7.177505823473e+01 
-1.404332949607e+02 7.846467144748e+00 0.0 
7.846467144748e+00 -3.455486984478e+02 0.0 
0.0 0.0 -1.453945980226e+02 
-3.369197202748e+01 -4.010218890614e+00 0.0 
-4.010218890614e+00 -7.964556969146e+01 0.0 
0.0 0.0 -3.070540913117e+01 
-9.575363539557e+01 2.549134383617e+00 0.0 
2.549134383617e+00 -2.019338637671e+02 0.0 
0.0 0.0 -8.890624974879e+01 
-8.787364160524e+01 2.238193645460e+00 0.0 
2.238193645460e+00 -1.816846888845e+02 0.0 
0.0 0.0 -8.046749914692e+01 
-3.605289172826e+01 -6.396048557850e+00 0.0 
-6.396048557850e+00 -7.830579719273e+01 0.0 
0.0 0.0 -3.048261336595e+01 
-1.408150067417e+02 4.398276735488e+00 0.0 
4.398276735488e+00 -3.441791188705e+02 0.0 
0.0 0.0 -1.450982376837e+02 
-1.111586291282e+02 4.255345866024e+00 0.0 
4.255345866024e+00 -2.403823551193e+02 0.0 
0.0 0.0 -1.050622952743e+02 
-4.305156104384e+01 -5.551333463913e+00 0.0 
-5.551333463913e+00 -9.237114503205e+01 0.0 
0.0 0.0 -3.614200024915e+01 
-1.255427944521e+02 5.123276718001e+00 0.0 
5.123276718001e+00 -2.803014932516e+02 0.0 
0.0 0.0 -1.213532863111e+02 
-1.242336218785e+02 3.525440278448e+00 0.0 
3.525440278448e+00 -2.793897708236e+02 0.0 
0.0 0.0 -1.206870178106e+02 
-4.719172760201e+01 -4.525204333464e+00 0.0 
-4.525204333464e+00 -1.051301277455e+02 0.0 
0.0 0.0 -4.067300416356e+01 
-5.949865457829e+01 2.343825566915e+01 0.0 
2.343825566915e+01 -9.918942772563e+01 0.0 
0.0 0.0 -4.437535004383e+01 
-5.052171144614e+01 -7.491742901085e+00 0.0 
-7.491742901085e+00 -1.083107760456e+02 0.0 
0.0 0.0 -4.326564779652e+01 
-1.284289830340e+02 6.427572858584e-01 0.0 
6.427572858584e-01 -3.062931560944e+02 0.0 
0.0 0.0 -1.294389196973e+02 
-1.103269977802e+02 -2.708932787348e+00 0.0 
-2.708932787348e+00 -2.440027815254e+02 0.0 
0.0 0.0 -1.025993563228e+02 
-1.282816992367e+02 9.313240423892e+00 0.0 
9.313240423892e+00 -2.870735600414e+02 0.0 
0.0 0.0 -1.242065777834e+02 
-1.209759891541e+02 2.684595188970e+00 0.0 
2.684595188970e+00 -2.704784974316e+02 0.0 
0.0 0.0 -1.170363459757e+02 
-1.257269917825e+02 3.307300365138e-01 0.0 
3.307300365138e-01 -2.982452154412e+02 0.0 
0.0 0.0 -1.257854468925e+02 
-1.220820205086e+02 -8.498386099194e-01 0.0 
-8.498386099194e-01 -2.974192033948e+02 0.0 
0.0 0.0 -1.252507313127e+02 
-4.314752658172e+01 -8.677473071464e+00 0.0 
-8.677473071464e+00 -8.765782670507e+01 0.0 
0.0 0.0 -3.570979759385e+01 
-1.258323448880e+02 -7.417205267780e-01 0.0 
-7.417205267780e-01 -3.056258743871e+02 0.0 
0.0 0.0 -1.290374657825e+02 
-1.099557330061e+02 2.444545344312e+00 0.0 
2.444545344312e+00 -2.395676728838e+02 0.0 
0.0 0.0 -1.044570217670e+02 
-1.123612842579e+02 -1.110818908776e+00 0.0 
-1.110818908776e+00 -2.447525946935e+02 0.0 
0.0 0.0 -1.030691635972e+02 
-1.035188085594e+02 2.991816951509e+00 0.0 
2.991816951509e+00 -2.218864118443e+02 0.0 
0.0 0.0 -9.722156612114e+01 
-1.148271494174e+02 4.047194178453e+00 0.0 
4.047194178453e+00 -2.511410225685e+02 0.0 
0.0 0.0 -1.093904515958e+02 
-8.016843903577e+01 1.523270655539e+01 0.0 
1.523270655539e+01 -2.181275565873e+02 0.0 
0.0 0.0 -9.227681007327e+01 
-1.174413149112e+02 2.017314425940e+00 0.0 
2.017314425940e+00 -2.612066283794e+02 0.0 
0.0 0.0 -1.131943829872e+02 
-9.736999287246e+01 -3.962661981905e+00 0.0 
-3.962661981905e+00 -2.047304639470e+02 0.0 
0.0 0.0 -8.545342226901e+01 
-1.094223349125e+02 -1.920990945144e+00 0.0 
-1.920990945144e+00 -2.364258134914e+02 0.0 
0.0 0.0 -9.922357182413e+01 
-7.628519215814e+01 -6.110274697370e+00 0.0 
-6.110274697370e+00 -1.545203148411e+02 0.0 
0.0 0.0 -6.244207185126e+01 
-7.750380467007e+01 -1.162304785761e+01 0.0 
-1.162304785761e+01 -1.682769296553e+02 0.0 
0.0 0.0 -7.099101075884e+01 
-1.062286001331e+02 1.800151416698e+00 0.0 
1.800151416698e+00 -2.303230287527e+02 0.0 
0.0 0.0 -1.005654886657e+02 
-9.813882576014e+01 -6.326063287928e+00 0.0 
-6.326063287928e+00 -2.326859407574e+02 0.0 
0.0 0.0 -9.901907903724e+01 
-5.496368944001e+01 -6.235532108585e+00 0.0 
-6.235532108585e+00 -1.172317830886e+02 0.0 
0.0 0.0 -4.656676868498e+01 
-2.606554080740e+01 -2.781456201850e+00 0.0 
-2.781456201850e+00 -5.829550978429e+01 0.0 
0.0 0.0 -2.188497947295e+01 
-1.073782522865e+02 3.579499227730e+00 0.0 
3.579499227730e+00 -2.311096339465e+02 0.0 
0.0 0.0 -1.011463658699e+02 
-5.682036891788e+01 -8.791244766839e+00 0.0 
-8.791244766839e+00 -1.165858607251e+02 0.0 
0.0 0.0 -4.735647906460e+01 
-1.495238602866e+02 2.377757198415e+00 0.0 
2.377757198415e+00 -3.601098662032e+02 0.0 
0.0 0.0 -1.524901179469e+02 
-1.101083505459e+02 1.633205080327e+00 0.0 
1.633205080327e+00 -2.411452499508e+02 0.0 
0.0 0.0 -1.049760801490e+02 
-1.301748978269e+02 -2.707855946298e-01 0.0 
-2.707855946298e-01 -3.166949730118e+02 0.0 
0.0 0.0 -1.336609612516e+02 
-1.553687672883e+02 1.046586399692e+01 0.0 
1.046586399692e+01 -3.697323377667e+02 0.0 
0.0 0.0 -1.571303315165e+02 
-9.481124858897e+01 -2.987426065176e+00 0.0 
-2.987426065176e+00 -1.961386968577e+02 0.0 
0.0 0.0 -8.149138389264e+01 
-5.048666855341e+01 -7.392715960257e+00 0.0 
-7.392715960257e+00 -1.040499064020e+02 0.0 
0.0 0.0 -4.183118158451e+01 
-3.321234209500e+01 -6.899176046370e+00 0.0 
-6.899176046370e+00 -6.627981067194e+01 0.0 
0.0 0.0 -2.713854101307e+01 
-1.246038922909e+02 7.007089886163e-01 0.0 
7.007089886163e-01 -3.014925516654e+02 0.0 
0.0 0.0 -1.268086676146e+02 
-9.884926597422e+01 7.303146023041e-01 0.0 
7.303146023041e-01 -2.121280645630e+02 0.0 
0.0 0.0 -9.289319916117e+01 
-2.262208068315e+01 -3.920965801521e+00 0.0 
-3.920965801521e+00 -4.710078143686e+01 0.0 
0.0 0.0 -1.850109471778e+01 
-7.738720156222e+01 -5.885399542792e+00 0.0 
-5.885399542792e+00 -1.591940210615e+02 0.0 
0.0 0.0 -6.504681343682e+01 
-3.472599821658e+01 -7.446620443794e-01 0.0 
-7.446620443794e-01 -8.996978371235e+01 0.0 
0.0 0.0 -3.558375361678e+01 
-9.974491616367e+01 3.072454679378e+00 0.0 
3.072454679378e+00 -2.111550980364e+02 0.0 
0.0 0.0 -9.287000426001e+01 
-8.193846417733e+01 -4.554310083587e+00 0.0 
-4.554310083587e+00 -1.676193781891e+02 0.0 
0.0 0.0 -6.813535005561e+01 
-1.143895515283e+02 -1.280207134112e+00 0.0 
-1.280207134112e+00 -2.812851458020e+02 0.0 
0.0 0.0 -1.177744927645e+02 
-7.659172554867e+01 -3.661044384252e+00 0.0 
-3.661044384252e+00 -1.555301600904e+02 0.0 
0.0 0.0 -6.338617203239e+01 
-1.185959176168e+02 2.931820761898e+00 0.0 
2.931820761898e+00 -2.636251226260e+02 0.0 
0.0 0.0 -1.142663120728e+02 
-6.683498807696e+01 -8.602637272772e+00 0.0 
-8.602637272772e+00 -1.373811040736e+02 0.0 
0.0 0.0 -5.600810350480e+01 
-1.230280278734e+02 1.697096563910e+00 0.0 
1.697096563910e+00 -3.044197516326e+02 0.0 
0.0 0.0 -1.277924054872e+02 
-5.124606658984e+01 -1.335653008252e+01 0.0 
-1.335653008252e+01 -9.997962580527e+01 0.0 
0.0 0.0 -4.143010262760e+01 
-1.212294806015e+02 2.975888836579e-01 0.0 
2.975888836579e-01 -2.935387001971e+02 0.0 
0.0 0.0 -1.231015213402e+02 
-1.061691216105e+02 -1.708189452406e+00 0.0 
-1.708189452406e+00 -2.252603748171e+02 0.0 
0.0 0.0 -9.461525200242e+01 
-1.257017015526e+02 -3.245991295804e-01 0.0 
-3.245991295804e-01 -3.086066056670e+02 0.0 
0.0 0.0 -1.298924921659e+02 
-5.907178644365e+01 1.154826819417e+00 0.0 
1.154826819417e+00 -1.765990502936e+02 0.0 
0.0 0.0 -6.772229448728e+01 
-3.903444327814e+01 -3.593981611923e+00 0.0 
-3.593981611923e+00 -8.881340396304e+01 0.0 
0.0 0.0 -3.494163150582e+01 
-9.199176981732e+01 2.086719643150e+00 0.0 
2.086719643150e+00 -1.927551920991e+02 0.0 
0.0 0.0 -8.502408857493e+01 
-1.063249977291e+02 5.533848269074e+00 0.0 
5.533848269074e+00 -2.812995017525e+02 0.0 
0.0 0.0 -1.189450039420e+02 
-8.265367450186e+01 2.090321197506e+01 0.0 
2.090321197506e+01 -1.654087383055e+02 0.0 
0.0 0.0 -7.244457796095e+01 
-9.963089104967e+01 2.509858892868e+00 0.0 
2.509858892868e+00 -2.125460140041e+02 0.0 
0.0 0.0 -9.325307151612e+01 
-5.679942389831e+01 -1.617163375545e+01 0.0 
-1.617163375545e+01 -1.163474994793e+02 0.0 
0.0 0.0 -4.860051855331e+01 
-1.025329612398e+02 2.779690299484e+00 0.0 
2.779690299484e+00 -2.182814531832e+02 0.0 
0.0 0.0 -9.584432432692e+01 
-2.938517928873e+01 -1.360609673764e+00 0.0 
-1.360609673764e+00 -8.100118401754e+01 0.0 
0.0 0.0 -3.141201918515e+01 
-1.408157419158e+02 3.234264423718e+00 0.0 
3.234264423718e+00 -3.421111357586e+02 0.0 
0.0 0.0 -1.444780633023e+02 
-1.103419050434e+02 7.458255132360e+00 0.0 
7.458255132360e+00 -2.897044368687e+02 0.0 
0.0 0.0 -1.214577517076e+02 
-1.152010513441e+02 1.331859131225e+01 0.0 
1.331859131225e+01 -2.926667793044e+02 0.0 
0.0 0.0 -1.219603491946e+02 
-1.292036635386e+02 4.906689194479e+00 0.0 
4.906689194479e+00 -2.917175871283e+02 0.0 
0.0 0.0 -1.258763752001e+02 
-1.046347319154e+02 -3.792367960849e+00 0.0 
-3.792367960849e+00 -2.514915618922e+02 0.0 
0.0 0.0 -1.064037996271e+02 
-3.907681424973e+01 -6.294551186797e+00 0.0 
-6.294551186797e+00 -8.367254545454e+01 0.0 
0.0 0.0 -3.313787655161e+01 
-1.140003628119e+02 -7.372654386801e-01 0.0 
-7.372654386801e-01 -2.778502676458e+02 0.0 
0.0 0.0 -1.156064076867e+02 
-1.445668560167e+02 2.743177402435e+00 0.0 
2.743177402435e+00 -3.518038666437e+02 0.0 
0.0 0.0 -1.485112167981e+02 
-6.551344440094e+01 -1.669455950324e+01 0.0 
-1.669455950324e+01 -1.522517768338e+02 0.0 
0.0 0.0 -6.378630993237e+01 
-1.278925444012e+02 1.028506450674e+00 0.0 
1.028506450674e+00 -3.095104330629e+02 0.0 
0.0 0.0 -1.305523901755e+02 
-1.110970261975e+02 3.406631035411e+00 0.0 
3.406631035411e+00 -2.418627829086e+02 0.0 
0.0 0.0 -1.054879427318e+02 
-5.239593912292e+01 -1.565149718468e+01 0.0 
-1.565149718468e+01 -1.275233234777e+02 0.0 
0.0 0.0 -4.829032781144e+01 
-1.177100288584e+02 -1.754304964426e-01 0.0 
-1.754304964426e-01 -2.856633941719e+02 0.0 
0.0 0.0 -1.193880192709e+02 
-9.210603312021e+01 3.315143370202e+00 0.0 
3.315143370202e+00 -1.896637073178e+02 0.0 
0.0 0.0 -8.413092213139e+01 
-5.769849533236e+01 -2.580329310234e+00 0.0 
-2.580329310234e+00 -1.225075002474e+02 0.0 
0.0 0.0 -4.949706140670e+01 
-7.268451959446e+01 -7.477231660842e+00 0.0 
-7.477231660842e+00 -1.507651304958e+02 0.0 
0.0 0.0 -6.195921214280e+01 
-9.115163920769e+01 1.797705783431e+01 0.0 
1.797705783431e+01 -2.045399108484e+02 0.0 
0.0 0.0 -8.627556517057e+01 
-1.213167314345e+02 -3.846115450227e-01 0.0 
-3.846115450227e-01 -3.005485309275e+02 0.0 
0.0 0.0 -1.261595787086e+02 
-7.595539491115e+01 1.817808074752e+01 0.0 
1.817808074752e+01 -1.378902166303e+02 0.0 
0.0 0.0 -5.954100055639e+01 
-8.713241984668e+01 1.860377651868e+01 0.0 
1.860377651868e+01 -1.976017361737e+02 0.0 
0.0 0.0 -8.361797167352e+01 
-1.062416263452e+02 2.613504865516e+00 0.0 
2.613504865516e+00 -2.288837608243e+02 0.0 
0.0 0.0 -1.001376161508e+02 
-9.475746297250e+01 7.770924120434e-01 0.0 
7.770924120434e-01 -2.012155014629e+02 0.0 
0.0 0.0 -8.839188933061e+01 
-9.486316478126e+01 2.155794538590e+00 0.0 
2.155794538590e+00 -1.983035585645e+02 0.0 
0.0 0.0 -8.755001700373e+01 
-1.041474095330e+02 -3.247231420173e+00 0.0 
-3.247231420173e+00 -2.243911181646e+02 0.0 
0.0 0.0 -9.408626953277e+01 
-1.360451791929e+02 4.761976543670e+00 0.0 
4.761976543670e+00 -3.358236785415e+02 0.0 
0.0 0.0 -1.411606573203e+02 
-1.100714229566e+02 -1.352676760278e+00 0.0 
-1.352676760278e+00 -2.700969897666e+02 0.0 
0.0 0.0 -1.130930520739e+02 
-9.179975232096e+01 2.586015773958e+00 0.0 
2.586015773958e+00 -1.911842753533e+02 0.0 
0.0 0.0 -8.449520830227e+01 
-1.344552434675e+02 1.387747312423e+01 0.0 
1.387747312423e+01 -3.013816528712e+02 0.0 
0.0 0.0 -1.303510689016e+02 
-1.207079286397e+02 1.407346523043e+01 0.0 
1.407346523043e+01 -3.005213565313e+02 0.0 
0.0 0.0 -1.259687855513e+02 
-1.169704683363e+02 -4.419323649115e-01 0.0 
-4.419323649115e-01 -2.924948585347e+02 0.0 
0.0 0.0 -1.224395980613e+02 
-1.137065483496e+02 2.256135848958e+00 0.0 
2.256135848958e+00 -2.503642074090e+02 0.0 
0.0 0.0 -1.088212267276e+02 
-8.231775069957e+01 -9.525520801103e+00 0.0 
-9.525520801103e+00 -1.757613803931e+02 0.0 
0.0 0.0 -7.393332682376e+01 
-7.792515598652e+01 -8.587291571690e+00 0.0 
-8.587291571690e+00 -1.632497185062e+02 0.0 
0.0 0.0 -6.796337180751e+01 
-3.837104602130e+01 -6.225923522919e+00 0.0 
-6.225923522919e+00 -8.711250791891e+01 0.0 
0.0 0.0 -3.367981282791e+01 
-1.149523063595e+02 1.219745268780e+00 0.0 
1.219745268780e+00 -2.884326604963e+02 0.0 
0.0 0.0 -1.201922072650e+02 
-8.261128349542e+01 -6.850592162728e+00 0.0 
-6.850592162728e+00 -1.714571610010e+02 0.0 
0.0 0.0 -7.098006205143e+01 
-1.036515386609e+02 3.751834119024e+00 0.0 
3.751834119024e+00 -2.203451108374e+02 0.0 
0.0 0.0 -9.679899484951e+01 
-9.993505370008e+01 3.918338324691e+00 0.0 
3.918338324691e+00 -2.096734664967e+02 0.0 
0.0 0.0 -9.248255605904e+01 
-8.012777900224e+01 1.030977209840e+01 0.0 
1.030977209840e+01 -2.246621772540e+02 0.0 
0.0 0.0 -9.480600680912e+01 
-6.666158246950e+01 -1.077999977633e+01 0.0 
-1.077999977633e+01 -1.417048087500e+02 0.0 
0.0 0.0 -5.831828044656e+01 
-5.737960029636e+01 1.530119230624e+01 0.0 
1.530119230624e+01 -1.675473659727e+02 0.0 
0.0 0.0 -6.439447319971e+01 
-7.146140676314e+01 -9.279705783655e+00 0.0 
-9.279705783655e+00 -1.499412247639e+02 0.0 
0.0 0.0 -6.143645951481e+01 
-7.538429856810e+01 -9.575696694753e+00 0.0 
-9.575696694753e+00 -1.624651882930e+02 0.0 
0.0 0.0 -6.683005432169e+01 
-4.640018753713e+01 -8.221100260015e+00 0.0 
-8.221100260015e+00 -9.585614607970e+01 0.0 
0.0 0.0 -3.867211308968e+01 
-1.311553264562e+02 5.203589668089e+00 0.0 
5.203589668089e+00 -3.272863952970e+02 0.0 
0.0 0.0 -1.371325165260e+02 
-8.397748851867e+01 -7.612909102600e+00 0.0 
-7.612909102600e+00 -1.998440815100e+02 0.0 
0.0 0.0 -8.301415657640e+01 
-1.184751991982e+02 3.793197279361e+00 0.0 
3.793197279361e+00 -2.619454332849e+02 0.0 
0.0 0.0 -1.137261897449e+02 
-8.606833017525e+01 -6.302128560814e+00 0.0 
-6.302128560814e+00 -2.114120638127e+02 0.0 
0.0 0.0 -8.836345161842e+01 
-1.080553740742e+02 -3.140146374707e-01 0.0 
-3.140146374707e-01 -2.763453200842e+02 0.0 
0.0 0.0 -1.149202082475e+02 
-9.767789925915e+01 -3.466412700022e+00 0.0 
-3.466412700022e+00 -2.384612611261e+02 0.0 
0.0 0.0 -9.912364142895e+01 
-8.245236539800e+01 1.877271426389e+01 0.0 
1.877271426389e+01 -2.017346390057e+02 0.0 
0.0 0.0 -8.541832586738e+01 
-4.261664083399e+01 -5.569717354578e+00 0.0 
-5.569717354578e+00 -9.619186951616e+01 0.0 
0.0 0.0 -3.709005911598e+01 
-1.395658163545e+02 3.171917535044e+00 0.0 
3.171917535044e+00 -3.433276287750e+02 0.0 
0.0 0.0 -1.444680335389e+02 
-1.459697286888e+02 5.614920363025e+00 0.0 
5.614920363025e+00 -3.552786543798e+02 0.0 
0.0 0.0 -1.499745149206e+02 
-1.082706769172e+02 1.537363152070e+01 0.0 
1.537363152070e+01 -2.507363445692e+02 0.0 
0.0 0.0 -1.073021064459e+02 
-7.871070032322e+01 -9.356358805208e+00 0.0 
-9.356358805208e+00 -1.750694771215e+02 0.0 
0.0 0.0 -7.216875537218e+01 
-1.029198306454e+02 -1.709895764613e+00 0.0 
-1.709895764613e+00 -2.574619515929e+02 0.0 
0.0 0.0 -1.065963933395e+02 
-1.023973349961e+02 1.908066348647e+00 0.0 
1.908066348647e+00 -2.195052254784e+02 0.0 
0.0 0.0 -9.617076814234e+01 
-8.703911702776e+01 -7.601200068466e+00 0.0 
-7.601200068466e+00 -1.838882668837e+02 0.0 
0.0 0.0 -7.686293236052e+01 
-7.514151404074e+01 2.156882989780e+01 0.0 
2.156882989780e+01 -1.584444056731e+02 0.0 
0.0 0.0 -6.758491323281e+01 
-6.669285050230e+01 -6.211438023306e+00 0.0 
-6.211438023306e+00 -1.383896273993e+02 0.0 
0.0 0.0 -5.592671990945e+01 
-6.082269630723e+01 -1.675418141030e+01 0.0 
-1.675418141030e+01 -1.330265240293e+02 0.0 
0.0 0.0 -5.531091509215e+01 
-8.586646042199e+01 -1.007059976866e+01 0.0 
-1.007059976866e+01 -1.885225312648e+02 0.0 
0.0 0.0 -7.984712885173e+01 
-6.141304603332e+01 -7.633940428985e+00 0.0 
-7.633940428985e+00 -1.249082585853e+02 0.0 
0.0 0.0 -5.055101517099e+01 
-5.227797842862e+01 -3.468883133321e+00 0.0 
-3.468883133321e+00 -1.140795103089e+02 0.0 
0.0 0.0 -4.521594740185e+01 
-1.029998006141e+02 -5.112406868161e+00 0.0 
-5.112406868161e+00 -2.400869060873e+02 0.0 
0.0 0.0 -1.014119812885e+02 
-1.124743348602e+02 -4.213821646565e-01 0.0 
-4.213821646565e-01 -2.844087534559e+02 0.0 
0.0 0.0 -1.186649264948e+02 
-1.278178402301e+02 1.459828091118e+01 0.0 
1.459828091118e+01 -2.964615852503e+02 0.0 
0.0 0.0 -1.268838276441e+02 
-1.274893402320e+01 5.806895000115e-02 0.0 
5.806895000115e-02 -8.557431108371e+00 0.0 
0.0 0.0 -5.202334915737e+00 
-7.599879668774e+01 -5.716802314357e+00 0.0 
-5.716802314357e+00 -2.068520068926e+02 0.0 
0.0 0.0 -8.623992473494e+01 
-8.093512326733e+01 -7.119327632684e+00 0.0 
-7.119327632684e+00 -2.040123866059e+02 0.0 
0.0 0.0 -8.521555759664e+01 
-8.155302320065e+01 -8.634616409387e+00 0.0 
-8.634616409387e+00 -1.876461867289e+02 0.0 
0.0 0.0 -7.757074245117e+01 
-9.861959787546e+01 2.038173760707e+00 0.0 
2.038173760707e+00 -2.088048219457e+02 0.0 
0.0 0.0 -9.182732594636e+01 
-9.117045310149e+01 -5.466742491939e+00 0.0 
-5.466742491939e+00 -2.192107155885e+02 0.0 
0.0 0.0 -9.133355081464e+01 
-7.160531849680e+01 -7.255587380815e+00 0.0 
-7.255587380815e+00 -1.458629206475e+02 0.0 
0.0 0.0 -5.919123895173e+01 
-8.862783025878e+01 -9.921027444541e+00 0.0 
-9.921027444541e+00 -2.012469153260e+02 0.0 
0.0 0.0 -8.555821875294e+01 
-1.138362918344e+02 1.410945104367e+00 0.0 
1.410945104367e+00 -2.519890035108e+02 0.0 
0.0 0.0 -1.093475886036e+02 
-7.145635022461e+01 -4.864706737775e+00 0.0 
-4.864706737775e+00 -1.469870750257e+02 0.0 
0.0 0.0 -5.910472193751e+01 
-2.380137560630e+01 -4.382413862105e+00 0.0 
-4.382413862105e+00 -5.466106861720e+01 0.0 
0.0 0.0 -2.102693306393e+01 
-3.557898555023e+01 -6.447818360680e+00 0.0 
-6.447818360680e+00 -7.548704155912e+01 0.0 
0.0 0.0 -3.003120772322e+01 
-5.830118581284e+01 -1.489800705389e+01 0.0 
-1.489800705389e+01 -1.348090752536e+02 0.0 
0.0 0.0 -5.473489767035e+01 
-7.036716035988e+01 -1.116041111205e+01 0.0 
-1.116041111205e+01 -1.545341250387e+02 0.0 
0.0 0.0 -6.372887019455e+01 
-8.263333689410e+01 -5.160259486697e+00 0.0 
-5.160259486697e+00 -2.150347758106e+02 0.0 
0.0 0.0 -9.033980308057e+01 
-9.075400016170e+01 -9.102769772529e+00 0.0 
-9.102769772529e+00 -2.135168226706e+02 0.0 
0.0 0.0 -9.097911699579e+01 
-5.069525487507e+01 -1.396654788527e+01 0.0 
-1.396654788527e+01 -9.494766484847e+01 0.0 
0.0 0.0 -3.888185002039e+01 
-2.930764609203e+01 -3.857239372405e+00 0.0 
-3.857239372405e+00 -7.520864043083e+01 0.0 
0.0 0.0 -2.823326341506e+01 
-9.622541024940e+01 5.109722210769e+00 0.0 
5.109722210769e+00 -1.974157784464e+02 0.0 
0.0 0.0 -8.769235660874e+01 
-5.991809191853e+01 -4.861005432878e+00 0.0 
-4.861005432878e+00 -1.262502904989e+02 0.0 
0.0 0.0 -4.988001962231e+01 
-1.250371356704e+02 2.761432946126e+00 0.0 
2.761432946126e+00 -3.163416576385e+02 0.0 
0.0 0.0 -1.320136379926e+02 
-1.236180098447e+02 1.469080341817e+01 0.0 
1.469080341817e+01 -2.889422103200e+02 0.0 
0.0 0.0 -1.233680660494e+02 
-1.017797496742e+02 1.043074637976e+01 0.0 
1.043074637976e+01 -2.086005067271e+02 0.0 
0.0 0.0 -9.271407692039e+01 
-1.209496041482e+02 4.796455424899e+00 0.0 
4.796455424899e+00 -2.680034674983e+02 0.0 
0.0 0.0 -1.162859214939e+02 
-1.318790733371e+02 1.441743208662e+01 0.0 
1.441743208662e+01 -3.041828280244e+02 0.0 
0.0 0.0 -1.304185704084e+02 
-7.726093511642e+01 1.306938170135e+01 0.0 
1.306938170135e+01 -2.139082365885e+02 0.0 
0.0 0.0 -8.932522334518e+01 
-1.158479679519e+02 1.490507166284e+01 0.0 
1.490507166284e+01 -2.698244646425e+02 0.0 
0.0 0.0 -1.153017297783e+02 
-5.638087179963e+01 -1.729259074517e+01 0.0 
-1.729259074517e+01 -1.136692337452e+02 0.0 
0.0 0.0 -4.639938638688e+01 
-9.373475592537e+01 -7.958617711917e+00 0.0 
-7.958617711917e+00 -2.086822373849e+02 0.0 
0.0 0.0 -8.830092431635e+01 
-7.786514046462e+01 2.112394709083e+01 0.0 
2.112394709083e+01 -1.954425158684e+02 0.0 
0.0 0.0 -8.339938731516e+01 
-4.897891276706e+01 -1.132396968707e+01 0.0 
-1.132396968707e+01 -1.401309496503e+02 0.0 
0.0 0.0 -5.133037993492e+01 
-5.082983780114e+01 -1.673645374434e+01 0.0 
-1.673645374434e+01 -9.198770361483e+01 0.0 
0.0 0.0 -3.717044859171e+01 
-8.024403490513e+01 -8.082693645291e+00 0.0 
-8.082693645291e+00 -1.707387864325e+02 0.0 
0.0 0.0 -6.991795111218e+01 
-8.471989090036e+01 -1.076990220623e+01 0.0 
-1.076990220623e+01 -2.062665715715e+02 0.0 
0.0 0.0 -8.778465513339e+01 
-8.613806371300e+01 -8.821797151991e+00 0.0 
-8.821797151991e+00 -2.179082742026e+02 0.0 
0.0 0.0 -9.273382914165e+01 
-6.619465703511e+01 -6.370284427438e+00 0.0 
-6.370284427438e+00 -1.334983766897e+02 0.0 
0.0 0.0 -5.379356105758e+01 
-9.308788324325e+01 -3.894704637350e+00 0.0 
-3.894704637350e+00 -2.304857035569e+02 0.0 
0.0 0.0 -9.656272075505e+01 
-8.021854313008e+01 -9.066078023288e+00 0.0 
-9.066078023288e+00 -2.121648586206e+02 0.0 
0.0 0.0 -8.963045785047e+01 
-7.802979396688e+01 -2.667659581406e+00 0.0 
-2.667659581406e+00 -2.165480463219e+02 0.0 
0.0 0.0 -9.096233937953e+01 
-7.319356550634e+01 -1.067818718074e+01 0.0 
-1.067818718074e+01 -1.552001656735e+02 0.0 
0.0 0.0 -6.499954564260e+01 
-1.096775378807e+02 1.003742575600e+01 0.0 
1.003742575600e+01 -2.877126526733e+02 0.0 
0.0 0.0 -1.201415765609e+02 
-1.075062576835e+02 4.469634551988e+00 0.0 
4.469634551988e+00 -2.297289504388e+02 0.0 
0.0 0.0 -1.007705624367e+02 
-7.454144843327e+01 -6.971487612296e-01 0.0 
-6.971487612296e-01 -2.111165260310e+02 0.0 
0.0 0.0 -8.753456215397e+01 
-1.347176962756e+02 3.594656777437e+00 0.0 
3.594656777437e+00 -3.350077992924e+02 0.0 
0.0 0.0 -1.405176486704e+02 
-5.836245056033e+01 -1.745251319905e+01 0.0 
-1.745251319905e+01 -1.304635403008e+02 0.0 
0.0 0.0 -5.244508237374e+01 
-1.448941927467e+02 6.152152716124e+00 0.0 
6.152152716124e+00 -3.551524503233e+02 0.0 
0.0 0.0 -1.496139929210e+02 
-8.791527468332e+01 -4.571445019239e+00 0.0 
-4.571445019239e+00 -2.225482914130e+02 0.0 
0.0 0.0 -9.357405130813e+01 
-1.363537519273e+02 1.419969090607e+01 0.0 
1.419969090607e+01 -3.138011610456e+02 0.0 
0.0 0.0 -1.346464738919e+02 
-1.034982531079e+02 1.535827407866e+01 0.0 
1.535827407866e+01 -2.232924412999e+02 0.0 
0.0 0.0 -9.763720832234e+01 
-5.410260260384e+01 -1.564058532795e+01 0.0 
-1.564058532795e+01 -1.159397925914e+02 0.0 
0.0 0.0 -4.637896629497e+01 
-1.051332155052e+02 1.162599190935e+01 0.0 
1.162599190935e+01 -2.189374556436e+02 0.0 
0.0 0.0 -9.682120134462e+01 
-1.247380030169e+02 6.915320174605e+00 0.0 
6.915320174605e+00 -2.771405855201e+02 0.0 
0.0 0.0 -1.201635765611e+02 
-8.950471725260e+01 -2.429743209948e+00 0.0 
-2.429743209948e+00 -2.331053726290e+02 0.0 
0.0 0.0 -9.856146214338e+01 
-6.279041188688e+01 2.461464820918e+01 0.0 
2.461464820918e+01 -1.456336748049e+02 0.0 
0.0 0.0 -6.044207220320e+01 
-1.083944711107e+02 1.273150521314e+01 0.0 
1.273150521314e+01 -2.295524192209e+02 0.0 
0.0 0.0 -1.009840670995e+02 
-8.912322327802e+01 1.988071021270e+01 0.0 
1.988071021270e+01 -1.857041237570e+02 0.0 
0.0 0.0 -8.049003870612e+01 
-5.039937035402e+01 -1.525529903434e+01 0.0 
-1.525529903434e+01 -9.509023183271e+01 0.0 
0.0 0.0 -3.850420106352e+01 
-1.350846448206e+02 5.826160683062e+00 0.0 
5.826160683062e+00 -3.088076261797e+02 0.0 
0.0 0.0 -1.327676813001e+02 
-4.547775864439e+01 -1.277504597966e+01 0.0 
-1.277504597966e+01 -7.938407096658e+01 0.0 
0.0 0.0 -3.320804076261e+01 
-1.400120051901e+02 1.334897438362e+01 0.0 
1.334897438362e+01 -3.404657236794e+02 0.0 
0.0 0.0 -1.437433186608e+02 
-1.245313556244e+02 2.396961951366e+00 0.0 
2.396961951366e+00 -2.811319016108e+02 0.0 
0.0 0.0 -1.212989771705e+02 
-1.148458187233e+02 9.189915395958e+00 0.0 
9.189915395958e+00 -2.978379602273e+02 0.0 
0.0 0.0 -1.239196655664e+02 
-9.461170729318e+01 1.324676392018e+00 0.0 
1.324676392018e+00 -1.993721098790e+02 0.0 
0.0 0.0 -8.779514515165e+01 
-1.186550457923e+02 5.819995586064e+00 0.0 
5.819995586064e+00 -2.593392590105e+02 0.0 
0.0 0.0 -1.129982914408e+02 
-8.269073934222e+01 -5.173454397248e+00 0.0 
-5.173454397248e+00 -2.221536612608e+02 0.0 
0.0 0.0 -9.423730003631e+01 
-8.679799189249e+01 1.014265891899e+01 0.0 
1.014265891899e+01 -2.411097417376e+02 0.0 
0.0 0.0 -1.033334887358e+02 
-1.280915804472e+02 5.325180427718e+00 0.0 
5.325180427718e+00 -2.881022643181e+02 0.0 
0.0 0.0 -1.244581534296e+02 
-1.211374249025e+02 3.966209418177e-01 0.0 
3.966209418177e-01 -3.033696460713e+02 0.0 
0.0 0.0 -1.269521212921e+02 
-1.113841813088e+02 5.237506272613e+00 0.0 
5.237506272613e+00 -2.392269783810e+02 0.0 
0.0 0.0 -1.047833479070e+02 
-1.093962022049e+02 4.123241862728e+00 0.0 
4.123241862728e+00 -2.895066223406e+02 0.0 
0.0 0.0 -1.200341620342e+02 
-5.120398209559e+01 -1.651732235846e+01 0.0 
-1.651732235846e+01 -1.115805193649e+02 0.0 
0.0 0.0 -4.277674199806e+01 
-1.152192260527e+02 6.089934919472e+00 0.0 
6.089934919472e+00 -2.487789468300e+02 0.0 
0.0 0.0 -1.087994518648e+02 
-1.470590260471e+02 1.670954513316e+01 0.0 
1.670954513316e+01 -3.438809228746e+02 0.0 
0.0 0.0 -1.468819846765e+02 
-1.451015675631e+02 4.222135695686e+00 0.0 
4.222135695686e+00 -3.544713725215e+02 0.0 
0.0 0.0 -1.494718820254e+02 
-8.893146203368e+01 -6.691423974974e+00 0.0 
-6.691423974974e+00 -2.074650893225e+02 0.0 
0.0 0.0 -8.599233912126e+01 
-9.584008323550e+01 3.255747833039e+00 0.0 
3.255747833039e+00 -2.001533243667e+02 0.0 
0.0 0.0 -8.839802228065e+01 
-9.071511613716e+01 1.397057882484e+00 0.0 
1.397057882484e+00 -1.887568996467e+02 0.0 
0.0 0.0 -8.344160473516e+01 
-9.240732512530e+01 -7.629409594809e+00 0.0 
-7.629409594809e+00 -2.252877066317e+02 0.0 
0.0 0.0 -9.610804092279e+01 
-1.164438162164e+02 4.338585038313e-01 0.0 
4.338585038313e-01 -2.952788384286e+02 0.0 
0.0 0.0 -1.231167963935e+02 
-1.206596275988e+02 1.527813540004e+00 0.0 
1.527813540004e+00 -3.059460985154e+02 0.0 
0.0 0.0 -1.275817178343e+02 
-2.762180622893e+01 -3.298223394448e+00 0.0 
-3.298223394448e+00 -6.640797347333e+01 0.0 
0.0 0.0 -2.486852379050e+01 
-5.152010058345e+01 1.660747079083e+01 0.0 
1.660747079083e+01 -1.540760362685e+02 0.0 
0.0 0.0 -5.816578794803e+01 
-7.719028402519e+01 2.737969023387e+00 0.0 
2.737969023387e+00 -2.200602238544e+02 0.0 
0.0 0.0 -9.195897972953e+01 
-7.757444202732e+01 -3.235819393823e+00 0.0 
-3.235819393823e+00 -2.136081707030e+02 0.0 
0.0 0.0 -9.006241915111e+01 
-8.570741816915e+01 2.229890743512e+01 0.0 
2.229890743512e+01 -1.935339603205e+02 0.0 
0.0 0.0 -8.392768140068e+01 
-1.326834330977e+02 6.755793083471e+00 0.0 
6.755793083471e+00 -2.991896177200e+02 0.0 
0.0 0.0 -1.291619152453e+02 
-1.287172698380e+02 1.072307832047e+01 0.0 
1.072307832047e+01 -2.881512372017e+02 0.0 
0.0 0.0 -1.246605521119e+02 
-1.254994180403e+02 4.106460531228e+00 0.0 
4.106460531228e+00 -2.817367873646e+02 0.0 
0.0 0.0 -1.217708616215e+02 
-7.993266559644e+01 1.637904178722e+01 0.0 
1.637904178722e+01 -1.460597533991e+02 0.0 
0.0 0.0 -6.234777234805e+01 
-1.177556047203e+02 6.275583526626e+00 0.0 
6.275583526626e+00 -2.569777191880e+02 0.0 
0.0 0.0 -1.120199971725e+02 
-1.190312212592e+02 1.472665924889e+00 0.0 
1.472665924889e+00 -2.964089802191e+02 0.0 
0.0 0.0 -1.239960077261e+02 
-1.279499083296e+02 4.125975932119e+00 0.0 
4.125975932119e+00 -2.892658227447e+02 0.0 
0.0 0.0 -1.247647193223e+02 
-1.117453974836e+02 6.354496434959e+00 0.0 
6.354496434959e+00 -2.382665231440e+02 0.0 
0.0 0.0 -1.046035761883e+02 
-9.616925547463e+01 -7.408260910423e+00 0.0 
-7.408260910423e+00 -2.208612260764e+02 0.0 
0.0 0.0 -9.376484447304e+01 
-7.445157698223e+01 5.983592491637e+00 0.0 
5.983592491637e+00 -2.133033143955e+02 0.0 
0.0 0.0 -8.741063843587e+01 
-1.137567091815e+02 4.192653358301e+00 0.0 
4.192653358301e+00 -2.478398475875e+02 0.0 
0.0 0.0 -1.080789670307e+02 
-1.257738339493e+02 6.371569810362e+00 0.0 
6.371569810362e+00 -2.795064123648e+02 0.0 
0.0 0.0 -1.211840738942e+02 
-1.136645494014e+02 3.147520063857e+00 0.0 
3.147520063857e+00 -2.489617110982e+02 0.0 
0.0 0.0 -1.083878781499e+02 
-1.100147322874e+02 3.367258757501e+00 0.0 
3.367258757501e+00 -2.383325264046e+02 0.0 
0.0 0.0 -1.041041776076e+02 
-1.348760952569e+02 2.106647593845e+00 0.0 
2.106647593845e+00 -3.330730552902e+02 0.0 
0.0 0.0 -1.399847451641e+02 
-1.354243512643e+02 1.381178960596e+01 0.0 
1.381178960596e+01 -3.301247329776e+02 0.0 
0.0 0.0 -1.392647252725e+02 
-1.300131195439e+02 2.396846571140e+00 0.0 
2.396846571140e+00 -3.247508418555e+02 0.0 
0.0 0.0 -1.360291884198e+02 
-1.066521628080e+02 -1.655265369193e+00 0.0 
-1.655265369193e+00 -2.653876090716e+02 0.0 
0.0 0.0 -1.103717884371e+02 
-7.553466549287e+01 8.066136168314e+00 0.0 
8.066136168314e+00 -1.314715025334e+02 0.0 
0.0 0.0 -5.827172330070e+01 
-1.196645642912e+02 1.063489824566e+01 0.0 
1.063489824566e+01 -3.057510780352e+02 0.0 
0.0 0.0 -1.272246926979e+02 
-1.109832688357e+02 6.904083750044e+00 0.0 
6.904083750044e+00 -2.369246343879e+02 0.0 
0.0 0.0 -1.039723709671e+02 
-5.506258799805e+01 -6.351342794331e+00 0.0 
-6.351342794331e+00 -1.126740897255e+02 0.0 
0.0 0.0 -4.500504040083e+01 
-7.914550986819e+01 6.357651021726e-01 0.0 
6.357651021726e-01 -2.212925225701e+02 0.0 
0.0 0.0 -9.340153367115e+01 
-8.767646253509e+01 2.092265458632e+00 0.0 
2.092265458632e+00 -2.421862829653e+02 0.0 
0.0 0.0 -1.038185718016e+02 
-9.437725937361e+01 1.044457615654e+01 0.0 
1.044457615654e+01 -2.597783947534e+02 0.0 
0.0 0.0 -1.101329536234e+02 
-4.669996413952e+01 -8.132593126582e-01 0.0 
-8.132593126582e-01 -1.506761227127e+02 0.0 
0.0 0.0 -5.595571963596e+01 
-7.499536958069e+01 3.524858650487e+00 0.0 
3.524858650487e+00 -2.128457298331e+02 0.0 
0.0 0.0 -8.772024238371e+01 
-1.043001193018e+02 1.099529420905e+01 0.0 
1.099529420905e+01 -2.773576562889e+02 0.0 
0.0 0.0 -1.160031719339e+02 
-8.682237851168e+01 1.135685004589e+01 0.0 
1.135685004589e+01 -1.626228883379e+02 0.0 
0.0 0.0 -7.140577571307e+01 
-9.583803939451e+01 -4.838642876743e+00 0.0 
-4.838642876743e+00 -2.270465063649e+02 0.0 
0.0 0.0 -9.397861451107e+01 
-1.043101998684e+02 5.703950634215e+00 0.0 
5.703950634215e+00 -2.180505617631e+02 0.0 
0.0 0.0 -9.630822848945e+01 
-7.831689800320e+01 5.429108156528e-01 0.0 
5.429108156528e-01 -1.584439694427e+02 0.0 
0.0 0.0 -7.062826023378e+01 
-3.876602640893e+01 2.687424940645e+01 0.0 
2.687424940645e+01 -2.958226820705e+01 0.0 
0.0 0.0 -1.645559403195e+01 
-1.088818548973e+02 -2.947919793728e+00 0.0 
-2.947919793728e+00 -2.590482664116e+02 0.0 
0.0 0.0 -1.084283365759e+02 
-1.189292208843e+02 7.334334318243e+00 0.0 
7.334334318243e+00 -3.070804542947e+02 0.0 
0.0 0.0 -1.274029025537e+02 
-1.320735950038e+02 1.016228863881e+01 0.0 
1.016228863881e+01 -2.975224147722e+02 0.0 
0.0 0.0 -1.284788029328e+02 
-8.388613002808e+01 8.759718087887e+00 0.0 
8.759718087887e+00 -2.360848722022e+02 0.0 
0.0 0.0 -1.010483053345e+02 
-1.017305931070e+02 -3.199264978028e+00 0.0 
-3.199264978028e+00 -2.463461266178e+02 0.0 
0.0 0.0 -1.017577980842e+02 
-1.038692364930e+02 4.637902031608e+00 0.0 
4.637902031608e+00 -2.191508498315e+02 0.0 
0.0 0.0 -9.650602589734e+01 
-4.640226004861e+01 2.404694382091e+01 0.0 
2.404694382091e+01 -2.767512128116e+01 0.0 
0.0 0.0 -1.831692524483e+01 
-1.139413689674e+02 8.109333720858e+00 0.0 
8.109333720858e+00 -2.972214275649e+02 0.0 
0.0 0.0 -1.240871006376e+02 
-9.036983627326e+01 8.518066406900e+00 0.0 
8.518066406900e+00 -2.516277254443e+02 0.0 
0.0 0.0 -1.083368954791e+02 
-9.009447241550e+01 1.291788949625e+01 0.0 
1.291788949625e+01 -1.722829893697e+02 0.0 
0.0 0.0 -7.641615455635e+01 
-1.224886804742e+02 2.716242808428e+00 0.0 
2.716242808428e+00 -3.069783590669e+02 0.0 
0.0 0.0 -1.284401118623e+02 
-5.515060168070e+01 -1.475466247961e+01 0.0 
-1.475466247961e+01 -1.427728369637e+02 0.0 
0.0 0.0 -5.562736347469e+01 
-1.267417772156e+02 3.883967022628e+00 0.0 
3.883967022628e+00 -3.173085885288e+02 0.0 
0.0 0.0 -1.328151097233e+02 
-1.396453130631e+02 4.792043625919e+00 0.0 
4.792043625919e+00 -3.450801140626e+02 0.0 
0.0 0.0 -1.450176281377e+02 
-1.089497461219e+02 8.906608999997e+00 0.0 
8.906608999997e+00 -2.871612278461e+02 0.0 
0.0 0.0 -1.208020999054e+02 
-1.149149359060e+02 5.000355050926e+00 0.0 
5.000355050926e+00 -2.498106965928e+02 0.0 
0.0 0.0 -1.090176897496e+02 
-1.219875507475e+02 1.606997024160e+01 0.0 
1.606997024160e+01 -2.927975738376e+02 0.0 
0.0 0.0 -1.240355373755e+02 
-1.409043869667e+02 6.094597448377e+00 0.0 
6.094597448377e+00 -3.458519119032e+02 0.0 
0.0 0.0 -1.456268896610e+02 
-3.235872990741e+01 1.256403257879e+01 0.0 
1.256403257879e+01 -2.722200714469e+01 0.0 
0.0 0.0 -1.482078313764e+01 
-1.078672949581e+02 5.445750886795e+00 0.0 
5.445750886795e+00 -2.286678201298e+02 0.0 
0.0 0.0 -1.005605345264e+02 
-1.355190600882e+02 1.494566707534e+01 0.0 
1.494566707534e+01 -3.270963052320e+02 0.0 
0.0 0.0 -1.383846095960e+02 
-1.173099220151e+02 3.940970880591e+00 0.0 
3.940970880591e+00 -2.584488827824e+02 0.0 
0.0 0.0 -1.123276414392e+02 
-9.836671532360e+01 8.271231737605e+00 0.0 
8.271231737605e+00 -2.692492006767e+02 0.0 
0.0 0.0 -1.146935831181e+02 
-7.722231165361e+01 7.264042515721e+00 0.0 
7.264042515721e+00 -2.188468096922e+02 0.0 
0.0 0.0 -9.109939008125e+01 
-1.056467548317e+02 -3.904156134938e+00 0.0 
-3.904156134938e+00 -2.391422650641e+02 0.0 
0.0 0.0 -9.975813716387e+01 
-3.276026589914e+01 7.464379396971e+00 0.0 
7.464379396971e+00 -1.297866266809e+02 0.0 
0.0 0.0 -5.073225556524e+01 
-1.208888978043e+02 3.648087210121e+00 0.0 
3.648087210121e+00 -2.690767830451e+02 0.0 
0.0 0.0 -1.165897042548e+02 
-5.999406324366e+01 -5.320551948280e+00 0.0 
-5.320551948280e+00 -1.213560105798e+02 0.0 
0.0 0.0 -4.844994879533e+01 
-3.672720617777e+01 1.022002590419e+01 0.0 
1.022002590419e+01 -4.347249389923e+01 0.0 
0.0 0.0 -2.121074217449e+01 
-1.183337031385e+02 1.640476164732e+01 0.0 
1.640476164732e+01 -2.813710376368e+02 0.0 
0.0 0.0 -1.195114222326e+02 
-1.282882036901e+02 3.078687866443e+00 0.0 
3.078687866443e+00 -2.909934986135e+02 0.0 
0.0 0.0 -1.253845106911e+02 
-5.504369613548e+01 -1.798166801642e+01 0.0 
-1.798166801642e+01 -1.288329651537e+02 0.0 
0.0 0.0 -5.055897317353e+01 
-9.474407616591e+01 1.734993365907e+01 0.0 
1.734993365907e+01 -2.117291630017e+02 0.0 
0.0 0.0 -9.047044005929e+01 
-1.102349020299e+02 4.404581431657e+00 0.0 
4.404581431657e+00 -2.373032635828e+02 0.0 
0.0 0.0 -1.038614496838e+02 
-1.049852088892e+02 -4.716966049579e+00 0.0 
-4.716966049579e+00 -2.359742566993e+02 0.0 
0.0 0.0 -9.836891667744e+01 
-5.030612674490e+01 -6.977874381962e+00 0.0 
-6.977874381962e+00 -1.503021852753e+02 0.0 
0.0 0.0 -5.675428312851e+01 
-6.358050253117e+01 2.644674518285e+01 0.0 
2.644674518285e+01 -1.458942338576e+02 0.0 
0.0 0.0 -6.130530669137e+01 
-4.858482821790e+01 -1.716164598329e+01 0.0 
-1.716164598329e+01 -9.113135726190e+01 0.0 
0.0 0.0 -3.591112575511e+01 
-4.858170789029e+01 -1.512142007037e+01 0.0 
-1.512142007037e+01 -1.263941301191e+02 0.0 
0.0 0.0 -4.673929002117e+01 
-4.788817265925e+01 -1.742358717972e+01 0.0 
-1.742358717972e+01 -1.088533763906e+02 0.0 
0.0 0.0 -3.958395716647e+01 
-9.079331729875e+01 8.030222246235e+00 0.0 
8.030222246235e+00 -2.527301873176e+02 0.0 
0.0 0.0 -1.091476469474e+02 
-1.458167255519e+02 9.696956434148e+00 0.0 
9.696956434148e+00 -3.357089613015e+02 0.0 
0.0 0.0 -1.440577060560e+02 
-4.475420670963e+01 7.915267771278e+00 0.0 
7.915267771278e+00 -6.316337466324e+01 0.0 
0.0 0.0 -2.817548181467e+01 
-1.397180769463e+02 1.870515285837e+00 0.0 
1.870515285837e+00 -3.413299236729e+02 0.0 
0.0 0.0 -1.439144001858e+02 
-6.977287690657e+01 1.374444457843e+01 0.0 
1.374444457843e+01 -1.968587453375e+02 0.0 
0.0 0.0 -7.915244357114e+01 
-1.082827041474e+02 6.653504744687e+00 0.0 
6.653504744687e+00 -2.279487355164e+02 0.0 
0.0 0.0 -1.004694318991e+02 
-3.792614667261e+01 6.122227184981e+00 0.0 
6.122227184981e+00 -1.368482391825e+02 0.0 
0.0 0.0 -5.188475169242e+01 
-1.457637583911e+02 7.319720147170e+00 0.0 
7.319720147170e+00 -3.554292748933e+02 0.0 
0.0 0.0 -1.499579099853e+02 
-5.507930258620e+01 -1.931376444127e+01 0.0 
-1.931376444127e+01 -1.122472960420e+02 0.0 
0.0 0.0 -4.476971175946e+01 
-7.132209705965e+01 -5.207650131965e+00 0.0 
-5.207650131965e+00 -1.427198360672e+02 0.0 
0.0 0.0 -5.791764702458e+01 
-1.145099934842e+02 1.018008152906e+01 0.0 
1.018008152906e+01 -2.951148427325e+02 0.0 
0.0 0.0 -1.236092090168e+02 
-8.735093075982e+01 -6.209013048329e+00 0.0 
-6.209013048329e+00 -2.287046651508e+02 0.0 
0.0 0.0 -9.736119859821e+01 
-1.306525593131e+02 1.424548992875e+01 0.0 
1.424548992875e+01 -3.194286689772e+02 0.0 
0.0 0.0 -1.346243684871e+02 
-6.832613711370e+01 2.357633248622e+01 0.0 
2.357633248622e+01 -1.380213529328e+02 0.0 
0.0 0.0 -5.936772144520e+01 
-1.158163755808e+02 8.556606203215e+00 0.0 
8.556606203215e+00 -2.478610207510e+02 0.0 
0.0 0.0 -1.087032188995e+02 
-1.397602254576e+02 1.185180163407e+01 0.0 
1.185180163407e+01 -3.400310730812e+02 0.0 
0.0 0.0 -1.435373895616e+02 
-1.063806967749e+02 3.536105580561e+00 0.0 
3.536105580561e+00 -2.277327106277e+02 0.0 
0.0 0.0 -9.983402222076e+01 
-1.331497245605e+02 1.216877496783e+01 0.0 
1.216877496783e+01 -2.984097848341e+02 0.0 
0.0 0.0 -1.290678528184e+02 
-1.189313820340e+02 6.975778595530e+00 0.0 
6.975778595530e+00 -2.583602322459e+02 0.0 
0.0 0.0 -1.127874842840e+02 
-1.225855548793e+02 7.893812354089e+00 0.0 
7.893812354089e+00 -2.681573405297e+02 0.0 
0.0 0.0 -1.168228686227e+02 
-4.573715467932e+01 2.366431565151e+01 0.0 
2.366431565151e+01 -1.276873914962e+02 0.0 
0.0 0.0 -4.831062473173e+01 
-1.349508306164e+02 1.077122678220e+00 0.0 
1.077122678220e+00 -3.304552160638e+02 0.0 
0.0 0.0 -1.392218140041e+02 
-1.140550695911e+02 5.335445787847e+00 0.0 
5.335445787847e+00 -2.470993767811e+02 0.0 
0.0 0.0 -1.079463339116e+02 
-8.478824026461e+01 1.691285777701e+01 0.0 
1.691285777701e+01 -2.244418161020e+02 0.0 
0.0 0.0 -9.639866431111e+01 
-5.388494541611e+01 5.495039309702e+00 0.0 
5.495039309702e+00 -8.332167942371e+01 0.0 
0.0 0.0 -3.581082037000e+01 
-1.453775991416e+02 1.428872586421e+01 0.0 
1.428872586421e+01 -3.486801691998e+02 0.0 
0.0 0.0 -1.478173305024e+02 
-4.757196188667e+01 1.185961518543e+01 0.0 
1.185961518543e+01 -1.512157131840e+02 0.0 
0.0 0.0 -5.634687951121e+01 
-6.514045417043e+01 -3.644630445090e+00 0.0 
-3.644630445090e+00 -1.349331900528e+02 0.0 
0.0 0.0 -5.430317041939e+01 
-1.253273187287e+02 1.195888158068e+01 0.0 
1.195888158068e+01 -3.110482359209e+02 0.0 
0.0 0.0 -1.305126663949e+02 
-2.721115715668e+01 6.841114092864e-01 0.0 
6.841114092864e-01 -8.003737140357e+01 0.0 
0.0 0.0 -3.133765028206e+01 
-8.793785779702e+01 1.784995475190e+01 0.0 
1.784995475190e+01 -2.096376898684e+02 0.0 
0.0 0.0 -8.863267405977e+01 
-1.191964636035e+02 9.429007605508e+00 0.0 
9.429007605508e+00 -3.053216885700e+02 0.0 
0.0 0.0 -1.271541045352e+02 
-1.291444490567e+02 8.346116004768e+00 0.0 
8.346116004768e+00 -2.876884885765e+02 0.0 
0.0 0.0 -1.246498812900e+02 
-1.327943074165e+02 9.368178009790e+00 0.0 
9.368178009790e+00 -2.980818617948e+02 0.0 
0.0 0.0 -1.288628507634e+02 
-1.146634762931e+02 1.145919097310e+01 0.0 
1.145919097310e+01 -2.954465754674e+02 0.0 
0.0 0.0 -1.226330155281e+02 
-1.223229204401e+02 6.689225146922e+00 0.0 
6.689225146922e+00 -2.689108003039e+02 0.0 
0.0 0.0 -1.169701162232e+02 
-7.428515124736e+01 1.645078656392e+01 0.0 
1.645078656392e+01 -2.022482359111e+02 0.0 
0.0 0.0 -8.331530814491e+01 
-1.198493962249e+02 1.643128486121e+01 0.0 
1.643128486121e+01 -2.775565385728e+02 0.0 
0.0 0.0 -1.188217804393e+02 
-6.224376750216e+01 4.258613983390e+00 0.0 
4.258613983390e+00 -1.024178123762e+02 0.0 
0.0 0.0 -4.570869577198e+01 
-1.318558047013e+02 1.274957255221e+01 0.0 
1.274957255221e+01 -2.996002761906e+02 0.0 
0.0 0.0 -1.290368242676e+02 
-6.935620078944e+01 3.796537815856e+00 0.0 
3.796537815856e+00 -1.211381396806e+02 0.0 
0.0 0.0 -5.480676687385e+01 
-7.269816884594e+01 3.835016339197e+00 0.0 
3.835016339197e+00 -1.306405497557e+02 0.0 
0.0 0.0 -5.946926037855e+01 
-8.170910246776e+01 1.191263187115e+01 0.0 
1.191263187115e+01 -2.278790108386e+02 0.0 
0.0 0.0 -9.682142989637e+01 
-7.557995736578e+01 3.641038056794e+00 0.0 
3.641038056794e+00 -1.401400582677e+02 0.0 
0.0 0.0 -6.364200783289e+01 
-9.474894107783e+01 1.601749766374e+01 0.0 
1.601749766374e+01 -2.400764413487e+02 0.0 
0.0 0.0 -1.005170367141e+02 
-7.729121930851e+01 1.923480326576e+01 0.0 
1.923480326576e+01 -1.956051224313e+02 0.0 
0.0 0.0 -8.247030795213e+01 
-8.073577451965e+01 4.350348602640e+00 0.0 
4.350348602640e+00 -2.286311595223e+02 0.0 
0.0 0.0 -9.683239689270e+01 
-4.446754307671e+01 -7.648899212836e+00 0.0 
-7.648899212836e+00 -1.397369980743e+02 0.0 
0.0 0.0 -5.128459434012e+01 
-7.788441356773e+01 9.270905712611e+00 0.0 
9.270905712611e+00 -2.207245574341e+02 0.0 
0.0 0.0 -9.201541644641e+01 
-1.244404577027e+02 4.501498886346e+00 0.0 
4.501498886346e+00 -2.786204135455e+02 0.0 
0.0 0.0 -1.205182613745e+02 
-1.330270488509e+02 1.144698850204e+01 0.0 
1.144698850204e+01 -3.005954231719e+02 0.0 
0.0 0.0 -1.296867416068e+02 
-1.258121697085e+02 3.968978950443e-01 0.0 
3.968978950443e-01 -3.114650160338e+02 0.0 
0.0 0.0 -1.307831557227e+02 
-1.349891306744e+02 1.229005546183e+01 0.0 
1.229005546183e+01 -3.296158006174e+02 0.0 
0.0 0.0 -1.389814793875e+02 
-8.334703235446e+01 -3.181540577246e+00 0.0 
-3.181540577246e+00 -2.250865030939e+02 0.0 
0.0 0.0 -9.491477729339e+01 
-1.211711197382e+02 5.970696846393e+00 0.0 
5.970696846393e+00 -2.672235878665e+02 0.0 
0.0 0.0 -1.161184122814e+02 
-8.027114324027e+01 5.959742514052e+00 0.0 
5.959742514052e+00 -2.282836862697e+02 0.0 
0.0 0.0 -9.647275097020e+01 
-1.396091015393e+02 9.231730777550e-01 0.0 
9.231730777550e-01 -3.385837517318e+02 0.0 
0.0 0.0 -1.430578559813e+02 
-1.174610583185e+02 5.091973558797e+00 0.0 
5.091973558797e+00 -2.574171651827e+02 0.0 
0.0 0.0 -1.120634670503e+02 
-1.192135305288e+02 8.223066548356e+00 0.0 
8.223066548356e+00 -2.579444228381e+02 0.0 
0.0 0.0 -1.127473860101e+02 
-1.035827870404e+02 7.285193528916e+00 0.0 
7.285193528916e+00 -2.790485491108e+02 0.0 
0.0 0.0 -1.178263957469e+02 
-7.598557862832e+01 1.280177359620e+01 0.0 
1.280177359620e+01 -2.120738092501e+02 0.0 
0.0 0.0 -8.759807858113e+01 
-1.276620796983e+02 1.625934149230e+01 0.0 
1.625934149230e+01 -2.965546062974e+02 0.0 
0.0 0.0 -1.268650057987e+02 
-1.039569799441e+02 1.321572546001e+01 0.0 
1.321572546001e+01 -2.227805355111e+02 0.0 
0.0 0.0 -9.738949144043e+01 
-5.004487782591e+01 -1.299796633132e+01 0.0 
-1.299796633132e+01 -1.403803160669e+02 0.0 
0.0 0.0 -5.319607681330e+01 
-4.675855703558e+01 5.207834916716e+00 0.0 
5.207834916716e+00 -1.490344556286e+02 0.0 
0.0 0.0 -5.506249426168e+01 
-7.264204963032e+01 2.531785961414e+01 0.0 
2.531785961414e+01 -1.545817232392e+02 0.0 
0.0 0.0 -6.775825601632e+01 
-9.832890266482e+01 1.738492863874e+01 0.0 
1.738492863874e+01 -2.120922613832e+02 0.0 
0.0 0.0 -9.006432630523e+01 
-1.441990307753e+02 7.443038186081e-01 0.0 
7.443038186081e-01 -3.469282516033e+02 0.0 
0.0 0.0 -1.469381847136e+02 
-1.155032321765e+02 7.288487568139e+00 0.0 
7.288487568139e+00 -2.480477647486e+02 0.0 
0.0 0.0 -1.086652990775e+02 
-7.402992344779e+01 1.037551918862e+01 0.0 
1.037551918862e+01 -2.087890587855e+02 0.0 
0.0 0.0 -8.555021005650e+01 
-1.044492151770e+02 1.710715871708e+01 0.0 
1.710715871708e+01 -2.387137037372e+02 0.0 
0.0 0.0 -1.025488756742e+02 
-1.240679928466e+02 8.704459324354e+00 0.0 
8.704459324354e+00 -3.155281298381e+02 0.0 
0.0 0.0 -1.314788368054e+02 
-1.221264544488e+02 5.520768395364e+00 0.0 
5.520768395364e+00 -2.699315537374e+02 0.0 
0.0 0.0 -1.172174024558e+02 
-1.318444855229e+02 1.606468404834e+01 0.0 
1.606468404834e+01 -3.044216274350e+02 0.0 
0.0 0.0 -1.304798338874e+02 
-1.032684603799e+02 4.882293273864e+00 0.0 
4.882293273864e+00 -2.168336610629e+02 0.0 
0.0 0.0 -9.563063643283e+01 
-1.295464549583e+02 6.003935601212e+00 0.0 
6.003935601212e+00 -3.270981661465e+02 0.0 
0.0 0.0 -1.365933863315e+02 
-8.327165758798e+01 7.595010997583e+00 0.0 
7.595010997583e+00 -2.350585040126e+02 0.0 
0.0 0.0 -1.000592077253e+02 
-1.247175411111e+02 9.853377016969e+00 0.0 
9.853377016969e+00 -3.159570004010e+02 0.0 
0.0 0.0 -1.318023624536e+02 
-9.193294899551e+01 2.041875551607e+01 0.0 
2.041875551607e+01 -2.122480871043e+02 0.0 
0.0 0.0 -9.151552141544e+01 
-1.291619964839e+02 7.144072188426e+00 0.0 
7.144072188426e+00 -2.888252028133e+02 0.0 
0.0 0.0 -1.249961597892e+02 
-1.370680013221e+02 1.628912736988e+01 0.0 
1.628912736988e+01 -3.142894990890e+02 0.0 
0.0 0.0 -1.350072501233e+02 
-9.412934482978e+01 6.371041874904e+00 0.0 
6.371041874904e+00 -2.607685920197e+02 0.0 
0.0 0.0 -1.120756340196e+02 
-4.396304045408e+01 5.806905403249e+00 0.0 
5.806905403249e+00 -1.468133909692e+02 0.0 
0.0 0.0 -5.479201015129e+01 
-1.260780257746e+02 1.414116540961e+01 0.0 
1.414116540961e+01 -3.036636685469e+02 0.0 
0.0 0.0 -1.285225082965e+02 
-9.336533357706e+01 1.635153572655e+01 0.0 
1.635153572655e+01 -2.285928152843e+02 0.0 
0.0 0.0 -9.606752927329e+01 
-7.124755975009e+01 1.354285447847e+01 0.0 
1.354285447847e+01 -1.978727058751e+02 0.0 
0.0 0.0 -8.010631487134e+01 
-9.927825631702e+01 9.225464362074e+00 0.0 
9.225464362074e+00 -2.698399907130e+02 0.0 
0.0 0.0 -1.140021125486e+02 
-1.261523099192e+02 5.664493113183e+00 0.0 
5.664493113183e+00 -3.184508391085e+02 0.0 
0.0 0.0 -1.329809447083e+02 
-4.537436533232e+01 -1.949353036208e+00 0.0 
-1.949353036208e+00 -1.451012361246e+02 0.0 
0.0 0.0 -5.425634300205e+01 
-8.691631564279e+01 5.886633063110e+00 0.0 
5.886633063110e+00 -2.440575897907e+02 0.0 
0.0 0.0 -1.048865378673e+02 
-1.076163440700e+02 1.049112739470e+01 0.0 
1.049112739470e+01 -2.287914862622e+02 0.0 
0.0 0.0 -1.005223490996e+02 
-1.450173275622e+02 2.268833400390e+00 0.0 
2.268833400390e+00 -3.475811091415e+02 0.0 
0.0 0.0 -1.473795310111e+02 
-1.110073774112e+02 1.153990650057e+01 0.0 
1.153990650057e+01 -2.396949173155e+02 0.0 
0.0 0.0 -1.048106884180e+02 
-1.224645288242e+02 1.451171648132e+01 0.0 
1.451171648132e+01 -2.926753794136e+02 0.0 
0.0 0.0 -1.241419724713e+02 
-1.040932026511e+02 9.373295266865e+00 0.0 
9.373295266865e+00 -2.180706411812e+02 0.0 
0.0 0.0 -9.624915314968e+01 
-9.640132558414e+01 6.914977598479e+00 0.0 
6.914977598479e+00 -1.971701138908e+02 0.0 
0.0 0.0 -8.767143184247e+01 
-1.066104325288e+02 1.391500142599e+01 0.0 
1.391500142599e+01 -2.344862933019e+02 0.0 
0.0 0.0 -1.019203235260e+02 
-1.298576614167e+02 1.139629054118e+01 0.0 
1.139629054118e+01 -3.215389287810e+02 0.0 
0.0 0.0 -1.350189770593e+02 
-1.317013479196e+02 2.552904730045e+00 0.0 
2.552904730045e+00 -3.232927969526e+02 0.0 
0.0 0.0 -1.360982434617e+02 
-1.106221321082e+02 5.626081104559e+00 0.0 
5.626081104559e+00 -2.369262233998e+02 0.0 
0.0 0.0 -1.038645066524e+02 
-1.316545210047e+02 7.623121146782e+00 0.0 
7.623121146782e+00 -2.972839390187e+02 0.0 
0.0 0.0 -1.282815380070e+02 
-1.004530195962e+02 8.183999826177e+00 0.0 
8.183999826177e+00 -2.075980381152e+02 0.0 
0.0 0.0 -9.201531731342e+01 
-6.172671566383e+01 1.069775663793e+01 0.0 
1.069775663793e+01 -1.790496154379e+02 0.0 
0.0 0.0 -6.919844054897e+01 
-1.307706753672e+02 1.606656150410e+01 0.0 
1.606656150410e+01 -3.116878745608e+02 0.0 
0.0 0.0 -1.323375649784e+02 
-1.292685463058e+02 6.100970296011e+00 0.0 
6.100970296011e+00 -2.901535525749e+02 0.0 
0.0 0.0 -1.254266296642e+02 
-8.855177465698e+01 1.973763303662e+01 0.0 
1.973763303662e+01 -2.189162091643e+02 0.0 
0.0 0.0 -9.448650423547e+01 
-9.278348236589e+01 1.959505482247e+01 0.0 
1.959505482247e+01 -2.246294431971e+02 0.0 
0.0 0.0 -9.657983282993e+01 
-6.802583409417e+01 1.052133719030e+01 0.0 
1.052133719030e+01 -1.933632581204e+02 0.0 
0.0 0.0 -7.658256036974e+01 
-1.143549422171e+02 6.571313732308e+00 0.0 
6.571313732308e+00 -2.468633234947e+02 0.0 
0.0 0.0 -1.079654797136e+02 
-8.011464120933e+01 1.896259930099e+01 0.0 
1.896259930099e+01 -1.511946551832e+02 0.0 
0.0 0.0 -6.637594401102e+01 
-9.965621132145e+01 1.542766161301e+01 0.0 
1.542766161301e+01 -2.527441177511e+02 0.0 
0.0 0.0 -1.080000367653e+02 
-7.816386779606e+01 1.952589594992e+01 0.0 
1.952589594992e+01 -1.512476807753e+02 0.0 
0.0 0.0 -6.496551639676e+01 
-1.200036180887e+02 1.115650976996e+01 0.0 
1.115650976996e+01 -3.030610663313e+02 0.0 
0.0 0.0 -1.265194053260e+02 
-1.394285825278e+02 1.610589105558e+01 0.0 
1.610589105558e+01 -3.299202566011e+02 0.0 
0.0 0.0 -1.404046517387e+02 
-7.126967605750e+01 6.861639494388e+00 0.0 
6.861639494388e+00 -2.034703876365e+02 0.0 
0.0 0.0 -8.206260237652e+01 
-3.329390664792e+01 -5.041668828904e+00 0.0 
-5.041668828904e+00 -1.248315530406e+02 0.0 
0.0 0.0 -4.887053007746e+01 
-1.318769122086e+02 8.930020548024e+00 0.0 
8.930020548024e+00 -2.974512604660e+02 0.0 
0.0 0.0 -1.283984518024e+02 
-8.420403008707e+01 1.661347732338e+01 0.0 
1.661347732338e+01 -1.585297534148e+02 0.0 
0.0 0.0 -6.878651762572e+01 
-8.531723160836e+01 -5.007906794815e-01 0.0 
-5.007906794815e-01 -2.335786260284e+02 0.0 
0.0 0.0 -9.932852530977e+01 
-1.349821865596e+02 1.423830547887e+01 0.0 
1.423830547887e+01 -3.225719932741e+02 0.0 
0.0 0.0 -1.368662539501e+02 
-1.120871004709e+02 7.587391715772e+00 0.0 
7.587391715772e+00 -2.378833852089e+02 0.0 
0.0 0.0 -1.045911457039e+02 
-1.271303509558e+02 2.631328094690e+00 0.0 
2.631328094690e+00 -3.151562805565e+02 0.0 
0.0 0.0 -1.322859894537e+02 
-7.277734885660e+01 1.843095026415e+01 0.0 
1.843095026415e+01 -1.906610451956e+02 0.0 
0.0 0.0 -7.889475743877e+01 
-2.923008670721e+01 -3.435374549500e+00 0.0 
-3.435374549500e+00 -1.247500444969e+02 0.0 
0.0 0.0 -4.896113500675e+01 
-1.495130931906e+02 2.175352498885e+00 0.0 
2.175352498885e+00 -3.569287853053e+02 0.0 
0.0 0.0 -1.515325635488e+02 
-9.998128230586e+01 1.779985732653e+01 0.0 
1.779985732653e+01 -2.247470555435e+02 0.0 
0.0 0.0 -9.499549824722e+01 
-1.104486114023e+02 1.419182126656e+01 0.0 
1.419182126656e+01 -2.813785024712e+02 0.0 
0.0 0.0 -1.171481341620e+02 
-1.315972905609e+02 1.478174809484e+01 0.0 
1.478174809484e+01 -3.083044255017e+02 0.0 
0.0 0.0 -1.315705148188e+02 
-3.640396531206e+01 -1.825723975221e-01 0.0 
-1.825723975221e-01 -1.237390158351e+02 0.0 
0.0 0.0 -4.989636856885e+01 
-1.255078430750e+02 1.338422996627e+00 0.0 
1.338422996627e+00 -3.141824059906e+02 0.0 
0.0 0.0 -1.315070747197e+02 
-5.442880531249e+01 2.292511992165e+01 0.0 
2.292511992165e+01 -1.400431508510e+02 0.0 
0.0 0.0 -5.386305365242e+01 
-1.049361557188e+02 6.882465479229e+00 0.0 
6.882465479229e+00 -2.178673259895e+02 0.0 
0.0 0.0 -9.644104451246e+01 
-1.108796414792e+02 -3.098972274856e+00 0.0 
-3.098972274856e+00 -2.553389855218e+02 0.0 
0.0 0.0 -1.059822032846e+02 
-7.188430838407e+01 9.656626965456e+00 0.0 
9.656626965456e+00 -2.055992751224e+02 0.0 
0.0 0.0 -8.309015021636e+01 
-1.405898069672e+02 2.354272395037e+00 0.0 
2.354272395037e+00 -3.393153456975e+02 0.0 
0.0 0.0 -1.435715457994e+02 
-9.866820490810e+01 1.755839559643e+01 0.0 
1.755839559643e+01 -2.422938602072e+02 0.0 
0.0 0.0 -1.035407534192e+02 
-6.584777666745e+01 1.019422811356e+01 0.0 
1.019422811356e+01 -1.906214936836e+02 0.0 
0.0 0.0 -7.540031201582e+01 
-9.979958084907e+01 1.710783565997e+01 0.0 
1.710783565997e+01 -2.312911282881e+02 0.0 
0.0 0.0 -9.892721274116e+01 
-3.594621533124e+01 -1.729560131792e+01 0.0 
-1.729560131792e+01 -1.173964033745e+02 0.0 
0.0 0.0 -4.781215103825e+01 
-1.150241419117e+02 1.664615266951e+01 0.0 
1.664615266951e+01 -2.698149476160e+02 0.0 
0.0 0.0 -1.150517268583e+02 
-1.199479243035e+02 1.256278577648e+01 0.0 
1.256278577648e+01 -3.033389281588e+02 0.0 
0.0 0.0 -1.265860557387e+02 
-1.392234162778e+02 1.552491322502e+01 0.0 
1.552491322502e+01 -3.196774695945e+02 0.0 
0.0 0.0 -1.372702657617e+02 
-1.232441240358e+02 1.641314898104e+01 0.0 
1.641314898104e+01 -2.891241234488e+02 0.0 
0.0 0.0 -1.233104742454e+02 
-5.266191992084e+01 5.616956557855e+00 0.0 
5.616956557855e+00 -1.615336298593e+02 0.0 
0.0 0.0 -6.024955361874e+01 
-1.272506046579e+02 1.803179803101e+00 0.0 
1.803179803101e+00 -3.123911730062e+02 0.0 
0.0 0.0 -1.314925332992e+02 
-1.315790629452e+02 5.067703268853e+00 0.0 
5.067703268853e+00 -2.986218427241e+02 0.0 
0.0 0.0 -1.286602717008e+02 
-1.498408515702e+02 1.511568367798e+01 0.0 
1.511568367798e+01 -3.559972292942e+02 0.0 
0.0 0.0 -1.513514242593e+02 
-1.253232009009e+02 1.345018541854e+01 0.0 
1.345018541854e+01 -3.113653124617e+02 0.0 
0.0 0.0 -1.306065540088e+02 
-7.479416653617e+01 1.582195870954e+01 0.0 
1.582195870954e+01 -2.024466341131e+02 0.0 
0.0 0.0 -8.392341369307e+01 
-1.069595146523e+02 1.713837773596e+01 0.0 
1.713837773596e+01 -2.505162871137e+02 0.0 
0.0 0.0 -1.068427405298e+02 
-1.434620488844e+02 1.801966508266e-01 0.0 
1.801966508266e-01 -3.438360520461e+02 0.0 
0.0 0.0 -1.457894302791e+02 
-1.088454752334e+02 -7.544347509663e-01 0.0 
-7.544347509663e-01 -2.332864426201e+02 0.0 
0.0 0.0 -9.824956751402e+01 
-1.190716965032e+02 1.478968828333e+01 0.0 
1.478968828333e+01 -2.813530040076e+02 0.0 
0.0 0.0 -1.197274101533e+02 
-1.067621668866e+02 4.634372731645e+00 0.0 
4.634372731645e+00 -2.269730644801e+02 0.0 
0.0 0.0 -9.972056941002e+01 
-1.361696137535e+02 2.460734586579e+00 0.0 
2.460734586579e+00 -3.312758106726e+02 0.0 
0.0 0.0 -1.398336273278e+02 
-1.315218829668e+02 3.629999777395e+00 0.0 
3.629999777395e+00 -3.256633998964e+02 0.0 
0.0 0.0 -1.367555848590e+02 
-7.146377834288e+01 2.993545936581e-01 0.0 
2.993545936581e-01 -1.451105493949e+02 0.0 
0.0 0.0 -6.457229832133e+01 
-7.135727058118e+01 1.777816604819e-02 0.0 
1.777816604819e-02 -1.450777261633e+02 0.0 
0.0 0.0 -6.453049902335e+01 
-1.122986199946e+02 1.211606842483e+01 0.0 
1.211606842483e+01 -2.390107998434e+02 0.0 
0.0 0.0 -1.049928259514e+02 
-1.111930091617e+02 1.519195120742e+01 0.0 
1.519195120742e+01 -2.624275536019e+02 0.0 
0.0 0.0 -1.116861688291e+02 
-1.143060449002e+02 -2.250909399300e+00 0.0 
-2.250909399300e+00 -2.631403661892e+02 0.0 
0.0 0.0 -1.098711550093e+02 
-1.105069286273e+02 1.528456955906e+01 0.0 
1.528456955906e+01 -2.429372075100e+02 0.0 
0.0 0.0 -1.056332408412e+02 
-9.409789406107e+01 1.807675904777e+01 0.0 
1.807675904777e+01 -2.363472597997e+02 0.0 
0.0 0.0 -1.015825019240e+02 
-1.387399862978e+02 8.738966836521e+00 0.0 
8.738966836521e+00 -3.425265343828e+02 0.0 
0.0 0.0 -1.439799562042e+02 
-7.893707605234e+01 1.837109998884e+01 0.0 
1.837109998884e+01 -2.072285809092e+02 0.0 
0.0 0.0 -8.777294006066e+01 
-1.444116295194e+02 8.900008798954e+00 0.0 
8.900008798954e+00 -3.338543401645e+02 0.0 
0.0 0.0 -1.430797909052e+02 
-8.979563542605e+01 6.388846845691e+00 0.0 
6.388846845691e+00 -1.778967678370e+02 0.0 
0.0 0.0 -7.990772097890e+01 
-8.872821297025e+01 1.691218152874e+01 0.0 
1.691218152874e+01 -2.204881179465e+02 0.0 
0.0 0.0 -9.336104806465e+01 
-1.055140376770e+02 -2.927321686733e+00 0.0 
-2.927321686733e+00 -2.542298952264e+02 0.0 
0.0 0.0 -1.056420905838e+02 
-4.916352489474e+01 1.141068687628e+01 0.0 
1.141068687628e+01 -1.509193940742e+02 0.0 
0.0 0.0 -5.528144329314e+01 
-1.008826508859e+02 -5.944883111727e+00 0.0 
-5.944883111727e+00 -2.283170494127e+02 0.0 
0.0 0.0 -9.618873775069e+01 
-1.048949092852e+02 1.648377652261e+01 0.0 
1.648377652261e+01 -2.437346342960e+02 0.0 
0.0 0.0 -1.034915963050e+02 
-1.011334129529e+02 1.616759528874e+01 0.0 
1.616759528874e+01 -2.191222424126e+02 0.0 
0.0 0.0 -9.403412405884e+01 
-1.071915890372e+02 5.904954553744e+00 0.0 
5.904954553744e+00 -2.268555059210e+02 0.0 
0.0 0.0 -9.981412848748e+01 
-1.137393365884e+02 1.378395434659e+01 0.0 
1.378395434659e+01 -2.541188513398e+02 0.0 
0.0 0.0 -1.099574563785e+02 
-1.177482368898e+02 1.523862623429e+01 0.0 
1.523862623429e+01 -2.625435474382e+02 0.0 
0.0 0.0 -1.136875352984e+02 
-1.883508941185e+01 2.473741839573e-01 0.0 
2.473741839573e-01 -5.914005707162e+01 0.0 
0.0 0.0 -2.166490437792e+01 
-9.366132889652e+01 -5.854708136321e+00 0.0 
-5.854708136321e+00 -2.153531410851e+02 0.0 
0.0 0.0 -8.875542677709e+01 
-8.232387313211e+01 1.788202381483e+01 0.0 
1.788202381483e+01 -1.586932535311e+02 0.0 
0.0 0.0 -6.756455201765e+01 
-1.072649898844e+02 1.226631613855e+01 0.0 
1.226631613855e+01 -2.310830885712e+02 0.0 
0.0 0.0 -1.011044235367e+02 
-1.116213081431e+02 1.374704470875e+01 0.0 
1.374704470875e+01 -2.405822377773e+02 0.0 
0.0 0.0 -1.052610637761e+02 
-1.342953458955e+02 1.088350137269e+01 0.0 
1.088350137269e+01 -3.312318087917e+02 0.0 
0.0 0.0 -1.392581464062e+02 
-3.663999655873e+01 -1.379298485451e+00 0.0 
-1.379298485451e+00 -8.921513348285e+01 0.0 
0.0 0.0 -3.553340533950e+01 
-4.474157723700e+01 -9.115557805441e+00 0.0 
-9.115557805441e+00 -1.375506963449e+02 0.0 
0.0 0.0 -5.154883432232e+01 
-9.639399504036e+01 1.906279713924e+01 0.0 
1.906279713924e+01 -2.183547938244e+02 0.0 
0.0 0.0 -9.345141897549e+01 
-9.828601987358e+01 -6.332556769798e+00 0.0 
-6.332556769798e+00 -2.163434377214e+02 0.0 
0.0 0.0 -9.079449635396e+01 
-7.524825099178e+01 6.427027341709e+00 0.0 
6.427027341709e+00 -1.317010123575e+02 0.0 
0.0 0.0 -6.001820313919e+01 
-7.822810859074e+01 6.134718314144e+00 0.0 
6.134718314144e+00 -1.413454751101e+02 0.0 
0.0 0.0 -6.451067692464e+01 
-1.086775139316e+02 7.903124085820e+00 0.0 
7.903124085820e+00 -2.278234075848e+02 0.0 
0.0 0.0 -1.005502764549e+02 
-4.104491132196e+01 2.449351926586e+01 0.0 
2.449351926586e+01 -1.078803838930e+02 0.0 
0.0 0.0 -3.831096176328e+01 
-1.039365351021e+02 -3.870542732741e+00 0.0 
-3.870542732741e+00 -2.428655574282e+02 0.0 
0.0 0.0 -1.008090916867e+02 
-1.200058485197e+02 8.407023753840e+00 0.0 
8.407023753840e+00 -3.077699213117e+02 0.0 
0.0 0.0 -1.279327309494e+02 
-4.078027758014e+01 -1.542052404931e+00 0.0 
-1.542052404931e+00 -1.399124832726e+02 0.0 
0.0 0.0 -5.258046821579e+01 
-1.472090036498e+02 1.606369808358e+01 0.0 
1.606369808358e+01 -3.453287677359e+02 0.0 
0.0 0.0 -1.473613314157e+02 
-1.257086048568e+02 7.440430191473e+00 0.0 
7.440430191473e+00 -2.781077750779e+02 0.0 
0.0 0.0 -1.207449139804e+02 
-1.059711723961e+02 -3.918595733389e+00 0.0 
-3.918595733389e+00 -2.320130135201e+02 0.0 
0.0 0.0 -9.620346027562e+01 
-1.304141032463e+02 3.720402485834e-01 0.0 
3.720402485834e-01 -3.195843580792e+02 0.0 
0.0 0.0 -1.345995383977e+02 
-1.335172975513e+01 -8.313553379668e-01 0.0 
-8.313553379668e-01 -4.215771512740e+01 0.0 
0.0 0.0 -1.452548160914e+01 
-1.155753688843e+02 6.755520481749e+00 0.0 
6.755520481749e+00 -2.993339118809e+02 0.0 
0.0 0.0 -1.247595765642e+02 
-9.578588148005e+01 1.708151373507e+01 0.0 
1.708151373507e+01 -2.239512906062e+02 0.0 
0.0 0.0 -9.517204176973e+01 
-1.367328680144e+01 -5.040061244415e-01 0.0 
-5.040061244415e-01 -4.203069959329e+01 0.0 
0.0 0.0 -1.439244053381e+01 
-1.244446929687e+02 5.726242025700e+00 0.0 
5.726242025700e+00 -2.773499192990e+02 0.0 
0.0 0.0 -1.201383836803e+02 
-3.907402444465e+01 -3.466470090204e+00 0.0 
-3.466470090204e+00 -1.339775747293e+02 0.0 
0.0 0.0 -5.101807379860e+01 
-1.074440773402e+02 1.451557230914e+01 0.0 
1.451557230914e+01 -2.316511254761e+02 0.0 
0.0 0.0 -1.013285608449e+02 
-9.800376639980e+01 1.681074686082e+01 0.0 
1.681074686082e+01 -2.191769095045e+02 0.0 
0.0 0.0 -9.443689146948e+01 
-8.395028898569e+01 -1.561031636743e+00 0.0 
-1.561031636743e+00 -2.312629907782e+02 0.0 
0.0 0.0 -9.817596321047e+01 
-1.022391328183e+02 1.205079396327e+00 0.0 
1.205079396327e+00 -2.704621740661e+02 0.0 
0.0 0.0 -1.127129826506e+02 
-1.279089692248e+02 6.635680452489e+00 0.0 
6.635680452489e+00 -2.870095430660e+02 0.0 
0.0 0.0 -1.240755536872e+02 
-1.105445585861e+02 2.061382222510e+00 0.0 
2.061382222510e+00 -2.890216385627e+02 0.0 
0.0 0.0 -1.194698591446e+02 
-9.748580947146e+01 1.862270553536e+01 0.0 
1.862270553536e+01 -2.306915634374e+02 0.0 
0.0 0.0 -9.862168994356e+01 
-9.226860792135e+01 1.734141315179e+01 0.0 
1.734141315179e+01 -2.167956038544e+02 0.0 
0.0 0.0 -9.107158165692e+01 
-4.109944875130e+01 2.953587101063e+01 0.0 
2.953587101063e+01 -3.210555165292e+01 0.0 
0.0 0.0 -1.869450924908e+01 
-3.467241599972e+01 -2.859848453594e+00 0.0 
-2.859848453594e+00 -1.303017785324e+02 0.0 
0.0 0.0 -4.985138689014e+01 
-1.267326196074e+02 1.621716849538e+01 0.0 
1.621716849538e+01 -3.003056211692e+02 0.0 
0.0 0.0 -1.277114722330e+02 
-1.016733646856e+02 8.850289068699e+00 0.0 
8.850289068699e+00 -2.080197451736e+02 0.0 
0.0 0.0 -9.250793295777e+01 
-1.305583332566e+02 1.457567304666e+01 0.0 
1.457567304666e+01 -3.112103928560e+02 0.0 
0.0 0.0 -1.321306178338e+02 
-5.904101520892e+01 2.575235135404e+01 0.0 
2.575235135404e+01 -1.440401004078e+02 0.0 
0.0 0.0 -5.842053716548e+01 
-1.217768657076e+02 9.952336055064e+00 0.0 
9.952336055064e+00 -2.679871179848e+02 0.0 
0.0 0.0 -1.165291951077e+02 
-1.315402855485e+02 1.641971574699e+01 0.0 
1.641971574699e+01 -3.084506086878e+02 0.0 
0.0 0.0 -1.315972682709e+02 
-8.013170286564e+01 5.078699904297e+00 0.0 
5.078699904297e+00 -1.494186842430e+02 0.0 
0.0 0.0 -6.768879171241e+01 
-1.270051368585e+02 1.468159565485e+01 0.0 
1.468159565485e+01 -3.000371860545e+02 0.0 
0.0 0.0 -1.277126968739e+02 
-1.315676778751e+02 1.829700432046e+00 0.0 
1.829700432046e+00 -3.204031102764e+02 0.0 
0.0 0.0 -1.351912364455e+02 
-1.064617821820e+02 1.552821583539e+01 0.0 
1.552821583539e+01 -2.553507155463e+02 0.0 
0.0 0.0 -1.080903884992e+02 
-1.000542505196e+02 -4.339322216089e+00 0.0 
-4.339322216089e+00 -2.349484208559e+02 0.0 
0.0 0.0 -9.680222543364e+01 
-1.071637968969e+02 -4.047969365121e+00 0.0 
-4.047969365121e+00 -2.476138978646e+02 0.0 
0.0 0.0 -1.034846787677e+02 
-1.335876800106e+02 1.097674573385e+01 0.0 
1.097674573385e+01 -2.990486247758e+02 0.0 
0.0 0.0 -1.293908914359e+02 
-9.603886557111e+01 3.339226769507e-01 0.0 
3.339226769507e-01 -2.513202944852e+02 0.0 
0.0 0.0 -1.063508340356e+02 
-1.031793607542e+02 1.668441431556e+01 0.0 
1.668441431556e+01 -2.315788205995e+02 0.0 
0.0 0.0 -9.880057232493e+01 
-9.081617757710e+01 1.542249125785e+01 0.0 
1.542249125785e+01 -2.411677313807e+02 0.0 
0.0 0.0 -1.037237305008e+02 
-1.199746699976e+02 3.143937297382e+00 0.0 
3.143937297382e+00 -3.077616357351e+02 0.0 
0.0 0.0 -1.279208917198e+02 
-8.392659277910e+01 1.720304952967e+01 0.0 
1.720304952967e+01 -2.129625684877e+02 0.0 
0.0 0.0 -9.042673714580e+01 
-5.581560578380e+01 5.730411651089e+00 0.0 
5.730411651089e+00 -1.707782219288e+02 0.0 
0.0 0.0 -6.464765461145e+01 
-9.059155843978e+01 4.201168846638e+00 0.0 
4.201168846638e+00 -2.517979897896e+02 0.0 
0.0 0.0 -1.086361332478e+02 
-5.958491111150e+01 1.052559124707e+01 0.0 
1.052559124707e+01 -1.767349098865e+02 0.0 
0.0 0.0 -6.801129737313e+01 
-1.104942568029e+02 1.310403820640e+01 0.0 
1.310403820640e+01 -2.424866854949e+02 0.0 
0.0 0.0 -1.054942826893e+02 
-5.897392503095e+01 6.062322360965e+00 0.0 
6.062322360965e+00 -1.750145647750e+02 0.0 
0.0 0.0 -6.685399933652e+01 
-1.061290533087e+02 1.612915470110e+01 0.0 
1.612915470110e+01 -2.347227497876e+02 0.0 
0.0 0.0 -1.018555409289e+02 
-1.300072484395e+02 1.286014416717e+01 0.0 
1.286014416717e+01 -3.219248785116e+02 0.0 
0.0 0.0 -1.351796380853e+02 
-1.245279878477e+02 1.049317717211e+01 0.0 
1.049317717211e+01 -3.133762099415e+02 0.0 
0.0 0.0 -1.309712593367e+02 
-8.374048564704e+01 1.945215591004e+01 0.0 
1.945215591004e+01 -2.129271527635e+02 0.0 
0.0 0.0 -9.177065969239e+01 
-1.037816414871e+02 6.193853164387e+00 0.0 
6.193853164387e+00 -2.169510758253e+02 0.0 
0.0 0.0 -9.581981519370e+01 
-1.349418432381e+02 3.170154212210e-01 0.0 
3.170154212210e-01 -3.277381242942e+02 0.0 
0.0 0.0 -1.384039902597e+02 
-1.359150923425e+02 1.800703948585e+00 0.0 
1.800703948585e+00 -3.284914814834e+02 0.0 
0.0 0.0 -1.389219721478e+02 
-3.936997976969e+01 2.793030690784e+01 0.0 
2.793030690784e+01 -9.252374265580e+01 0.0 
0.0 0.0 -3.565183496478e+01 
-1.095831958668e+02 1.447687537551e+01 0.0 
1.447687537551e+01 -2.462074314560e+02 0.0 
0.0 0.0 -1.063371881969e+02 
-1.491624788879e+02 3.863185295511e-01 0.0 
3.863185295511e-01 -3.561979571392e+02 0.0 
0.0 0.0 -1.512081308081e+02 
-6.423645530825e+01 1.218818015927e+01 0.0 
1.218818015927e+01 -1.033561409319e+02 0.0 
0.0 0.0 -4.557339190310e+01 
-1.120072242902e+02 -2.759699410238e+00 0.0 
-2.759699410238e+00 -2.515450700482e+02 0.0 
0.0 0.0 -1.050047868505e+02 
-4.404579154349e+01 3.111351015494e+01 0.0 
3.111351015494e+01 -2.987221001876e+01 0.0 
0.0 0.0 -1.973516802157e+01 
-1.393845609725e+02 2.512298443074e-01 0.0 
2.512298443074e-01 -3.359228953137e+02 0.0 
0.0 0.0 -1.421922368859e+02 
-5.319618820416e+01 1.105315010622e+01 0.0 
1.105315010622e+01 -1.635831244792e+02 0.0 
0.0 0.0 -6.170995069637e+01 
-1.104301021519e+02 -1.632855880132e+00 0.0 
-1.632855880132e+00 -2.392530774078e+02 0.0 
0.0 0.0 -1.008926647895e+02 
-1.112758893437e+02 1.269722521590e+01 0.0 
1.269722521590e+01 -2.814752955459e+02 0.0 
0.0 0.0 -1.179726846318e+02 
-1.053404032567e+02 8.257437866792e+00 0.0 
8.257437866792e+00 -2.179972507853e+02 0.0 
0.0 0.0 -9.660129621260e+01 
-1.005887563207e+02 6.641427037741e+00 0.0 
6.641427037741e+00 -2.071470062153e+02 0.0 
0.0 0.0 -9.192072876081e+01 
-1.014783959056e+02 1.760239503089e+01 0.0 
1.760239503089e+01 -2.371176319560e+02 0.0 
0.0 0.0 -1.002696116210e+02 
-6.869153219409e+01 6.911893470504e+00 0.0 
6.911893470504e+00 -1.127831293202e+02 0.0 
0.0 0.0 -5.092437610500e+01 
-7.201722220973e+01 6.410519982923e+00 0.0 
6.410519982923e+00 -1.223285173386e+02 0.0 
0.0 0.0 -5.559494307716e+01 
-1.401162405824e+02 1.690259119927e+00 0.0 
1.690259119927e+00 -3.365708570194e+02 0.0 
0.0 0.0 -1.426061292805e+02 
-1.077933361929e+02 3.341006368037e+00 0.0 
3.341006368037e+00 -2.813407543621e+02 0.0 
0.0 0.0 -1.187720782325e+02 
-8.954645693103e+01 6.119155136124e-01 0.0 
6.119155136124e-01 -2.479649816677e+02 0.0 
0.0 0.0 -1.056279639082e+02 
-1.139755986675e+02 5.798851218900e+00 0.0 
5.798851218900e+00 -2.984827928463e+02 0.0 
0.0 0.0 -1.236582715844e+02 
-8.341284835390e+01 3.508633154506e+00 0.0 
3.508633154506e+00 -2.343185261564e+02 0.0 
0.0 0.0 -1.001045067679e+02 
-5.533093447610e+01 1.091712276251e+01 0.0 
1.091712276251e+01 -1.647382657285e+02 0.0 
0.0 0.0 -6.185097866025e+01 
-6.601012279574e+01 4.027077259365e+00 0.0 
4.027077259365e+00 -1.117284769369e+02 0.0 
0.0 0.0 -5.050299235650e+01 
-9.437936767529e+01 7.931929309796e+00 0.0 
7.931929309796e+00 -1.883592726403e+02 0.0 
0.0 0.0 -8.442159209468e+01 
-7.169262672235e+01 1.667452333478e-01 0.0 
1.667452333478e-01 -1.454000956396e+02 0.0 
0.0 0.0 -6.472781670858e+01 
-1.247116026521e+02 1.184016664183e+01 0.0 
1.184016664183e+01 -3.137273009623e+02 0.0 
0.0 0.0 -1.311316710843e+02 
-7.907574258978e+01 1.701127721752e+01 0.0 
1.701127721752e+01 -2.070866166358e+02 0.0 
0.0 0.0 -8.757154758410e+01 
-1.445424137269e+02 1.282510710461e+01 0.0 
1.282510710461e+01 -3.479143226257e+02 0.0 
0.0 0.0 -1.473370209058e+02 
-1.386068200993e+02 -6.842867163802e-01 0.0 
-6.842867163802e-01 -3.313013792568e+02 0.0 
0.0 0.0 -1.405724598068e+02 
-8.728843671823e+01 5.632357038157e+00 0.0 
5.632357038157e+00 -2.454614915657e+02 0.0 
0.0 0.0 -1.049296560020e+02 
-1.546200008821e+02 2.615596962595e+00 0.0 
2.615596962595e+00 -3.673441575850e+02 0.0 
0.0 0.0 -1.561892475401e+02 
-6.318320406674e+01 1.767288195205e+00 0.0 
1.767288195205e+00 -1.838616898853e+02 0.0 
0.0 0.0 -7.190829664923e+01 
-1.394632595024e+02 1.315520547415e+01 0.0 
1.315520547415e+01 -3.370815239982e+02 0.0 
0.0 0.0 -1.425634350502e+02 
-9.748574700599e+01 1.683869708097e+01 0.0 
1.683869708097e+01 -2.360426321720e+02 0.0 
0.0 0.0 -9.965851375339e+01 
-1.092415891277e+02 1.479564327418e+01 0.0 
1.479564327418e+01 -2.664949643877e+02 0.0 
0.0 0.0 -1.123209660546e+02 
-1.353101778041e+02 8.474280278044e+00 0.0 
8.474280278044e+00 -3.361998000789e+02 0.0 
0.0 0.0 -1.410529933649e+02 
-8.076621738706e+01 -1.213939641177e+01 0.0 
-1.213939641177e+01 -1.811990385291e+02 0.0 
0.0 0.0 -7.684042576253e+01 
-1.061487621746e+02 1.552990116875e+01 0.0 
1.552990116875e+01 -2.387523600656e+02 0.0 
0.0 0.0 -1.026507719369e+02 
-8.516247784049e+01 2.171933734334e+00 0.0 
2.171933734334e+00 -2.389591043349e+02 0.0 
0.0 0.0 -1.016243294595e+02 
-1.018077709348e+02 1.653081427449e+01 0.0 
1.653081427449e+01 -2.268423752925e+02 0.0 
0.0 0.0 -9.819504386819e+01 
-5.838021872000e+01 2.411070286538e+01 0.0 
2.411070286538e+01 -1.421725651463e+02 0.0 
0.0 0.0 -5.690314818477e+01 
-1.124960686716e+02 1.402194388053e+01 0.0 
1.402194388053e+01 -2.775964101207e+02 0.0 
0.0 0.0 -1.166277436377e+02 
-8.052416570801e+01 4.780831317202e-01 0.0 
4.780831317202e-01 -2.253987152168e+02 0.0 
0.0 0.0 -9.556185128007e+01 
-1.092219856000e+02 -2.597157358884e+00 0.0 
-2.597157358884e+00 -2.621107835397e+02 0.0 
0.0 0.0 -1.093853835698e+02 
-1.038698665224e+02 1.512499612655e+01 0.0 
1.512499612655e+01 -2.265813737046e+02 0.0 
0.0 0.0 -9.795324344874e+01 
-4.486026575438e+01 3.703552055515e+01 0.0 
3.703552055515e+01 -5.869482969483e+01 0.0 
0.0 0.0 -3.002293167361e+01 
-9.708721749994e+01 1.302874991630e+01 0.0 
1.302874991630e+01 -2.566878006373e+02 0.0 
0.0 0.0 -1.105148458060e+02 
-4.435964175273e+01 3.156220004849e+01 0.0 
3.156220004849e+01 -5.155045163734e+01 0.0 
0.0 0.0 -2.494819355061e+01 
-2.523680045732e+01 -4.423747421812e+00 0.0 
-4.423747421812e+00 -6.349667496962e+01 0.0 
0.0 0.0 -2.377441837322e+01 
-1.076099333348e+02 -3.391444817933e+00 0.0 
-3.391444817933e+00 -2.506309419874e+02 0.0 
0.0 0.0 -1.045695664229e+02 
-1.243622588814e+02 1.614325065672e+01 0.0 
1.614325065672e+01 -2.854374332972e+02 0.0 
0.0 0.0 -1.225399076536e+02 
-1.040261899771e+02 7.710509683198e+00 0.0 
7.710509683198e+00 -2.169463901319e+02 0.0 
0.0 0.0 -9.589177403271e+01 
-6.118054682757e+01 8.244938278105e+00 0.0 
8.244938278105e+00 -9.397318011534e+01 0.0 
0.0 0.0 -4.122214534527e+01 
-1.424911433120e+02 8.881031301586e+00 0.0 
8.881031301586e+00 -3.338126677281e+02 0.0 
0.0 0.0 -1.424911433120e+02 
-4.459574062788e+01 3.350979889430e+01 0.0 
3.350979889430e+01 -3.159030054703e+01 0.0 
0.0 0.0 -2.328011586062e+01 
-6.473846610732e+01 7.235249058441e+00 0.0 
7.235249058441e+00 -1.033797587845e+02 0.0 
0.0 0.0 -4.615902824009e+01 
-9.311478698880e+01 2.228244641795e+00 0.0 
2.228244641795e+00 -2.520323067174e+02 0.0 
0.0 0.0 -1.080417310504e+02 
-1.093489845382e+02 -2.940588624334e+00 0.0 
-2.940588624334e+00 -2.399591492536e+02 0.0 
0.0 0.0 -1.001848016032e+02 
-8.041629321144e+01 1.015949395733e+01 0.0 
1.015949395733e+01 -1.418435041676e+02 0.0 
0.0 0.0 -6.346233159995e+01 
-6.634313062838e+01 -5.834870259034e+00 0.0 
-5.834870259034e+00 -1.867325041281e+02 0.0 
0.0 0.0 -7.510715029810e+01 
-1.013953931302e+02 1.873427836274e-01 0.0 
1.873427836274e-01 -2.641984680572e+02 0.0 
0.0 0.0 -1.126943819980e+02 
-1.023620090383e+02 1.732456946579e+01 0.0 
1.732456946579e+01 -2.434026165064e+02 0.0 
0.0 0.0 -1.033293876634e+02 
-1.057515532551e+02 1.215965276381e+01 0.0 
1.215965276381e+01 -2.742870423907e+02 0.0 
0.0 0.0 -1.159250418391e+02 
-1.281476108882e+02 1.293834361769e+01 0.0 
1.293834361769e+01 -2.902877806657e+02 0.0 
0.0 0.0 -1.251306174662e+02 
-4.302655827393e+01 2.685455967308e+01 0.0 
2.685455967308e+01 -1.144300604995e+02 0.0 
0.0 0.0 -4.395404517017e+01 
-1.019293874754e+02 -4.525314112618e+00 0.0 
-4.525314112618e+00 -2.312019202861e+02 0.0 
0.0 0.0 -9.586819228576e+01 
-1.092289897525e+02 -3.277160385724e+00 0.0 
-3.277160385724e+00 -2.472339027086e+02 0.0 
0.0 0.0 -1.035770255262e+02 
-6.358690561199e+01 -1.127550535932e+01 0.0 
-1.127550535932e+01 -1.337778783606e+02 0.0 
0.0 0.0 -5.567645297056e+01 
-8.269009222049e+01 4.842412120418e+00 0.0 
4.842412120418e+00 -1.586386716972e+02 0.0 
0.0 0.0 -7.178008585591e+01 
-1.052655533902e+02 9.887100006726e+00 0.0 
9.887100006726e+00 -2.179094195482e+02 0.0 
0.0 0.0 -9.655249188153e+01 
-1.285552095928e+02 7.573448268474e-01 0.0 
7.573448268474e-01 -3.025445305879e+02 0.0 
0.0 0.0 -1.281838320320e+02 
-1.678974813991e+01 -2.493454256762e-01 0.0 
-2.493454256762e-01 -4.269364268775e+01 0.0 
0.0 0.0 -1.480450935475e+01 
-4.797632313539e+01 -7.520169239082e+00 0.0 
-7.520169239082e+00 -1.179555827447e+02 0.0 
0.0 0.0 -5.115796307284e+01 
-4.429582621024e+01 -9.344693981530e+00 0.0 
-9.344693981530e+00 -9.126600115106e+01 0.0 
0.0 0.0 -3.690971719364e+01 
-1.125061950864e+02 -2.054671522011e+00 0.0 
-2.054671522011e+00 -2.480407285289e+02 0.0 
0.0 0.0 -1.040492652008e+02 
-6.897860610573e+01 2.605882284414e+00 0.0 
2.605882284414e+00 -1.981300357850e+02 0.0 
0.0 0.0 -7.929202053923e+01 
-6.572485190635e+01 -6.412500052903e+00 0.0 
-6.412500052903e+00 -1.833106448686e+02 0.0 
0.0 0.0 -7.396023783320e+01 
-5.687190724778e+01 6.898235613190e-01 0.0 
6.898235613190e-01 -1.702373998854e+02 0.0 
0.0 0.0 -6.502377250767e+01 
-1.111860524269e+02 -2.886502991658e+00 0.0 
-2.886502991658e+00 -2.585666851043e+02 0.0 
0.0 0.0 -1.082949145354e+02 
-1.111457920472e+02 9.846981963796e+00 0.0 
9.846981963796e+00 -2.378914889426e+02 0.0 
0.0 0.0 -1.043111842969e+02 
-1.126781020470e+02 -2.657366401890e+00 0.0 
-2.657366401890e+00 -2.554194983692e+02 0.0 
0.0 0.0 -1.073463837261e+02 
-6.840559449876e+01 5.996534148317e+00 0.0 
5.996534148317e+00 -1.984900309040e+02 0.0 
0.0 0.0 -7.897118589179e+01 
-1.088608413964e+02 1.657784638889e+01 0.0 
1.657784638889e+01 -2.462916497672e+02 0.0 
0.0 0.0 -1.061457473491e+02 
-8.761140104854e+01 2.546716924461e+00 0.0 
2.546716924461e+00 -1.771025094090e+02 0.0 
0.0 0.0 -7.901417313726e+01 
-1.209787770349e+02 1.252866007924e+01 0.0 
1.252866007924e+01 -3.003651958043e+02 0.0 
0.0 0.0 -1.260031918517e+02 
-1.154669123855e+02 -1.237433433594e+00 0.0 
-1.237433433594e+00 -2.562239120662e+02 0.0 
0.0 0.0 -1.078376746729e+02 
-1.151613395499e+02 -1.917652761488e+00 0.0 
-1.917652761488e+00 -2.594612508058e+02 0.0 
0.0 0.0 -1.088012766890e+02 
-5.311744542097e+01 1.049410536625e+01 0.0 
1.049410536625e+01 -7.408103980017e+01 0.0 
0.0 0.0 -3.327340409829e+01 
-7.275291113388e+01 -6.145867696079e-01 0.0 
-6.145867696079e-01 -2.059090075735e+02 0.0 
0.0 0.0 -8.451505910648e+01 
-1.159577328925e+02 -2.052264617553e+00 0.0 
-2.052264617553e+00 -2.636345341291e+02 0.0 
0.0 0.0 -1.110816299102e+02 
-1.001468324932e+02 -4.537813766635e-01 0.0 
-4.537813766635e-01 -2.167238379864e+02 0.0 
0.0 0.0 -9.466120114390e+01 
-9.298270672498e+01 -5.520289393693e-01 0.0 
-5.520289393693e-01 -1.984100325271e+02 0.0 
0.0 0.0 -8.701782177562e+01 
-5.703748782002e+01 9.099619119826e+00 0.0 
9.099619119826e+00 -8.427228939096e+01 0.0 
0.0 0.0 -3.644830401037e+01 
-1.146968613463e+02 -2.376729574041e+00 0.0 
-2.376729574041e+00 -2.666609110598e+02 0.0 
0.0 0.0 -1.120262329988e+02 
-6.908636614393e+01 -1.239986517599e+01 0.0 
-1.239986517599e+01 -1.790364477502e+02 0.0 
0.0 0.0 -7.439102976113e+01 
-4.634833014691e+01 3.073952165860e+01 0.0 
3.073952165860e+01 -7.255953614171e+01 0.0 
0.0 0.0 -3.128446787757e+01 
-1.403077336440e+02 1.458671643827e+01 0.0 
1.458671643827e+01 -3.378991697114e+02 0.0 
0.0 0.0 -1.430620710066e+02 
-4.617828733115e+01 -1.182914256392e+01 0.0 
-1.182914256392e+01 -8.553917098788e+01 0.0 
0.0 0.0 -3.573842674151e+01 
-6.767547956257e+01 -1.045113199282e+01 0.0 
-1.045113199282e+01 -1.786039924850e+02 0.0 
0.0 0.0 -7.371609018516e+01 
-9.249596650498e+01 1.474936426825e+01 0.0 
1.474936426825e+01 -2.436554209887e+02 0.0 
0.0 0.0 -1.032710844915e+02 
-5.831708736542e+01 4.854485009582e+00 0.0 
4.854485009582e+00 -9.277294761308e+01 0.0 
0.0 0.0 -4.102132614669e+01 
-1.183283437086e+02 -5.040737003737e-01 0.0 
-5.040737003737e-01 -2.646402291410e+02 0.0 
0.0 0.0 -1.116512162468e+02 
-5.772198989107e+01 4.766027417871e-01 0.0 
4.766027417871e-01 -1.207928602672e+02 0.0 
0.0 0.0 -4.964162894108e+01 
-8.685025466952e+01 6.828447916890e+00 0.0 
6.828447916890e+00 -1.668585577734e+02 0.0 
0.0 0.0 -7.571157578507e+01 
-1.181246858378e+02 -1.166835646505e+00 0.0 
-1.166835646505e+00 -2.675167902555e+02 0.0 
0.0 0.0 -1.125443322732e+02 
-8.852748324267e+01 -2.963326889263e+00 0.0 
-2.963326889263e+00 -2.389394137227e+02 0.0 
0.0 0.0 -1.017128888178e+02 
-1.086505815141e+02 -3.676433420471e+00 0.0 
-3.676433420471e+00 -2.437931052391e+02 0.0 
0.0 0.0 -1.011132258771e+02 
-3.735880951285e+01 3.309610241466e+01 0.0 
3.309610241466e+01 -8.516621393487e+01 0.0 
0.0 0.0 -3.859147265840e+01 
-1.218801598863e+02 1.273584290237e+00 0.0 
1.273584290237e+00 -2.750073033395e+02 0.0 
0.0 0.0 -1.186662389678e+02 
-7.632379674143e+01 -7.231887581867e+00 0.0 
-7.231887581867e+00 -2.056136107527e+02 0.0 
0.0 0.0 -8.650955373842e+01 
-1.340990865860e+02 9.314540449519e+00 0.0 
9.314540449519e+00 -3.341103628098e+02 0.0 
0.0 0.0 -1.400628348188e+02 
-1.078655150699e+02 1.623269364839e+01 0.0 
1.623269364839e+01 -2.662965200778e+02 0.0 
0.0 0.0 -1.118486105443e+02 
-1.180906429272e+02 -1.902440378247e+00 0.0 
-1.902440378247e+00 -2.748233855694e+02 0.0 
0.0 0.0 -1.157491732241e+02 
-1.209302102535e+02 -5.501260986119e-01 0.0 
-5.501260986119e-01 -2.756178644412e+02 0.0 
0.0 0.0 -1.162437610268e+02 
-6.529113594595e+01 1.775213428272e+00 0.0 
1.775213428272e+00 -1.907240407534e+02 0.0 
0.0 0.0 -7.538220834968e+01 
-4.019344484208e+01 -1.064291748197e+01 0.0 
-1.064291748197e+01 -5.923510839989e+01 0.0 
0.0 0.0 -2.568898029673e+01 
-3.641442177281e+01 3.433414078247e+01 0.0 
3.433414078247e+01 -8.300676548107e+01 0.0 
0.0 0.0 -3.698784212154e+01 
-1.213435951751e+02 -1.480017690106e+00 0.0 
-1.480017690106e+00 -2.831074197822e+02 0.0 
0.0 0.0 -1.195097693575e+02 
-1.342027928858e+02 7.489561095754e+00 0.0 
7.489561095754e+00 -3.357760772528e+02 0.0 
0.0 0.0 -1.405936610416e+02 
-7.075480880458e+01 -1.569935275778e+01 0.0 
-1.569935275778e+01 -1.698885603626e+02 0.0 
0.0 0.0 -7.151862291438e+01 
-1.126700664672e+02 1.476633794545e+01 0.0 
1.476633794545e+01 -2.580081204044e+02 0.0 
0.0 0.0 -1.108034560615e+02 
-5.956843222763e+01 1.424807671659e+01 0.0 
1.424807671659e+01 -9.292425645040e+01 0.0 
0.0 0.0 -4.200657994175e+01 
-1.135093316599e+02 1.589483222406e+01 0.0 
1.589483222406e+01 -2.544439728719e+02 0.0 
0.0 0.0 -1.099859913595e+02 
-1.554598873504e+02 5.552803246917e+00 0.0 
5.552803246917e+00 -3.747969990739e+02 0.0 
0.0 0.0 -1.586770659273e+02 
-1.295846645272e+02 -8.154892459212e-01 0.0 
-8.154892459212e-01 -1.029510080942e+02 0.0 
0.0 0.0 -7.003757279685e+01 
-1.401574019585e+02 1.093188287347e+00 0.0 
1.093188287347e+00 -3.283672712365e+02 0.0 
0.0 0.0 -1.401574019585e+02 
-1.680463297881e+02 4.381764984194e-01 0.0 
4.381764984194e-01 -3.934414361721e+02 0.0 
0.0 0.0 -1.680463297881e+02 
-8.011032550961e+01 8.085058033131e-01 0.0 
8.085058033131e-01 -1.665086260556e+02 0.0 
0.0 0.0 -7.358568546956e+01 
-7.873953438752e+01 -1.193860501081e+01 0.0 
-1.193860501081e+01 -1.999294975273e+02 0.0 
0.0 0.0 -8.455641402156e+01 
-1.047659079484e+02 1.688613149609e+01 0.0 
1.688613149609e+01 -2.549956099663e+02 0.0 
0.0 0.0 -1.075284553744e+02 
-6.526668838008e+01 6.433969831676e+00 0.0 
6.433969831676e+00 -1.891799146177e+02 0.0 
0.0 0.0 -7.441047222078e+01 
-2.083820119107e+01 -2.077957421478e-01 0.0 
-2.077957421478e-01 -5.522097231378e+01 0.0 
0.0 0.0 -2.092597815386e+01 
-4.828704399563e+01 3.448636833240e+01 0.0 
3.448636833240e+01 -3.230929686490e+01 0.0 
0.0 0.0 -2.281057808130e+01 
-1.289295426453e+02 3.612199715466e+00 0.0 
3.612199715466e+00 -2.925090337560e+02 0.0 
0.0 0.0 -1.260315729204e+02 
-1.089095181353e+02 1.106374355245e+01 0.0 
1.106374355245e+01 -2.285070731978e+02 0.0 
0.0 0.0 -1.008249773999e+02 
-8.136209199037e+01 6.195409954566e+00 0.0 
6.195409954566e+00 -1.520712142589e+02 0.0 
0.0 0.0 -6.923641239888e+01 
-1.553278645284e+02 1.734012545524e+01 0.0 
1.734012545524e+01 -3.645001428209e+02 0.0 
0.0 0.0 -1.555484022048e+02 
-4.360931349331e+01 5.946022481195e-01 0.0 
5.946022481195e-01 -1.005422575595e+02 0.0 
0.0 0.0 -4.057570575647e+01 
-1.558824703747e+02 1.698804627251e+01 0.0 
1.698804627251e+01 -3.673243776155e+02 0.0 
0.0 0.0 -1.565620543971e+02 
-1.076785502839e+02 8.797225879660e+00 0.0 
8.797225879660e+00 -2.274324931381e+02 0.0 
0.0 0.0 -1.001333130266e+02 
-8.312316823388e+01 -1.200421450383e+01 0.0 
-1.200421450383e+01 -1.940788107696e+02 0.0 
0.0 0.0 -8.258055393575e+01 
-1.027070040984e+02 1.651074024917e+01 0.0 
1.651074024917e+01 -2.486800743640e+02 0.0 
0.0 0.0 -1.052448089607e+02 
-7.333417621521e+01 -1.016071681374e+01 0.0 
-1.016071681374e+01 -1.854145438106e+02 0.0 
0.0 0.0 -7.694252693659e+01 
-4.557508730304e+01 2.847026015363e+01 0.0 
2.847026015363e+01 -7.082388316907e+01 0.0 
0.0 0.0 -3.117852594763e+01 
-7.135385402582e+01 -1.158885033017e+01 0.0 
-1.158885033017e+01 -1.731995394200e+02 0.0 
0.0 0.0 -7.184430038303e+01 
-1.145971855458e+02 1.083417486155e+01 0.0 
1.083417486155e+01 -2.486221768751e+02 0.0 
0.0 0.0 -1.085658087262e+02 
-1.436407859594e+02 1.254809763632e+00 0.0 
1.254809763632e+00 -3.421328495743e+02 0.0 
0.0 0.0 -1.453320906601e+02 
-7.006607851669e+01 -7.526293990930e+00 0.0 
-7.526293990930e+00 -1.901600108208e+02 0.0 
0.0 0.0 -7.856420530513e+01 
-1.169390379633e+02 1.425410020230e+01 0.0 
1.425410020230e+01 -2.657132700073e+02 0.0 
0.0 0.0 -1.143956923912e+02 
-7.998581518328e+01 -2.400545259693e+00 0.0 
-2.400545259693e+00 -1.130584544775e+02 0.0 
0.0 0.0 -5.841453642148e+01 
-6.881445445828e+01 -1.769207929242e+00 0.0 
-1.769207929242e+00 -1.962560113257e+02 0.0 
0.0 0.0 -7.880376956724e+01 
-1.197461436458e+02 1.109705200459e+01 0.0 
1.109705200459e+01 -2.586644614616e+02 0.0 
0.0 0.0 -1.131231815322e+02 
-7.352615548325e+01 -1.103616867958e+01 0.0 
-1.103616867958e+01 -1.672347879667e+02 0.0 
0.0 0.0 -6.917470667376e+01 
-6.852671850184e+01 -1.615476819044e+01 0.0 
-1.615476819044e+01 -1.555580394782e+02 0.0 
0.0 0.0 -6.572992341727e+01 
-9.995965863254e+01 1.668039795895e+01 0.0 
1.668039795895e+01 -2.478920470419e+02 0.0 
0.0 0.0 -1.039555117023e+02 
-4.432882831701e+01 -1.788227552342e+01 0.0 
-1.788227552342e+01 -1.086709383076e+02 0.0 
0.0 0.0 -3.925491334261e+01 
-4.459258600689e+01 1.221546805922e+01 0.0 
1.221546805922e+01 -5.320442178665e+01 0.0 
0.0 0.0 -2.554365582721e+01 
-4.858177604653e+01 1.143905440610e+01 0.0 
1.143905440610e+01 -6.508286677483e+01 0.0 
0.0 0.0 -2.941365410099e+01 
-6.586379420780e+01 -1.259492926148e+01 0.0 
-1.259492926148e+01 -1.472058876837e+02 0.0 
0.0 0.0 -6.078005662009e+01 
-9.578381451326e+01 2.695507655273e-01 0.0 
2.695507655273e-01 -2.557823382415e+02 0.0 
0.0 0.0 -1.093549766853e+02 
-8.951517984013e+01 1.779388256076e+01 0.0 
1.779388256076e+01 -2.302698767410e+02 0.0 
0.0 0.0 -9.913501798538e+01 
-1.166124175061e+02 1.625495632476e+01 0.0 
1.625495632476e+01 -2.659008359892e+02 0.0 
0.0 0.0 -1.143539760486e+02 
-1.355435634123e+02 1.268346457879e+01 0.0 
1.268346457879e+01 -3.098138298025e+02 0.0 
0.0 0.0 -1.332072179644e+02 
-4.930874893104e+01 6.438141419815e+00 0.0 
6.438141419815e+00 -7.316702314301e+01 0.0 
0.0 0.0 -3.152705872954e+01 
-1.078776755547e+02 1.380729195345e+00 0.0 
1.380729195345e+00 -2.365331280269e+02 0.0 
0.0 0.0 -1.029232410745e+02 
-1.385088204169e+02 1.484244262700e+01 0.0 
1.484244262700e+01 -3.222194033685e+02 0.0 
0.0 0.0 -1.378184671356e+02 
-6.228156050511e+01 5.904474869381e+00 0.0 
5.904474869381e+00 -1.843659435334e+02 0.0 
0.0 0.0 -7.171394324219e+01 
-4.285598709380e+01 2.983003632621e+01 0.0 
2.983003632621e+01 -5.154395518499e+01 0.0 
0.0 0.0 -2.378582264343e+01 
-6.601824101535e+01 1.556281511037e+01 0.0 
1.556281511037e+01 -1.045305315406e+02 0.0 
0.0 0.0 -4.624700340637e+01 
-9.480220833829e+01 -2.895070040245e+00 0.0 
-2.895070040245e+00 -2.466203921907e+02 0.0 
0.0 0.0 -1.053967425466e+02 
-1.175520934271e+02 1.315755421023e+01 0.0 
1.315755421023e+01 -2.620830755862e+02 0.0 
0.0 0.0 -1.134905507040e+02 
-9.109385415547e+01 -1.104797888778e-01 0.0 
-1.104797888778e-01 -2.429058008187e+02 0.0 
0.0 0.0 -1.033561200379e+02 
-3.584640837598e+01 2.703926606744e+01 0.0 
2.703926606744e+01 -9.514185119834e+01 0.0 
0.0 0.0 -3.690515655024e+01 
-1.027081332873e+02 3.640810051696e+00 0.0 
3.640810051696e+00 -2.724491295102e+02 0.0 
0.0 0.0 -1.162969112745e+02 
-4.728015038631e+01 2.640096255445e+01 0.0 
2.640096255445e+01 -7.104155638752e+01 0.0 
0.0 0.0 -3.226629515593e+01 
-8.579645820538e+01 1.542056314915e+01 0.0 
1.542056314915e+01 -2.244569991609e+02 0.0 
0.0 0.0 -9.567791496081e+01 
-9.784016269148e+01 1.967310623476e+00 0.0 
1.967310623476e+00 -2.613488557976e+02 0.0 
0.0 0.0 -1.107990426890e+02 
-1.041408314479e+02 1.477167952973e+01 0.0 
1.477167952973e+01 -2.593754026189e+02 0.0 
0.0 0.0 -1.097569108838e+02 
-9.907318130202e+01 1.752783303168e+00 0.0 
1.752783303168e+00 -2.119797462919e+02 0.0 
0.0 0.0 -9.291587827818e+01 
-6.893558492313e+01 -1.312173617268e+01 0.0 
-1.312173617268e+01 -1.476660199537e+02 0.0 
0.0 0.0 -6.222843190064e+01 
-4.441288589301e+01 3.200681211131e+01 0.0 
3.200681211131e+01 -7.418562065312e+01 0.0 
0.0 0.0 -3.076061997766e+01 
-1.053141448152e+02 2.396263502018e+00 0.0 
2.396263502018e+00 -2.800870615675e+02 0.0 
0.0 0.0 -1.163410644200e+02 
-4.875927646372e+01 2.341221637576e+01 0.0 
2.341221637576e+01 -7.167079334050e+01 0.0 
0.0 0.0 -3.345365734793e+01 
-4.592265976209e+01 1.157847473175e+01 0.0 
1.157847473175e+01 -1.203956837008e+02 0.0 
0.0 0.0 -5.130329136489e+01 
-1.286764625341e+02 -2.550849938904e-01 0.0 
-2.550849938904e-01 -2.938782879664e+02 0.0 
0.0 0.0 -1.263664251501e+02 
-1.221314010495e+02 -4.144175155221e-01 0.0 
-4.144175155221e-01 -2.752103523557e+02 0.0 
0.0 0.0 -1.188025260216e+02 
-2.031234923402e+01 -3.127585930722e+00 0.0 
-3.127585930722e+00 -2.706431626725e+01 0.0 
0.0 0.0 -1.269264523350e+01 
-1.115611366608e+02 4.999469612923e+00 0.0 
4.999469612923e+00 -2.905761771999e+02 0.0 
0.0 0.0 -1.219008423236e+02 
-5.404426365238e+01 -1.102282017582e+01 0.0 
-1.102282017582e+01 -1.124460630881e+02 0.0 
0.0 0.0 -4.635497646905e+01 
-5.810961235747e+01 -1.126467301792e+01 0.0 
-1.126467301792e+01 -1.207135076832e+02 0.0 
0.0 0.0 -4.969243483039e+01 
-1.244677635359e+02 1.421367015460e+01 0.0 
1.421367015460e+01 -2.853062828476e+02 0.0 
0.0 0.0 -1.225322139150e+02 
-1.024009579737e+02 1.595034053523e+01 0.0 
1.595034053523e+01 -2.588653212823e+02 0.0 
0.0 0.0 -1.079798837768e+02 
-1.202531077839e+02 1.456788638625e+01 0.0 
1.456788638625e+01 -2.773875719565e+02 0.0 
0.0 0.0 -1.188922039221e+02 
-7.141086780155e+01 -5.104519267740e+00 0.0 
-5.104519267740e+00 -1.980510436245e+02 0.0 
0.0 0.0 -8.156862348659e+01 
-7.243044681503e+01 5.126202380075e-01 0.0 
5.126202380075e-01 -1.453247378765e+02 0.0 
0.0 0.0 -6.492655540747e+01 
-1.583433335301e+02 4.870775076837e+00 0.0 
4.870775076837e+00 -3.761096480287e+02 0.0 
0.0 0.0 -1.599358944676e+02 
-4.962341806554e+01 -1.064548882845e+01 0.0 
-1.064548882845e+01 -1.000643590244e+02 0.0 
0.0 0.0 -4.130068470782e+01 
-1.294952789944e+02 1.108900353885e+01 0.0 
1.108900353885e+01 -3.234943393410e+02 0.0 
0.0 0.0 -1.354968855006e+02 
-9.009792506541e+01 1.546052199088e+01 0.0 
1.546052199088e+01 -2.311668551842e+02 0.0 
0.0 0.0 -9.827010099499e+01 
-2.935878959907e+01 -2.453066400403e+00 0.0 
-2.453066400403e+00 -7.615626622737e+01 0.0 
0.0 0.0 -2.963314668715e+01 
-1.142349446739e+02 1.239417561212e+01 0.0 
1.239417561212e+01 -2.506605352758e+02 0.0 
0.0 0.0 -1.090686439849e+02 
-7.136293845576e+01 2.302479041297e+00 0.0 
2.302479041297e+00 -2.050300160485e+02 0.0 
0.0 0.0 -8.298087502046e+01 
-3.533336805307e+01 -9.919455694870e+00 0.0 
-9.919455694870e+00 -4.867790030355e+01 0.0 
0.0 0.0 -2.007973458502e+01 
-6.260732289059e+01 -2.719592486085e+00 0.0 
-2.719592486085e+00 -1.818518170421e+02 0.0 
0.0 0.0 -7.128003206574e+01 
-1.260830711511e+02 -8.356733530218e-01 0.0 
-8.356733530218e-01 -2.938721494521e+02 0.0 
0.0 0.0 -1.244124399367e+02 
-1.156185371110e+02 1.310253022575e+01 0.0 
1.310253022575e+01 -2.498108647903e+02 0.0 
0.0 0.0 -1.092288205704e+02 
-4.359929050208e+01 -9.721593920329e+00 0.0 
-9.721593920329e+00 -7.874728896220e+01 0.0 
0.0 0.0 -3.169270142043e+01 
-1.111881191247e+02 -3.297650051025e-01 0.0 
-3.297650051025e-01 -2.400183789431e+02 0.0 
0.0 0.0 -1.013952617013e+02 
-1.210681029753e+02 1.375397744051e+01 0.0 
1.375397744051e+01 -2.738290458507e+02 0.0 
0.0 0.0 -1.180691446478e+02 
-1.259817923935e+02 1.465412007805e+01 0.0 
1.465412007805e+01 -3.083752684210e+02 0.0 
0.0 0.0 -1.299071182443e+02 
-6.863024688367e+01 -1.239838338816e+01 0.0 
-1.239838338816e+01 -1.602892745545e+02 0.0 
0.0 0.0 -6.628235552382e+01 
-6.013398783765e+01 -2.194350373871e+00 0.0 
-2.194350373871e+00 -1.208722005070e+02 0.0 
0.0 0.0 -4.965715786513e+01 
-9.546730222074e+01 1.597155149441e+01 0.0 
1.597155149441e+01 -2.471017616040e+02 0.0 
0.0 0.0 -1.061723866417e+02 
-9.615292407459e+01 9.028484902844e-01 0.0 
9.028484902844e-01 -2.061298826944e+02 0.0 
0.0 0.0 -9.028484203070e+01 
-3.780933485123e+01 -1.413911155184e+01 0.0 
-1.413911155184e+01 -5.246873229855e+01 0.0 
0.0 0.0 -1.943155700721e+01 
-1.462236572029e+02 1.660454252025e+01 0.0 
1.660454252025e+01 -3.410115220967e+02 0.0 
0.0 0.0 -1.457705537899e+02 
-1.393373044114e+02 1.232717180401e+01 0.0 
1.232717180401e+01 -3.222875659022e+02 0.0 
0.0 0.0 -1.380874610941e+02 
-8.510520331536e+01 9.640352631415e-01 0.0 
9.640352631415e-01 -1.784225901895e+02 0.0 
0.0 0.0 -7.865833805145e+01 
-1.365320956781e+02 7.885510891339e+00 0.0 
7.885510891339e+00 -3.098411516992e+02 0.0 
0.0 0.0 -1.335119742132e+02 
-1.416098551377e+02 1.355283691028e+01 0.0 
1.355283691028e+01 -3.280631343363e+02 0.0 
0.0 0.0 -1.405018968422e+02 
-7.231127248849e+01 -4.109794023250e+00 0.0 
-4.109794023250e+00 -2.010416934027e+02 0.0 
0.0 0.0 -8.290458989953e+01 
-7.519257234301e+01 -1.080267640242e+01 0.0 
-1.080267640242e+01 -1.961458182497e+02 0.0 
0.0 0.0 -8.244716503188e+01 
-1.515193090658e+02 1.260532172927e+01 0.0 
1.260532172927e+01 -3.650747223412e+02 0.0 
0.0 0.0 -1.545782094221e+02 
-7.355563385601e+01 5.335676857764e+00 0.0 
5.335676857764e+00 -1.089785102264e+02 0.0 
0.0 0.0 -5.531085540752e+01 
-5.139237450411e+01 -1.328890608053e+00 0.0 
-1.328890608053e+00 -1.097137978520e+02 0.0 
0.0 0.0 -4.473616261158e+01 
-1.121717558714e+02 -1.271320874467e+00 0.0 
-1.271320874467e+00 -2.443776994556e+02 0.0 
0.0 0.0 -1.030416321886e+02 
-7.280680986407e+01 -1.407489784016e+01 0.0 
-1.407489784016e+01 -1.613607219144e+02 0.0 
0.0 0.0 -6.829870010997e+01 
-6.413878959098e+01 -9.240080427367e+00 0.0 
-9.240080427367e+00 -1.752150270578e+02 0.0 
0.0 0.0 -7.059872905139e+01 
-4.047780780957e+01 1.487217384392e+01 0.0 
1.487217384392e+01 -3.423258295075e+01 0.0 
0.0 0.0 -1.918114675079e+01 
-4.363782834412e+01 1.480969604409e+01 0.0 
1.480969604409e+01 -4.739977967104e+01 0.0 
0.0 0.0 -2.365738898956e+01 
-8.876152034451e+01 3.318792952026e+00 0.0 
3.318792952026e+00 -1.798156713904e+02 0.0 
0.0 0.0 -8.017315752047e+01 
-6.733128463617e+01 -1.975859017164e+00 0.0 
-1.975859017164e+00 -1.912238254068e+02 0.0 
0.0 0.0 -7.678129690114e+01 
-6.477213482466e+01 -4.245277552117e+00 0.0 
-4.245277552117e+00 -1.292502000315e+02 0.0 
0.0 0.0 -5.253181971874e+01 
-1.211800555435e+02 1.374837188561e+01 0.0 
1.374837188561e+01 -2.960149105736e+02 0.0 
0.0 0.0 -1.247584898351e+02 
-1.664406841789e+02 3.414235585162e+00 0.0 
3.414235585162e+00 -3.930358078194e+02 0.0 
0.0 0.0 -1.674429475995e+02 
-1.652546291234e+02 4.478166314879e+00 0.0 
4.478166314879e+00 -3.916443262700e+02 0.0 
0.0 0.0 -1.666696866180e+02 
-7.441170623438e+01 -8.303618631061e+00 0.0 
-8.303618631061e+00 -1.969193562814e+02 0.0 
0.0 0.0 -8.155414799475e+01 
-8.251992852656e+01 2.658337443168e+00 0.0 
2.658337443168e+00 -1.635422636900e+02 0.0 
0.0 0.0 -7.341865766497e+01 
-7.748751037174e+01 1.567178164776e+00 0.0 
1.567178164776e+00 -1.090100806629e+02 0.0 
0.0 0.0 -5.693156126750e+01 
-4.431612134511e+01 2.228934047383e+01 0.0 
2.228934047383e+01 -2.514031838139e+01 0.0 
0.0 0.0 -1.741376634110e+01 
-4.899931364045e+01 -2.108984131077e+01 0.0 
-2.108984131077e+01 -1.130756526607e+02 0.0 
0.0 0.0 -4.380754003456e+01 
-4.304139135183e+01 1.798027819069e+01 0.0 
1.798027819069e+01 -3.091280114759e+01 0.0 
0.0 0.0 -1.898448278803e+01 
-9.692967825115e+01 1.572027268476e+01 0.0 
1.572027268476e+01 -2.511716741289e+02 0.0 
0.0 0.0 -1.047658647351e+02 
-6.547469339817e+01 -1.261861119492e+01 0.0 
-1.261861119492e+01 -1.666901708103e+02 0.0 
0.0 0.0 -6.841843032159e+01 
-7.017373178509e+01 -8.836242232707e+00 0.0 
-8.836242232707e+00 -1.887787203197e+02 0.0 
0.0 0.0 -7.824917432756e+01 
-3.851724519655e+01 -2.613106454085e+01 0.0 
-2.613106454085e+01 -9.200416849575e+01 0.0 
0.0 0.0 -3.958260110036e+01 
-1.225101037653e+02 6.890044491549e-01 0.0 
6.890044491549e-01 -2.781625845012e+02 0.0 
0.0 0.0 -1.198018064799e+02 
-7.294569523597e+01 -1.383745927293e+01 0.0 
-1.383745927293e+01 -1.842304422434e+02 0.0 
0.0 0.0 -7.722973588612e+01 
-1.282379510041e+02 2.029046954049e+00 0.0 
2.029046954049e+00 -2.918640554615e+02 0.0 
0.0 0.0 -1.256306019397e+02 
-1.178914790583e+02 1.773601804596e+00 0.0 
1.773601804596e+00 -2.627003247860e+02 0.0 
0.0 0.0 -1.137775411533e+02 
-1.416024655349e+02 1.058092169945e+00 0.0 
1.058092169945e+00 -3.284268255324e+02 0.0 
0.0 0.0 -1.406087873202e+02 
-1.673140407552e+02 3.814066777109e-01 0.0 
3.814066777109e-01 -3.933468684493e+02 0.0 
0.0 0.0 -1.677982727614e+02 
-8.517712874786e+01 -4.819110972987e-01 0.0 
-4.819110972987e-01 -1.789302379917e+02 0.0 
0.0 0.0 -7.883221002188e+01 
-7.751037361499e+01 -1.357775579790e+01 0.0 
-1.357775579790e+01 -1.874961380065e+02 0.0 
0.0 0.0 -7.939671600711e+01 
-3.968279224660e+01 8.801835425869e+00 0.0 
8.801835425869e+00 -5.186293822209e+01 0.0 
0.0 0.0 -2.392575262400e+01 
-7.892438939280e+01 -8.755234099268e+00 0.0 
-8.755234099268e+00 -1.923660694023e+02 0.0 
0.0 0.0 -7.991630255776e+01 
-1.683887271729e+02 2.596348787784e+00 0.0 
2.596348787784e+00 -3.942403634034e+02 0.0 
0.0 0.0 -1.683887271729e+02 
-4.320452650580e+01 2.897004874320e+01 0.0 
2.897004874320e+01 -2.812284125439e+01 0.0 
0.0 0.0 -1.807310192198e+01 
-4.259499086188e+01 2.672930642786e+01 0.0 
2.672930642786e+01 -2.535288180176e+01 0.0 
0.0 0.0 -1.697325138891e+01 
-1.342391180529e+02 1.213836448772e+01 0.0 
1.213836448772e+01 -3.313517479305e+02 0.0 
0.0 0.0 -1.392772597950e+02 
-8.170519861937e+01 1.985928174309e+00 0.0 
1.985928174309e+00 -1.637713835772e+02 0.0 
0.0 0.0 -7.324297465897e+01 
-1.287090811647e+02 1.018751019332e+00 0.0 
1.018751019332e+00 -2.937121237248e+02 0.0 
0.0 0.0 -1.263263614668e+02 
-1.210351837548e+02 1.579495355208e+01 0.0 
1.579495355208e+01 -2.739983469012e+02 0.0 
0.0 0.0 -1.181100591968e+02 
-1.348451812456e+02 1.339707050807e+01 0.0 
1.339707050807e+01 -3.262553985927e+02 0.0 
0.0 0.0 -1.379301739515e+02 
-1.262502474979e+02 1.445884361751e+01 0.0 
1.445884361751e+01 -2.809605677704e+02 0.0 
0.0 0.0 -1.217632445805e+02 
-8.706521363255e+01 7.729115353258e-02 0.0 
7.729115353258e-02 -1.824808230339e+02 0.0 
0.0 0.0 -8.046381099995e+01 
-6.533439522140e+01 -1.541198739730e+01 0.0 
-1.541198739730e+01 -1.412142886649e+02 0.0 
0.0 0.0 -5.967517941835e+01 
-6.223813177168e+01 -1.368273148329e+01 0.0 
-1.368273148329e+01 -1.408233657321e+02 0.0 
0.0 0.0 -5.798230226242e+01 
-1.038996686041e+02 -2.290616903853e-01 0.0 
-2.290616903853e-01 -2.258995381393e+02 0.0 
0.0 0.0 -9.853976202304e+01 
-1.306345579320e+02 1.538107316429e+01 0.0 
1.538107316429e+01 -3.153393925246e+02 0.0 
0.0 0.0 -1.333921851370e+02 
-7.782185793461e+01 3.774253688498e+00 0.0 
3.774253688498e+00 -1.484811533140e+02 0.0 
0.0 0.0 -6.742920405082e+01 
-7.859691415453e+01 2.150414148088e-01 0.0 
2.150414148088e-01 -1.619697355026e+02 0.0 
0.0 0.0 -7.176999489713e+01 
-8.535545980732e+01 7.218317712139e-01 0.0 
7.218317712139e-01 -1.779703973769e+02 0.0 
0.0 0.0 -7.859775715528e+01 
-8.779875656909e+01 1.895547443248e+00 0.0 
1.895547443248e+00 -1.837139336487e+02 0.0 
0.0 0.0 -8.105380706534e+01 
-3.312999334036e+01 -1.314953266682e+01 0.0 
-1.314953266682e+01 -1.149094193326e+02 0.0 
0.0 0.0 -4.417445581728e+01 
-5.911481580357e+01 -1.324701800494e+01 0.0 
-1.324701800494e+01 -1.271625296909e+02 0.0 
0.0 0.0 -5.240384285878e+01 
-1.365473763209e+02 3.729977639375e+00 0.0 
3.729977639375e+00 -3.133170824948e+02 0.0 
0.0 0.0 -1.345593376447e+02 
-9.578837573947e+01 2.107175462120e+00 0.0 
2.107175462120e+00 -2.031099157358e+02 0.0 
0.0 0.0 -8.926948744259e+01 
-1.536923952801e+02 1.350072875868e+01 0.0 
1.350072875868e+01 -3.652887678883e+02 0.0 
0.0 0.0 -1.552943489505e+02 
-1.378081186338e+02 1.459117010087e+01 0.0 
1.459117010087e+01 -3.120389001430e+02 0.0 
0.0 0.0 -1.345541056331e+02 
-1.146568682309e+02 1.458321397847e+01 0.0 
1.458321397847e+01 -2.514218454011e+02 0.0 
0.0 0.0 -1.094236140896e+02 
-1.319924614744e+02 7.812447067880e+00 0.0 
7.812447067880e+00 -2.972498305925e+02 0.0 
0.0 0.0 -1.283726876201e+02 
-8.960805552887e+01 -4.324420273236e+00 0.0 
-4.324420273236e+00 -1.826335018582e+02 0.0 
0.0 0.0 -7.576747844266e+01 
-8.124484899785e+01 -4.825110293592e+00 0.0 
-4.825110293592e+00 -1.661282255420e+02 0.0 
0.0 0.0 -6.811523742563e+01 
-1.494660461625e+02 3.877506702037e+00 0.0 
3.877506702037e+00 -3.610931468638e+02 0.0 
0.0 0.0 -1.527677579079e+02 
-3.496063082894e+01 -2.291252746416e+01 0.0 
-2.291252746416e+01 -9.894121268027e+01 0.0 
0.0 0.0 -4.156493082998e+01 
-5.185279404481e+01 -7.438689475750e-01 0.0 
-7.438689475750e-01 -1.163496160288e+02 0.0 
0.0 0.0 -4.750187914038e+01 
-1.564249136723e+02 1.651980378845e+01 0.0 
1.651980378845e+01 -3.663247985687e+02 0.0 
0.0 0.0 -1.564249136723e+02 
-1.657608385488e+01 7.963570032127e-01 0.0 
7.963570032127e-01 -5.732699070063e+01 0.0 
0.0 0.0 -2.108302383768e+01 
-7.844607548390e+01 2.401351072584e-01 0.0 
2.401351072584e-01 -1.619092531425e+02 0.0 
0.0 0.0 -7.170659858792e+01 
-1.442802216104e+02 1.063438423410e+01 0.0 
1.063438423410e+01 -3.536516164595e+02 0.0 
0.0 0.0 -1.489795514210e+02 
-2.179527186113e+01 -3.167215465324e+00 0.0 
-3.167215465324e+00 -3.974960245337e+01 0.0 
0.0 0.0 -1.591747651693e+01 
-1.436681803758e+01 2.326738606484e-01 0.0 
2.326738606484e-01 -2.389370194143e+01 0.0 
0.0 0.0 -9.004328730245e+00 
-1.434028001272e+02 6.586241123075e+00 0.0 
6.586241123075e+00 -3.314345848199e+02 0.0 
0.0 0.0 -1.420512154841e+02 
-7.323261246486e+01 7.047647723660e-01 0.0 
7.047647723660e-01 -1.452579102220e+02 0.0 
0.0 0.0 -6.514715680607e+01 
-1.355560888773e+02 4.462830872536e+00 0.0 
4.462830872536e+00 -3.099517365477e+02 0.0 
0.0 0.0 -1.332523476275e+02 
-1.457355490493e+02 1.108755856892e+01 0.0 
1.108755856892e+01 -3.520878780897e+02 0.0 
0.0 0.0 -1.489470281417e+02 
-7.289041497786e+01 1.066922904211e+00 0.0 
1.066922904211e+00 -1.449149301758e+02 0.0 
0.0 0.0 -6.494160354609e+01 
-7.397079716652e+01 7.653767822330e+00 0.0 
7.653767822330e+00 -1.080988388133e+02 0.0 
0.0 0.0 -5.568192842783e+01 
-1.343715085594e+02 1.443552218258e+00 0.0 
1.443552218258e+00 -3.111052205072e+02 0.0 
0.0 0.0 -1.332430187200e+02 
-2.213001085674e+01 -1.800006903714e+00 0.0 
-1.800006903714e+00 -6.352257188060e+01 0.0 
0.0 0.0 -2.372710012889e+01 
-1.303971976721e+02 4.075248133192e+00 0.0 
4.075248133192e+00 -2.980905566233e+02 0.0 
0.0 0.0 -1.281463262886e+02 
-1.682692940602e+02 1.819854631844e+00 0.0 
1.819854631844e+00 -3.939616861406e+02 0.0 
0.0 0.0 -1.682692940602e+02 
-1.355705069409e+02 1.271909260398e+01 0.0 
1.271909260398e+01 -3.074583309321e+02 0.0 
0.0 0.0 -1.325086513619e+02 
-3.895906838642e+01 -9.461948812585e+00 0.0 
-9.461948812585e+00 -1.289143772266e+02 0.0 
0.0 0.0 -4.772184611742e+01 
-9.096641220237e+01 4.559485834161e+00 0.0 
4.559485834161e+00 -1.825287770399e+02 0.0 
0.0 0.0 -8.164855677268e+01 
-9.043689009187e+01 -1.895129477433e+00 0.0 
-1.895129477433e+00 -1.850688819112e+02 0.0 
0.0 0.0 -7.721465141741e+01 
-1.210554514468e+02 1.511099884795e+01 0.0 
1.511099884795e+01 -2.961073565822e+02 0.0 
0.0 0.0 -1.247488424087e+02 
-1.591534691565e+02 1.564304127932e+01 0.0 
1.564304127932e+01 -3.756259850664e+02 0.0 
0.0 0.0 -1.600338362669e+02 
-1.118520398762e+02 1.773252607081e-01 0.0 
1.773252607081e-01 -2.473383791560e+02 0.0 
0.0 0.0 -1.073571257096e+02 
-1.593813813222e+02 1.394592640142e+01 0.0 
1.394592640142e+01 -3.779914697317e+02 0.0 
0.0 0.0 -1.608118553162e+02 
-3.018480096913e+01 -1.661517611846e+01 0.0 
-1.661517611846e+01 -1.166374160665e+02 0.0 
0.0 0.0 -4.622035825972e+01 
-1.600283803862e+02 2.930395782499e+00 0.0 
2.930395782499e+00 -3.791031023985e+02 0.0 
0.0 0.0 -1.613394448354e+02 
-4.392006262379e+01 -1.367883315222e+01 0.0 
-1.367883315222e+01 -1.245023531949e+02 0.0 
0.0 0.0 -4.388719888317e+01 
-1.680264226973e+01 -1.335973325084e+00 0.0 
-1.335973325084e+00 -5.729941131737e+01 0.0 
0.0 0.0 -2.110422628128e+01 
-1.543746082688e+02 9.741523523955e+00 0.0 
9.741523523955e+00 -3.720829677390e+02 0.0 
0.0 0.0 -1.575372728023e+02 
-1.403134312705e+02 9.833540882110e+00 0.0 
9.833540882110e+00 -3.193704750381e+02 0.0 
0.0 0.0 -1.375051718926e+02 
-1.383107991593e+02 6.995579101838e+00 0.0 
6.995579101838e+00 -3.182172427321e+02 0.0 
0.0 0.0 -1.365584125674e+02 
-7.852910065167e+01 3.344991116721e-02 0.0 
3.344991116721e-02 -1.607209818310e+02 0.0 
0.0 0.0 -7.137502474482e+01 
-9.248945029943e+01 5.632881600743e+00 0.0 
5.632881600743e+00 -1.864345962001e+02 0.0 
0.0 0.0 -8.327721394987e+01 
-4.575568286380e+01 2.880875135860e+01 0.0 
2.880875135860e+01 -7.052703617083e+01 0.0 
0.0 0.0 -3.073355214287e+01 
-1.444619378154e+02 1.507410174947e+01 0.0 
1.507410174947e+01 -3.309571117809e+02 0.0 
0.0 0.0 -1.422257148789e+02 
-7.729533449757e+01 -3.070138969987e+00 0.0 
-3.070138969987e+00 -1.535128116245e+02 0.0 
0.0 0.0 -6.373140468085e+01 
-3.629909730798e+01 2.957622151967e+01 0.0 
2.957622151967e+01 -7.626653956510e+01 0.0 
0.0 0.0 -2.867354583936e+01 
-1.259099712501e+02 1.334053819233e+01 0.0 
1.334053819233e+01 -3.080965077299e+02 0.0 
0.0 0.0 -1.298019436940e+02 
-7.192897586454e+01 5.048976474944e-01 0.0 
5.048976474944e-01 -1.445846342381e+02 0.0 
0.0 0.0 -6.455408303080e+01 
-1.341264595520e+02 8.633301409206e+00 0.0 
8.633301409206e+00 -3.054093690314e+02 0.0 
0.0 0.0 -1.314607485750e+02 
-1.408361089856e+02 8.240589113460e-01 0.0 
8.240589113460e-01 -3.266928316225e+02 0.0 
0.0 0.0 -1.398586821824e+02 
-1.403617004471e+02 4.887134015773e-01 0.0 
4.887134015773e-01 -3.288439677098e+02 0.0 
0.0 0.0 -1.403617004471e+02 
-1.315862865994e+01 -4.355315247990e-02 0.0 
-4.355315247990e-02 -6.144767900779e+00 0.0 
0.0 0.0 -5.044485888809e+00 
-9.528037133787e+00 1.239754837986e-01 0.0 
1.239754837986e-01 -1.082903382391e+01 0.0 
0.0 0.0 -4.385117521322e+00 
-7.211861710512e+01 6.838352392258e-01 0.0 
6.838352392258e-01 -1.469411356940e+02 0.0 
0.0 0.0 -6.531792583974e+01 
-7.084515607436e+01 -6.476066933496e-02 0.0 
-6.476066933496e-02 -1.444716171820e+02 0.0 
0.0 0.0 -6.419503197690e+01 
-1.682088044828e+02 1.658460746027e-01 0.0 
1.658460746027e-01 -3.938205437931e+02 0.0 
0.0 0.0 -1.682088044828e+02 
-1.665772393917e+02 -7.007358866173e-01 0.0 
-7.007358866173e-01 -3.911191990781e+02 0.0 
0.0 0.0 -1.669089315409e+02 
-1.317357390385e+01 -3.618355546432e-01 0.0 
-3.618355546432e-01 -2.327919536664e+01 0.0 
0.0 0.0 -8.352086197386e+00 
-7.618666656520e+01 -3.968778643367e+00 0.0 
-3.968778643367e+00 -1.132779312491e+02 0.0 
0.0 0.0 -5.733980569149e+01 
-1.524506695899e+02 6.295443035787e-01 0.0 
6.295443035787e-01 -3.619938223458e+02 0.0 
0.0 0.0 -1.539333475807e+02 
-1.391694253218e+02 1.478779256419e+01 0.0 
1.478779256419e+01 -3.301788627855e+02 0.0 
0.0 0.0 -1.404044864322e+02 
-2.449963603379e+01 -1.598658016355e+00 0.0 
-1.598658016355e+00 -7.461858814818e+01 0.0 
0.0 0.0 -2.868767859315e+01 
-1.536720686402e+02 3.179822785100e+00 0.0 
3.179822785100e+00 -3.663602468749e+02 0.0 
0.0 0.0 -1.556096946545e+02 
-1.174892052410e+02 -7.964656626905e-02 0.0 
-7.964656626905e-02 -2.606977791915e+02 0.0 
0.0 0.0 -1.101732231022e+02 
-1.061778614651e+02 2.386013120084e-01 0.0 
2.386013120084e-01 -2.250807830079e+02 0.0 
0.0 0.0 -9.479984921536e+01 
-9.919493768845e+01 5.604810113277e-01 0.0 
5.604810113277e-01 -2.130814665395e+02 0.0 
0.0 0.0 -9.328292126838e+01 
-4.710084838717e+01 -1.949435013126e+01 0.0 
-1.949435013126e+01 -9.113764167114e+01 0.0 
0.0 0.0 -3.506449083062e+01 
-1.115695180605e+02 1.541232677103e+01 0.0 
1.541232677103e+01 -2.774588045279e+02 0.0 
0.0 0.0 -1.163084967765e+02 
-2.086584389201e+01 -4.135851093150e-01 0.0 
-4.135851093150e-01 -5.988524661461e+01 0.0 
0.0 0.0 -2.245060838068e+01 
-9.928419550074e+01 -2.011500864471e+00 0.0 
-2.011500864471e+00 -2.055564768927e+02 0.0 
0.0 0.0 -8.610655286293e+01 
-1.380690865221e+02 1.354592068911e+01 0.0 
1.354592068911e+01 -3.170283298992e+02 0.0 
0.0 0.0 -1.361292249264e+02 
-1.263248227689e+02 9.302332213419e-01 0.0 
9.302332213419e-01 -2.864036689195e+02 0.0 
0.0 0.0 -1.234185475065e+02 
-1.063388114482e+02 -1.179030778531e+00 0.0 
-1.179030778531e+00 -2.240182604684e+02 0.0 
0.0 0.0 -9.454849402289e+01 
-9.091243043799e+01 1.172195342608e+00 0.0 
1.172195342608e+00 -1.923892273973e+02 0.0 
0.0 0.0 -8.459049735059e+01 
-1.399152746395e+02 1.593076504815e+01 0.0 
1.593076504815e+01 -3.273673122183e+02 0.0 
0.0 0.0 -1.397847760573e+02 
-1.294557903713e+02 1.509769560905e+01 0.0 
1.509769560905e+01 -2.912936662739e+02 0.0 
0.0 0.0 -1.258248369936e+02 
-1.219961153176e+02 1.481708935776e+01 0.0 
1.481708935776e+01 -2.713186496682e+02 0.0 
0.0 0.0 -1.175944294958e+02 
-7.233780587357e+01 6.404441849630e-01 0.0 
6.404441849630e-01 -1.451064213914e+02 0.0 
0.0 0.0 -6.483326817949e+01 
-1.059370640219e+02 1.515174872827e+01 0.0 
1.515174872827e+01 -2.700048659162e+02 0.0 
0.0 0.0 -1.123825789814e+02 
-1.338677353190e+02 1.011182724594e+01 0.0 
1.011182724594e+01 -3.050376139575e+02 0.0 
0.0 0.0 -1.312716047829e+02 
-5.711918919692e+01 -2.952939964922e+00 0.0 
-2.952939964922e+00 -1.157207434995e+02 0.0 
0.0 0.0 -4.704208999984e+01 
-1.651533336055e+01 7.451969394278e-01 0.0 
7.451969394278e-01 -2.409334669267e+01 0.0 
0.0 0.0 -1.155890383881e+01 
-1.348776100902e+02 1.616455766261e+01 0.0 
1.616455766261e+01 -3.138622020791e+02 0.0 
0.0 0.0 -1.342219436508e+02 
-1.290446266870e+02 9.883622330365e+00 0.0 
9.883622330365e+00 -3.231866173766e+02 0.0 
0.0 0.0 -1.352693732191e+02 
-4.483678041173e+01 -2.035291899337e+01 0.0 
-2.035291899337e+01 -8.352940413789e+01 0.0 
0.0 0.0 -3.190846351766e+01 
-1.046828220643e+02 1.265138919104e+00 0.0 
1.265138919104e+00 -2.272447636002e+02 0.0 
0.0 0.0 -9.917827569935e+01 
-1.597604448298e+02 1.421691844255e+00 0.0 
1.421691844255e+00 -3.766484601235e+02 0.0 
0.0 0.0 -1.605226714860e+02 
-1.344824526080e+02 1.491495203929e+01 0.0 
1.491495203929e+01 -3.175336310786e+02 0.0 
0.0 0.0 -1.352048251060e+02 
-1.401136145874e+02 1.635333945039e+01 0.0 
1.635333945039e+01 -3.296639655413e+02 0.0 
0.0 0.0 -1.405332740386e+02 
-1.230964514828e+02 6.481883833496e-01 0.0 
6.481883833496e-01 -2.815664751341e+02 0.0 
0.0 0.0 -1.191191724668e+02 
-3.991358582053e+01 3.276399857001e+01 0.0 
3.276399857001e+01 -9.657371720045e+01 0.0 
0.0 0.0 -4.229836675735e+01 
-3.174500103515e+01 1.063918021179e+01 0.0 
1.063918021179e+01 -3.095864791447e+01 0.0 
0.0 0.0 -1.596331244977e+01 
-5.026386015099e+01 2.544769492544e+01 0.0 
2.544769492544e+01 -7.242772654422e+01 0.0 
0.0 0.0 -3.341473241160e+01 
-9.080815266152e+01 4.688173993652e+00 0.0 
4.688173993652e+00 -1.822781570248e+02 0.0 
0.0 0.0 -8.152589290590e+01 
-1.074257806810e+02 1.368117256657e+01 0.0 
1.368117256657e+01 -2.703849764121e+02 0.0 
0.0 0.0 -1.137599509288e+02 
-1.315308341327e+02 4.225267754542e+00 0.0 
4.225267754542e+00 -3.001572711830e+02 0.0 
0.0 0.0 -1.291064315947e+02 
-1.532284264528e+02 1.194756189131e+01 0.0 
1.194756189131e+01 -3.647147196364e+02 0.0 
0.0 0.0 -1.549829438267e+02 
-4.219456066164e+01 -1.523828051732e+01 0.0 
-1.523828051732e+01 -5.256971158681e+01 0.0 
0.0 0.0 -2.332489301334e+01 
-2.926555874971e+01 -5.768540015941e+00 0.0 
-5.768540015941e+00 -4.226989972526e+01 0.0 
0.0 0.0 -1.744988942247e+01 
-3.366467921007e+01 1.486808501258e+01 0.0 
1.486808501258e+01 -2.165222896829e+01 0.0 
0.0 0.0 -1.311734920555e+01 
-1.066468743937e+02 3.374081240967e-02 0.0 
3.374081240967e-02 -2.328742577094e+02 0.0 
0.0 0.0 -1.014563396309e+02 
-7.003907815481e+01 -2.783625192572e+00 0.0 
-2.783625192572e+00 -1.440178887962e+02 0.0 
0.0 0.0 -5.886024615304e+01 
-1.347659581301e+02 8.659300511893e+00 0.0 
8.659300511893e+00 -3.055935900915e+02 0.0 
0.0 0.0 -1.317078644665e+02 
-2.123166941933e+01 -4.489618015038e-01 0.0 
-4.489618015038e-01 -7.134952212651e+01 0.0 
0.0 0.0 -2.721799861778e+01 
-1.436432901439e+02 1.146175512435e+01 0.0 
1.146175512435e+01 -3.478365275015e+02 0.0 
0.0 0.0 -1.470439452936e+02 
-8.736489437646e+01 1.632626790136e+00 0.0 
1.632626790136e+00 -1.786975599404e+02 0.0 
0.0 0.0 -7.941873629506e+01 
-1.506124903840e+02 1.517323771603e+01 0.0 
1.517323771603e+01 -3.549262721526e+02 0.0 
0.0 0.0 -1.512616287610e+02 
-1.260970964755e+02 1.582089210704e+01 0.0 
1.582089210704e+01 -3.041220956266e+02 0.0 
0.0 0.0 -1.286657576306e+02 
-9.173564305444e+01 5.948492721075e+00 0.0 
5.948492721075e+00 -1.830739189194e+02 0.0 
0.0 0.0 -8.204286859214e+01 
-1.555895604657e+02 7.380898562726e+00 0.0 
7.380898562726e+00 -3.747482440662e+02 0.0 
0.0 0.0 -1.587013413596e+02 
-1.394097308509e+02 8.562058018721e+00 0.0 
8.562058018721e+00 -3.186657548204e+02 0.0 
0.0 0.0 -1.370226457014e+02 
-1.363699977949e+02 5.932534209636e-01 0.0 
5.932534209636e-01 -3.128093721250e+02 0.0 
0.0 0.0 -1.343538109760e+02 
-3.947013522527e+01 2.529803795198e+01 0.0 
2.529803795198e+01 -2.759655180514e+01 0.0 
0.0 0.0 -1.588103471316e+01 
-1.308362181413e+02 6.285748594725e+00 0.0 
6.285748594725e+00 -2.965903613766e+02 0.0 
0.0 0.0 -1.278279738554e+02 
-1.452613626340e+02 1.570160992547e+01 0.0 
1.570160992547e+01 -3.390876366627e+02 0.0 
0.0 0.0 -1.449046997890e+02 
-1.428821782614e+02 1.250422328162e+01 0.0 
1.250422328162e+01 -3.481592816842e+02 0.0 
0.0 0.0 -1.469124379837e+02 
-1.301280729893e+02 1.364374118129e+01 0.0 
1.364374118129e+01 -3.145515052984e+02 0.0 
0.0 0.0 -1.330038734863e+02 
-1.681191162260e+02 3.610757103274e+00 0.0 
3.610757103274e+00 -3.936112711939e+02 0.0 
0.0 0.0 -1.681191162260e+02 
-1.212772814232e+02 1.258878475557e+01 0.0 
1.258878475557e+01 -2.705771085128e+02 0.0 
0.0 0.0 -1.171563169808e+02 
-5.929477777406e+01 2.336394428808e+01 0.0 
2.336394428808e+01 -7.487683692155e+01 0.0 
0.0 0.0 -4.080322730921e+01 
-4.032088172115e+01 3.102487223197e+01 0.0 
3.102487223197e+01 -7.192497858229e+01 0.0 
0.0 0.0 -2.729268063660e+01 
-1.330811075492e+02 1.468974143592e+01 0.0 
1.468974143592e+01 -3.006415407115e+02 0.0 
0.0 0.0 -1.297167944782e+02 
-9.616064223890e+01 4.314699126802e+00 0.0 
4.314699126802e+00 -1.972216947273e+02 0.0 
0.0 0.0 -8.761470108985e+01 
-1.525924589449e+02 1.378719116162e+00 0.0 
1.378719116162e+00 -3.610790336816e+02 0.0 
0.0 0.0 -1.537014477880e+02 
-1.354055521482e+02 1.589655147781e+01 0.0 
1.589655147781e+01 -3.231073872809e+02 0.0 
0.0 0.0 -1.371538818287e+02 
-1.606570124712e+02 3.209172350541e+00 0.0 
3.209172350541e+00 -3.795117380315e+02 0.0 
0.0 0.0 -1.616506251508e+02 
-1.148069496484e+02 4.668632391431e-01 0.0 
4.668632391431e-01 -2.539373807232e+02 0.0 
0.0 0.0 -1.102232991115e+02 
-1.515474538100e+02 1.476526952291e+01 0.0 
1.476526952291e+01 -3.578535321126e+02 0.0 
0.0 0.0 -1.524202957768e+02 
-1.506313455746e+02 6.570623938656e+00 0.0 
6.570623938656e+00 -3.634756462921e+02 0.0 
0.0 0.0 -1.538320975600e+02 
-1.498184648949e+02 5.517124475681e+00 0.0 
5.517124475681e+00 -3.629918649960e+02 0.0 
0.0 0.0 -1.534430989673e+02 
-7.245875858933e+01 -1.893719266477e+00 0.0 
-1.893719266477e+00 -1.488935808498e+02 0.0 
0.0 0.0 -6.149260162576e+01 
-1.670000363565e+02 2.832898270476e+00 0.0 
2.832898270476e+00 -3.935596516271e+02 0.0 
0.0 0.0 -1.677679063951e+02 
-8.265321038656e+01 2.857736491264e+00 0.0 
2.857736491264e+00 -1.630327435697e+02 0.0 
0.0 0.0 -7.330578618689e+01 
-1.296417463437e+02 2.705707605388e+00 0.0 
2.705707605388e+00 -2.944060304611e+02 0.0 
0.0 0.0 -1.268143330414e+02 
-3.088878733164e+01 -6.342425165498e+00 0.0 
-6.342425165498e+00 -4.573979918604e+01 0.0 
0.0 0.0 -1.848976719612e+01 
-1.245420776019e+02 1.432431623387e+00 0.0 
1.432431623387e+00 -2.793851844496e+02 0.0 
0.0 0.0 -1.207781786154e+02 
-1.057399579070e+02 1.056528406737e+00 0.0 
1.056528406737e+00 -2.291725960022e+02 0.0 
0.0 0.0 -1.000737661728e+02 
-1.486167906750e+01 1.683359496334e-01 0.0 
1.683359496334e-01 -4.172711647945e+01 0.0 
0.0 0.0 -1.380786136275e+01 
-4.014993966129e+01 -1.279186285567e+01 0.0 
-1.279186285567e+01 -1.273732818740e+02 0.0 
0.0 0.0 -4.961230734397e+01 
-1.247520359412e+02 1.324342320905e+01 0.0 
1.324342320905e+01 -2.818746571762e+02 0.0 
0.0 0.0 -1.215880079352e+02 
-1.354334686774e+02 4.973862669805e+00 0.0 
4.973862669805e+00 -3.130485729796e+02 0.0 
0.0 0.0 -1.341446124971e+02 
-1.301843113086e+02 1.658841508054e+00 0.0 
1.658841508054e+00 -2.969975938875e+02 0.0 
0.0 0.0 -1.277545715588e+02 
-1.487272044215e+02 1.372915932382e+01 0.0 
1.372915932382e+01 -3.555548257802e+02 0.0 
0.0 0.0 -1.508846090605e+02 
-9.090666750655e+01 1.836334447923e-01 0.0 
1.836334447923e-01 -1.918888455480e+02 0.0 
0.0 0.0 -8.443865391636e+01 
-1.558548690464e+01 2.615846819071e-01 0.0 
2.615846819071e-01 -2.320129475366e+01 0.0 
0.0 0.0 -1.048814968964e+01 
-3.498266195554e+01 2.415318732181e+01 0.0 
2.415318732181e+01 -1.112423907998e+02 0.0 
0.0 0.0 -4.575896448590e+01 
-1.340791115925e+01 -1.010956516349e+00 0.0 
-1.010956516349e+00 -2.861231523984e+01 0.0 
0.0 0.0 -1.174454626187e+01 
-3.497758409730e+01 -5.992419751066e+00 0.0 
-5.992419751066e+00 -5.774008028082e+01 0.0 
0.0 0.0 -2.251921167066e+01 
-5.185527765963e+01 4.291023576025e+01 0.0 
4.291023576025e+01 -5.503523897281e+01 0.0 
0.0 0.0 -3.251760620442e+01 
-9.608253709647e+01 -3.099670766547e+00 0.0 
-3.099670766547e+00 -1.997183791350e+02 0.0 
0.0 0.0 -8.361120631161e+01 
-1.523427733133e+02 -1.567824514317e-01 0.0 
-1.567824514317e-01 -3.609254122853e+02 0.0 
0.0 0.0 -1.535804556796e+02 
-1.353804875815e+02 1.134750039009e+01 0.0 
1.134750039009e+01 -3.076560776875e+02 0.0 
0.0 0.0 -1.325109695807e+02 
-9.838071532918e+01 7.600976028206e+00 0.0 
7.600976028206e+00 -1.985650653993e+02 0.0 
0.0 0.0 -8.868373421854e+01 
-8.636618880550e+01 -3.331142739157e+00 0.0 
-3.331142739157e+00 -1.760813820436e+02 0.0 
0.0 0.0 -7.248700948694e+01 
-1.500878222220e+02 4.931210165182e+00 0.0 
4.931210165182e+00 -3.618659780893e+02 0.0 
0.0 0.0 -1.531861400934e+02 
-1.438597266938e+02 8.182614505304e+00 0.0 
8.182614505304e+00 -3.534092633730e+02 0.0 
0.0 0.0 -1.487806970200e+02 
-1.490073402900e+02 1.562601762214e+01 0.0 
1.562601762214e+01 -3.538970101849e+02 0.0 
0.0 0.0 -1.504713051425e+02 
-1.401545541061e+02 1.567910206625e+01 0.0 
1.567910206625e+01 -3.267564491104e+02 0.0 
0.0 0.0 -1.396733009649e+02 
-1.317988224215e+02 1.363646746598e+01 0.0 
1.363646746598e+01 -3.011189657774e+02 0.0 
0.0 0.0 -1.294753364597e+02 
-2.897853341910e+01 -6.580629609203e+00 0.0 
-6.580629609203e+00 -4.350283149546e+01 0.0 
0.0 0.0 -1.906174274481e+01 
-3.545267847540e+01 -2.035138193442e+01 0.0 
-2.035138193442e+01 -1.096602633792e+02 0.0 
0.0 0.0 -4.529633885258e+01 
-1.526779386456e+02 1.712659095431e+00 0.0 
1.712659095431e+00 -3.625917019097e+02 0.0 
0.0 0.0 -1.541808921666e+02 
-1.226465270276e+01 -3.014368834890e-01 0.0 
-3.014368834890e-01 -4.090256112411e+01 0.0 
0.0 0.0 -1.368627992610e+01 
-1.492045364048e+01 -1.074443241958e+00 0.0 
-1.074443241958e+00 -4.900735807900e+01 0.0 
0.0 0.0 -1.708903498311e+01 
-4.239066595189e+01 3.533573283223e+01 0.0 
3.533573283223e+01 -5.833631319082e+01 0.0 
0.0 0.0 -2.874543085920e+01 
-1.770233371744e+01 4.663123473282e-01 0.0 
4.663123473282e-01 -3.865141657266e+01 0.0 
0.0 0.0 -1.519841191404e+01 
-1.584853809018e+02 6.478972204549e+00 0.0 
6.478972204549e+00 -3.768139501926e+02 0.0 
0.0 0.0 -1.601897993283e+02 
-1.440697235007e+02 1.547018022225e+01 0.0 
1.547018022225e+01 -3.343837897298e+02 0.0 
0.0 0.0 -1.431360539691e+02 
-1.309094716000e+02 2.647893523127e+00 0.0 
2.647893523127e+00 -3.000212950265e+02 0.0 
0.0 0.0 -1.288792299880e+02 
-1.500422320209e+02 1.561426368636e+01 0.0 
1.561426368636e+01 -3.537365305181e+02 0.0 
0.0 0.0 -1.507336287617e+02 
-1.392095576206e+02 9.690389281036e+00 0.0 
9.690389281036e+00 -3.428979105969e+02 0.0 
0.0 0.0 -1.442322404653e+02 
-9.551805872348e+01 6.282580455912e-02 0.0 
6.282580455912e-02 -2.032647389956e+02 0.0 
0.0 0.0 -8.923483931571e+01 
-1.416866484054e+02 6.516488428564e+00 0.0 
6.516488428564e+00 -3.319355129460e+02 0.0 
0.0 0.0 -1.416866484054e+02 
-5.197460222574e+01 -1.809533359775e+01 0.0 
-1.809533359775e+01 -1.290564584499e+02 0.0 
0.0 0.0 -5.067207145563e+01 
-7.314374182990e+01 9.535119024533e-01 0.0 
9.535119024533e-01 -1.445702343148e+02 0.0 
0.0 0.0 -6.491419284340e+01 
-5.028992731514e+01 -2.153010176474e+01 0.0 
-2.153010176474e+01 -7.497792961547e+01 0.0 
0.0 0.0 -3.078445687039e+01 
-1.011755557928e+01 -6.848695566241e-01 0.0 
-6.848695566241e-01 -2.433054216916e+01 0.0 
0.0 0.0 -7.958697238283e+00 
-1.671528311489e+02 1.500313282738e+00 0.0 
1.500313282738e+00 -3.932429479553e+02 0.0 
0.0 0.0 -1.677187337313e+02 
-8.616406511470e+01 5.329861907689e+00 0.0 
5.329861907689e+00 -1.677647190629e+02 0.0 
0.0 0.0 -7.577863525327e+01 
-1.910122065950e+01 -4.109706114515e-01 0.0 
-4.109706114515e-01 -5.734104962129e+01 0.0 
0.0 0.0 -2.100144499644e+01 
-9.343325880847e+01 -2.903857621505e+00 0.0 
-2.903857621505e+00 -1.915212203289e+02 0.0 
0.0 0.0 -8.015969694577e+01 
-1.451596922891e+02 1.537535212383e+01 0.0 
1.537535212383e+01 -3.345822599997e+02 0.0 
0.0 0.0 -1.435225856867e+02 
-1.317925996625e+02 5.418878375344e+00 0.0 
5.418878375344e+00 -2.992641941142e+02 0.0 
0.0 0.0 -1.289170381330e+02 
-1.383645943410e+02 9.807188215587e+00 0.0 
9.807188215587e+00 -3.195598697186e+02 0.0 
0.0 0.0 -1.369773392179e+02 
-6.483049749488e+01 -7.243829047210e-01 0.0 
-7.243829047210e-01 -1.352171256660e+02 0.0 
0.0 0.0 -5.584270778274e+01 
-3.626340217716e+01 2.994024098012e+00 0.0 
2.994024098012e+00 -1.212307268831e+02 0.0 
0.0 0.0 -4.917807166154e+01 
-1.585922401444e+02 3.853356720012e+00 0.0 
3.853356720012e+00 -3.781414593569e+02 0.0 
0.0 0.0 -1.606201098504e+02 
-1.424410549470e+02 5.753708519625e-01 0.0 
5.753708519625e-01 -3.295899996062e+02 0.0 
0.0 0.0 -1.412093163660e+02 
-1.672181215778e+02 3.693351455827e-01 0.0 
3.693351455827e-01 -3.932851441412e+02 0.0 
0.0 0.0 -1.677509797157e+02 
-7.709592344219e+01 -4.349670025344e-01 0.0 
-4.349670025344e-01 -1.588947341552e+02 0.0 
0.0 0.0 -7.039719727921e+01 
-1.474053478966e+02 9.484405735664e+00 0.0 
9.484405735664e+00 -3.563169822321e+02 0.0 
0.0 0.0 -1.507166990386e+02 
-1.812607806574e+01 -7.116221159605e-01 0.0 
-7.116221159605e-01 -5.815764167358e+01 0.0 
0.0 0.0 -2.158663224222e+01 
-1.338264889064e+02 7.182756864658e+00 0.0 
7.182756864658e+00 -3.053626588492e+02 0.0 
0.0 0.0 -1.313567443267e+02 
-1.132596881711e+01 -3.160721165028e-01 0.0 
-3.160721165028e-01 -2.348964852404e+01 0.0 
0.0 0.0 -8.477349447694e+00 
-1.576243376877e+02 8.468133578599e+00 0.0 
8.468133578599e+00 -3.751193008657e+02 0.0 
0.0 0.0 -1.594230915660e+02 
-1.400071868321e+02 1.007480154006e+01 0.0 
1.007480154006e+01 -3.199018787512e+02 0.0 
0.0 0.0 -1.375727196750e+02 
-4.306830318302e+01 1.434581414265e+01 0.0 
1.434581414265e+01 -1.174957924653e+02 0.0 
0.0 0.0 -4.953550289823e+01 
-1.346111319364e+02 1.622104321238e+01 0.0 
1.622104321238e+01 -3.182722061725e+02 0.0 
0.0 0.0 -1.354650014327e+02 
-1.111946505814e+02 1.832782115945e+00 0.0 
1.832782115945e+00 -2.438203652906e+02 0.0 
0.0 0.0 -1.061045047616e+02 
-1.354903091346e+02 3.800235213278e+00 0.0 
3.800235213278e+00 -3.137084006361e+02 0.0 
0.0 0.0 -1.343596129312e+02 
-1.617329136480e+02 1.441644671703e+01 0.0 
1.441644671703e+01 -3.787101318454e+02 0.0 
0.0 0.0 -1.617329136480e+02 
-1.002773551522e+02 1.529788507245e+00 0.0 
1.529788507245e+00 -2.167457585355e+02 0.0 
0.0 0.0 -9.470693410631e+01 
-1.433818947441e+02 1.460545430995e+01 0.0 
1.460545430995e+01 -3.327637767963e+02 0.0 
0.0 0.0 -1.424437014621e+02 
-1.354934876738e+02 1.018829594363e+01 0.0 
1.018829594363e+01 -3.067448871161e+02 0.0 
0.0 0.0 -1.322715124369e+02 
-1.044526188089e+02 7.131977393641e-01 0.0 
7.131977393641e-01 -2.283654647679e+02 0.0 
0.0 0.0 -9.944542507305e+01 
-1.394909156434e+02 1.452651871353e+01 0.0 
1.452651871353e+01 -3.209003066292e+02 0.0 
0.0 0.0 -1.377173666818e+02 
-8.173697488324e+01 -1.962583455606e+00 0.0 
-1.962583455606e+00 -1.636296044869e+02 0.0 
0.0 0.0 -6.809467217442e+01 
-7.121894960878e+01 4.488134830842e-01 0.0 
4.488134830842e-01 -1.443012642144e+02 0.0 
0.0 0.0 -6.425606414695e+01 
-1.431280227242e+02 1.492746154751e+01 0.0 
1.492746154751e+01 -3.403507623532e+02 0.0 
0.0 0.0 -1.446436355232e+02 
-1.361469992809e+02 6.973357392590e-03 0.0 
6.973357392590e-03 -3.145902760243e+02 0.0 
0.0 0.0 -1.348211825916e+02 
-7.998358318739e+00 -1.557029602705e-02 0.0 
-1.557029602705e-02 -8.770835015550e+00 0.0 
0.0 0.0 -3.067519371562e+00 
-7.091651880177e+01 -1.402790442886e-01 0.0 
-1.402790442886e-01 -1.445777080311e+02 0.0 
0.0 0.0 -6.424826804986e+01 
-1.616385225620e+02 6.964449266905e-01 0.0 
6.964449266905e-01 -3.802772841303e+02 0.0 
0.0 0.0 -1.621747420077e+02 
-3.058317790725e+01 -4.341085335635e+00 0.0 
-4.341085335635e+00 -7.364939876482e+01 0.0 
0.0 0.0 -2.799958432122e+01 
-1.434377982423e+02 1.116196933546e+01 0.0 
1.116196933546e+01 -3.516851923005e+02 0.0 
0.0 0.0 -1.481368971628e+02 
-1.364082575936e+02 1.158533358083e+01 0.0 
1.158533358083e+01 -3.070232557562e+02 0.0 
0.0 0.0 -1.326294540049e+02 
-1.364441174292e+02 3.980679265526e+00 0.0 
3.980679265526e+00 -3.129002255784e+02 0.0 
0.0 0.0 -1.344033029023e+02 
-2.328918626431e+01 -2.745232239597e+00 0.0 
-2.745232239597e+00 -7.051015665126e+01 0.0 
0.0 0.0 -2.695199846098e+01 
-4.404224889851e+01 3.568680627841e+01 0.0 
3.568680627841e+01 -8.695713318495e+01 0.0 
0.0 0.0 -3.726805883893e+01 
-1.089128273840e+02 -1.416168034470e+00 0.0 
-1.416168034470e+00 -2.338880822448e+02 0.0 
0.0 0.0 -9.849803639786e+01 
-1.182728725434e+02 4.631266783516e-01 0.0 
4.631266783516e-01 -2.651345900322e+02 0.0 
0.0 0.0 -1.146222387727e+02 
-1.344304945538e+02 -3.283803698419e+00 0.0 
-3.283803698419e+00 -9.592470680542e+01 0.0 
0.0 0.0 -6.933094492057e+01 
-1.377637961453e+02 8.366783691864e+00 0.0 
8.366783691864e+00 -3.184371697471e+02 0.0 
0.0 0.0 -1.364602897677e+02 
-9.758828209559e+01 3.943558140780e-01 0.0 
3.943558140780e-01 -2.106211853476e+02 0.0 
0.0 0.0 -9.206284023295e+01 
-5.203094453258e+01 -2.010935315281e+01 0.0 
-2.010935315281e+01 -9.312005586547e+01 0.0 
0.0 0.0 -3.803142598557e+01 
-9.223564469103e+01 5.340191436081e-01 0.0 
5.340191436081e-01 -1.967700156341e+02 0.0 
0.0 0.0 -8.630169809754e+01 
-1.483779545801e+02 1.689509141159e+01 0.0 
1.689509141159e+01 -3.502566680788e+02 0.0 
0.0 0.0 -1.491903867977e+02 
-1.125247745176e+02 7.915574479352e-01 0.0 
7.915574479352e-01 -2.450651178011e+02 0.0 
0.0 0.0 -1.034042231018e+02 
-4.971713151011e+01 3.572982829476e+01 0.0 
3.572982829476e+01 -3.473855672128e+01 0.0 
0.0 0.0 -2.622717569088e+01 
-7.517645419822e+01 -3.833697074203e+00 0.0 
-3.833697074203e+00 -1.479231919741e+02 0.0 
0.0 0.0 -6.082934900509e+01 
-1.014750405019e+02 -2.699845279587e+00 0.0 
-2.699845279587e+00 -2.150939090969e+02 0.0 
0.0 0.0 -9.028149334195e+01 
-1.156127103409e+02 -1.426486279307e+00 0.0 
-1.426486279307e+00 -2.544611111412e+02 0.0 
0.0 0.0 -1.075769927188e+02 
-1.441826167823e+02 1.519045339203e+01 0.0 
1.519045339203e+01 -3.444031422191e+02 0.0 
0.0 0.0 -1.461757277004e+02 
-1.012199276372e+02 -6.705040825663e-01 0.0 
-6.705040825663e-01 -2.095265768198e+02 0.0 
0.0 0.0 -8.805107043352e+01 
-1.047913701593e+02 -1.773949143162e+00 0.0 
-1.773949143162e+00 -2.223060648426e+02 0.0 
0.0 0.0 -9.363362994035e+01 
-1.511692713317e+01 -9.277218322085e-01 0.0 
-9.277218322085e-01 -3.735050256048e+01 0.0 
0.0 0.0 -1.423631307602e+01 
-1.529732426681e+02 2.231719646915e+00 0.0 
2.231719646915e+00 -3.663671631930e+02 0.0 
0.0 0.0 -1.554021217583e+02 
-1.345903697436e+02 1.488861500098e+01 0.0 
1.488861500098e+01 -3.139325734241e+02 0.0 
0.0 0.0 -1.341568829503e+02 
-4.269062103334e+01 3.102834127774e+01 0.0 
3.102834127774e+01 -1.028362523059e+02 0.0 
0.0 0.0 -4.237481117935e+01 
-1.357896367012e+02 8.916301966406e-01 0.0 
8.916301966406e-01 -3.138791441566e+02 0.0 
0.0 0.0 -1.345006342573e+02 
-1.614195738812e+02 -3.625753289565e-01 0.0 
-3.625753289565e-01 -3.797336096706e+02 0.0 
0.0 0.0 -1.619459550655e+02 
-7.761947742301e+01 7.457567217734e-01 0.0 
7.457567217734e-01 -1.599936295584e+02 0.0 
0.0 0.0 -7.088393209443e+01 
-9.809914540787e+01 3.390482278296e-01 0.0 
3.390482278296e-01 -2.108369081115e+02 0.0 
0.0 0.0 -9.228081605582e+01 
-9.999108159976e+01 -2.424835583317e+00 0.0 
-2.424835583317e+00 -2.092250559535e+02 0.0 
0.0 0.0 -8.794181226572e+01 
-1.038961261215e+02 -1.439068159075e+00 0.0 
-1.439068159075e+00 -2.164405832433e+02 0.0 
0.0 0.0 -9.110832828585e+01 
-1.049448363489e+02 -9.912011597763e-01 0.0 
-9.912011597763e-01 -2.229383467869e+02 0.0 
0.0 0.0 -9.377958250838e+01 
-1.380219303766e+02 1.046612529466e+01 0.0 
1.046612529466e+01 -3.393832379345e+02 0.0 
0.0 0.0 -1.428215504933e+02 
-4.258991237710e+01 -1.525360958014e+01 0.0 
-1.525360958014e+01 -6.884176398712e+01 0.0 
0.0 0.0 -2.588437232642e+01 
-1.395983578205e+02 1.658832410777e+01 0.0 
1.658832410777e+01 -3.238495776218e+02 0.0 
0.0 0.0 -1.386343806327e+02 
-8.425109065912e+01 9.329971284769e-02 0.0 
9.329971284769e-02 -1.767770715896e+02 0.0 
0.0 0.0 -7.790844867462e+01 
-1.391167216926e+02 8.504737367853e+00 0.0 
8.504737367853e+00 -3.173949289225e+02 0.0 
0.0 0.0 -1.365534951845e+02 
-1.386598001749e+02 1.129131325873e+01 0.0 
1.129131325873e+01 -3.395076205377e+02 0.0 
0.0 0.0 -1.430502262138e+02 
-9.361538036755e+01 1.146382302348e+00 0.0 
1.146382302348e+00 -1.977230894087e+02 0.0 
0.0 0.0 -8.700154093287e+01 
-1.345411090459e+02 1.370765467252e+01 0.0 
1.370765467252e+01 -3.078236689499e+02 0.0 
0.0 0.0 -1.323094333987e+02 
-1.434795627846e+02 1.395689165937e+01 0.0 
1.395689165937e+01 -3.434861437297e+02 0.0 
0.0 0.0 -1.456897119543e+02 
-1.494338895109e+02 1.569891138342e+01 0.0 
1.569891138342e+01 -3.560011825822e+02 0.0 
0.0 0.0 -1.512305216279e+02 
-4.677357143057e+01 4.190804026503e+01 0.0 
4.190804026503e+01 -7.027666846565e+01 0.0 
0.0 0.0 -3.634098444190e+01 
-1.352707817499e+02 1.501377844347e+01 0.0 
1.501377844347e+01 -3.083418086114e+02 0.0 
0.0 0.0 -1.326837771084e+02 
-1.393146104744e+02 1.436197312982e+01 0.0 
1.436197312982e+01 -3.203181674500e+02 0.0 
0.0 0.0 -1.374898333773e+02 
-1.763391817989e+01 1.438713012502e-01 0.0 
1.438713012502e-01 -3.770419521339e+01 0.0 
0.0 0.0 -1.443104201120e+01 
-9.757308785421e+01 -1.638580139136e+00 0.0 
-1.638580139136e+00 -1.994637478631e+02 0.0 
0.0 0.0 -8.367648738910e+01 
-5.256264348975e+01 4.134562776119e+01 0.0 
4.134562776119e+01 -6.519164798317e+01 0.0 
0.0 0.0 -3.638014026064e+01 
-1.398808980177e+02 1.513606811180e+01 0.0 
1.513606811180e+01 -3.192482804884e+02 0.0 
0.0 0.0 -1.373387535518e+02 
-1.230170096654e+01 3.546148744798e-01 0.0 
3.546148744798e-01 -7.927748257112e+00 0.0 
0.0 0.0 -5.668834767095e+00 
-1.546587341666e+01 -1.695495392238e-01 0.0 
-1.695495392238e-01 -9.854797847109e+00 0.0 
0.0 0.0 -6.383435485017e+00 
-1.222354216885e+01 8.974905480070e-02 0.0 
8.974905480070e-02 -9.653260021756e+00 0.0 
0.0 0.0 -6.163040657181e+00 
-1.525097191854e+01 -1.246894933010e-01 0.0 
-1.246894933010e-01 -9.940590376682e+00 0.0 
0.0 0.0 -6.370709936492e+00 
-1.211373482187e+01 1.238278123956e-02 0.0 
1.238278123956e-02 -9.727494461256e+00 0.0 
0.0 0.0 -6.152368784938e+00 
-1.509206568380e+01 -2.094137336773e-01 0.0 
-2.094137336773e-01 -9.969381767203e+00 0.0 
0.0 0.0 -6.330751520331e+00 
-1.187514636679e+01 -3.306880546420e-02 0.0 
-3.306880546420e-02 -9.727791110849e+00 0.0 
0.0 0.0 -6.080881243291e+00 
-1.492539508607e+01 -2.954682590584e-01 0.0 
-2.954682590584e-01 -1.000502254579e+01 0.0 
0.0 0.0 -6.284481083915e+00 
-1.152143628770e+01 -6.296303086509e-02 0.0 
-6.296303086509e-02 -9.705068770689e+00 0.0 
0.0 0.0 -5.967951517516e+00 
-1.472005754799e+01 -3.810784244625e-01 0.0 
-3.810784244625e-01 -1.004469864187e+01 0.0 
0.0 0.0 -6.224241775535e+00 
-1.106007562062e+01 -8.577469914756e-02 0.0 
-8.577469914756e-02 -9.669424889234e+00 0.0 
0.0 0.0 -5.818850152955e+00 
-1.446437434931e+01 -4.688991890402e-01 0.0 
-4.688991890402e-01 -1.008758167345e+01 0.0 
0.0 0.0 -6.147080571183e+00 
-1.049073066569e+01 -1.070120825237e-01 0.0 
-1.070120825237e-01 -9.624655902422e+00 0.0 
0.0 0.0 -5.634615970433e+00 
-1.415287420155e+01 -5.618426399073e-01 0.0 
-5.618426399073e-01 -1.013417267491e+01 0.0 
0.0 0.0 -6.051198703798e+00 
-9.808116420868e+00 -1.286288111073e-01 0.0 
-1.286288111073e-01 -9.574101388335e+00 0.0 
0.0 0.0 -5.414665342761e+00 
-1.378743097659e+01 -6.596996713088e-01 0.0 
-6.596996713088e-01 -1.018415722133e+01 0.0 
0.0 0.0 -5.934926488066e+00 
-9.006327933563e+00 -1.514187605433e-01 0.0 
-1.514187605433e-01 -9.519188952634e+00 0.0 
0.0 0.0 -5.157655065859e+00 
-1.337769112258e+01 -7.623556927738e-01 0.0 
-7.623556927738e-01 -1.023754710023e+01 0.0 
0.0 0.0 -5.798035972299e+00 
-8.078755271310e+00 -1.763052089682e-01 0.0 
-1.763052089682e-01 -9.459530607168e+00 0.0 
0.0 0.0 -4.861485763543e+00 
-2.238327027661e+01 6.079300400647e+00 0.0 
6.079300400647e+00 -1.227930269484e+01 0.0 
0.0 0.0 -7.187764865322e+00 
-1.293529886524e+01 -8.702419254140e-01 0.0 
-8.702419254140e-01 -1.029483610050e+01 0.0 
0.0 0.0 -5.640442277227e+00 
-7.019073925467e+00 -2.021949443023e-01 0.0 
-2.021949443023e-01 -9.397173761565e+00 0.0 
0.0 0.0 -4.524874306110e+00 
-1.247693946150e+01 -9.797913803837e-01 0.0 
-9.797913803837e-01 -1.035575862097e+01 0.0 
0.0 0.0 -5.461994034887e+00 
-2.309198523520e+01 5.452070406718e+00 0.0 
5.452070406718e+00 -1.196128558301e+01 0.0 
0.0 0.0 -8.170566871302e+00 
-5.828973251878e+00 -2.233830476709e-01 0.0 
-2.233830476709e-01 -9.338201511673e+00 0.0 
0.0 0.0 -4.150152429065e+00 
-1.202666802807e+01 -1.079554778643e+00 0.0 
-1.079554778643e+00 -1.041789269767e+01 0.0 
0.0 0.0 -5.262946543618e+00 
-4.531744411321e+00 -2.273277538815e-01 0.0 
-2.273277538815e-01 -9.293843075248e+00 0.0 
0.0 0.0 -3.747676245971e+00 
-1.162248742886e+01 -1.144591578233e+00 0.0 
-1.144591578233e+00 -1.047233256998e+01 0.0 
0.0 0.0 -5.040998334517e+00 
-3.185539628929e+00 -2.034763734158e-01 0.0 
-2.034763734158e-01 -9.270784274914e+00 0.0 
0.0 0.0 -3.336897171153e+00 
-1.271211617235e+01 2.491591883367e+00 0.0 
2.491591883367e+00 -5.075752484556e+00 0.0 
0.0 0.0 -1.901921449246e+00 
-1.133130201207e+01 -1.147099981681e+00 0.0 
-1.147099981681e+00 -1.050557449258e+01 0.0 
0.0 0.0 -4.801440673945e+00 
-1.853789218221e+00 -1.875875856121e-01 0.0 
-1.875875856121e-01 -9.219593430776e+00 0.0 
0.0 0.0 -2.922014794699e+00 
-1.122544492286e+01 -1.134129793856e+00 0.0 
-1.134129793856e+00 -1.053163019978e+01 0.0 
0.0 0.0 -4.551082589076e+00 
-5.583973996322e-01 -1.591946143522e-01 0.0 
-1.591946143522e-01 -9.219936076000e+00 0.0 
0.0 0.0 -2.533500042690e+00 
-1.096530750990e+01 -1.001724571473e+00 0.0 
-1.001724571473e+00 -1.049697726862e+01 0.0 
0.0 0.0 -4.161690493600e+00 
5.251148114413e-01 -5.017186559091e-02 0.0 
-5.017186559091e-02 -9.396099639883e+00 0.0 
0.0 0.0 -2.261295448532e+00 
-1.085265567170e+01 -6.612403394286e-01 0.0 
-6.612403394286e-01 -1.052833832896e+01 0.0 
0.0 0.0 -3.744108883748e+00 
9.993002215773e-01 8.493409381863e-02 0.0 
8.493409381863e-02 -9.308692092843e+00 0.0 
0.0 0.0 -1.614748843058e+00 
-1.102938197802e+01 -2.290606123619e-01 0.0 
-2.290606123619e-01 -1.054553887003e+01 0.0 
0.0 0.0 -3.975959855247e+00 
9.958832269538e-01 2.058812871171e-01 0.0 
2.058812871171e-01 -9.296196537847e+00 0.0 
0.0 0.0 -1.086565571446e+00 
-1.167336085783e+01 4.158212988671e-01 0.0 
4.158212988671e-01 -1.050021929482e+01 0.0 
0.0 0.0 -4.410007030372e+00 
-3.415417199848e+01 1.052570827834e+01 0.0 
1.052570827834e+01 -1.394584475731e+01 0.0 
0.0 0.0 -1.089132226691e+01 
-1.293042218867e+01 1.212729722798e+00 0.0 
1.212729722798e+00 -1.065771054476e+01 0.0 
0.0 0.0 -5.031857961566e+00 
4.916394348687e-01 3.895663017233e-01 0.0 
3.895663017233e-01 -9.481115826503e+00 0.0 
0.0 0.0 -1.104357662569e+00 
-1.491736544041e+01 2.228142106807e+00 0.0 
2.228142106807e+00 -1.097387077637e+01 0.0 
0.0 0.0 -5.941212893141e+00 
-1.320605277740e+00 7.794484478448e-01 0.0 
7.794484478448e-01 -9.453686891403e+00 0.0 
0.0 0.0 -8.234919228002e-01 
-1.731616985734e+01 3.069452204699e+00 0.0 
3.069452204699e+00 -1.135318125482e+01 0.0 
0.0 0.0 -6.556697205206e+00 
-4.611568538599e+00 1.341320089862e+00 0.0 
1.341320089862e+00 -9.214090355016e+00 0.0 
0.0 0.0 -4.817573846271e-01 
-9.717184500389e+00 2.727552621133e+00 0.0 
2.727552621133e+00 -1.022030994878e+01 0.0 
0.0 0.0 -2.066492791677e+00 
-2.493296256929e+01 4.749261845010e+00 0.0 
4.749261845010e+00 1.302386677881e-01 0.0 
0.0 0.0 -4.360980643151e+00 
-1.412266633026e+01 1.406939756344e+00 0.0 
1.406939756344e+00 -1.017930880159e+01 0.0 
0.0 0.0 -6.527016533869e+00 
-1.431651737368e+01 -1.402042405136e+00 0.0 
-1.402042405136e+00 -8.414797198962e+00 0.0 
0.0 0.0 -6.221891186112e+00 
-1.698135875959e+01 7.853417239538e-02 0.0 
7.853417239538e-02 -1.446883310391e+01 0.0 
0.0 0.0 -8.604767854043e+00 
-1.112229215385e+01 -9.008695861105e-02 0.0 
-9.008695861105e-02 -4.243364639219e+00 0.0 
0.0 0.0 -4.203456205257e+00 
-4.003706226249e+01 1.114633835794e+01 0.0 
1.114633835794e+01 -1.129955959080e+01 0.0 
0.0 0.0 -1.184205477666e+01 
-2.269541974927e+01 2.552280032339e-01 0.0 
2.552280032339e-01 -3.113260170444e+01 0.0 
0.0 0.0 -1.564904290669e+01 
-2.111165394480e+01 -3.581558787504e-01 0.0 
-3.581558787504e-01 -2.934937592686e+01 0.0 
0.0 0.0 -1.473830896150e+01 
-2.265691241427e+01 -1.667081223649e-01 0.0 
-1.667081223649e-01 -2.933479653917e+01 0.0 
0.0 0.0 -1.474198365975e+01 
-2.088895083711e+01 -2.167459480312e-01 0.0 
-2.167459480312e-01 -2.920709162389e+01 0.0 
0.0 0.0 -1.462881273830e+01 
-2.270826823688e+01 -2.404743544795e-01 0.0 
-2.404743544795e-01 -2.928545624614e+01 0.0 
0.0 0.0 -1.470822784576e+01 
-2.070625076751e+01 -2.899066866153e-01 0.0 
-2.899066866153e-01 -2.918093078756e+01 0.0 
0.0 0.0 -1.456615446652e+01 
-2.273322205234e+01 -3.292702824222e-01 0.0 
-3.292702824222e-01 -2.931055416732e+01 0.0 
0.0 0.0 -1.469713202022e+01 
-2.049740592740e+01 -3.942573231569e-01 0.0 
-3.942573231569e-01 -2.916465128779e+01 0.0 
0.0 0.0 -1.449861716456e+01 
-2.274421030491e+01 -4.314280225316e-01 0.0 
-4.314280225316e-01 -2.933278114365e+01 0.0 
0.0 0.0 -1.467274762313e+01 
-2.023557166871e+01 -5.098334736899e-01 0.0 
-5.098334736899e-01 -2.914572056376e+01 0.0 
0.0 0.0 -1.441438766974e+01 
-2.274971942877e+01 -5.382630181285e-01 0.0 
-5.382630181285e-01 -2.935316031123e+01 0.0 
0.0 0.0 -1.463682427746e+01 
-1.990970227331e+01 -6.309330949879e-01 0.0 
-6.309330949879e-01 -2.911863448191e+01 0.0 
0.0 0.0 -1.430850102657e+01 
-2.275694114001e+01 -6.506791342028e-01 0.0 
-6.506791342028e-01 -2.937308657805e+01 0.0 
0.0 0.0 -1.459094240345e+01 
-1.951519430772e+01 -7.574030645439e-01 0.0 
-7.574030645439e-01 -2.908851474047e+01 0.0 
0.0 0.0 -1.418111271446e+01 
-2.276894240370e+01 -7.659817838899e-01 0.0 
-7.659817838899e-01 -2.939691337713e+01 0.0 
0.0 0.0 -1.453619682406e+01 
-1.904791704699e+01 -8.865169440954e-01 0.0 
-8.865169440954e-01 -2.905814442771e+01 0.0 
0.0 0.0 -1.403181844241e+01 
-2.279757069537e+01 -8.788277406345e-01 0.0 
-8.788277406345e-01 -2.942579270675e+01 0.0 
0.0 0.0 -1.447291251994e+01 
-1.850508034599e+01 -1.013933820801e+00 0.0 
-1.013933820801e+00 -2.902337066883e+01 0.0 
0.0 0.0 -1.385853530445e+01 
-2.977803498584e+01 7.685984693368e+00 0.0 
7.685984693368e+00 -3.343621269391e+01 0.0 
0.0 0.0 -1.536774081476e+01 
-2.286250758793e+01 -9.883719239196e-01 0.0 
-9.883719239196e-01 -2.945943819471e+01 0.0 
0.0 0.0 -1.440307957877e+01 
-1.788796866060e+01 -1.136861275098e+00 0.0 
-1.136861275098e+00 -2.899021898985e+01 0.0 
0.0 0.0 -1.366345629514e+01 
-2.298030349263e+01 -1.089260986776e+00 0.0 
-1.089260986776e+00 -2.950143895761e+01 0.0 
0.0 0.0 -1.432841114208e+01 
-2.374292818553e+01 5.924488162864e+00 0.0 
5.924488162864e+00 -2.653877530169e+01 0.0 
0.0 0.0 -1.151205767527e+01 
-1.720091764108e+01 -1.247330056577e+00 0.0 
-1.247330056577e+00 -2.897038452744e+01 0.0 
0.0 0.0 -1.345139065056e+01 
-3.093574082295e+01 6.530348552593e+00 0.0 
6.530348552593e+00 -3.210533077111e+01 0.0 
0.0 0.0 -1.608885992297e+01 
-2.317429110074e+01 -1.166956928451e+00 0.0 
-1.166956928451e+00 -2.955938315202e+01 0.0 
0.0 0.0 -1.425326686266e+01 
-1.645478029946e+01 -1.328842551247e+00 0.0 
-1.328842551247e+00 -2.898057409191e+01 0.0 
0.0 0.0 -1.323060631741e+01 
-2.347187717115e+01 -1.196650834674e+00 0.0 
-1.196650834674e+00 -2.964297238016e+01 0.0 
0.0 0.0 -1.418225954895e+01 
-1.566312488028e+01 -1.355950748332e+00 0.0 
-1.355950748332e+00 -2.904226124405e+01 0.0 
0.0 0.0 -1.301161583730e+01 
-2.390792627505e+01 -1.132140668833e+00 0.0 
-1.132140668833e+00 -2.974844925308e+01 0.0 
0.0 0.0 -1.410943106955e+01 
-1.484621034587e+01 -1.300851937407e+00 0.0 
-1.300851937407e+00 -2.911923837603e+01 0.0 
0.0 0.0 -1.278963461657e+01 
-2.408197651193e+01 -1.003260911231e+00 0.0 
-1.003260911231e+00 -2.975689513605e+01 0.0 
0.0 0.0 -1.386977287078e+01 
-1.405804597212e+01 -1.107042856986e+00 0.0 
-1.107042856986e+00 -2.933336890733e+01 0.0 
0.0 0.0 -1.261742446384e+01 
-3.561620738892e+01 9.314296400775e+00 0.0 
9.314296400775e+00 -3.546092417759e+01 0.0 
0.0 0.0 -1.758071607758e+01 
-2.428566678488e+01 -6.694289824882e-01 0.0 
-6.694289824882e-01 -2.980601884978e+01 0.0 
0.0 0.0 -1.356727056719e+01 
-1.392165866088e+01 -7.805142343906e-01 0.0 
-7.805142343906e-01 -2.951558373556e+01 0.0 
0.0 0.0 -1.231708316868e+01 
-2.466381264989e+01 -1.958230270161e-01 0.0 
-1.958230270161e-01 -3.003987440724e+01 0.0 
0.0 0.0 -1.328951872703e+01 
-1.415554868013e+01 -3.768629061090e-01 0.0 
-3.768629061090e-01 -2.976407389733e+01 0.0 
0.0 0.0 -1.196087402332e+01 
-1.485224645955e+01 3.163356412425e-01 0.0 
3.163356412425e-01 -2.985166148732e+01 0.0 
0.0 0.0 -1.150464454772e+01 
-2.520571196087e+01 5.553917166538e-01 0.0 
5.553917166538e-01 -3.017278950800e+01 0.0 
0.0 0.0 -1.287063794552e+01 
-1.621829286354e+01 1.335911536386e+00 0.0 
1.335911536386e+00 -3.026808418982e+01 0.0 
0.0 0.0 -1.110585905244e+01 
-2.596110229132e+01 1.495507614098e+00 0.0 
1.495507614098e+00 -3.046544132393e+01 0.0 
0.0 0.0 -1.338753339037e+01 
-1.856173582388e+01 2.546009771626e+00 0.0 
2.546009771626e+00 -3.015351290245e+01 0.0 
0.0 0.0 -1.072355446387e+01 
-2.168884168356e+01 4.265418382185e+00 0.0 
4.265418382185e+00 -3.113561582868e+01 0.0 
0.0 0.0 -1.128607830741e+01 
-2.698953227150e+01 2.873298976344e+00 0.0 
2.873298976344e+00 -3.084025766314e+01 0.0 
0.0 0.0 -1.419477022034e+01 
-2.787047016165e+01 4.212039571631e+00 0.0 
4.212039571631e+00 -3.137860788354e+01 0.0 
0.0 0.0 -1.479579754948e+01 
-3.000986281363e+01 7.476905475850e+00 0.0 
7.476905475850e+00 -2.502163173404e+01 0.0 
0.0 0.0 -1.355226669087e+01 
-2.231912988513e+01 1.480479745211e+00 0.0 
1.480479745211e+00 -2.897789872294e+01 0.0 
0.0 0.0 -1.498910858242e+01 
-2.196446771044e+01 -1.404823187828e+00 0.0 
-1.404823187828e+00 -3.106478740450e+01 0.0 
0.0 0.0 -1.550877653448e+01 
-2.000864660602e+01 1.785055258281e-01 0.0 
1.785055258281e-01 -2.487837027418e+01 0.0 
0.0 0.0 -1.306610506406e+01 
-2.419627729753e+01 -1.488529479932e-01 0.0 
-1.488529479932e-01 -3.501680689530e+01 0.0 
0.0 0.0 -1.736392525785e+01 
-3.081135038138e+01 9.918442491627e+00 0.0 
9.918442491627e+00 -2.805307459870e+01 0.0 
0.0 0.0 -1.435770862611e+01 
-2.923521581298e+01 2.112615356826e-01 0.0 
2.112615356826e-01 -4.716457060709e+01 0.0 
0.0 0.0 -2.251993592602e+01 
-3.037353177033e+01 -3.107390777940e-01 0.0 
-3.107390777940e-01 -4.889879424868e+01 0.0 
0.0 0.0 -2.326698971250e+01 
-2.943608158113e+01 -4.272483053632e-02 0.0 
-4.272483053632e-02 -4.869485127556e+01 0.0 
0.0 0.0 -2.303927985701e+01 
-3.038283045455e+01 -2.222858223177e-01 0.0 
-2.222858223177e-01 -4.901959193551e+01 0.0 
0.0 0.0 -2.331093919863e+01 
-2.942831940815e+01 -1.925654136127e-01 0.0 
-1.925654136127e-01 -4.877352678637e+01 0.0 
0.0 0.0 -2.306055385836e+01 
-3.046286404988e+01 -3.542082485882e-01 0.0 
-3.542082485882e-01 -4.902839253105e+01 0.0 
0.0 0.0 -2.330650147117e+01 
-2.935191734341e+01 -3.183550248289e-01 0.0 
-3.183550248289e-01 -4.876327644472e+01 0.0 
0.0 0.0 -2.303455813644e+01 
-3.061374630353e+01 -5.008584992617e-01 0.0 
-5.008584992617e-01 -4.904619183078e+01 0.0 
0.0 0.0 -2.331044771943e+01 
-2.923122840272e+01 -4.360839871016e-01 0.0 
-4.360839871016e-01 -4.874286758362e+01 0.0 
0.0 0.0 -2.299222879590e+01 
-3.082493149620e+01 -6.530588219203e-01 0.0 
-6.530588219203e-01 -4.907065697333e+01 0.0 
0.0 0.0 -2.331961367544e+01 
-2.907185709107e+01 -5.502121154748e-01 0.0 
-5.502121154748e-01 -4.871516516388e+01 0.0 
0.0 0.0 -2.293610667649e+01 
-3.108040604264e+01 -8.073176301056e-01 0.0 
-8.073176301056e-01 -4.909111593655e+01 0.0 
0.0 0.0 -2.332460573379e+01 
-2.887630674132e+01 -6.632510860899e-01 0.0 
-6.632510860899e-01 -4.867842578802e+01 0.0 
0.0 0.0 -2.286641975880e+01 
-3.138078874117e+01 -9.681837072706e-01 0.0 
-9.681837072706e-01 -4.911608176467e+01 0.0 
0.0 0.0 -2.332940045155e+01 
-2.864765347782e+01 -7.709028315195e-01 0.0 
-7.709028315195e-01 -4.864606581599e+01 0.0 
0.0 0.0 -2.278811578814e+01 
-3.173499245027e+01 -1.126847073461e+00 0.0 
-1.126847073461e+00 -4.914918745503e+01 0.0 
0.0 0.0 -2.333620713570e+01 
-2.838726658993e+01 -8.667816599091e-01 0.0 
-8.667816599091e-01 -4.862294440429e+01 0.0 
0.0 0.0 -2.270306329827e+01 
-3.889603622178e+01 7.057262699266e+00 0.0 
7.057262699266e+00 -5.390219660215e+01 0.0 
0.0 0.0 -2.300858687382e+01 
-3.215631037067e+01 -1.270326983199e+00 0.0 
-1.270326983199e+00 -4.918294340888e+01 0.0 
0.0 0.0 -2.334168370216e+01 
-2.809861624287e+01 -9.485190142934e-01 0.0 
-9.485190142934e-01 -4.860133356451e+01 0.0 
0.0 0.0 -2.260998494221e+01 
-4.100797499630e+01 5.301376631575e+00 0.0 
5.301376631575e+00 -5.305793082468e+01 0.0 
0.0 0.0 -2.398761833512e+01 
-3.266364367883e+01 -1.397776776678e+00 0.0 
-1.397776776678e+00 -4.922523626110e+01 0.0 
0.0 0.0 -2.334931842665e+01 
-2.779011334765e+01 -1.005994445228e+00 0.0 
-1.005994445228e+00 -4.860042381382e+01 0.0 
0.0 0.0 -2.251716114844e+01 
-3.328139888949e+01 -1.492696732004e+00 0.0 
-1.492696732004e+00 -4.929091408424e+01 0.0 
0.0 0.0 -2.336844815706e+01 
-2.747329309626e+01 -1.023907427753e+00 0.0 
-1.023907427753e+00 -4.863964971143e+01 0.0 
0.0 0.0 -2.243388284231e+01 
-3.404173416836e+01 -1.531365669643e+00 0.0 
-1.531365669643e+00 -4.939914192611e+01 0.0 
0.0 0.0 -2.341063655436e+01 
-3.376137004028e+01 5.760449474348e+00 0.0 
5.760449474348e+00 -4.712408374171e+01 0.0 
0.0 0.0 -1.959727659573e+01 
-2.715923514973e+01 -9.828457366629e-01 0.0 
-9.828457366629e-01 -4.874252234959e+01 0.0 
0.0 0.0 -2.237052724980e+01 
-3.496899972592e+01 -1.480167153009e+00 0.0 
-1.480167153009e+00 -4.957545559609e+01 0.0 
0.0 0.0 -2.348830282803e+01 
-2.684986882531e+01 -8.494988560247e-01 0.0 
-8.494988560247e-01 -4.894716971585e+01 0.0 
0.0 0.0 -2.233911156235e+01 
-3.553809069524e+01 -1.219123168910e+00 0.0 
-1.219123168910e+00 -4.970846515030e+01 0.0 
0.0 0.0 -2.337594265387e+01 
-2.713394716440e+01 -5.580140524404e-01 0.0 
-5.580140524404e-01 -4.916790352685e+01 0.0 
0.0 0.0 -2.218901747170e+01 
-3.612310402014e+01 -8.092245545364e-01 0.0 
-8.092245545364e-01 -4.999724642094e+01 0.0 
0.0 0.0 -2.326841993332e+01 
-2.771395338586e+01 -1.290257429088e-01 0.0 
-1.290257429088e-01 -4.953933745244e+01 0.0 
0.0 0.0 -2.202280660581e+01 
-3.678688185197e+01 -1.634636811593e-01 0.0 
-1.634636811593e-01 -5.030273403657e+01 0.0 
0.0 0.0 -2.306220092486e+01 
-2.854045151167e+01 4.607071978022e-01 0.0 
4.607071978022e-01 -4.989171646940e+01 0.0 
0.0 0.0 -2.179251364447e+01 
-3.756846673036e+01 6.212057275168e-01 0.0 
6.212057275168e-01 -5.079508587218e+01 0.0 
0.0 0.0 -2.293652702051e+01 
-4.305142744372e+01 7.774573502089e+00 0.0 
7.774573502089e+00 -5.577676026282e+01 0.0 
0.0 0.0 -2.483809045817e+01 
-3.846016810879e+01 1.847251839140e+00 0.0 
1.847251839140e+00 -5.119333068377e+01 0.0 
0.0 0.0 -2.252438974039e+01 
-2.968893436749e+01 1.321517964952e+00 0.0 
1.321517964952e+00 -5.047372682661e+01 0.0 
0.0 0.0 -2.155730674666e+01 
-3.901631871050e+01 3.147975025968e+00 0.0 
3.147975025968e+00 -5.205096913869e+01 0.0 
0.0 0.0 -2.275897681046e+01 
-3.134647348482e+01 2.525597499643e+00 0.0 
2.525597499643e+00 -5.086464652035e+01 0.0 
0.0 0.0 -2.116197447034e+01 
-3.326370099611e+01 4.176243626801e+00 0.0 
4.176243626801e+00 -5.198387838848e+01 0.0 
0.0 0.0 -2.090827088789e+01 
-3.848504492941e+01 6.769893121999e+00 0.0 
6.769893121999e+00 -4.612589915693e+01 0.0 
0.0 0.0 -2.151771700509e+01 
-2.974946994295e+01 1.443448883463e+00 0.0 
1.443448883463e+00 -4.938500873434e+01 0.0 
0.0 0.0 -2.334034360319e+01 
-3.008357189060e+01 -1.463253010167e+00 0.0 
-1.463253010167e+00 -4.742379624738e+01 0.0 
0.0 0.0 -2.285221044140e+01 
-3.211131709633e+01 1.210540514243e-01 0.0 
1.210540514243e-01 -5.353528553151e+01 0.0 
0.0 0.0 -2.529398078835e+01 
-2.779638505963e+01 -1.852655603845e-01 0.0 
-1.852655603845e-01 -4.341705834020e+01 0.0 
0.0 0.0 -2.096403301995e+01 
-3.756046512346e+01 8.675638051327e+00 0.0 
8.675638051327e+00 -4.772799608568e+01 0.0 
0.0 0.0 -2.145303647900e+01 
-3.928945496179e+01 2.230443794763e-01 0.0 
2.230443794763e-01 -7.023974764638e+01 0.0 
0.0 0.0 -3.245876078245e+01 
-3.833561704792e+01 -3.661100708111e-01 0.0 
-3.661100708111e-01 -6.836914140844e+01 0.0 
0.0 0.0 -3.161142753691e+01 
-3.858592075394e+01 -8.772612427511e-02 0.0 
-8.772612427511e-02 -6.843609126283e+01 0.0 
0.0 0.0 -3.170660360503e+01 
-3.823112441611e+01 -2.050403142866e-01 0.0 
-2.050403142866e-01 -6.818577276002e+01 0.0 
0.0 0.0 -3.152506915284e+01 
-3.860635832269e+01 -1.779390459370e-01 0.0 
-1.779390459370e-01 -6.833903866636e+01 0.0 
0.0 0.0 -3.168361909671e+01 
-3.818591596467e+01 -2.899084270641e-01 0.0 
-2.899084270641e-01 -6.814366278796e+01 0.0 
0.0 0.0 -3.149887362579e+01 
-3.868532552207e+01 -2.620827205306e-01 0.0 
-2.620827205306e-01 -6.834561667464e+01 0.0 
0.0 0.0 -3.170928265901e+01 
-3.815820272752e+01 -3.973254607130e-01 0.0 
-3.973254607130e-01 -6.810682489053e+01 0.0 
0.0 0.0 -3.147950828541e+01 
-3.882436457767e+01 -3.497255754669e-01 0.0 
-3.497255754669e-01 -6.836665401559e+01 0.0 
0.0 0.0 -3.175730557798e+01 
-3.813907906850e+01 -5.166606405018e-01 0.0 
-5.166606405018e-01 -6.807117110401e+01 0.0 
0.0 0.0 -3.146307505175e+01 
-3.908434027537e+01 -4.519563541209e-01 0.0 
-4.519563541209e-01 -6.838967834678e+01 0.0 
0.0 0.0 -3.181269631980e+01 
-3.812016876158e+01 -6.434152720105e-01 0.0 
-6.434152720105e-01 -6.805453920816e+01 0.0 
0.0 0.0 -3.145241239092e+01 
-3.957858391743e+01 -5.601806063182e-01 0.0 
-5.601806063182e-01 -6.839920843423e+01 0.0 
0.0 0.0 -3.184707595679e+01 
-3.809272897778e+01 -7.587035067700e-01 0.0 
-7.587035067700e-01 -6.803401918896e+01 0.0 
0.0 0.0 -3.143802445002e+01 
-4.019348187135e+01 -6.592086185055e-01 0.0 
-6.592086185055e-01 -6.842535082865e+01 0.0 
0.0 0.0 -3.190425514526e+01 
-3.806889191644e+01 -8.638232433405e-01 0.0 
-8.638232433405e-01 -6.803312486323e+01 0.0 
0.0 0.0 -3.143060503390e+01 
-4.854820355244e+01 5.650405734131e+00 0.0 
5.650405734131e+00 -7.442954271546e+01 0.0 
0.0 0.0 -3.195274379322e+01 
-4.090102444308e+01 -7.405197611946e-01 0.0 
-7.405197611946e-01 -6.847031515726e+01 0.0 
0.0 0.0 -3.197770496428e+01 
-3.804972814937e+01 -9.473987197829e-01 0.0 
-9.473987197829e-01 -6.805580732043e+01 0.0 
0.0 0.0 -3.143166064094e+01 
-4.416179856190e+01 4.449351145969e+00 0.0 
4.449351145969e+00 -6.761767398419e+01 0.0 
0.0 0.0 -2.896752051177e+01 
-4.168127372304e+01 -7.988981904104e-01 0.0 
-7.988981904104e-01 -6.851191384370e+01 0.0 
0.0 0.0 -3.203815082408e+01 
-3.803659735476e+01 -9.914242123199e-01 0.0 
-9.914242123199e-01 -6.810513995235e+01 0.0 
0.0 0.0 -3.144252119213e+01 
-5.076263234641e+01 3.968830685157e+00 0.0 
3.968830685157e+00 -7.290432731655e+01 0.0 
0.0 0.0 -3.256363266921e+01 
-4.259290052216e+01 -8.118465472105e-01 0.0 
-8.118465472105e-01 -6.858157036113e+01 0.0 
0.0 0.0 -3.211793504561e+01 
-3.805124988006e+01 -9.810309438657e-01 0.0 
-9.810309438657e-01 -6.820972710599e+01 0.0 
0.0 0.0 -3.147829309581e+01 
-4.364577594660e+01 -7.544167693646e-01 0.0 
-7.544167693646e-01 -6.870072359250e+01 0.0 
0.0 0.0 -3.222762522283e+01 
-3.811612547333e+01 -8.930293127628e-01 0.0 
-8.930293127628e-01 -6.839677584423e+01 0.0 
0.0 0.0 -3.155387039527e+01 
-4.486266381792e+01 -6.030316597112e-01 0.0 
-6.030316597112e-01 -6.889395532762e+01 0.0 
0.0 0.0 -3.237192607144e+01 
-3.826708231921e+01 -6.902301076478e-01 0.0 
-6.902301076478e-01 -6.873855133062e+01 0.0 
0.0 0.0 -3.170169009495e+01 
-5.201177995555e+01 5.974685851663e+00 0.0 
5.974685851663e+00 -7.589534788809e+01 0.0 
0.0 0.0 -3.301277782131e+01 
-4.591168915737e+01 -3.523199455732e-01 0.0 
-3.523199455732e-01 -6.918749314143e+01 0.0 
0.0 0.0 -3.247119549039e+01 
-3.902149575627e+01 -3.802326075675e-01 0.0 
-3.802326075675e-01 -6.919242606535e+01 0.0 
0.0 0.0 -3.172591179204e+01 
-4.667708995182e+01 1.061417645149e-01 0.0 
1.061417645149e-01 -6.949576578345e+01 0.0 
0.0 0.0 -3.239138067411e+01 
-4.000230329751e+01 1.276057446606e-01 0.0 
1.276057446606e-01 -6.959247699942e+01 0.0 
0.0 0.0 -3.166473243413e+01 
-4.112030024272e+01 8.345840908672e-01 0.0 
8.345840908672e-01 -7.037299339513e+01 0.0 
0.0 0.0 -3.165946177753e+01 
-4.753262825218e+01 6.524375600337e-01 0.0 
6.524375600337e-01 -7.003332607898e+01 0.0 
0.0 0.0 -3.240585823393e+01 
-4.263320704642e+01 1.841201115828e+00 0.0 
1.841201115828e+00 -7.077620337054e+01 0.0 
0.0 0.0 -3.148955093376e+01 
-4.845201462040e+01 1.617214834269e+00 0.0 
1.617214834269e+00 -7.057219988288e+01 0.0 
0.0 0.0 -3.224769123813e+01 
-4.420600961889e+01 3.154623611776e+00 0.0 
3.154623611776e+00 -7.205364915203e+01 0.0 
0.0 0.0 -3.143571012941e+01 
-4.897045030602e+01 2.448519985070e+00 0.0 
2.448519985070e+00 -7.155045198003e+01 0.0 
0.0 0.0 -3.239273426702e+01 
-4.820171618491e+01 5.193286368222e+00 0.0 
5.193286368222e+00 -6.710011165528e+01 0.0 
0.0 0.0 -2.922418613539e+01 
-3.896372195476e+01 1.447402267532e+00 0.0 
1.447402267532e+00 -6.812809320959e+01 0.0 
0.0 0.0 -3.172754454931e+01 
-3.863019875765e+01 -1.465049206096e+00 0.0 
-1.465049206096e+00 -7.007815613804e+01 0.0 
0.0 0.0 -3.221250646871e+01 
-3.658298010001e+01 1.165369356422e-01 0.0 
1.165369356422e-01 -6.396916587341e+01 0.0 
0.0 0.0 -2.976564379202e+01 
-4.092601772921e+01 -1.849846475275e-01 0.0 
-1.849846475275e-01 -7.407308768855e+01 0.0 
0.0 0.0 -3.409973162533e+01 
-4.670847296407e+01 7.000396458764e+00 0.0 
7.000396458764e+00 -6.779445818890e+01 0.0 
0.0 0.0 -2.885624288785e+01 
-4.616914916875e+01 2.101967413151e-01 0.0 
2.101967413151e-01 -8.629236746263e+01 0.0 
0.0 0.0 -3.933845498942e+01 
-4.698746292191e+01 -2.996643395426e-01 0.0 
-2.996643395426e-01 -8.791673663216e+01 0.0 
0.0 0.0 -4.007125986622e+01 
-4.693888321774e+01 -8.764471797155e-02 0.0 
-8.764471797155e-02 -8.792633701169e+01 0.0 
0.0 0.0 -4.005956606883e+01 
-4.715434716160e+01 -1.409584136292e-01 0.0 
-1.409584136292e-01 -8.800352879908e+01 0.0 
0.0 0.0 -4.014736278820e+01 
-4.700605347336e+01 -1.518036532787e-01 0.0 
-1.518036532787e-01 -8.793832735127e+01 0.0 
0.0 0.0 -4.008331424739e+01 
-4.724858972118e+01 -2.033849064233e-01 0.0 
-2.033849064233e-01 -8.799979141581e+01 0.0 
0.0 0.0 -4.017451434110e+01 
-4.708001030657e+01 -1.884365976798e-01 0.0 
-1.884365976798e-01 -8.793321450514e+01 0.0 
0.0 0.0 -4.010396744351e+01 
-4.741516069123e+01 -2.500671179243e-01 0.0 
-2.500671179243e-01 -8.799440545062e+01 0.0 
0.0 0.0 -4.022286984256e+01 
-4.720233156000e+01 -2.241522178723e-01 0.0 
-2.241522178723e-01 -8.791524364103e+01 0.0 
0.0 0.0 -4.013527256031e+01 
-4.761497551152e+01 -2.955692571177e-01 0.0 
-2.955692571177e-01 -8.799078937033e+01 0.0 
0.0 0.0 -4.028172946456e+01 
-4.734890347591e+01 -2.461871898609e-01 0.0 
-2.461871898609e-01 -8.790306292830e+01 0.0 
0.0 0.0 -4.017558992126e+01 
-4.787520950990e+01 -3.360110131395e-01 0.0 
-3.360110131395e-01 -8.801469623228e+01 0.0 
0.0 0.0 -4.036697172265e+01 
-4.744203814156e+01 -2.487947635749e-01 0.0 
-2.487947635749e-01 -8.788421276252e+01 0.0 
0.0 0.0 -4.019787527122e+01 
-4.817187622184e+01 -3.644770271669e-01 0.0 
-3.644770271669e-01 -8.803593635674e+01 0.0 
0.0 0.0 -4.046234377357e+01 
-4.758913264522e+01 -2.549848049684e-01 0.0 
-2.549848049684e-01 -8.786920763005e+01 0.0 
0.0 0.0 -4.023750208258e+01 
-5.753063056666e+01 4.865673347463e+00 0.0 
4.865673347463e+00 -9.387982496172e+01 0.0 
0.0 0.0 -4.196966802226e+01 
-4.865492097849e+01 -4.142875220432e-01 0.0 
-4.142875220432e-01 -8.809728665675e+01 0.0 
0.0 0.0 -4.062566229057e+01 
-5.937506767562e+01 3.223188981734e+00 0.0 
3.223188981734e+00 -9.241387017384e+01 0.0 
0.0 0.0 -4.233715699450e+01 
-4.775633817477e+01 -2.813629381802e-01 0.0 
-2.813629381802e-01 -8.783748525086e+01 0.0 
0.0 0.0 -4.027814702769e+01 
-4.951249786337e+01 -4.786954342907e-01 0.0 
-4.786954342907e-01 -8.816669294265e+01 0.0 
0.0 0.0 -4.074150763958e+01 
-4.794239568984e+01 -2.550454671722e-01 0.0 
-2.550454671722e-01 -8.794010715185e+01 0.0 
0.0 0.0 -4.036475085251e+01 
-5.058726930856e+01 -4.423272881514e-01 0.0 
-4.423272881514e-01 -8.826150436824e+01 0.0 
0.0 0.0 -4.085784135173e+01 
-4.817171959751e+01 -1.605742589136e-01 0.0 
-1.605742589136e-01 -8.808744194474e+01 0.0 
0.0 0.0 -4.047774846267e+01 
-5.181897551986e+01 -3.325367676281e-01 0.0 
-3.325367676281e-01 -8.842282681519e+01 0.0 
0.0 0.0 -4.102586038535e+01 
-5.354233176956e+01 3.681083836132e+00 0.0 
3.681083836132e+00 -8.727862315976e+01 0.0 
0.0 0.0 -3.912443004816e+01 
-4.846264316388e+01 1.033128290961e-02 0.0 
1.033128290961e-02 -8.831127311116e+01 0.0 
0.0 0.0 -4.063217488251e+01 
-5.321743047274e+01 -1.231658010434e-01 0.0 
-1.231658010434e-01 -8.866993852756e+01 0.0 
0.0 0.0 -4.123241348789e+01 
-4.881922560404e+01 2.803258542738e-01 0.0 
2.803258542738e-01 -8.866480477718e+01 0.0 
0.0 0.0 -4.084520911436e+01 
-5.478903898351e+01 2.126219932164e-01 0.0 
2.126219932164e-01 -8.907254147617e+01 0.0 
0.0 0.0 -4.148524337170e+01 
-4.956176298208e+01 6.102711337871e-01 0.0 
6.102711337871e-01 -8.903891838483e+01 0.0 
0.0 0.0 -4.097946080387e+01 
-5.601718902631e+01 5.629631313317e-01 0.0 
5.629631313317e-01 -8.967479024091e+01 0.0 
0.0 0.0 -4.173998969935e+01 
-5.069988156110e+01 1.145169692546e+00 0.0 
1.145169692546e+00 -8.974409454714e+01 0.0 
0.0 0.0 -4.106999359625e+01 
-5.700202454002e+01 1.320168519468e+00 0.0 
1.320168519468e+00 -9.015377935629e+01 0.0 
0.0 0.0 -4.164028218999e+01 
-5.769539499208e+01 2.001326043281e+00 0.0 
2.001326043281e+00 -9.119463296140e+01 0.0 
0.0 0.0 -4.199046173602e+01 
-5.213561290641e+01 1.885605208508e+00 0.0 
1.885605208508e+00 -9.041298811089e+01 0.0 
0.0 0.0 -4.114113327749e+01 
-6.038654137073e+01 4.725343631932e+00 0.0 
4.725343631932e+00 -9.529908749639e+01 0.0 
0.0 0.0 -4.310115141394e+01 
-5.358746120071e+01 2.910352381080e+00 0.0 
2.910352381080e+00 -9.166678182448e+01 0.0 
0.0 0.0 -4.128579591041e+01 
-5.711360343918e+01 4.111387341170e+00 0.0 
4.111387341170e+00 -8.669394282285e+01 0.0 
0.0 0.0 -3.937703767645e+01 
-4.651110478583e+01 1.452051633207e+00 0.0 
1.452051633207e+00 -8.845866465528e+01 0.0 
0.0 0.0 -4.009093083233e+01 
-4.685233731374e+01 -1.465570717004e+00 0.0 
-1.465570717004e+00 -8.646508397708e+01 0.0 
0.0 0.0 -3.959522638725e+01 
-4.891297383789e+01 1.224369508487e-01 0.0 
1.224369508487e-01 -9.259310035548e+01 0.0 
0.0 0.0 -4.205182225801e+01 
-4.453539579951e+01 -1.868269837328e-01 0.0 
-1.868269837328e-01 -8.249496985258e+01 0.0 
0.0 0.0 -3.770910969563e+01 
-5.570452624746e+01 5.537172082929e+00 0.0 
5.537172082929e+00 -8.737172524462e+01 0.0 
0.0 0.0 -3.874227707855e+01 
-5.607468067724e+01 3.056469271054e-01 0.0 
3.056469271054e-01 -1.093881927484e+02 0.0 
0.0 0.0 -4.923886202769e+01 
-5.539380644371e+01 -2.384542025670e-01 0.0 
-2.384542025670e-01 -1.075315381830e+02 0.0 
0.0 0.0 -4.847760338802e+01 
-5.560944929534e+01 4.923771472821e-02 0.0 
4.923771472821e-02 -1.075749231338e+02 0.0 
0.0 0.0 -4.855531172875e+01 
-5.542699087741e+01 -4.533324370107e-02 0.0 
-4.533324370107e-02 -1.073063641360e+02 0.0 
0.0 0.0 -4.842000650402e+01 
-5.569816554478e+01 -4.135895819607e-02 0.0 
-4.135895819607e-02 -1.074198473598e+02 0.0 
0.0 0.0 -4.853540387137e+01 
-5.554030047342e+01 -8.249810793487e-02 0.0 
-8.249810793487e-02 -1.073471165044e+02 0.0 
0.0 0.0 -4.846622509333e+01 
-5.584838372047e+01 -4.121594135270e-03 0.0 
-4.121594135270e-03 -1.074491482373e+02 0.0 
0.0 0.0 -4.858925958733e+01 
-5.568481160638e+01 -6.905785078307e-02 0.0 
-6.905785078307e-02 -1.072902575860e+02 0.0 
0.0 0.0 -4.849252075771e+01 
-5.616126798514e+01 -4.440129340773e-04 0.0 
-4.440129340773e-04 -1.074568640232e+02 0.0 
0.0 0.0 -4.868543960249e+01 
-5.589444509600e+01 -7.316222592087e-02 0.0 
-7.316222592087e-02 -1.073095517341e+02 0.0 
0.0 0.0 -4.856119904903e+01 
-5.641234882654e+01 2.884093868488e-02 0.0 
2.884093868488e-02 -1.074660403972e+02 0.0 
0.0 0.0 -4.876351676713e+01 
-5.614231907743e+01 -4.712281998853e-02 0.0 
-4.712281998853e-02 -1.073046185565e+02 0.0 
0.0 0.0 -4.863408129019e+01 
-5.681338930959e+01 6.931876479807e-02 0.0 
6.931876479807e-02 -1.074988076733e+02 0.0 
0.0 0.0 -4.889365909486e+01 
-6.533968566066e+01 4.412872055102e+00 0.0 
4.412872055102e+00 -1.130058182443e+02 0.0 
0.0 0.0 -5.130162645959e+01 
-5.647076391381e+01 1.093630357150e-02 0.0 
1.093630357150e-02 -1.074000076380e+02 0.0 
0.0 0.0 -4.876123146555e+01 
-5.718719991935e+01 2.353701175235e-01 0.0 
2.353701175235e-01 -1.075193388773e+02 0.0 
0.0 0.0 -4.901196163899e+01 
-6.162869268550e+01 3.313159956901e+00 0.0 
3.313159956901e+00 -1.064232363149e+02 0.0 
0.0 0.0 -4.852023517195e+01 
-5.689791709237e+01 1.510390065938e-01 0.0 
1.510390065938e-01 -1.073309442558e+02 0.0 
0.0 0.0 -4.886865840445e+01 
-5.772862412733e+01 3.004282147926e-01 0.0 
3.004282147926e-01 -1.075214932627e+02 0.0 
0.0 0.0 -4.917503521702e+01 
-6.675446414137e+01 3.084886704576e+00 0.0 
3.084886704576e+00 -1.112901223770e+02 0.0 
0.0 0.0 -5.132752930033e+01 
-5.723215083147e+01 2.518886165249e-01 0.0 
2.518886165249e-01 -1.074410163136e+02 0.0 
0.0 0.0 -4.900195014352e+01 
-5.832121536725e+01 4.091772835108e-01 0.0 
4.091772835108e-01 -1.076906271582e+02 0.0 
0.0 0.0 -4.940355275762e+01 
-5.759005043261e+01 3.968534061789e-01 0.0 
3.968534061789e-01 -1.076874109121e+02 0.0 
0.0 0.0 -4.918323840340e+01 
-5.955503989992e+01 6.180988997022e-01 0.0 
6.180988997022e-01 -1.078680049112e+02 0.0 
0.0 0.0 -4.957443429794e+01 
-5.803055085205e+01 6.426545040282e-01 0.0 
6.426545040282e-01 -1.079461765530e+02 0.0 
0.0 0.0 -4.939301822150e+01 
-6.791494421370e+01 4.175640551166e+00 0.0 
4.175640551166e+00 -1.142643534840e+02 0.0 
0.0 0.0 -5.241002522287e+01 
-6.101005539942e+01 8.869841135589e-01 0.0 
8.869841135589e-01 -1.081376340708e+02 0.0 
0.0 0.0 -4.982748813494e+01 
-5.854063699925e+01 9.652805711359e-01 0.0 
9.652805711359e-01 -1.083519917851e+02 0.0 
0.0 0.0 -4.966778863532e+01 
-5.907968514711e+01 1.400043884287e+00 0.0 
1.400043884287e+00 -1.089782428934e+02 0.0 
0.0 0.0 -5.001737841214e+01 
-6.255250661838e+01 1.239005111368e+00 0.0 
1.239005111368e+00 -1.085257309331e+02 0.0 
0.0 0.0 -5.008519912769e+01 
-6.035152999627e+01 1.935267582342e+00 0.0 
1.935267582342e+00 -1.093254808707e+02 0.0 
0.0 0.0 -5.016422749500e+01 
-6.421515122061e+01 1.820519665638e+00 0.0 
1.820519665638e+00 -1.089763642470e+02 0.0 
0.0 0.0 -5.029391707230e+01 
-6.168129004967e+01 2.670775513104e+00 0.0 
2.670775513104e+00 -1.109100389469e+02 0.0 
0.0 0.0 -5.053901352023e+01 
-6.501772170790e+01 2.032526991561e+00 0.0 
2.032526991561e+00 -1.099323005833e+02 0.0 
0.0 0.0 -5.075523508465e+01 
-6.494509148647e+01 3.738697178384e+00 0.0 
3.738697178384e+00 -1.056945644422e+02 0.0 
0.0 0.0 -4.871803145757e+01 
-5.584735807322e+01 1.418958284958e+00 0.0 
1.418958284958e+00 -1.071077760228e+02 0.0 
0.0 0.0 -4.848654022880e+01 
-5.547291099082e+01 -1.505333977110e+00 0.0 
-1.505333977110e+00 -1.092829562704e+02 0.0 
0.0 0.0 -4.902676017836e+01 
-5.339834020752e+01 9.492844472889e-02 0.0 
9.492844472889e-02 -1.030589552180e+02 0.0 
0.0 0.0 -4.653718862765e+01 
-5.781989775081e+01 -2.423727183286e-01 0.0 
-2.423727183286e-01 -1.131356237646e+02 0.0 
0.0 0.0 -5.088665645463e+01 
-6.370536220763e+01 4.684956890498e+00 0.0 
4.684956890498e+00 -1.064567896329e+02 0.0 
0.0 0.0 -4.835590863042e+01 
-6.314901499090e+01 4.803850126680e-01 0.0 
4.803850126680e-01 -1.258949728136e+02 0.0 
0.0 0.0 -5.631319634135e+01 
-6.393531712832e+01 7.395399666409e-02 0.0 
7.395399666409e-02 -1.270771682319e+02 0.0 
0.0 0.0 -5.690374560807e+01 
-6.397693698124e+01 9.874945110192e-02 0.0 
9.874945110192e-02 -1.270990610676e+02 0.0 
0.0 0.0 -5.692279941465e+01 
-6.383675277582e+01 1.276717381428e-01 0.0 
1.276717381428e-01 -1.270697230977e+02 0.0 
0.0 0.0 -5.687194276205e+01 
-6.417649398291e+01 8.597763119527e-02 0.0 
8.597763119527e-02 -1.272026137154e+02 0.0 
0.0 0.0 -5.701373230949e+01 
-6.409445998374e+01 9.139441261149e-02 0.0 
9.139441261149e-02 -1.272252060642e+02 0.0 
0.0 0.0 -5.699589981439e+01 
-6.439488626782e+01 2.109956539098e-01 0.0 
2.109956539098e-01 -1.273909875144e+02 0.0 
0.0 0.0 -5.713576213468e+01 
-6.446208150014e+01 2.674535882024e-01 0.0 
2.674535882024e-01 -1.271618807212e+02 0.0 
0.0 0.0 -5.708718866640e+01 
-6.462707131646e+01 2.220737990104e-01 0.0 
2.220737990104e-01 -1.272104051296e+02 0.0 
0.0 0.0 -5.715124293381e+01 
-6.466547084113e+01 2.191890582682e-01 0.0 
2.191890582682e-01 -1.272064606041e+02 0.0 
0.0 0.0 -5.716157943357e+01 
-6.494748565084e+01 3.391484665997e-01 0.0 
3.391484665997e-01 -1.273813596539e+02 0.0 
0.0 0.0 -5.729865359143e+01 
-6.499285173272e+01 3.894011696498e-01 0.0 
3.894011696498e-01 -1.272125513267e+02 0.0 
0.0 0.0 -5.726162091783e+01 
-7.214801266044e+01 4.498795615612e+00 0.0 
4.498795615612e+00 -1.321199715742e+02 0.0 
0.0 0.0 -6.017661612078e+01 
-6.533992458391e+01 4.644972006380e-01 0.0 
4.644972006380e-01 -1.273940566467e+02 0.0 
0.0 0.0 -5.742019436918e+01 
-7.261588339103e+01 3.079370978531e+00 0.0 
3.079370978531e+00 -1.301446924412e+02 0.0 
0.0 0.0 -5.961044048740e+01 
-6.578454065856e+01 4.310952969067e-01 0.0 
4.310952969067e-01 -1.273987649150e+02 0.0 
0.0 0.0 -5.755499167206e+01 
-6.576578579105e+01 6.408575955232e-01 0.0 
6.408575955232e-01 -1.275360392446e+02 0.0 
0.0 0.0 -5.759054751068e+01 
-6.576780249159e+01 7.476093101023e-01 0.0 
7.476093101023e-01 -1.272438391005e+02 0.0 
0.0 0.0 -5.750349247762e+01 
-6.629334756001e+01 8.345212594856e-01 0.0 
8.345212594856e-01 -1.275058479390e+02 0.0 
0.0 0.0 -5.773975864970e+01 
-6.638933056610e+01 8.693501863234e-01 0.0 
8.693501863234e-01 -1.274080254214e+02 0.0 
0.0 0.0 -5.773920679626e+01 
-6.697006031922e+01 1.163777509365e+00 0.0 
1.163777509365e+00 -1.278712653794e+02 0.0 
0.0 0.0 -5.805239770959e+01 
-6.718369697111e+01 1.220701080057e+00 0.0 
1.220701080057e+00 -1.277266859391e+02 0.0 
0.0 0.0 -5.807311487306e+01 
-6.865567079175e+01 3.383448903905e+00 0.0 
3.383448903905e+00 -1.256646818897e+02 0.0 
0.0 0.0 -5.750448059278e+01 
-6.741054923385e+01 1.589454992338e+00 0.0 
1.589454992338e+00 -1.281604883771e+02 0.0 
0.0 0.0 -5.827131128328e+01 
-6.794920941189e+01 1.655725381310e+00 0.0 
1.655725381310e+00 -1.280176702738e+02 0.0 
0.0 0.0 -5.839006390572e+01 
-6.795974861147e+01 1.982887874343e+00 0.0 
1.982887874343e+00 -1.283695726724e+02 0.0 
0.0 0.0 -5.849879638517e+01 
-6.915369595154e+01 1.979369348452e+00 0.0 
1.979369348452e+00 -1.284599906920e+02 0.0 
0.0 0.0 -5.874667546929e+01 
-7.078424929828e+01 2.426658560007e+00 0.0 
2.426658560007e+00 -1.291361286646e+02 0.0 
0.0 0.0 -5.912601846298e+01 
-6.850534222339e+01 2.407188146034e+00 0.0 
2.407188146034e+00 -1.289227157891e+02 0.0 
0.0 0.0 -5.882841740375e+01 
-6.895765331710e+01 2.968794151884e+00 0.0 
2.968794151884e+00 -1.298362158103e+02 0.0 
0.0 0.0 -5.923816073822e+01 
-7.443198441417e+01 4.044236047761e+00 0.0 
4.044236047761e+00 -1.334645599734e+02 0.0 
0.0 0.0 -6.135420471021e+01 
-7.171233335930e+01 3.671355723724e+00 0.0 
3.671355723724e+00 -1.248367121848e+02 0.0 
0.0 0.0 -5.764402496608e+01 
-6.323186188788e+01 1.306605179278e+00 0.0 
1.306605179278e+00 -1.271794981531e+02 0.0 
0.0 0.0 -5.672340801230e+01 
-6.345580374629e+01 -1.550835987412e+00 0.0 
-1.550835987412e+00 -1.258554828400e+02 0.0 
0.0 0.0 -5.639338597588e+01 
-6.536672807328e+01 -5.822881070208e-02 0.0 
-5.822881070208e-02 -1.316886185128e+02 0.0 
0.0 0.0 -5.871660397582e+01 
-6.141801414080e+01 -2.437262655603e-01 0.0 
-2.437262655603e-01 -1.215312286746e+02 0.0 
0.0 0.0 -5.448477284461e+01 
-7.060159609898e+01 4.486991899659e+00 0.0 
4.486991899659e+00 -1.255121451879e+02 0.0 
0.0 0.0 -5.742903226778e+01 

TENSORS element_materi_strain_total float
-9.404978451918e-04 2.299009805232e-03 0.0 
2.299009805232e-03 4.172958146516e-03 0.0 
0.0 0.0 0.0 
-1.146663428027e-03 2.487735801475e-03 0.0 
2.487735801475e-03 4.324643160516e-03 0.0 
0.0 0.0 0.0 
-2.673470875906e-04 2.579263061178e-03 0.0 
2.579263061178e-03 8.673154500461e-03 0.0 
0.0 0.0 0.0 
-4.142056288382e-04 2.920055094016e-04 0.0 
2.920055094016e-04 1.056237743889e-02 0.0 
0.0 0.0 0.0 
-1.466283454018e-03 3.626781372227e-04 0.0 
3.626781372227e-04 8.286150329409e-03 0.0 
0.0 0.0 0.0 
1.405897654261e-03 3.591689122447e-03 0.0 
3.591689122447e-03 -3.378703609380e-03 0.0 
0.0 0.0 0.0 
-1.367040717015e-03 2.595965735343e-04 0.0 
2.595965735343e-04 8.316344120249e-03 0.0 
0.0 0.0 0.0 
-9.618098877169e-04 2.819022419767e-03 0.0 
2.819022419767e-03 3.758754935938e-03 0.0 
0.0 0.0 0.0 
-1.474967812621e-03 2.206819086229e-04 0.0 
2.206819086229e-04 8.320802719461e-03 0.0 
0.0 0.0 0.0 
-3.950843744692e-04 5.368534681564e-04 0.0 
5.368534681564e-04 1.050846639228e-02 0.0 
0.0 0.0 0.0 
-1.246816921098e-03 -3.329270664182e-04 0.0 
-3.329270664182e-04 4.309936765065e-03 0.0 
0.0 0.0 0.0 
-9.532348676211e-04 2.338890777168e-03 0.0 
2.338890777168e-03 4.069850961981e-03 0.0 
0.0 0.0 0.0 
-3.900276247657e-04 -2.254532611130e-04 0.0 
-2.254532611130e-04 5.724372897362e-03 0.0 
0.0 0.0 0.0 
-1.595073940123e-03 8.131591696483e-04 0.0 
8.131591696483e-04 8.413946006205e-03 0.0 
0.0 0.0 0.0 
-2.225694066554e-04 -3.486437643620e-04 0.0 
-3.486437643620e-04 5.741534753459e-03 0.0 
0.0 0.0 0.0 
-2.473663642744e-04 4.390865478298e-04 0.0 
4.390865478298e-04 1.063711646958e-02 0.0 
0.0 0.0 0.0 
-1.636498603655e-03 4.766194161593e-04 0.0 
4.766194161593e-04 8.148434405844e-03 0.0 
0.0 0.0 0.0 
1.449630493341e-03 1.710771337754e-03 0.0 
1.710771337754e-03 -3.845884492853e-03 0.0 
0.0 0.0 0.0 
2.301788768779e-04 -1.385748191140e-04 0.0 
-1.385748191140e-04 1.334237065410e-03 0.0 
0.0 0.0 0.0 
-2.722427695593e-04 -2.597882452939e-04 0.0 
-2.597882452939e-04 1.585123523607e-03 0.0 
0.0 0.0 0.0 
-4.747629750386e-04 5.123216804173e-04 0.0 
5.123216804173e-04 1.051315874982e-02 0.0 
0.0 0.0 0.0 
-1.228218941505e-03 1.939942639247e-03 0.0 
1.939942639247e-03 4.933456299489e-03 0.0 
0.0 0.0 0.0 
-1.366230780611e-03 2.185509447244e-03 0.0 
2.185509447244e-03 4.904372214258e-03 0.0 
0.0 0.0 0.0 
1.135000113238e-03 3.078711875680e-04 0.0 
3.078711875680e-04 2.722762857687e-03 0.0 
0.0 0.0 0.0 
-1.540657960668e-03 1.183158579151e-03 0.0 
1.183158579151e-03 8.488909645181e-03 0.0 
0.0 0.0 0.0 
-1.217103304768e-03 -3.826024631766e-04 0.0 
-3.826024631766e-04 4.341178117335e-03 0.0 
0.0 0.0 0.0 
-1.913863074168e-03 9.567222498887e-04 0.0 
9.567222498887e-04 7.544747632402e-03 0.0 
0.0 0.0 0.0 
3.656157688781e-04 2.985845652674e-03 0.0 
2.985845652674e-03 5.715655093727e-03 0.0 
0.0 0.0 0.0 
-1.694376206535e-03 1.239560212226e-03 0.0 
1.239560212226e-03 8.484343638405e-03 0.0 
0.0 0.0 0.0 
9.242451770348e-04 2.380375362110e-04 0.0 
2.380375362110e-04 3.152674192503e-03 0.0 
0.0 0.0 0.0 
1.579896280703e-03 -3.174693756391e-03 0.0 
-3.174693756391e-03 -2.680604067561e-03 0.0 
0.0 0.0 0.0 
1.444955856997e-04 -4.332447068101e-04 0.0 
-4.332447068101e-04 3.282663486022e-04 0.0 
0.0 0.0 0.0 
-4.634060175550e-04 2.653490003548e-03 0.0 
2.653490003548e-03 8.800518026617e-03 0.0 
0.0 0.0 0.0 
-8.736024393500e-04 -1.305124706761e-04 0.0 
-1.305124706761e-04 5.087635798124e-03 0.0 
0.0 0.0 0.0 
2.699431027138e-04 -6.575138093389e-04 0.0 
-6.575138093389e-04 4.227513514684e-03 0.0 
0.0 0.0 0.0 
-1.043565271895e-04 -6.426020774821e-04 0.0 
-6.426020774821e-04 5.410510666960e-03 0.0 
0.0 0.0 0.0 
-2.884192891028e-05 -7.340128580385e-04 0.0 
-7.340128580385e-04 5.404801760443e-03 0.0 
0.0 0.0 0.0 
8.447367976949e-04 1.705505472554e-03 0.0 
1.705505472554e-03 3.636312700676e-03 0.0 
0.0 0.0 0.0 
-1.403562173285e-03 6.363041282155e-05 0.0 
6.363041282155e-05 7.938651620975e-03 0.0 
0.0 0.0 0.0 
-1.334929550929e-03 1.459882019947e-04 0.0 
1.459882019947e-04 7.951686180658e-03 0.0 
0.0 0.0 0.0 
-1.650099297288e-03 1.892128146843e-03 0.0 
1.892128146843e-03 5.739382833732e-03 0.0 
0.0 0.0 0.0 
3.069972040333e-04 -3.539948825964e-04 0.0 
-3.539948825964e-04 3.985170297361e-03 0.0 
0.0 0.0 0.0 
-7.019747675149e-04 2.840041505571e-03 0.0 
2.840041505571e-03 3.077595209338e-03 0.0 
0.0 0.0 0.0 
-1.895434033972e-03 9.600416859268e-04 0.0 
9.600416859268e-04 7.540223670116e-03 0.0 
0.0 0.0 0.0 
-5.643570824028e-04 1.014917399796e-04 0.0 
1.014917399796e-04 1.043295361223e-02 0.0 
0.0 0.0 0.0 
-9.356048324279e-04 3.207357753521e-03 0.0 
3.207357753521e-03 3.111539069826e-03 0.0 
0.0 0.0 0.0 
1.568204847007e-03 -3.284432534727e-03 0.0 
-3.284432534727e-03 -3.358691503529e-03 0.0 
0.0 0.0 0.0 
-3.857597539060e-04 1.839571118741e-04 0.0 
1.839571118741e-04 1.044218237514e-02 0.0 
0.0 0.0 0.0 
-3.299631635552e-04 -2.683187440999e-03 0.0 
-2.683187440999e-03 -1.230821544390e-03 0.0 
0.0 0.0 0.0 
-1.732124912481e-03 6.820554326349e-04 0.0 
6.820554326349e-04 8.339595072081e-03 0.0 
0.0 0.0 0.0 
-1.503249423300e-03 2.052514022009e-03 0.0 
2.052514022009e-03 5.296801981626e-03 0.0 
0.0 0.0 0.0 
-3.045394683271e-04 -1.514801800364e-04 0.0 
-1.514801800364e-04 1.925866176830e-03 0.0 
0.0 0.0 0.0 
3.037495916705e-03 -2.731589283947e-03 0.0 
-2.731589283947e-03 -3.624636874978e-03 0.0 
0.0 0.0 0.0 
-1.476573824949e-03 1.681152345352e-03 0.0 
1.681152345352e-03 5.553528880121e-03 0.0 
0.0 0.0 0.0 
-3.188200777192e-04 2.099613058538e-03 0.0 
2.099613058538e-03 9.527492641729e-03 0.0 
0.0 0.0 0.0 
-9.837586286335e-04 -4.937908496472e-04 0.0 
-4.937908496472e-04 2.566413392615e-03 0.0 
0.0 0.0 0.0 
-7.117943024535e-04 -2.908294235927e-04 0.0 
-2.908294235927e-04 2.102511729529e-03 0.0 
0.0 0.0 0.0 
-8.584218336029e-04 -1.806116264489e-04 0.0 
-1.806116264489e-04 5.086253793314e-03 0.0 
0.0 0.0 0.0 
6.106659949459e-04 -4.158950067888e-04 0.0 
-4.158950067888e-04 7.699064902151e-04 0.0 
0.0 0.0 0.0 
-2.875562301207e-04 4.120048390417e-04 0.0 
4.120048390417e-04 1.063750406141e-02 0.0 
0.0 0.0 0.0 
-1.092385781146e-03 -2.135091150557e-03 0.0 
-2.135091150557e-03 -3.166987887736e-03 0.0 
0.0 0.0 0.0 
8.669292284205e-04 2.540809466113e-03 0.0 
2.540809466113e-03 4.116393810168e-03 0.0 
0.0 0.0 0.0 
-1.084220940087e-04 3.273862989164e-03 0.0 
3.273862989164e-03 2.867922743078e-03 0.0 
0.0 0.0 0.0 
2.991341078134e-03 -2.810329772198e-03 0.0 
-2.810329772198e-03 -3.116419397285e-03 0.0 
0.0 0.0 0.0 
-3.267642068143e-04 -4.633202472101e-04 0.0 
-4.633202472101e-04 5.537543440020e-03 0.0 
0.0 0.0 0.0 
-1.371790301983e-03 1.792895056058e-03 0.0 
1.792895056058e-03 5.246605807558e-03 0.0 
0.0 0.0 0.0 
4.942525772138e-04 -7.067739679883e-04 0.0 
-7.067739679883e-04 -4.908656494540e-03 0.0 
0.0 0.0 0.0 
-4.580162210862e-04 2.756611335416e-03 0.0 
2.756611335416e-03 8.546606266522e-03 0.0 
0.0 0.0 0.0 
-1.202138451163e-04 -2.168728997490e-03 0.0 
-2.168728997490e-03 5.353152666803e-04 0.0 
0.0 0.0 0.0 
-5.555535300905e-05 2.949519299468e-03 0.0 
2.949519299468e-03 7.239344546604e-03 0.0 
0.0 0.0 0.0 
-1.068101937629e-03 -5.394349484287e-04 0.0 
-5.394349484287e-04 4.360333480330e-03 0.0 
0.0 0.0 0.0 
0.0 1.466080475081e-03 0.0 
1.466080475081e-03 1.036292741018e-02 0.0 
0.0 0.0 0.0 
3.397185963048e-04 2.788093963710e-03 0.0 
2.788093963710e-03 5.329718657982e-03 0.0 
0.0 0.0 0.0 
1.548629384529e-03 -9.903370421627e-05 0.0 
-9.903370421627e-05 -1.769152054648e-04 0.0 
0.0 0.0 0.0 
-1.193104691067e-03 -5.520926874052e-04 0.0 
-5.520926874052e-04 2.763826540209e-03 0.0 
0.0 0.0 0.0 
-4.913547175780e-04 1.104386078995e-03 0.0 
1.104386078995e-03 1.034086950270e-02 0.0 
0.0 0.0 0.0 
-5.454052802534e-04 2.264812929564e-03 0.0 
2.264812929564e-03 9.407562436676e-03 0.0 
0.0 0.0 0.0 
-7.723696793198e-04 3.599192264946e-03 0.0 
3.599192264946e-03 1.922050432178e-03 0.0 
0.0 0.0 0.0 
1.127417782281e-04 -3.878273672182e-04 0.0 
-3.878273672182e-04 9.921671086384e-04 0.0 
0.0 0.0 0.0 
-7.600279931209e-04 3.474800825351e-03 0.0 
3.474800825351e-03 1.916773452965e-03 0.0 
0.0 0.0 0.0 
-1.823982274811e-04 -2.438659526048e-03 0.0 
-2.438659526048e-03 5.772531360468e-04 0.0 
0.0 0.0 0.0 
-1.566778316147e-03 4.187323565043e-04 0.0 
4.187323565043e-04 8.190765530240e-03 0.0 
0.0 0.0 0.0 
-1.249751517472e-03 2.355536852937e-03 0.0 
2.355536852937e-03 4.536197576815e-03 0.0 
0.0 0.0 0.0 
-1.123278012762e-03 1.980524220512e-03 0.0 
1.980524220512e-03 4.599380939214e-03 0.0 
0.0 0.0 0.0 
-1.513130643600e-03 3.277684740344e-04 0.0 
3.277684740344e-04 8.504562593456e-03 0.0 
0.0 0.0 0.0 
-1.383284860894e-03 3.503981987255e-04 0.0 
3.503981987255e-04 8.504329092583e-03 0.0 
0.0 0.0 0.0 
-1.071939393491e-03 -3.275254583553e-04 0.0 
-3.275254583553e-04 4.611036829704e-03 0.0 
0.0 0.0 0.0 
-9.669101616226e-04 -2.922322795503e-05 0.0 
-2.922322795503e-05 5.000961327451e-03 0.0 
0.0 0.0 0.0 
-9.086594517597e-04 2.491115330279e-03 0.0 
2.491115330279e-03 7.728269495954e-03 0.0 
0.0 0.0 0.0 
-1.572118954782e-03 3.345026211937e-04 0.0 
3.345026211937e-04 8.281191153748e-03 0.0 
0.0 0.0 0.0 
-3.484244466972e-04 -5.400691714242e-04 0.0 
-5.400691714242e-04 5.892923000985e-04 0.0 
0.0 0.0 0.0 
-1.835088508495e-03 1.065999919366e-03 0.0 
1.065999919366e-03 7.889919780099e-03 0.0 
0.0 0.0 0.0 
-8.797162109314e-04 1.314930595771e-04 0.0 
1.314930595771e-04 9.734054031680e-03 0.0 
0.0 0.0 0.0 
-9.822726274933e-04 2.129395420439e-04 0.0 
2.129395420439e-04 9.679053214239e-03 0.0 
0.0 0.0 0.0 
-3.082746485950e-04 1.602623176886e-03 0.0 
1.602623176886e-03 1.030788616322e-02 0.0 
0.0 0.0 0.0 
4.896728261892e-04 1.880775380789e-03 0.0 
1.880775380789e-03 4.274371117329e-03 0.0 
0.0 0.0 0.0 
-1.669164553200e-03 4.891044743942e-04 0.0 
4.891044743942e-04 8.166555031964e-03 0.0 
0.0 0.0 0.0 
4.518636594766e-04 -5.057006522703e-04 0.0 
-5.057006522703e-04 4.118447452041e-03 0.0 
0.0 0.0 0.0 
-1.167168730607e-03 2.721234698981e-05 0.0 
2.721234698981e-05 8.896503937561e-03 0.0 
0.0 0.0 0.0 
-5.511086127081e-04 3.232813887534e-03 0.0 
3.232813887534e-03 3.552329225716e-03 0.0 
0.0 0.0 0.0 
-1.541337846756e-03 2.515621425074e-04 0.0 
2.515621425074e-04 8.121993170287e-03 0.0 
0.0 0.0 0.0 
-2.501407408956e-04 -3.380308629548e-04 0.0 
-3.380308629548e-04 5.740898157947e-03 0.0 
0.0 0.0 0.0 
1.838682150187e-03 2.339467600253e-03 0.0 
2.339467600253e-03 2.147540186058e-03 0.0 
0.0 0.0 0.0 
8.645192324310e-04 2.413535137680e-03 0.0 
2.413535137680e-03 4.136651391097e-03 0.0 
0.0 0.0 0.0 
7.325143186094e-04 3.760079055726e-03 0.0 
3.760079055726e-03 1.485801049132e-03 0.0 
0.0 0.0 0.0 
-3.689185642839e-04 -3.919083787258e-03 0.0 
-3.919083787258e-03 -1.463014102667e-03 0.0 
0.0 0.0 0.0 
-5.966551290882e-04 -2.478017685655e-04 0.0 
-2.478017685655e-04 5.436193539526e-03 0.0 
0.0 0.0 0.0 
-8.512419284531e-04 2.355025587180e-04 0.0 
2.355025587180e-04 9.970608934712e-03 0.0 
0.0 0.0 0.0 
-1.184739298873e-03 -3.511736300801e-03 0.0 
-3.511736300801e-03 -1.930726345822e-03 0.0 
0.0 0.0 0.0 
-1.033859300908e-04 -5.942856123594e-04 0.0 
-5.942856123594e-04 5.360709526218e-03 0.0 
0.0 0.0 0.0 
-8.262332228011e-04 2.504604943295e-03 0.0 
2.504604943295e-03 7.281312638699e-03 0.0 
0.0 0.0 0.0 
1.977416424439e-03 1.061302337555e-04 0.0 
1.061302337555e-04 -4.960235097257e-04 0.0 
0.0 0.0 0.0 
1.655604018067e-03 3.550498661796e-03 0.0 
3.550498661796e-03 3.519756642563e-04 0.0 
0.0 0.0 0.0 
-1.954559344639e-03 1.436260498328e-03 0.0 
1.436260498328e-03 7.130180801296e-03 0.0 
0.0 0.0 0.0 
-1.287453501988e-03 -8.481733938840e-04 0.0 
-8.481733938840e-04 3.026614960654e-03 0.0 
0.0 0.0 0.0 
-3.692644614124e-04 3.081483609686e-03 0.0 
3.081483609686e-03 3.073157232799e-03 0.0 
0.0 0.0 0.0 
-3.497184768619e-05 3.455775828100e-03 0.0 
3.455775828100e-03 2.854188823800e-03 0.0 
0.0 0.0 0.0 
1.057580621830e-04 -6.183436230145e-04 0.0 
-6.183436230145e-04 4.621875770071e-03 0.0 
0.0 0.0 0.0 
-1.201765320295e-03 9.515039506141e-05 0.0 
9.515039506141e-05 8.777213390979e-03 0.0 
0.0 0.0 0.0 
1.907677200665e-04 3.461094611867e-03 0.0 
3.461094611867e-03 2.207312567266e-03 0.0 
0.0 0.0 0.0 
-1.428735787680e-04 -1.491573804472e-03 0.0 
-1.491573804472e-03 8.810782828244e-04 0.0 
0.0 0.0 0.0 
-1.865980013562e-03 1.195056275093e-03 0.0 
1.195056275093e-03 7.699051395119e-03 0.0 
0.0 0.0 0.0 
-7.153028212765e-04 1.629073093027e-04 0.0 
1.629073093027e-04 9.996575452260e-03 0.0 
0.0 0.0 0.0 
3.044001652859e-04 3.572057889610e-03 0.0 
3.572057889610e-03 2.201916402397e-03 0.0 
0.0 0.0 0.0 
-7.550546217205e-04 3.742367632826e-03 0.0 
3.742367632826e-03 3.103147362422e-04 0.0 
0.0 0.0 0.0 
-1.847083793859e-03 1.628751051275e-03 0.0 
1.628751051275e-03 6.433986459005e-03 0.0 
0.0 0.0 0.0 
-1.263766776962e-03 -8.418658560419e-04 0.0 
-8.418658560419e-04 3.004069720019e-03 0.0 
0.0 0.0 0.0 
-1.669096757425e-03 1.465537630122e-03 0.0 
1.465537630122e-03 6.205866027759e-03 0.0 
0.0 0.0 0.0 
-2.679285195040e-04 1.277737444175e-03 0.0 
1.277737444175e-03 1.033717582508e-02 0.0 
0.0 0.0 0.0 
5.835601332018e-04 4.356977433581e-03 0.0 
4.356977433581e-03 -1.001540421698e-03 0.0 
0.0 0.0 0.0 
-1.113005389919e-03 -4.902686569148e-04 0.0 
-4.902686569148e-04 4.387493810526e-03 0.0 
0.0 0.0 0.0 
-3.765439735274e-04 3.203031207519e-04 0.0 
3.203031207519e-04 1.056321107234e-02 0.0 
0.0 0.0 0.0 
-9.037349337039e-04 2.739196324700e-03 0.0 
2.739196324700e-03 4.582036691128e-03 0.0 
0.0 0.0 0.0 
-1.765364172902e-03 1.743538212183e-03 0.0 
1.743538212183e-03 6.092529591243e-03 0.0 
0.0 0.0 0.0 
3.323568428943e-04 -5.638387831476e-04 0.0 
-5.638387831476e-04 4.229389743252e-03 0.0 
0.0 0.0 0.0 
-3.854721308829e-04 -2.448027497586e-04 0.0 
-2.448027497586e-04 5.728023995022e-03 0.0 
0.0 0.0 0.0 
-9.998472101721e-04 -4.082283107879e-04 0.0 
-4.082283107879e-04 4.608838169973e-03 0.0 
0.0 0.0 0.0 
-1.078741771626e-03 2.813081605788e-03 0.0 
2.813081605788e-03 5.097082741998e-03 0.0 
0.0 0.0 0.0 
7.759908978082e-04 9.192342507409e-05 0.0 
9.192342507409e-05 3.668713439180e-03 0.0 
0.0 0.0 0.0 
-1.198308962929e-03 2.382035967731e-03 0.0 
2.382035967731e-03 5.070619392030e-03 0.0 
0.0 0.0 0.0 
-2.643592611480e-04 8.656932201556e-04 0.0 
8.656932201556e-04 1.048063494443e-02 0.0 
0.0 0.0 0.0 
-1.232036345997e-04 3.099986879150e-03 0.0 
3.099986879150e-03 7.413050870875e-03 0.0 
0.0 0.0 0.0 
-1.717100998895e-03 8.313060036936e-04 0.0 
8.313060036936e-04 8.418761640932e-03 0.0 
0.0 0.0 0.0 
-1.096218079810e-03 3.046337799366e-04 0.0 
3.046337799366e-04 9.321771479188e-03 0.0 
0.0 0.0 0.0 
-1.207295930703e-03 2.668797519932e-03 0.0 
2.668797519932e-03 5.058572031397e-03 0.0 
0.0 0.0 0.0 
-1.579793263288e-03 1.554713316505e-03 0.0 
1.554713316505e-03 5.839799765053e-03 0.0 
0.0 0.0 0.0 
-7.739637125040e-04 2.880078092076e-03 0.0 
2.880078092076e-03 4.617708945183e-03 0.0 
0.0 0.0 0.0 
1.083896738204e-03 3.739662900298e-03 0.0 
3.739662900298e-03 1.292804356934e-03 0.0 
0.0 0.0 0.0 
-1.433758102464e-03 1.599307798819e-04 0.0 
1.599307798819e-04 8.180207051150e-03 0.0 
0.0 0.0 0.0 
2.081313726911e-03 3.558515063629e-03 0.0 
3.558515063629e-03 3.493933814251e-04 0.0 
0.0 0.0 0.0 
4.281683508522e-05 -3.947992306317e-04 0.0 
-3.947992306317e-04 3.886501961878e-04 0.0 
0.0 0.0 0.0 
-1.265805378467e-03 5.282653873553e-05 0.0 
5.282653873553e-05 8.475201385635e-03 0.0 
0.0 0.0 0.0 
2.370525430904e-04 -1.598737743639e-04 0.0 
-1.598737743639e-04 1.045739879139e-03 0.0 
0.0 0.0 0.0 
-1.903277422632e-03 1.532737758032e-03 0.0 
1.532737758032e-03 6.775280493577e-03 0.0 
0.0 0.0 0.0 
4.233955799393e-04 1.354456843918e-05 0.0 
1.354456843918e-05 3.689851348698e-03 0.0 
0.0 0.0 0.0 
5.068323043060e-04 3.636191269173e-03 0.0 
3.636191269173e-03 1.495263419105e-03 0.0 
0.0 0.0 0.0 
-1.010478328832e-03 -2.110918844392e-04 0.0 
-2.110918844392e-04 4.831544415439e-03 0.0 
0.0 0.0 0.0 
-1.037883046479e-03 2.950980381755e-03 0.0 
2.950980381755e-03 3.591486528559e-03 0.0 
0.0 0.0 0.0 
1.684291171486e-03 2.530868362306e-03 0.0 
2.530868362306e-03 2.130551139645e-03 0.0 
0.0 0.0 0.0 
-1.298994089594e-03 8.820842140231e-05 0.0 
8.820842140231e-05 8.219176786956e-03 0.0 
0.0 0.0 0.0 
2.250307512680e-03 3.618452329338e-03 0.0 
3.618452329338e-03 -4.627213122872e-04 0.0 
0.0 0.0 0.0 
-7.758228703205e-04 -2.699441141051e-04 0.0 
-2.699441141051e-04 5.150118506132e-03 0.0 
0.0 0.0 0.0 
-4.663958101025e-04 -1.668887134725e-03 0.0 
-1.668887134725e-03 9.174688080278e-04 0.0 
0.0 0.0 0.0 
-5.745460645461e-04 -2.496035728499e-04 0.0 
-2.496035728499e-04 5.436322220592e-03 0.0 
0.0 0.0 0.0 
-1.640954405602e-03 1.858154760559e-03 0.0 
1.858154760559e-03 6.826731648722e-03 0.0 
0.0 0.0 0.0 
-2.648309618035e-04 -6.005932281866e-04 0.0 
-6.005932281866e-04 5.433686877693e-03 0.0 
0.0 0.0 0.0 
-1.263962653865e-03 3.876458106450e-05 0.0 
3.876458106450e-05 8.192327992215e-03 0.0 
0.0 0.0 0.0 
1.206224275834e-03 3.724341540296e-03 0.0 
3.724341540296e-03 5.265414667188e-04 0.0 
0.0 0.0 0.0 
-1.797452158647e-03 1.313682955693e-03 0.0 
1.313682955693e-03 6.856027803025e-03 0.0 
0.0 0.0 0.0 
-1.328841190315e-03 -2.434734391583e-04 0.0 
-2.434734391583e-04 4.260973255313e-03 0.0 
0.0 0.0 0.0 
-8.442805858319e-04 2.618592417071e-03 0.0 
2.618592417071e-03 3.494803854153e-03 0.0 
0.0 0.0 0.0 
2.676004525681e-03 3.411803204322e-03 0.0 
3.411803204322e-03 -4.366644274731e-04 0.0 
0.0 0.0 0.0 
-1.071435403741e-03 2.289338609710e-04 0.0 
2.289338609710e-04 9.505398907440e-03 0.0 
0.0 0.0 0.0 
-1.325341676686e-03 1.217913196558e-04 0.0 
1.217913196558e-04 8.187958673072e-03 0.0 
0.0 0.0 0.0 
1.467346968353e-03 3.649308221060e-03 0.0 
3.649308221060e-03 3.852373253403e-04 0.0 
0.0 0.0 0.0 
-1.750518184147e-03 1.378692560392e-03 0.0 
1.378692560392e-03 6.528582278807e-03 0.0 
0.0 0.0 0.0 
-2.171362223282e-04 2.869559355268e-03 0.0 
2.869559355268e-03 6.492589251668e-03 0.0 
0.0 0.0 0.0 
-1.289965354373e-03 -9.364871627083e-04 0.0 
-9.364871627083e-04 3.117370509037e-03 0.0 
0.0 0.0 0.0 
2.614036417894e-04 2.781258516818e-03 0.0 
2.781258516818e-03 5.494298119833e-03 0.0 
0.0 0.0 0.0 
-5.821375856563e-05 3.124331191878e-03 0.0 
3.124331191878e-03 7.051098424876e-03 0.0 
0.0 0.0 0.0 
-7.870753784739e-04 3.058218641274e-03 0.0 
3.058218641274e-03 3.733190324760e-03 0.0 
0.0 0.0 0.0 
-1.399050038721e-03 -7.658065575250e-04 0.0 
-7.658065575250e-04 3.375718406352e-03 0.0 
0.0 0.0 0.0 
1.637919995882e-03 6.950171419575e-04 0.0 
6.950171419575e-04 2.025820108662e-03 0.0 
0.0 0.0 0.0 
-1.466673405888e-03 2.299110323207e-03 0.0 
2.299110323207e-03 5.457934950050e-03 0.0 
0.0 0.0 0.0 
-6.319306743915e-04 2.790165619429e-03 0.0 
2.790165619429e-03 3.380090776940e-03 0.0 
0.0 0.0 0.0 
-1.757235672432e-03 1.557445006352e-03 0.0 
1.557445006352e-03 7.010656517908e-03 0.0 
0.0 0.0 0.0 
1.326783194211e-03 3.668007854328e-03 0.0 
3.668007854328e-03 1.216463744533e-03 0.0 
0.0 0.0 0.0 
-2.522607837532e-04 6.461387260582e-04 0.0 
6.461387260582e-04 1.054291788800e-02 0.0 
0.0 0.0 0.0 
-9.975830091472e-04 2.229935948146e-03 0.0 
2.229935948146e-03 7.963846846959e-03 0.0 
0.0 0.0 0.0 
-6.973620021082e-04 -1.417012098785e-04 0.0 
-1.417012098785e-04 5.359665612292e-03 0.0 
0.0 0.0 0.0 
-8.705438988598e-04 3.407879676382e-03 0.0 
3.407879676382e-03 2.497848476804e-03 0.0 
0.0 0.0 0.0 
3.218648433347e-03 3.150596918807e-03 0.0 
3.150596918807e-03 -1.197698901603e-03 0.0 
0.0 0.0 0.0 
-8.207037144333e-04 2.416959891424e-03 0.0 
2.416959891424e-03 7.745834165252e-03 0.0 
0.0 0.0 0.0 
-3.183964711364e-03 2.408011315411e-03 0.0 
2.408011315411e-03 -2.256139451969e-03 0.0 
0.0 0.0 0.0 
-1.418689742114e-03 1.996435773856e-03 0.0 
1.996435773856e-03 5.463704845220e-03 0.0 
0.0 0.0 0.0 
1.868080902034e-03 -2.890692594327e-05 0.0 
-2.890692594327e-05 1.245090386025e-03 0.0 
0.0 0.0 0.0 
8.590491630358e-04 -4.676799284975e-04 0.0 
-4.676799284975e-04 3.982292489793e-04 0.0 
0.0 0.0 0.0 
-4.284227008796e-04 2.384383817035e-03 0.0 
2.384383817035e-03 9.101665648306e-03 0.0 
0.0 0.0 0.0 
-1.396531587180e-03 1.615183347874e-03 0.0 
1.615183347874e-03 8.404707127884e-03 0.0 
0.0 0.0 0.0 
1.063916724456e-03 -2.416057933525e-03 0.0 
-2.416057933525e-03 2.406634381655e-04 0.0 
0.0 0.0 0.0 
2.038505761895e-03 2.275527731731e-04 0.0 
2.275527731731e-04 1.227455580624e-03 0.0 
0.0 0.0 0.0 
-1.849251414470e-03 1.250216124885e-03 0.0 
1.250216124885e-03 8.015741107685e-03 0.0 
0.0 0.0 0.0 
-1.737700116805e-03 1.061538717399e-03 0.0 
1.061538717399e-03 8.488956683419e-03 0.0 
0.0 0.0 0.0 
8.253830985645e-04 1.158156249109e-04 0.0 
1.158156249109e-04 3.122426223550e-03 0.0 
0.0 0.0 0.0 
6.945869137120e-05 -2.300234140736e-03 0.0 
-2.300234140736e-03 1.034184978228e-03 0.0 
0.0 0.0 0.0 
-3.920937754721e-04 3.133502920177e-03 0.0 
3.133502920177e-03 4.037596194701e-03 0.0 
0.0 0.0 0.0 
-1.477155940644e-03 2.153393690927e-03 0.0 
2.153393690927e-03 6.582111803388e-03 0.0 
0.0 0.0 0.0 
-1.453867330648e-03 1.600096635965e-03 0.0 
1.600096635965e-03 8.696285386232e-03 0.0 
0.0 0.0 0.0 
-1.787801246579e-03 1.918082422868e-03 0.0 
1.918082422868e-03 7.202496479785e-03 0.0 
0.0 0.0 0.0 
-1.865241716900e-03 1.734678732175e-03 0.0 
1.734678732175e-03 7.011663770893e-03 0.0 
0.0 0.0 0.0 
2.610461796640e-03 2.330579372929e-03 0.0 
2.330579372929e-03 6.463329144346e-04 0.0 
0.0 0.0 0.0 
-4.239724769607e-04 2.799362451232e-03 0.0 
2.799362451232e-03 6.753690225100e-03 0.0 
0.0 0.0 0.0 
-1.121235899440e-03 2.279699581616e-03 0.0 
2.279699581616e-03 -2.933915655195e-03 0.0 
0.0 0.0 0.0 
-7.570933794373e-04 2.748054167025e-03 0.0 
2.748054167025e-03 3.695108882328e-03 0.0 
0.0 0.0 0.0 
-5.748346737301e-04 2.931183442882e-03 0.0 
2.931183442882e-03 3.601638486312e-03 0.0 
0.0 0.0 0.0 
-6.986988615699e-04 3.092333363224e-03 0.0 
3.092333363224e-03 4.588492574979e-03 0.0 
0.0 0.0 0.0 
-1.067920137471e-03 2.208761153374e-03 0.0 
2.208761153374e-03 8.344729590583e-03 0.0 
0.0 0.0 0.0 
3.012491482956e-03 3.129902820309e-03 0.0 
3.129902820309e-03 -4.106451313902e-03 0.0 
0.0 0.0 0.0 
1.867588347530e-03 -4.065479969700e-04 0.0 
-4.065479969700e-04 9.726402341850e-04 0.0 
0.0 0.0 0.0 
-1.368213992544e-03 7.975518871664e-05 0.0 
7.975518871664e-05 8.168883937400e-03 0.0 
0.0 0.0 0.0 
2.805646105053e-03 3.503830763241e-03 0.0 
3.503830763241e-03 -1.245391836559e-03 0.0 
0.0 0.0 0.0 
1.770459340404e-03 -7.893099381862e-04 0.0 
-7.893099381862e-04 8.169025243649e-04 0.0 
0.0 0.0 0.0 
5.983407407519e-04 -3.950865735291e-04 0.0 
-3.950865735291e-04 2.495634539359e-04 0.0 
0.0 0.0 0.0 
-1.211787915129e-03 1.752293427983e-03 0.0 
1.752293427983e-03 8.622719030872e-03 0.0 
0.0 0.0 0.0 
8.758816811323e-04 -4.683853657716e-04 0.0 
-4.683853657716e-04 -3.082496961959e-05 0.0 
0.0 0.0 0.0 
4.585201669518e-04 -4.047037426406e-04 0.0 
-4.047037426406e-04 5.582200465057e-04 0.0 
0.0 0.0 0.0 
-6.642045654918e-04 3.185925505892e-03 0.0 
3.185925505892e-03 2.486487259196e-03 0.0 
0.0 0.0 0.0 
-7.829437766449e-05 -2.165175501799e-03 0.0 
-2.165175501799e-03 1.039087764525e-03 0.0 
0.0 0.0 0.0 
-1.259768250980e-03 1.725929508685e-03 0.0 
1.725929508685e-03 8.921399592686e-03 0.0 
0.0 0.0 0.0 
1.860208197080e-05 -2.207289452024e-03 0.0 
-2.207289452024e-03 7.616960517542e-04 0.0 
0.0 0.0 0.0 
7.383167790740e-04 3.887002559064e-03 0.0 
3.887002559064e-03 3.338902249650e-04 0.0 
0.0 0.0 0.0 
1.514237207335e-03 -3.565723513621e-03 0.0 
-3.565723513621e-03 -1.866821254688e-03 0.0 
0.0 0.0 0.0 
-4.109106774169e-04 -1.615670922151e-03 0.0 
-1.615670922151e-03 1.023914240673e-03 0.0 
0.0 0.0 0.0 
1.893020670353e-03 5.574392252531e-04 0.0 
5.574392252531e-04 1.568220412812e-03 0.0 
0.0 0.0 0.0 
-1.729515892879e-03 2.035234258849e-03 0.0 
2.035234258849e-03 6.819888555465e-03 0.0 
0.0 0.0 0.0 
-3.213062433429e-04 -4.452929102990e-04 0.0 
-4.452929102990e-04 5.538532861701e-03 0.0 
0.0 0.0 0.0 
-1.073021702301e-03 1.061552184103e-03 0.0 
1.061552184103e-03 -4.415178934310e-03 0.0 
0.0 0.0 0.0 
1.292137146109e-03 3.938272666064e-03 0.0 
3.938272666064e-03 -7.977383517987e-06 0.0 
0.0 0.0 0.0 
2.956366985749e-03 3.342360580381e-03 0.0 
3.342360580381e-03 -1.214821706310e-03 0.0 
0.0 0.0 0.0 
-1.250884084051e-03 2.138564980559e-03 0.0 
2.138564980559e-03 5.038883599919e-03 0.0 
0.0 0.0 0.0 
2.101575604488e-03 -1.522471075349e-04 0.0 
-1.522471075349e-04 9.549193526901e-04 0.0 
0.0 0.0 0.0 
-1.789057625732e-04 -6.199378791995e-04 0.0 
-6.199378791995e-04 5.352401171443e-03 0.0 
0.0 0.0 0.0 
-1.265894172105e-03 2.107787088454e-03 0.0 
2.107787088454e-03 8.136868304853e-03 0.0 
0.0 0.0 0.0 
3.462168285139e-03 2.953340087803e-03 0.0 
2.953340087803e-03 -1.934959023344e-03 0.0 
0.0 0.0 0.0 
1.773762450685e-03 3.485933759383e-04 0.0 
3.485933759383e-04 1.569658748307e-03 0.0 
0.0 0.0 0.0 
-1.146555937747e-03 -2.527495721593e-04 0.0 
-2.527495721593e-04 4.572223710997e-03 0.0 
0.0 0.0 0.0 
-9.378414967679e-04 2.926956033061e-03 0.0 
2.926956033061e-03 5.170692396236e-03 0.0 
0.0 0.0 0.0 
-1.287190690415e-03 1.823478742000e-03 0.0 
1.823478742000e-03 8.296239527452e-03 0.0 
0.0 0.0 0.0 
5.381425030924e-04 2.577834226417e-03 0.0 
2.577834226417e-03 4.754759341300e-03 0.0 
0.0 0.0 0.0 
3.368454938472e-03 3.016053598478e-03 0.0 
3.016053598478e-03 -1.169089932780e-03 0.0 
0.0 0.0 0.0 
6.400909571169e-04 3.826001216277e-03 0.0 
3.826001216277e-03 1.072083053691e-03 0.0 
0.0 0.0 0.0 
-1.648541846298e-03 2.068900323909e-03 0.0 
2.068900323909e-03 7.389253248700e-03 0.0 
0.0 0.0 0.0 
-2.415785254536e-04 1.463483439110e-03 0.0 
1.463483439110e-03 1.041118580309e-02 0.0 
0.0 0.0 0.0 
-2.657187160643e-04 3.289326175326e-03 0.0 
3.289326175326e-03 4.017457508844e-03 0.0 
0.0 0.0 0.0 
3.712887200754e-03 2.232196957346e-03 0.0 
2.232196957346e-03 -1.433708882400e-03 0.0 
0.0 0.0 0.0 
-1.302662398646e-03 1.265379412183e-04 0.0 
1.265379412183e-04 8.548789186917e-03 0.0 
0.0 0.0 0.0 
-2.935508410495e-04 -2.606255441054e-03 0.0 
-2.606255441054e-03 3.405193649215e-04 0.0 
0.0 0.0 0.0 
-1.679358437213e-03 1.759952675127e-03 0.0 
1.759952675127e-03 7.226779405855e-03 0.0 
0.0 0.0 0.0 
3.034996031057e-03 3.493224444021e-03 0.0 
3.493224444021e-03 -2.013966465688e-03 0.0 
0.0 0.0 0.0 
3.373834680193e-03 2.810147652397e-03 0.0 
2.810147652397e-03 -3.857120896565e-03 0.0 
0.0 0.0 0.0 
2.897625713361e-03 -3.157616510570e-03 0.0 
-3.157616510570e-03 -4.302685223744e-03 0.0 
0.0 0.0 0.0 
-1.120213153477e-03 1.685147486997e-03 0.0 
1.685147486997e-03 8.926073296915e-03 0.0 
0.0 0.0 0.0 
-1.616446552801e-03 2.202457922755e-03 0.0 
2.202457922755e-03 6.987701823566e-03 0.0 
0.0 0.0 0.0 
7.688688538681e-04 3.590064814213e-03 0.0 
3.590064814213e-03 1.318893377577e-03 0.0 
0.0 0.0 0.0 
-1.156396405595e-03 1.651125787432e-03 0.0 
1.651125787432e-03 9.210912134942e-03 0.0 
0.0 0.0 0.0 
-1.094590451514e-03 2.300062852536e-03 0.0 
2.300062852536e-03 7.950578962183e-03 0.0 
0.0 0.0 0.0 
-1.128852344845e-03 2.765166071644e-03 0.0 
2.765166071644e-03 5.716782793571e-03 0.0 
0.0 0.0 0.0 
-1.760711989762e-05 -6.466846579833e-04 0.0 
-6.466846579833e-04 5.007229561134e-03 0.0 
0.0 0.0 0.0 
3.690638125331e-03 2.093956134484e-03 0.0 
2.093956134484e-03 -1.798380117034e-03 0.0 
0.0 0.0 0.0 
-1.280615243601e-03 2.610605154451e-03 0.0 
2.610605154451e-03 6.236167331210e-03 0.0 
0.0 0.0 0.0 
1.507629229836e-03 3.512475257729e-03 0.0 
3.512475257729e-03 1.206338361868e-03 0.0 
0.0 0.0 0.0 
3.413223945381e-03 2.154687617168e-03 0.0 
2.154687617168e-03 -9.640231723569e-04 0.0 
0.0 0.0 0.0 
3.796803617619e-03 2.551155364090e-03 0.0 
2.551155364090e-03 -3.659056081414e-03 0.0 
0.0 0.0 0.0 
-1.787855829738e-03 8.820253153904e-04 0.0 
8.820253153904e-04 7.968733890279e-03 0.0 
0.0 0.0 0.0 
3.919168129256e-03 2.476452654602e-03 0.0 
2.476452654602e-03 -1.781026247686e-03 0.0 
0.0 0.0 0.0 
3.949163994547e-03 -1.278495351397e-03 0.0 
-1.278495351397e-03 -3.561156306479e-03 0.0 
0.0 0.0 0.0 
-1.153951579179e-03 2.034713033284e-03 0.0 
2.034713033284e-03 8.149708573544e-03 0.0 
0.0 0.0 0.0 
-4.713827470960e-03 4.516225158182e-04 0.0 
4.516225158182e-04 -2.724970372113e-03 0.0 
0.0 0.0 0.0 
-1.804258154267e-03 1.806650581837e-03 0.0 
1.806650581837e-03 7.561228010712e-03 0.0 
0.0 0.0 0.0 
3.756433437242e-03 2.888493195896e-03 0.0 
2.888493195896e-03 -2.767710194870e-03 0.0 
0.0 0.0 0.0 
1.654111756263e-03 3.818553823233e-03 0.0 
3.818553823233e-03 6.909525416265e-06 0.0 
0.0 0.0 0.0 
3.875002000360e-03 1.511620198856e-03 0.0 
1.511620198856e-03 -3.483213400374e-03 0.0 
0.0 0.0 0.0 
-1.405254042456e-03 2.181934114673e-03 0.0 
2.181934114673e-03 7.181231617650e-03 0.0 
0.0 0.0 0.0 
-1.636001465432e-04 -1.076555492093e-03 0.0 
-1.076555492093e-03 7.377458573050e-04 0.0 
0.0 0.0 0.0 
-8.054453211079e-04 2.743763967307e-03 0.0 
2.743763967307e-03 4.130085412622e-03 0.0 
0.0 0.0 0.0 
3.363754562705e-03 2.036668973840e-03 0.0 
2.036668973840e-03 -1.207626661933e-03 0.0 
0.0 0.0 0.0 
-1.538047452206e-03 2.042714345709e-03 0.0 
2.042714345709e-03 7.014774455807e-03 0.0 
0.0 0.0 0.0 
-1.796093633498e-03 1.069123149646e-03 0.0 
1.069123149646e-03 8.164114054750e-03 0.0 
0.0 0.0 0.0 
2.274246915701e-03 2.278443240214e-03 0.0 
2.278443240214e-03 -4.627796880656e-03 0.0 
0.0 0.0 0.0 
4.339796226149e-03 -3.506329660662e-04 0.0 
-3.506329660662e-04 -3.706447686389e-03 0.0 
0.0 0.0 0.0 
3.463704542887e-03 -2.144270886132e-03 0.0 
-2.144270886132e-03 -3.321124806060e-03 0.0 
0.0 0.0 0.0 
-9.731984439514e-04 2.875947700490e-03 0.0 
2.875947700490e-03 4.204764902559e-03 0.0 
0.0 0.0 0.0 
-1.414362437969e-03 1.897259336186e-03 0.0 
1.897259336186e-03 8.283529457731e-03 0.0 
0.0 0.0 0.0 
-7.844996133261e-04 3.064842678705e-03 0.0 
3.064842678705e-03 4.081913614108e-03 0.0 
0.0 0.0 0.0 
4.020219341806e-03 2.544911318094e-03 0.0 
2.544911318094e-03 -2.496381325616e-03 0.0 
0.0 0.0 0.0 
3.491843835728e-03 3.092972632359e-03 0.0 
3.092972632359e-03 -1.957970476269e-03 0.0 
0.0 0.0 0.0 
2.493151906771e-03 1.811530778044e-03 0.0 
1.811530778044e-03 -3.636938481717e-03 0.0 
0.0 0.0 0.0 
1.765364075102e-03 3.416996712467e-03 0.0 
3.416996712467e-03 4.153545649614e-04 0.0 
0.0 0.0 0.0 
2.517172999432e-04 3.856509798390e-03 0.0 
3.856509798390e-03 7.332513264238e-04 0.0 
0.0 0.0 0.0 
-3.034896768680e-04 2.354994759411e-03 0.0 
2.354994759411e-03 9.640209869154e-03 0.0 
0.0 0.0 0.0 
-2.928190394000e-04 2.683037529864e-03 0.0 
2.683037529864e-03 9.174898629692e-03 0.0 
0.0 0.0 0.0 
3.092914267011e-05 3.309867035463e-03 0.0 
3.309867035463e-03 3.428164798346e-03 0.0 
0.0 0.0 0.0 
3.494594379091e-03 3.138208477269e-03 0.0 
3.138208477269e-03 -2.839318521724e-03 0.0 
0.0 0.0 0.0 
2.132764299570e-03 3.713666540830e-03 0.0 
3.713666540830e-03 -8.099957540977e-04 0.0 
0.0 0.0 0.0 
-1.003846035394e-03 2.698634713286e-03 0.0 
2.698634713286e-03 5.883118954077e-03 0.0 
0.0 0.0 0.0 
3.053782206101e-03 3.157916753786e-03 0.0 
3.157916753786e-03 -1.869606030562e-03 0.0 
0.0 0.0 0.0 
3.926821816512e-03 -1.280289794994e-03 0.0 
-1.280289794994e-03 -3.458034173929e-03 0.0 
0.0 0.0 0.0 
-9.784325254155e-04 2.722668679183e-03 0.0 
2.722668679183e-03 5.207338403829e-03 0.0 
0.0 0.0 0.0 
-4.831899308828e-04 9.526306256886e-04 0.0 
9.526306256886e-04 1.045498527381e-02 0.0 
0.0 0.0 0.0 
3.310741217382e-03 3.266568463065e-03 0.0 
3.266568463065e-03 -2.015015796710e-03 0.0 
0.0 0.0 0.0 
2.307634349804e-03 2.575752230779e-03 0.0 
2.575752230779e-03 6.179570684046e-04 0.0 
0.0 0.0 0.0 
1.007701329141e-03 3.974135433038e-03 0.0 
3.974135433038e-03 -4.634129445035e-04 0.0 
0.0 0.0 0.0 
5.117354650517e-04 5.694391964641e-04 0.0 
5.694391964641e-04 4.207645838167e-03 0.0 
0.0 0.0 0.0 
2.670586375080e-03 3.711797947626e-03 0.0 
3.711797947626e-03 -1.956562829426e-03 0.0 
0.0 0.0 0.0 
-6.401760852425e-04 2.987166402630e-03 0.0 
2.987166402630e-03 4.694503651037e-03 0.0 
0.0 0.0 0.0 
3.221544047195e-03 2.007478831051e-03 0.0 
2.007478831051e-03 -4.514925944488e-03 0.0 
0.0 0.0 0.0 
3.136056265734e-03 1.405679796407e-04 0.0 
1.405679796407e-04 -9.001291903401e-04 0.0 
0.0 0.0 0.0 
3.545502089941e-03 2.900178513199e-03 0.0 
2.900178513199e-03 -1.846173583967e-03 0.0 
0.0 0.0 0.0 
3.579253236724e-03 -1.885434265015e-03 0.0 
-1.885434265015e-03 -2.810412269409e-03 0.0 
0.0 0.0 0.0 
-1.531393290675e-03 2.336302471653e-03 0.0 
2.336302471653e-03 6.558878451432e-03 0.0 
0.0 0.0 0.0 
-1.616126098148e-04 3.108407244434e-03 0.0 
3.108407244434e-03 8.284066781566e-03 0.0 
0.0 0.0 0.0 
3.938239073360e-03 2.687554976221e-03 0.0 
2.687554976221e-03 -2.654622497105e-03 0.0 
0.0 0.0 0.0 
3.521120276345e-03 1.679268026288e-03 0.0 
1.679268026288e-03 -1.158095930065e-03 0.0 
0.0 0.0 0.0 
1.298125484197e-03 3.848949552641e-03 0.0 
3.848949552641e-03 -4.476683033301e-04 0.0 
0.0 0.0 0.0 
-1.377856356498e-03 9.171141317057e-04 0.0 
9.171141317057e-04 8.955289244410e-03 0.0 
0.0 0.0 0.0 
2.070195359239e-03 -5.448330944873e-04 0.0 
-5.448330944873e-04 7.848296029545e-04 0.0 
0.0 0.0 0.0 
2.976674342225e-04 3.747805335389e-03 0.0 
3.747805335389e-03 1.771371251178e-03 0.0 
0.0 0.0 0.0 
-1.541751242347e-03 7.687114715566e-04 0.0 
7.687114715566e-04 8.884590770729e-03 0.0 
0.0 0.0 0.0 
1.286643105125e-05 3.285652334361e-03 0.0 
3.285652334361e-03 7.185355628976e-03 0.0 
0.0 0.0 0.0 
1.740445724019e-03 -3.206061723136e-04 0.0 
-3.206061723136e-04 1.501522501580e-03 0.0 
0.0 0.0 0.0 
-2.216182645088e-04 2.989910993283e-03 0.0 
2.989910993283e-03 8.604488343259e-03 0.0 
0.0 0.0 0.0 
-1.622464050602e-03 9.859470293416e-04 0.0 
9.859470293416e-04 8.720270099166e-03 0.0 
0.0 0.0 0.0 
-8.634886489260e-04 2.583627357239e-03 0.0 
2.583627357239e-03 7.265729432763e-03 0.0 
0.0 0.0 0.0 
-2.107952549830e-04 3.624494670605e-03 0.0 
3.624494670605e-03 2.112432723057e-03 0.0 
0.0 0.0 0.0 
-1.644133207268e-03 2.171122007129e-03 0.0 
2.171122007129e-03 6.399781019882e-03 0.0 
0.0 0.0 0.0 
-1.261746059323e-03 2.439019446416e-03 0.0 
2.439019446416e-03 6.260546580115e-03 0.0 
0.0 0.0 0.0 
-1.399822941256e-03 2.468877151516e-03 0.0 
2.468877151516e-03 6.721170940725e-03 0.0 
0.0 0.0 0.0 
7.268568799335e-05 3.411268235026e-03 0.0 
3.411268235026e-03 3.343029619426e-03 0.0 
0.0 0.0 0.0 
1.444215324597e-04 3.181524911886e-03 0.0 
3.181524911886e-03 6.432272890957e-03 0.0 
0.0 0.0 0.0 
-1.648850011989e-03 1.291435290487e-03 0.0 
1.291435290487e-03 8.238044481093e-03 0.0 
0.0 0.0 0.0 
-1.909185468553e-03 1.634899987008e-03 0.0 
1.634899987008e-03 7.353534745424e-03 0.0 
0.0 0.0 0.0 
3.828681473538e-03 2.612780733931e-03 0.0 
2.612780733931e-03 -1.887160484483e-03 0.0 
0.0 0.0 0.0 
-2.634435972493e-04 -1.940604767897e-03 0.0 
-1.940604767897e-03 1.045716558300e-03 0.0 
0.0 0.0 0.0 
-1.809254989167e-03 1.845033426585e-03 0.0 
1.845033426585e-03 6.623467916094e-03 0.0 
0.0 0.0 0.0 
8.676025899532e-04 3.795356195009e-03 0.0 
3.795356195009e-03 7.519924939057e-04 0.0 
0.0 0.0 0.0 
-1.306502909650e-03 7.031347676273e-05 0.0 
7.031347676273e-05 8.200817661855e-03 0.0 
0.0 0.0 0.0 
2.958128962720e-03 -2.454614674228e-03 0.0 
-2.454614674228e-03 -2.722506318172e-03 0.0 
0.0 0.0 0.0 
3.693923047728e-03 2.748121289572e-03 0.0 
2.748121289572e-03 -1.942988064657e-03 0.0 
0.0 0.0 0.0 
-1.088628533552e-03 1.955558340045e-03 0.0 
1.955558340045e-03 8.504221350284e-03 0.0 
0.0 0.0 0.0 
1.218780008602e-03 3.836677269988e-03 0.0 
3.836677269988e-03 7.451228824848e-04 0.0 
0.0 0.0 0.0 
-1.375200743993e-03 2.281161850810e-03 0.0 
2.281161850810e-03 6.125789334413e-03 0.0 
0.0 0.0 0.0 
3.330535252788e-03 1.553075389186e-03 0.0 
1.553075389186e-03 -1.116375721344e-03 0.0 
0.0 0.0 0.0 
1.866741303400e-03 -1.708169869627e-03 0.0 
-1.708169869627e-03 -1.436117475268e-04 0.0 
0.0 0.0 0.0 
3.673431076676e-04 2.689018200989e-03 0.0 
2.689018200989e-03 5.384071424100e-03 0.0 
0.0 0.0 0.0 
-1.605392899665e-03 2.130296332524e-03 0.0 
2.130296332524e-03 5.849119517147e-03 0.0 
0.0 0.0 0.0 
4.393747351226e-03 5.671584385703e-04 0.0 
5.671584385703e-04 -4.007039981173e-03 0.0 
0.0 0.0 0.0 
1.107516299395e-03 -2.555430986739e-03 0.0 
-2.555430986739e-03 -2.527587835904e-04 0.0 
0.0 0.0 0.0 
-6.223995921160e-04 3.245618499292e-03 0.0 
3.245618499292e-03 3.314650835295e-03 0.0 
0.0 0.0 0.0 
1.596014121281e-04 3.549612046085e-03 0.0 
3.549612046085e-03 1.793595211372e-03 0.0 
0.0 0.0 0.0 
-8.924390887850e-04 2.390086462876e-03 0.0 
2.390086462876e-03 8.156068800985e-03 0.0 
0.0 0.0 0.0 
-7.910307233697e-04 2.998676597047e-03 0.0 
2.998676597047e-03 5.284145674795e-03 0.0 
0.0 0.0 0.0 
-1.320159621438e-03 2.463005127338e-03 0.0 
2.463005127338e-03 5.012056922257e-03 0.0 
0.0 0.0 0.0 
-1.467954166235e-03 2.088164653919e-03 0.0 
2.088164653919e-03 6.002079980848e-03 0.0 
0.0 0.0 0.0 
5.402444859364e-04 1.571084814542e-03 0.0 
1.571084814542e-03 4.407848238186e-03 0.0 
0.0 0.0 0.0 
9.661319417114e-04 1.593908733164e-03 0.0 
1.593908733164e-03 3.672448452290e-03 0.0 
0.0 0.0 0.0 
-7.894478662395e-04 2.335267154123e-03 0.0 
2.335267154123e-03 8.166777958340e-03 0.0 
0.0 0.0 0.0 
-1.350378283446e-03 1.808226965400e-03 0.0 
1.808226965400e-03 8.614035373046e-03 0.0 
0.0 0.0 0.0 
1.974294318298e-03 -1.823021834789e-03 0.0 
-1.823021834789e-03 -7.208086512036e-04 0.0 
0.0 0.0 0.0 
-3.167966196517e-04 3.342738222739e-03 0.0 
3.342738222739e-03 3.439726680806e-03 0.0 
0.0 0.0 0.0 
3.754596959080e-03 2.373646805275e-03 0.0 
2.373646805275e-03 -2.719907161838e-03 0.0 
0.0 0.0 0.0 
4.068841703349e-03 2.180613639040e-03 0.0 
2.180613639040e-03 -2.661224239474e-03 0.0 
0.0 0.0 0.0 
-5.523699841946e-04 3.152123509117e-03 0.0 
3.152123509117e-03 4.669702727951e-03 0.0 
0.0 0.0 0.0 
3.296536120805e-03 1.161256752589e-04 0.0 
1.161256752589e-04 -1.313565036187e-03 0.0 
0.0 0.0 0.0 
-3.214922001160e-04 -1.940759884484e-03 0.0 
-1.940759884484e-03 1.812370953196e-03 0.0 
0.0 0.0 0.0 
-8.748361198326e-04 2.086811517023e-03 0.0 
2.086811517023e-03 8.710838869606e-03 0.0 
0.0 0.0 0.0 
4.172829206029e-03 -5.183747420012e-04 0.0 
-5.183747420012e-04 -3.836877594269e-03 0.0 
0.0 0.0 0.0 
4.415058535245e-04 3.493061256722e-03 0.0 
3.493061256722e-03 2.660391683648e-03 0.0 
0.0 0.0 0.0 
-1.135302181214e-03 2.572839425822e-03 0.0 
2.572839425822e-03 5.753807542783e-03 0.0 
0.0 0.0 0.0 
2.359706192572e-04 3.502071300923e-03 0.0 
3.502071300923e-03 2.726703173258e-03 0.0 
0.0 0.0 0.0 
-2.703881246954e-04 2.855904722608e-03 0.0 
2.855904722608e-03 8.898115177750e-03 0.0 
0.0 0.0 0.0 
-2.792461728235e-04 2.529314318866e-03 0.0 
2.529314318866e-03 9.403617186319e-03 0.0 
0.0 0.0 0.0 
-5.654182425786e-04 2.393840063695e-03 0.0 
2.393840063695e-03 9.101016304020e-03 0.0 
0.0 0.0 0.0 
1.878049020227e-03 -1.663194646368e-03 0.0 
-1.663194646368e-03 -3.717916419974e-04 0.0 
0.0 0.0 0.0 
-1.008948532993e-03 1.623952247188e-03 0.0 
1.623952247188e-03 9.213783762663e-03 0.0 
0.0 0.0 0.0 
4.416986230480e-04 3.749492495642e-03 0.0 
3.749492495642e-03 1.081632953450e-03 0.0 
0.0 0.0 0.0 
4.213123345250e-03 2.045811493098e-03 0.0 
2.045811493098e-03 -2.557726550840e-03 0.0 
0.0 0.0 0.0 
3.396328564635e-03 1.619711662474e-03 0.0 
1.619711662474e-03 -3.654695608356e-03 0.0 
0.0 0.0 0.0 
-1.003449846310e-03 2.854676728734e-03 0.0 
2.854676728734e-03 4.557518616473e-03 0.0 
0.0 0.0 0.0 
-1.760367515352e-03 7.297792292967e-04 0.0 
7.297792292967e-04 8.069463935893e-03 0.0 
0.0 0.0 0.0 
-1.473759576377e-03 9.494975202163e-04 0.0 
9.494975202163e-04 8.723379365690e-03 0.0 
0.0 0.0 0.0 
9.413222753334e-04 6.595905537017e-04 0.0 
6.595905537017e-04 3.492512989962e-03 0.0 
0.0 0.0 0.0 
-6.222617816027e-04 2.574597822187e-03 0.0 
2.574597822187e-03 7.499613947788e-03 0.0 
0.0 0.0 0.0 
-1.567486671524e-03 1.931554580893e-03 0.0 
1.931554580893e-03 7.409739623398e-03 0.0 
0.0 0.0 0.0 
-1.131407946340e-03 2.568638093909e-03 0.0 
2.568638093909e-03 6.421092525534e-03 0.0 
0.0 0.0 0.0 
3.853755423448e-03 1.728034297576e-03 0.0 
1.728034297576e-03 -4.297501318871e-03 0.0 
0.0 0.0 0.0 
-6.733508409936e-04 -1.707118757960e-03 0.0 
-1.707118757960e-03 7.031286076609e-04 0.0 
0.0 0.0 0.0 
2.344332317107e-03 3.456177288567e-03 0.0 
3.456177288567e-03 -4.673402039926e-04 0.0 
0.0 0.0 0.0 
5.876982964266e-04 3.467991532045e-03 0.0 
3.467991532045e-03 2.684193827949e-03 0.0 
0.0 0.0 0.0 
2.188857763244e-03 3.388281181034e-03 0.0 
3.388281181034e-03 4.172961597562e-04 0.0 
0.0 0.0 0.0 
-5.398338985187e-04 3.691436329093e-03 0.0 
3.691436329093e-03 3.092674345122e-04 0.0 
0.0 0.0 0.0 
-1.238530356709e-03 1.188149610650e-04 0.0 
1.188149610650e-04 8.544192454094e-03 0.0 
0.0 0.0 0.0 
-1.130346226307e-04 -1.910785687785e-03 0.0 
-1.910785687785e-03 8.561039573307e-04 0.0 
0.0 0.0 0.0 
2.192713589044e-03 3.847176159182e-03 0.0 
3.847176159182e-03 -1.054965895323e-03 0.0 
0.0 0.0 0.0 
0.0 7.119895557302e-04 0.0 
7.119895557302e-04 4.217388338875e-03 0.0 
0.0 0.0 0.0 
2.652439755678e-03 1.920159417046e-03 0.0 
1.920159417046e-03 5.988051447410e-04 0.0 
0.0 0.0 0.0 
-1.778392517015e-03 1.485440083029e-03 0.0 
1.485440083029e-03 7.371314587219e-03 0.0 
0.0 0.0 0.0 
8.720249905503e-04 -1.050544887117e-04 0.0 
-1.050544887117e-04 7.335400577622e-04 0.0 
0.0 0.0 0.0 
-9.662882978589e-05 3.279928227694e-03 0.0 
3.279928227694e-03 3.361847812565e-03 0.0 
0.0 0.0 0.0 
2.809716301626e-03 3.281996890354e-03 0.0 
3.281996890354e-03 -4.451332766297e-04 0.0 
0.0 0.0 0.0 
-1.448566061488e-03 2.312358154948e-03 0.0 
2.312358154948e-03 7.164843577424e-03 0.0 
0.0 0.0 0.0 
-9.473410430716e-05 3.209021802738e-03 0.0 
3.209021802738e-03 7.923901648843e-03 0.0 
0.0 0.0 0.0 
-1.560240710438e-03 1.968089282016e-03 0.0 
1.968089282016e-03 6.422420902819e-03 0.0 
0.0 0.0 0.0 
-9.813781609539e-04 2.848441160367e-03 0.0 
2.848441160367e-03 5.863777126352e-03 0.0 
0.0 0.0 0.0 
-8.217872531135e-05 -2.026663081638e-03 0.0 
-2.026663081638e-03 1.823886657526e-03 0.0 
0.0 0.0 0.0 
-1.006894945878e-03 1.891360552726e-03 0.0 
1.891360552726e-03 8.836696670398e-03 0.0 
0.0 0.0 0.0 
1.770864726609e-03 -1.530353734147e-03 0.0 
-1.530353734147e-03 2.696043477683e-04 0.0 
0.0 0.0 0.0 
-6.322064116937e-05 3.266604637224e-03 0.0 
3.266604637224e-03 7.566500976187e-03 0.0 
0.0 0.0 0.0 
0.0 2.799046831816e-03 0.0 
2.799046831816e-03 8.747714589157e-03 0.0 
0.0 0.0 0.0 
0.0 2.163284566165e-03 0.0 
2.163284566165e-03 9.761267945522e-03 0.0 
0.0 0.0 0.0 
0.0 2.486041970262e-03 0.0 
2.486041970262e-03 9.302760244090e-03 0.0 
0.0 0.0 0.0 
-1.204870073871e-03 2.408730011157e-03 0.0 
2.408730011157e-03 6.907937161792e-03 0.0 
0.0 0.0 0.0 
-1.142093823728e-03 1.927452449165e-03 0.0 
1.927452449165e-03 8.832565273344e-03 0.0 
0.0 0.0 0.0 
-6.067425426944e-04 2.526055510847e-03 0.0 
2.526055510847e-03 7.954612744932e-03 0.0 
0.0 0.0 0.0 
7.057162447932e-05 3.376700802246e-03 0.0 
3.376700802246e-03 2.742599929218e-03 0.0 
0.0 0.0 0.0 
-4.010279646350e-04 3.116399654269e-03 0.0 
3.116399654269e-03 3.468583588472e-03 0.0 
0.0 0.0 0.0 
-6.015760661495e-04 -1.786611161621e-03 0.0 
-1.786611161621e-03 2.100711627185e-03 0.0 
0.0 0.0 0.0 
-1.006644589566e-03 2.129252491562e-03 0.0 
2.129252491562e-03 8.705280068977e-03 0.0 
0.0 0.0 0.0 
8.140069890361e-05 3.254242576862e-03 0.0 
3.254242576862e-03 6.800185713316e-03 0.0 
0.0 0.0 0.0 
-9.017771144891e-04 1.820475253281e-03 0.0 
1.820475253281e-03 9.141208325640e-03 0.0 
0.0 0.0 0.0 
3.084640042821e-03 2.069390886723e-03 0.0 
2.069390886723e-03 -2.578648061515e-04 0.0 
0.0 0.0 0.0 
-1.042806597787e-03 1.852652333759e-03 0.0 
1.852652333759e-03 9.137473603238e-03 0.0 
0.0 0.0 0.0 
8.568204166042e-04 3.080233152748e-03 0.0 
3.080233152748e-03 3.681707869814e-03 0.0 
0.0 0.0 0.0 
7.452759801205e-04 3.479432043329e-03 0.0 
3.479432043329e-03 1.959269046184e-03 0.0 
0.0 0.0 0.0 
-1.002134628317e-03 2.558561749891e-03 0.0 
2.558561749891e-03 4.588525349706e-03 0.0 
0.0 0.0 0.0 
2.124467165914e-03 3.967115108765e-03 0.0 
3.967115108765e-03 -1.835247264944e-03 0.0 
0.0 0.0 0.0 
-2.840498460195e-04 1.516687510991e-03 0.0 
1.516687510991e-03 1.011254592362e-02 0.0 
0.0 0.0 0.0 
4.055366305500e-04 3.508098943600e-03 0.0 
3.508098943600e-03 2.072954469245e-03 0.0 
0.0 0.0 0.0 
2.227990846833e-04 2.852657567829e-03 0.0 
2.852657567829e-03 5.780039210350e-03 0.0 
0.0 0.0 0.0 
-4.145416053296e-04 -1.919683654250e-03 0.0 
-1.919683654250e-03 2.119611245397e-03 0.0 
0.0 0.0 0.0 
2.285978878407e-03 -2.942380081059e-03 0.0 
-2.942380081059e-03 -2.144100232400e-03 0.0 
0.0 0.0 0.0 
5.147338311537e-04 5.183248092188e-04 0.0 
5.183248092188e-04 3.503996377996e-03 0.0 
0.0 0.0 0.0 
1.726877166633e-03 3.849726393268e-03 0.0 
3.849726393268e-03 -2.559633048695e-04 0.0 
0.0 0.0 0.0 
0.0 2.928256094259e-03 0.0 
2.928256094259e-03 8.445322159021e-03 0.0 
0.0 0.0 0.0 
-3.374335415205e-04 2.231910180019e-03 0.0 
2.231910180019e-03 9.337723194313e-03 0.0 
0.0 0.0 0.0 
-5.071295292476e-04 3.053522411561e-03 0.0 
3.053522411561e-03 4.824004147938e-03 0.0 
0.0 0.0 0.0 
-6.222790421725e-04 -9.006915526834e-04 0.0 
-9.006915526834e-04 7.509829508776e-04 0.0 
0.0 0.0 0.0 
0.0 3.089374376543e-03 0.0 
3.089374376543e-03 7.750661205468e-03 0.0 
0.0 0.0 0.0 
5.350345910951e-04 1.098807251930e-03 0.0 
1.098807251930e-03 3.570249505128e-03 0.0 
0.0 0.0 0.0 
2.865411031251e-03 -2.476826014509e-03 0.0 
-2.476826014509e-03 -2.217543585975e-03 0.0 
0.0 0.0 0.0 
3.081927223603e-03 1.590670745248e-03 0.0 
1.590670745248e-03 -2.144155442887e-04 0.0 
0.0 0.0 0.0 
3.920177443115e-04 2.440188031540e-03 0.0 
2.440188031540e-03 5.085735635527e-03 0.0 
0.0 0.0 0.0 
-4.333749371619e-04 -6.653486882905e-05 0.0 
-6.653486882905e-05 2.989834549201e-04 0.0 
0.0 0.0 0.0 
5.870872913034e-04 3.507322582649e-03 0.0 
3.507322582649e-03 1.983048393166e-03 0.0 
0.0 0.0 0.0 
-7.037042136219e-04 2.917973870398e-03 0.0 
2.917973870398e-03 5.459498835603e-03 0.0 
0.0 0.0 0.0 
-2.619408415304e-04 3.188875422026e-03 0.0 
3.188875422026e-03 4.143078544165e-03 0.0 
0.0 0.0 0.0 
-8.396594779748e-04 2.841119080220e-03 0.0 
2.841119080220e-03 5.306466540309e-03 0.0 
0.0 0.0 0.0 
1.699211386254e-03 3.975327366368e-03 0.0 
3.975327366368e-03 -8.469254161614e-04 0.0 
0.0 0.0 0.0 
0.0 3.118657012845e-03 0.0 
3.118657012845e-03 6.991298474464e-03 0.0 
0.0 0.0 0.0 
4.273041703307e-03 1.949533358277e-03 0.0 
1.949533358277e-03 -2.404324641514e-03 0.0 
0.0 0.0 0.0 
2.221210113036e-03 5.410681157720e-04 0.0 
5.410681157720e-04 -4.336777067541e-03 0.0 
0.0 0.0 0.0 
3.351064546364e-05 -7.236285015152e-04 0.0 
-7.236285015152e-04 4.894963883758e-03 0.0 
0.0 0.0 0.0 
-4.449877657938e-04 -7.244718357554e-04 0.0 
-7.244718357554e-04 4.791654768044e-04 0.0 
0.0 0.0 0.0 
-1.343068994162e-03 2.223784147053e-03 0.0 
2.223784147053e-03 5.558439974365e-03 0.0 
0.0 0.0 0.0 
1.702276893900e-03 -3.016611782159e-03 0.0 
-3.016611782159e-03 -2.536385492483e-03 0.0 
0.0 0.0 0.0 
-1.697953586846e-03 1.641064842174e-03 0.0 
1.641064842174e-03 6.648829137808e-03 0.0 
0.0 0.0 0.0 
5.374407964247e-04 1.203485650401e-03 0.0 
1.203485650401e-03 4.278056386428e-03 0.0 
0.0 0.0 0.0 
0.0 2.981762207790e-03 0.0 
2.981762207790e-03 6.234855659863e-03 0.0 
0.0 0.0 0.0 
-1.352279679841e-03 2.318852269266e-03 0.0 
2.318852269266e-03 6.741770066285e-03 0.0 
0.0 0.0 0.0 
5.560970529448e-04 -3.236499151062e-03 0.0 
-3.236499151062e-03 -9.937450258508e-04 0.0 
0.0 0.0 0.0 
2.007308809977e-03 8.766452079305e-04 0.0 
8.766452079305e-04 -4.798207446739e-03 0.0 
0.0 0.0 0.0 
4.934406383041e-04 -3.700071832724e-03 0.0 
-3.700071832724e-03 -1.262500138329e-03 0.0 
0.0 0.0 0.0 
4.668726894848e-04 -8.704096584574e-04 0.0 
-8.704096584574e-04 3.147383319059e-03 0.0 
0.0 0.0 0.0 
-1.834663935436e-03 8.517578199231e-04 0.0 
8.517578199231e-04 7.949601744565e-03 0.0 
0.0 0.0 0.0 
-1.906684413938e-03 1.536623701366e-03 0.0 
1.536623701366e-03 7.676584233717e-03 0.0 
0.0 0.0 0.0 
0.0 2.680376639581e-03 0.0 
2.680376639581e-03 5.541620831409e-03 0.0 
0.0 0.0 0.0 
-1.776153073607e-03 7.005426312448e-04 0.0 
7.005426312448e-04 8.040008241511e-03 0.0 
0.0 0.0 0.0 
-2.758449199288e-04 2.162923017202e-03 0.0 
2.162923017202e-03 9.844771282487e-03 0.0 
0.0 0.0 0.0 
9.132941715579e-04 2.994574922959e-03 0.0 
2.994574922959e-03 3.312620987416e-03 0.0 
0.0 0.0 0.0 
-1.488227447954e-03 7.723750798248e-04 0.0 
7.723750798248e-04 8.650656256056e-03 0.0 
0.0 0.0 0.0 
-1.208209087459e-04 3.358964531872e-03 0.0 
3.358964531872e-03 2.448888981375e-03 0.0 
0.0 0.0 0.0 
2.873780498304e-03 1.912594401200e-03 0.0 
1.912594401200e-03 -2.583463444402e-04 0.0 
0.0 0.0 0.0 
2.954666213145e-03 2.919061142606e-03 0.0 
2.919061142606e-03 -2.736723254131e-03 0.0 
0.0 0.0 0.0 
0.0 2.212865268922e-03 0.0 
2.212865268922e-03 4.953918500584e-03 0.0 
0.0 0.0 0.0 
0.0 2.651717794776e-03 0.0 
2.651717794776e-03 9.038004350851e-03 0.0 
0.0 0.0 0.0 
0.0 2.322869594896e-03 0.0 
2.322869594896e-03 9.555872269940e-03 0.0 
0.0 0.0 0.0 
1.424724888637e-03 -1.721454190402e-03 0.0 
-1.721454190402e-03 2.998589117640e-04 0.0 
0.0 0.0 0.0 
-8.283958694262e-04 -1.580160666105e-03 0.0 
-1.580160666105e-03 2.338553124133e-03 0.0 
0.0 0.0 0.0 
9.911571076344e-04 3.476290806861e-03 0.0 
3.476290806861e-03 1.958306486602e-03 0.0 
0.0 0.0 0.0 
1.361945828170e-03 -1.545305537629e-03 0.0 
-1.545305537629e-03 9.541497938701e-04 0.0 
0.0 0.0 0.0 
0.0 1.676059547871e-03 0.0 
1.676059547871e-03 4.522046108292e-03 0.0 
0.0 0.0 0.0 
2.623633849970e-03 3.531036970336e-03 0.0 
3.531036970336e-03 -1.010227980019e-03 0.0 
0.0 0.0 0.0 
4.076535641447e-03 -1.081235848376e-03 0.0 
-1.081235848376e-03 -3.256408154720e-03 0.0 
0.0 0.0 0.0 
3.643272859021e-03 -1.630060817161e-03 0.0 
-1.630060817161e-03 -2.694499021725e-03 0.0 
0.0 0.0 0.0 
-1.397864330718e-03 7.496930753633e-04 0.0 
7.496930753633e-04 8.886286582123e-03 0.0 
0.0 0.0 0.0 
4.113518017270e-04 2.444171049746e-04 0.0 
2.444171049746e-04 4.241971711961e-03 0.0 
0.0 0.0 0.0 
-8.746360728915e-04 -3.421818733324e-03 0.0 
-3.421818733324e-03 -8.843258364055e-05 0.0 
0.0 0.0 0.0 
0.0 1.018031082226e-03 0.0 
1.018031082226e-03 4.242783760520e-03 0.0 
0.0 0.0 0.0 
3.045863428598e-03 -2.214892548298e-03 0.0 
-2.214892548298e-03 -2.210984624773e-03 0.0 
0.0 0.0 0.0 
0.0 3.030848431029e-03 0.0 
3.030848431029e-03 8.115083476430e-03 0.0 
0.0 0.0 0.0 
-7.198234110355e-04 2.569593649052e-03 0.0 
2.569593649052e-03 7.948005685197e-03 0.0 
0.0 0.0 0.0 
2.752608877188e-05 -8.053347350429e-05 0.0 
-8.053347350429e-05 1.260698553018e-04 0.0 
0.0 0.0 0.0 
1.139141048094e-03 3.492461188123e-03 0.0 
3.492461188123e-03 1.211483902161e-03 0.0 
0.0 0.0 0.0 
-1.033042976136e-03 1.583390619468e-03 0.0 
1.583390619468e-03 9.473998709518e-03 0.0 
0.0 0.0 0.0 
0.0 3.126306303045e-03 0.0 
3.126306303045e-03 7.379326306281e-03 0.0 
0.0 0.0 0.0 
-1.208121025817e-03 2.531229655544e-03 0.0 
2.531229655544e-03 6.891833838998e-03 0.0 
0.0 0.0 0.0 
1.156862177059e-03 2.820593748943e-03 0.0 
2.820593748943e-03 3.025094954487e-03 0.0 
0.0 0.0 0.0 
1.369068153857e-03 4.014941957549e-03 0.0 
4.014941957549e-03 -1.513590950326e-03 0.0 
0.0 0.0 0.0 
1.023889384964e-03 8.917718535411e-04 0.0 
8.917718535411e-04 2.855388697622e-03 0.0 
0.0 0.0 0.0 
2.495557219834e-03 -2.404181248560e-03 0.0 
-2.404181248560e-03 -1.540402134846e-03 0.0 
0.0 0.0 0.0 
3.088725831580e-03 -2.164521672878e-03 0.0 
-2.164521672878e-03 -2.620653983525e-03 0.0 
0.0 0.0 0.0 
-1.655878338947e-03 -3.295528483546e-03 0.0 
-3.295528483546e-03 -9.522779847915e-05 0.0 
0.0 0.0 0.0 
0.0 3.070117799931e-03 0.0 
3.070117799931e-03 6.609888353116e-03 0.0 
0.0 0.0 0.0 
3.366459416792e-03 2.571348807350e-03 0.0 
2.571348807350e-03 -2.751877084882e-03 0.0 
0.0 0.0 0.0 
1.562588043433e-03 -1.926730136722e-04 0.0 
-1.926730136722e-04 1.740475333367e-03 0.0 
0.0 0.0 0.0 
-1.636562350366e-03 6.249898703887e-04 0.0 
6.249898703887e-04 8.548544438703e-03 0.0 
0.0 0.0 0.0 
7.792762338190e-04 -2.715891031029e-03 0.0 
-2.715891031029e-03 -2.202091799910e-04 0.0 
0.0 0.0 0.0 
3.593339910836e-03 -1.819093894347e-03 0.0 
-1.819093894347e-03 -3.147475700258e-03 0.0 
0.0 0.0 0.0 
-1.135869408994e-03 2.707245516394e-03 0.0 
2.707245516394e-03 6.402369366936e-03 0.0 
0.0 0.0 0.0 
0.0 2.456713223062e-03 0.0 
2.456713223062e-03 5.237956131638e-03 0.0 
0.0 0.0 0.0 
-9.262460052091e-04 -1.511099380631e-03 0.0 
-1.511099380631e-03 2.750617908918e-03 0.0 
0.0 0.0 0.0 
1.580702708749e-03 -1.151098126743e-03 0.0 
-1.151098126743e-03 7.632279670564e-04 0.0 
0.0 0.0 0.0 
4.794138258237e-04 3.398603985847e-03 0.0 
3.398603985847e-03 2.806053920686e-03 0.0 
0.0 0.0 0.0 
2.847635685492e-03 -7.644375029575e-04 0.0 
-7.644375029575e-04 -1.123628098408e-03 0.0 
0.0 0.0 0.0 
4.091410674238e-03 -1.071803915395e-03 0.0 
-1.071803915395e-03 -3.358921848431e-03 0.0 
0.0 0.0 0.0 
1.743113719179e-03 -1.466882258563e-03 0.0 
-1.466882258563e-03 1.266707114154e-04 0.0 
0.0 0.0 0.0 
2.064780524877e-04 3.404252601505e-03 0.0 
3.404252601505e-03 3.414781045171e-03 0.0 
0.0 0.0 0.0 
2.026363356369e-04 3.084714088331e-03 0.0 
3.084714088331e-03 4.839447072892e-03 0.0 
0.0 0.0 0.0 
2.471773460884e-03 1.786347447411e-03 0.0 
1.786347447411e-03 5.948210552857e-04 0.0 
0.0 0.0 0.0 
8.603559923615e-04 3.444166948142e-03 0.0 
3.444166948142e-03 2.027112301785e-03 0.0 
0.0 0.0 0.0 
2.811252825639e-04 -2.204976769196e-03 0.0 
-2.204976769196e-03 1.295712719402e-03 0.0 
0.0 0.0 0.0 
2.148502296492e-03 3.691470113279e-03 0.0 
3.691470113279e-03 -2.353744119489e-04 0.0 
0.0 0.0 0.0 
-6.957972861144e-04 -1.752141248419e-03 0.0 
-1.752141248419e-03 2.363614319437e-03 0.0 
0.0 0.0 0.0 
1.145188860648e-03 2.916172890759e-03 0.0 
2.916172890759e-03 3.324605599679e-03 0.0 
0.0 0.0 0.0 
3.813441473278e-03 1.562104398309e-03 0.0 
1.562104398309e-03 -1.919370057472e-03 0.0 
0.0 0.0 0.0 
5.234089223445e-04 8.771786333130e-04 0.0 
8.771786333130e-04 4.230194766794e-03 0.0 
0.0 0.0 0.0 
-9.306822041130e-04 1.781282952504e-03 0.0 
1.781282952504e-03 9.424163667053e-03 0.0 
0.0 0.0 0.0 
5.217754457900e-04 -2.569596816596e-03 0.0 
-2.569596816596e-03 3.381731980727e-04 0.0 
0.0 0.0 0.0 
0.0 1.337272715604e-03 0.0 
1.337272715604e-03 4.315502912882e-03 0.0 
0.0 0.0 0.0 
1.024232052345e-03 9.888771244909e-04 0.0 
9.888771244909e-04 3.533498705116e-03 0.0 
0.0 0.0 0.0 
2.379604058260e-03 3.269205836165e-03 0.0 
3.269205836165e-03 -3.359921147847e-04 0.0 
0.0 0.0 0.0 
-7.966777904275e-04 -2.268537375738e-03 0.0 
-2.268537375738e-03 8.328564496827e-04 0.0 
0.0 0.0 0.0 
4.229938174045e-04 -7.802726225694e-06 0.0 
-7.802726225694e-06 4.327625303881e-03 0.0 
0.0 0.0 0.0 
-9.178380212075e-04 2.050894527842e-03 0.0 
2.050894527842e-03 9.038918149338e-03 0.0 
0.0 0.0 0.0 
2.372126107387e-03 -2.675214704822e-03 0.0 
-2.675214704822e-03 -1.548801901379e-03 0.0 
0.0 0.0 0.0 
0.0 4.060215703847e-04 0.0 
4.060215703847e-04 4.197623078204e-03 0.0 
0.0 0.0 0.0 
1.319271341424e-03 -1.468261593606e-03 0.0 
-1.468261593606e-03 8.179573002718e-04 0.0 
0.0 0.0 0.0 
-6.641197685354e-04 2.925035268463e-03 0.0 
2.925035268463e-03 4.029328895420e-03 0.0 
0.0 0.0 0.0 
-1.688767056657e-03 1.673834805024e-03 0.0 
1.673834805024e-03 7.579211819148e-03 0.0 
0.0 0.0 0.0 
3.901595929262e-03 1.685325022152e-03 0.0 
1.685325022152e-03 -1.747661288399e-03 0.0 
0.0 0.0 0.0 
1.518933326994e-03 -1.900557554823e-03 0.0 
-1.900557554823e-03 -1.139477289311e-04 0.0 
0.0 0.0 0.0 
2.910090507921e-03 -2.307281614810e-04 0.0 
-2.307281614810e-04 -8.382102891770e-04 0.0 
0.0 0.0 0.0 
-1.535742149959e-03 1.686889746595e-03 0.0 
1.686889746595e-03 8.395182218395e-03 0.0 
0.0 0.0 0.0 
-1.094868882923e-03 2.567386868688e-03 0.0 
2.567386868688e-03 5.130612549540e-03 0.0 
0.0 0.0 0.0 
2.100655393392e-03 2.042391509997e-03 0.0 
2.042391509997e-03 1.334142827250e-03 0.0 
0.0 0.0 0.0 
-1.245045206038e-03 1.273105727534e-04 0.0 
1.273105727534e-04 8.851859012432e-03 0.0 
0.0 0.0 0.0 
2.129607051593e-06 -2.147428001630e-03 0.0 
-2.147428001630e-03 1.288643920691e-03 0.0 
0.0 0.0 0.0 
2.852182356840e-03 1.452471221793e-03 0.0 
1.452471221793e-03 -1.232455028287e-04 0.0 
0.0 0.0 0.0 
1.927472748559e-03 -2.612622521772e-03 0.0 
-2.612622521772e-03 -1.511600360198e-03 0.0 
0.0 0.0 0.0 
-2.486897680105e-04 -1.341941404391e-03 0.0 
-1.341941404391e-03 3.138550977845e-03 0.0 
0.0 0.0 0.0 
-1.190235001500e-04 -2.151321157161e-04 0.0 
-2.151321157161e-04 8.620095463141e-05 0.0 
0.0 0.0 0.0 
1.642852784006e-03 3.764197357132e-03 0.0 
3.764197357132e-03 5.177032380028e-04 0.0 
0.0 0.0 0.0 
2.465785173919e-03 -2.629382392247e-03 0.0 
-2.629382392247e-03 -2.149265943400e-03 0.0 
0.0 0.0 0.0 
-3.947333884731e-04 -1.819602737310e-03 0.0 
-1.819602737310e-03 2.327260528408e-03 0.0 
0.0 0.0 0.0 
1.799825738970e-03 3.298082629659e-03 0.0 
3.298082629659e-03 5.757510725326e-04 0.0 
0.0 0.0 0.0 
1.701572072112e-03 -1.277556934218e-03 0.0 
-1.277556934218e-03 7.877822071309e-04 0.0 
0.0 0.0 0.0 
-1.543283085367e-03 6.063318052206e-04 0.0 
6.063318052206e-04 8.788108161472e-03 0.0 
0.0 0.0 0.0 
1.789871190685e-03 -2.892479440690e-03 0.0 
-2.892479440690e-03 -1.511520117766e-03 0.0 
0.0 0.0 0.0 
0.0 1.546300554225e-04 0.0 
1.546300554225e-04 4.286694673896e-03 0.0 
0.0 0.0 0.0 
-6.426445424266e-04 3.042893673184e-03 0.0 
3.042893673184e-03 5.442101413185e-03 0.0 
0.0 0.0 0.0 
-6.546827538445e-04 -1.592636250178e-03 0.0 
-1.592636250178e-03 2.791855337084e-03 0.0 
0.0 0.0 0.0 
-4.078851207827e-04 3.177984471611e-03 0.0 
3.177984471611e-03 4.806128850911e-03 0.0 
0.0 0.0 0.0 
-6.016257955657e-04 -1.716023509779e-03 0.0 
-1.716023509779e-03 2.312989217155e-03 0.0 
0.0 0.0 0.0 
-7.182183596471e-04 -1.096963651119e-04 0.0 
-1.096963651119e-04 4.115800441080e-04 0.0 
0.0 0.0 0.0 
-1.753515251031e-03 1.667240021886e-03 0.0 
1.667240021886e-03 7.871763896251e-03 0.0 
0.0 0.0 0.0 
-1.434680135103e-03 -6.093904274443e-04 0.0 
-6.093904274443e-04 3.300813468378e-03 0.0 
0.0 0.0 0.0 
1.269459807526e-03 -1.313327558604e-04 0.0 
-1.313327558604e-04 -4.235053513659e-04 0.0 
0.0 0.0 0.0 
-9.104635046109e-04 -1.448773346949e-03 0.0 
-1.448773346949e-03 2.976053322630e-03 0.0 
0.0 0.0 0.0 
1.531483518712e-03 -9.788446468986e-04 0.0 
-9.788446468986e-04 1.381392581107e-03 0.0 
0.0 0.0 0.0 
-7.286730261633e-04 5.396603098450e-04 0.0 
5.396603098450e-04 1.005831858419e-02 0.0 
0.0 0.0 0.0 
3.306238997645e-03 -3.971756004729e-04 0.0 
-3.971756004729e-04 -1.616889479237e-03 0.0 
0.0 0.0 0.0 
3.128865896938e-03 -3.810678732846e-04 0.0 
-3.810678732846e-04 -1.191609106609e-03 0.0 
0.0 0.0 0.0 
-1.990687491562e-03 1.353521996747e-03 0.0 
1.353521996747e-03 7.444607356504e-03 0.0 
0.0 0.0 0.0 
-1.767799545173e-03 5.284595631140e-04 0.0 
5.284595631140e-04 7.794590903367e-03 0.0 
0.0 0.0 0.0 
-3.048816589712e-04 1.804198375185e-03 0.0 
1.804198375185e-03 9.880535271672e-03 0.0 
0.0 0.0 0.0 
-1.292270570283e-04 3.302241342966e-03 0.0 
3.302241342966e-03 4.127753295347e-03 0.0 
0.0 0.0 0.0 
1.975082552742e-03 -1.557470502988e-04 0.0 
-1.557470502988e-04 -6.969264720825e-04 0.0 
0.0 0.0 0.0 
-1.545026893135e-04 -1.427963308090e-03 0.0 
-1.427963308090e-03 9.890475531620e-04 0.0 
0.0 0.0 0.0 
-8.563420718437e-04 -1.352148956069e-03 0.0 
-1.352148956069e-03 9.017249376044e-04 0.0 
0.0 0.0 0.0 
1.348436707325e-04 -2.382226936755e-03 0.0 
-2.382226936755e-03 6.828490015878e-04 0.0 
0.0 0.0 0.0 
-2.118040472975e-04 2.869255163769e-03 0.0 
2.869255163769e-03 6.492600029293e-03 0.0 
0.0 0.0 0.0 
-8.191583133131e-04 5.146180237640e-04 0.0 
5.146180237640e-04 1.006164013221e-02 0.0 
0.0 0.0 0.0 
5.042466258540e-04 -9.135352714942e-04 0.0 
-9.135352714942e-04 3.164406304477e-03 0.0 
0.0 0.0 0.0 
-2.746004363728e-04 -1.983953019430e-03 0.0 
-1.983953019430e-03 1.378610893838e-03 0.0 
0.0 0.0 0.0 
-4.878631357776e-04 -1.314627408979e-03 0.0 
-1.314627408979e-03 3.135703346148e-03 0.0 
0.0 0.0 0.0 
1.401953945733e-03 -1.496940507703e-04 0.0 
-1.496940507703e-04 2.209466897194e-03 0.0 
0.0 0.0 0.0 
3.077603776205e-03 4.788820790133e-04 0.0 
4.788820790133e-04 -4.261708318008e-03 0.0 
0.0 0.0 0.0 
-1.436921557870e-03 -3.709686115079e-04 0.0 
-3.709686115079e-04 3.296525528419e-03 0.0 
0.0 0.0 0.0 
-1.283603823014e-03 -3.389377780692e-04 0.0 
-3.389377780692e-04 2.909257805956e-03 0.0 
0.0 0.0 0.0 
3.162324688637e-04 -2.510213161512e-04 0.0 
-2.510213161512e-04 4.432289911609e-03 0.0 
0.0 0.0 0.0 
0.0 -1.028062552831e-04 0.0 
-1.028062552831e-04 4.368480229229e-03 0.0 
0.0 0.0 0.0 
-1.484554401226e-03 -3.889090959133e-04 0.0 
-3.889090959133e-04 3.524522811666e-03 0.0 
0.0 0.0 0.0 
-8.375429182502e-04 -1.476559508930e-03 0.0 
-1.476559508930e-03 2.775204033967e-03 0.0 
0.0 0.0 0.0 
1.411921971882e-03 -1.761763729236e-03 0.0 
-1.761763729236e-03 5.227552657947e-04 0.0 
0.0 0.0 0.0 
1.368925777530e-03 1.468194633487e-04 0.0 
1.468194633487e-04 2.441495817697e-03 0.0 
0.0 0.0 0.0 
-3.802595145862e-04 -1.528041463994e-03 0.0 
-1.528041463994e-03 1.130428097102e-03 0.0 
0.0 0.0 0.0 
1.401308159858e-03 -4.462394811530e-04 0.0 
-4.462394811530e-04 2.051440638810e-03 0.0 
0.0 0.0 0.0 
1.056395055350e-03 -3.824650449699e-04 0.0 
-3.824650449699e-04 2.994017767728e-04 0.0 
0.0 0.0 0.0 
-8.424023510362e-04 -1.547815499783e-03 0.0 
-1.547815499783e-03 2.543992490769e-03 0.0 
0.0 0.0 0.0 
-3.158218953199e-04 -1.833226333330e-03 0.0 
-1.833226333330e-03 2.046644574650e-03 0.0 
0.0 0.0 0.0 
1.223056816674e-03 -1.964739291483e-04 0.0 
-1.964739291483e-04 -1.237789501657e-04 0.0 
0.0 0.0 0.0 
-1.497149720732e-03 -3.652301764879e-04 0.0 
-3.652301764879e-04 3.480682358243e-03 0.0 
0.0 0.0 0.0 
-7.726218922074e-04 1.763193744606e-03 0.0 
1.763193744606e-03 9.426114811901e-03 0.0 
0.0 0.0 0.0 
2.199251576282e-03 -9.891395557459e-05 0.0 
-9.891395557459e-05 -7.789842076610e-04 0.0 
0.0 0.0 0.0 
-1.825939010308e-03 6.609768914187e-04 0.0 
6.609768914187e-04 7.732029409114e-03 0.0 
0.0 0.0 0.0 
-1.862418288674e-03 7.817847425137e-04 0.0 
7.817847425137e-04 7.616036205058e-03 0.0 
0.0 0.0 0.0 
2.869022110678e-03 3.028202806480e-04 0.0 
3.028202806480e-04 -4.024165090141e-04 0.0 
0.0 0.0 0.0 
-1.245801050908e-03 -8.260913887752e-05 0.0 
-8.260913887752e-05 2.918695988332e-03 0.0 
0.0 0.0 0.0 
1.826585130781e-03 -2.652498435601e-03 0.0 
-2.652498435601e-03 -8.904327380819e-04 0.0 
0.0 0.0 0.0 
9.524753386991e-04 3.854936526635e-03 0.0 
3.854936526635e-03 3.371471210203e-04 0.0 
0.0 0.0 0.0 
1.821367629722e-04 -7.288298076832e-04 0.0 
-7.288298076832e-04 4.122270329434e-03 0.0 
0.0 0.0 0.0 
7.388975816625e-05 2.952498187672e-03 0.0 
2.952498187672e-03 6.403721502431e-03 0.0 
0.0 0.0 0.0 
-1.035655932529e-03 7.606620392813e-04 0.0 
7.606620392813e-04 9.792676439135e-03 0.0 
0.0 0.0 0.0 
8.012889298747e-07 3.553336080469e-03 0.0 
3.553336080469e-03 2.424006351324e-03 0.0 
0.0 0.0 0.0 
-4.425483757092e-04 -1.176352641715e-03 0.0 
-1.176352641715e-03 8.774134314409e-04 0.0 
0.0 0.0 0.0 
-1.533221867567e-03 2.318464605057e-03 0.0 
2.318464605057e-03 5.972561184444e-03 0.0 
0.0 0.0 0.0 
-1.573734641038e-03 2.613011294578e-04 0.0 
2.613011294578e-04 7.885286964611e-03 0.0 
0.0 0.0 0.0 
-1.544359462372e-03 2.371277903109e-04 0.0 
2.371277903109e-04 7.846619875292e-03 0.0 
0.0 0.0 0.0 
1.470754503396e-03 -1.175479964554e-04 0.0 
-1.175479964554e-04 -5.141622351135e-04 0.0 
0.0 0.0 0.0 
1.056712326220e-03 -2.646864820799e-04 0.0 
-2.646864820799e-04 -4.963983300643e-05 0.0 
0.0 0.0 0.0 
7.986941558475e-04 -1.700339139086e-04 0.0 
-1.700339139086e-04 4.233669628368e-04 0.0 
0.0 0.0 0.0 
-4.378997115840e-04 -1.711781642637e-03 0.0 
-1.711781642637e-03 1.487246176270e-03 0.0 
0.0 0.0 0.0 
1.853172415014e-03 -1.687953792956e-04 0.0 
-1.687953792956e-04 -3.658542609772e-04 0.0 
0.0 0.0 0.0 
-1.497792928966e-03 -3.525749195236e-04 0.0 
-3.525749195236e-04 3.709617344318e-03 0.0 
0.0 0.0 0.0 
-1.410642188587e-03 -1.206463497455e-03 0.0 
-1.206463497455e-03 -1.797389733711e-03 0.0 
0.0 0.0 0.0 
-4.389347416435e-04 -1.876865465978e-03 0.0 
-1.876865465978e-03 1.641371578769e-03 0.0 
0.0 0.0 0.0 
-1.098547512798e-03 1.691497708769e-04 0.0 
1.691497708769e-04 9.165361483094e-03 0.0 
0.0 0.0 0.0 
-1.750879394943e-03 5.019691234881e-04 0.0 
5.019691234881e-04 7.757150735557e-03 0.0 
0.0 0.0 0.0 
-3.330379415485e-04 2.826717388963e-03 0.0 
2.826717388963e-03 7.052451043945e-03 0.0 
0.0 0.0 0.0 
1.296944932011e-03 -1.265904246391e-03 0.0 
-1.265904246391e-03 1.458916972236e-03 0.0 
0.0 0.0 0.0 
-1.170568379338e-03 1.210688286552e-04 0.0 
1.210688286552e-04 8.846986928019e-03 0.0 
0.0 0.0 0.0 
-1.362921364305e-03 -1.299188968112e-04 0.0 
-1.299188968112e-04 3.088074886322e-03 0.0 
0.0 0.0 0.0 
1.345065148664e-03 -2.116692474719e-04 0.0 
-2.116692474719e-04 1.950665800161e-04 0.0 
0.0 0.0 0.0 
0.0 1.002730342438e-03 0.0 
1.002730342438e-03 1.063535072303e-02 0.0 
0.0 0.0 0.0 
-2.617720066236e-04 1.114792173509e-03 0.0 
1.114792173509e-03 1.059438486856e-02 0.0 
0.0 0.0 0.0 
-1.489214414625e-03 6.083856732366e-04 0.0 
6.083856732366e-04 8.549579985920e-03 0.0 
0.0 0.0 0.0 
-1.646874479261e-03 3.281750159270e-04 0.0 
3.281750159270e-04 7.862808408206e-03 0.0 
0.0 0.0 0.0 
-1.317005054811e-03 -3.293367074972e-04 0.0 
-3.293367074972e-04 3.053042945357e-03 0.0 
0.0 0.0 0.0 
-2.335294576640e-04 7.973786300186e-04 0.0 
7.973786300186e-04 1.072676170670e-02 0.0 
0.0 0.0 0.0 
-2.510484498605e-04 -1.861425161233e-03 0.0 
-1.861425161233e-03 1.293911287961e-03 0.0 
0.0 0.0 0.0 
-1.812574816740e-03 6.308962151230e-04 0.0 
6.308962151230e-04 7.692257803380e-03 0.0 
0.0 0.0 0.0 
-1.710429721988e-03 4.228476782591e-04 0.0 
4.228476782591e-04 7.836906948137e-03 0.0 
0.0 0.0 0.0 
-1.628695980011e-03 1.746146584107e-03 0.0 
1.746146584107e-03 6.291277933015e-03 0.0 
0.0 0.0 0.0 
0.0 2.000426536325e-03 0.0 
2.000426536325e-03 9.940050034195e-03 0.0 
0.0 0.0 0.0 
-2.593125679086e-04 9.572103599425e-04 0.0 
9.572103599425e-04 1.066901991246e-02 0.0 
0.0 0.0 0.0 
1.701965939578e-03 -2.226605747794e-04 0.0 
-2.226605747794e-04 -3.148673672798e-04 0.0 
0.0 0.0 0.0 
1.701850030955e-03 -9.895560458372e-05 0.0 
-9.895560458372e-05 -6.132515733195e-04 0.0 
0.0 0.0 0.0 
-4.029450391144e-04 -1.146508251466e-03 0.0 
-1.146508251466e-03 9.640218651175e-04 0.0 
0.0 0.0 0.0 
-7.005938568361e-05 -1.892590126450e-03 0.0 
-1.892590126450e-03 2.054116270507e-03 0.0 
0.0 0.0 0.0 
-5.113466621741e-04 -1.168008733492e-04 0.0 
-1.168008733492e-04 5.635228442940e-03 0.0 
0.0 0.0 0.0 
-4.182982898519e-03 -2.020764327557e-03 0.0 
-2.020764327557e-03 -1.700738963071e-03 0.0 
0.0 0.0 0.0 
-8.498102930966e-04 5.939675857722e-05 0.0 
5.939675857722e-05 9.869266587580e-03 0.0 
0.0 0.0 0.0 
-1.610142645525e-03 -1.122776371901e-03 0.0 
-1.122776371901e-03 7.591680710475e-04 0.0 
0.0 0.0 0.0 
2.799605574641e-03 -1.578676645175e-04 0.0 
-1.578676645175e-04 -3.886222483506e-04 0.0 
0.0 0.0 0.0 
-8.057250552760e-04 -7.133505090949e-04 0.0 
-7.133505090949e-04 1.910136829397e-05 0.0 
0.0 0.0 0.0 
-2.402993837707e-03 -2.289632894257e-03 0.0 
-2.289632894257e-03 -3.695285487111e-04 0.0 
0.0 0.0 0.0 
2.748957821568e-03 -6.549311657417e-04 0.0 
-6.549311657417e-04 -5.916716730646e-04 0.0 
0.0 0.0 0.0 
-4.451602960195e-04 -4.674206892128e-04 0.0 
-4.674206892128e-04 5.239187720854e-03 0.0 
0.0 0.0 0.0 
-1.175107431716e-03 1.232275645585e-04 0.0 
1.232275645585e-04 9.137941077196e-03 0.0 
0.0 0.0 0.0 
-1.269221147555e-03 2.638812049328e-03 0.0 
2.638812049328e-03 5.615288332686e-03 0.0 
0.0 0.0 0.0 
1.345668274578e-03 -1.450925300123e-04 0.0 
-1.450925300123e-04 -1.756699767643e-04 0.0 
0.0 0.0 0.0 
-6.637812204877e-04 -1.096848971874e-03 0.0 
-1.096848971874e-03 3.586063844932e-03 0.0 
0.0 0.0 0.0 
0.0 3.203335110201e-04 0.0 
3.203335110201e-04 1.082349343599e-02 0.0 
0.0 0.0 0.0 
-2.176793105015e-04 3.625946293005e-04 0.0 
3.625946293005e-04 1.082690504277e-02 0.0 
0.0 0.0 0.0 
-1.676344896290e-03 3.958858215306e-04 0.0 
3.958858215306e-04 7.794423089585e-03 0.0 
0.0 0.0 0.0 
2.722655188989e-03 3.136731067139e-04 0.0 
3.136731067139e-04 -5.704621586133e-05 0.0 
0.0 0.0 0.0 
0.0 8.482540826250e-04 0.0 
8.482540826250e-04 1.070495052658e-02 0.0 
0.0 0.0 0.0 
1.353077989517e-03 2.712432497112e-03 0.0 
2.712432497112e-03 3.039768353830e-03 0.0 
0.0 0.0 0.0 
1.417511678433e-03 -1.106755153184e-04 0.0 
-1.106755153184e-04 1.437578713539e-04 0.0 
0.0 0.0 0.0 
1.965143606867e-03 -1.151133887123e-04 0.0 
-1.151133887123e-04 -4.161392265667e-04 0.0 
0.0 0.0 0.0 
1.433021919641e-03 -4.060988459234e-05 0.0 
-4.060988459234e-05 -1.874820630002e-04 0.0 
0.0 0.0 0.0 
-1.485144707388e-03 -1.232612513884e-04 0.0 
-1.232612513884e-04 3.374669524765e-03 0.0 
0.0 0.0 0.0 
-1.793165368591e-04 -4.658049482997e-04 0.0 
-4.658049482997e-04 5.863355817633e-03 0.0 
0.0 0.0 0.0 
-3.765782328661e-04 -1.250727525871e-05 0.0 
-1.250727525871e-05 1.058548753487e-02 0.0 
0.0 0.0 0.0 
1.966937826810e-03 -7.162952121122e-05 0.0 
-7.162952121122e-05 -7.362198006753e-04 0.0 
0.0 0.0 0.0 
-1.518950913210e-03 -1.448721265504e-04 0.0 
-1.448721265504e-04 3.709317803755e-03 0.0 
0.0 0.0 0.0 
0.0 -3.502249132372e-04 0.0 
-3.502249132372e-04 5.937462943213e-03 0.0 
0.0 0.0 0.0 
-1.764249251882e-04 -5.502934003235e-04 0.0 
-5.502934003235e-04 5.760894704981e-03 0.0 
0.0 0.0 0.0 
3.038389292527e-04 -4.438504034057e-04 0.0 
-4.438504034057e-04 4.570563284197e-03 0.0 
0.0 0.0 0.0 
-9.781676621599e-04 8.255073408278e-05 0.0 
8.255073408278e-05 9.557938225207e-03 0.0 
0.0 0.0 0.0 
-7.634066167260e-04 -1.712476916182e-05 0.0 
-1.712476916182e-05 1.002530014975e-02 0.0 
0.0 0.0 0.0 
0.0 -4.532645099417e-04 0.0 
-4.532645099417e-04 5.814255751781e-03 0.0 
0.0 0.0 0.0 
0.0 -5.530194422156e-04 0.0 
-5.530194422156e-04 5.705234158625e-03 0.0 
0.0 0.0 0.0 
-8.361328222815e-04 9.145590750947e-05 0.0 
9.145590750947e-05 9.870393109432e-03 0.0 
0.0 0.0 0.0 
2.704353858395e-03 -7.247839440927e-07 0.0 
-7.247839440927e-07 -1.034231262671e-03 0.0 
0.0 0.0 0.0 
-1.434118256461e-03 1.408867146453e-04 0.0 
1.408867146453e-04 7.852666744882e-03 0.0 
0.0 0.0 0.0 
-1.611290719358e-03 3.136394558207e-04 0.0 
3.136394558207e-04 7.837321700348e-03 0.0 
0.0 0.0 0.0 
1.853866038499e-03 -7.818743483100e-05 0.0 
-7.818743483100e-05 -6.793410663508e-04 0.0 
0.0 0.0 0.0 
0.0 -6.773073197304e-04 0.0 
-6.773073197304e-04 5.239388541269e-03 0.0 
0.0 0.0 0.0 
1.941521341169e-04 -5.921390781723e-04 0.0 
-5.921390781723e-04 4.732963009699e-03 0.0 
0.0 0.0 0.0 
0.0 -5.696361246586e-04 0.0 
-5.696361246586e-04 4.816469175274e-03 0.0 
0.0 0.0 0.0 
2.544333749763e-03 -6.203436798220e-05 0.0 
-6.203436798220e-05 -9.240618961930e-04 0.0 
0.0 0.0 0.0 
2.389474920920e-03 -8.196633070703e-05 0.0 
-8.196633070703e-05 -8.621271658404e-04 0.0 
0.0 0.0 0.0 
0.0 -2.893505864719e-04 0.0 
-2.893505864719e-04 4.493441905488e-03 0.0 
0.0 0.0 0.0 
0.0 -4.577601490795e-04 0.0 
-4.577601490795e-04 4.641519291379e-03 0.0 
0.0 0.0 0.0 
-1.043357309619e-03 -2.227789417373e-05 0.0 
-2.227789417373e-05 9.389545795940e-03 0.0 
0.0 0.0 0.0 
-1.324945528097e-03 5.898971246288e-05 0.0 
5.898971246288e-05 7.843999045239e-03 0.0 
0.0 0.0 0.0 
-9.131316058856e-04 -1.927581819556e-05 0.0 
-1.927581819556e-05 9.716736111423e-03 0.0 
0.0 0.0 0.0 
-1.212620137980e-03 -2.556344435792e-05 0.0 
-2.556344435792e-05 8.674756977602e-03 0.0 
0.0 0.0 0.0 
-1.279334310407e-03 2.262762496811e-05 0.0 
2.262762496811e-05 7.835783064384e-03 0.0 
0.0 0.0 0.0 
1.660803585989e-03 -1.825189885011e-04 0.0 
-1.825189885011e-04 -5.647042392538e-04 0.0 
0.0 0.0 0.0 
8.963362244787e-04 -1.512912788342e-04 0.0 
-1.512912788342e-04 -1.884561456355e-04 0.0 
0.0 0.0 0.0 
6.166337570710e-04 -1.446633463330e-04 0.0 
-1.446633463330e-04 -7.078009674388e-05 0.0 
0.0 0.0 0.0 
2.782624610151e-04 -1.095073069693e-04 0.0 
-1.095073069693e-04 1.039112061392e-04 0.0 
0.0 0.0 0.0 
-1.512246812453e-03 -9.704886453963e-05 0.0 
-9.704886453963e-05 3.849661296768e-03 0.0 
0.0 0.0 0.0 
-1.525335279367e-03 -1.135007362448e-04 0.0 
-1.135007362448e-04 3.619322184125e-03 0.0 
0.0 0.0 0.0 
1.439584179515e-04 -1.572870713860e-04 0.0 
-1.572870713860e-04 6.925980142780e-05 0.0 
0.0 0.0 0.0 
-1.255995169763e-03 -5.829093906638e-05 0.0 
-5.829093906638e-05 4.501398864814e-03 0.0 
0.0 0.0 0.0 
-1.476358965915e-04 -1.531181580539e-04 0.0 
-1.531181580539e-04 2.000484510245e-04 0.0 
0.0 0.0 0.0 
0.0 1.651921237841e-03 0.0 
1.651921237841e-03 1.024766092089e-02 0.0 
0.0 0.0 0.0 
0.0 7.118987511656e-04 0.0 
7.118987511656e-04 1.074789066790e-02 0.0 
0.0 0.0 0.0 
0.0 1.163191808645e-03 0.0 
1.163191808645e-03 1.055047117540e-02 0.0 
0.0 0.0 0.0 
2.723903820949e-04 -1.225774247394e-04 0.0 
-1.225774247394e-04 1.164194548865e-03 0.0 
0.0 0.0 0.0 
-1.136861250875e-03 -1.299322093357e-04 0.0 
-1.299322093357e-04 2.736645956632e-03 0.0 
0.0 0.0 0.0 
0.0 5.656858022712e-04 0.0 
5.656858022712e-04 1.077002790165e-02 0.0 
0.0 0.0 0.0 
-8.046643373644e-04 -1.647301001884e-05 0.0 
-1.647301001884e-05 5.259656619880e-03 0.0 
0.0 0.0 0.0 
0.0 4.464465218166e-04 0.0 
4.464465218166e-04 1.083279140269e-02 0.0 
0.0 0.0 0.0 
-6.200882874668e-04 -4.582034950093e-06 0.0 
-4.582034950093e-06 5.522568753020e-03 0.0 
0.0 0.0 0.0 
-4.048638615519e-04 5.110644475826e-07 0.0 
5.110644475826e-07 5.771748305928e-03 0.0 
0.0 0.0 0.0 
-1.505166247125e-03 -1.364897130342e-04 0.0 
-1.364897130342e-04 3.480597213559e-03 0.0 
0.0 0.0 0.0 
-2.576553124508e-04 6.452495600212e-04 0.0 
6.452495600212e-04 1.075945819622e-02 0.0 
0.0 0.0 0.0 
-2.100526436949e-04 5.481758139435e-04 0.0 
5.481758139435e-04 1.079379392050e-02 0.0 
0.0 0.0 0.0 
-7.040063427018e-04 -1.271551745027e-04 0.0 
-1.271551745027e-04 5.358787600244e-03 0.0 
0.0 0.0 0.0 
-5.101236405656e-04 -1.291419713756e-04 0.0 
-1.291419713756e-04 5.635926015101e-03 0.0 
0.0 0.0 0.0 
-8.939535191995e-04 -6.761427802834e-04 0.0 
-6.761427802834e-04 4.333419727768e-03 0.0 
0.0 0.0 0.0 
-1.117239685354e-03 -3.368657517050e-04 0.0 
-3.368657517050e-04 5.582825604120e-04 0.0 
0.0 0.0 0.0 
-1.032913037296e-03 -1.338138834019e-03 0.0 
-1.338138834019e-03 2.726733578542e-03 0.0 
0.0 0.0 0.0 
1.479968176330e-03 -2.985967453587e-04 0.0 
-2.985967453587e-04 -2.083544485671e-04 0.0 
0.0 0.0 0.0 
5.069649194578e-05 -7.926034827183e-04 0.0 
-7.926034827183e-04 4.129059382633e-03 0.0 
0.0 0.0 0.0 
-6.858475115920e-04 -1.689163426478e-03 0.0 
-1.689163426478e-03 2.564498041922e-03 0.0 
0.0 0.0 0.0 
-4.659659956291e-04 -6.633505640322e-04 0.0 
-6.633505640322e-04 4.617845961744e-03 0.0 
0.0 0.0 0.0 
-2.023351659148e-04 -1.637727123709e-03 0.0 
-1.637727123709e-03 1.203042914122e-03 0.0 
0.0 0.0 0.0 
2.934754721642e-04 -5.741257505800e-04 0.0 
-5.741257505800e-04 5.726658578407e-04 0.0 
0.0 0.0 0.0 
-4.841673990043e-04 -5.920504259336e-04 0.0 
-5.920504259336e-04 4.947109154322e-03 0.0 
0.0 0.0 0.0 
-1.047469646327e-03 -1.297752209163e-03 0.0 
-1.297752209163e-03 2.952687496722e-03 0.0 
0.0 0.0 0.0 
-1.421591902940e-03 -3.627238028002e-04 0.0 
-3.627238028002e-04 3.216072743744e-03 0.0 
0.0 0.0 0.0 
-5.962541665081e-04 -6.635734885701e-04 0.0 
-6.635734885701e-04 4.618702156090e-03 0.0 
0.0 0.0 0.0 
-5.686355931707e-04 2.775891688161e-04 0.0 
2.775891688161e-04 1.027109823080e-02 0.0 
0.0 0.0 0.0 
-1.423602711251e-03 -1.144120384690e-04 0.0 
-1.144120384690e-04 3.220771176058e-03 0.0 
0.0 0.0 0.0 
1.403477413662e-03 -8.584405017882e-04 0.0 
-8.584405017882e-04 1.420024019186e-03 0.0 
0.0 0.0 0.0 
3.236859592526e-04 -1.492549644943e-03 0.0 
-1.492549644943e-03 2.425291687780e-03 0.0 
0.0 0.0 0.0 
-7.481891299045e-04 -7.262681018171e-04 0.0 
-7.262681018171e-04 4.340281158255e-03 0.0 
0.0 0.0 0.0 
-8.335653733860e-04 -5.338930059904e-04 0.0 
-5.338930059904e-04 4.630030013245e-03 0.0 
0.0 0.0 0.0 
4.391102423884e-03 1.991170734550e-03 0.0 
1.991170734550e-03 -3.094977244307e-03 0.0 
0.0 0.0 0.0 
-1.386201947755e-03 2.480141595932e-03 0.0 
2.480141595932e-03 5.522189188051e-03 0.0 
0.0 0.0 0.0 
1.595257921339e-03 3.385388280431e-03 0.0 
3.385388280431e-03 1.270169191296e-03 0.0 
0.0 0.0 0.0 
-4.563570058231e-04 -1.135740250283e-03 0.0 
-1.135740250283e-03 3.590825723158e-03 0.0 
0.0 0.0 0.0 
-6.465254483035e-04 -5.176099808889e-04 0.0 
-5.176099808889e-04 4.934074144096e-03 0.0 
0.0 0.0 0.0 
-8.733400046045e-04 -3.549983195354e-04 0.0 
-3.549983195354e-04 4.871536536308e-03 0.0 
0.0 0.0 0.0 
2.784414817381e-05 -2.308599203144e-03 0.0 
-2.308599203144e-03 7.790265069225e-04 0.0 
0.0 0.0 0.0 
-6.109479939718e-04 4.750720546895e-04 0.0 
4.750720546895e-04 1.022756344811e-02 0.0 
0.0 0.0 0.0 
-7.972675855782e-04 4.192987821911e-04 0.0 
4.192987821911e-04 9.946391517101e-03 0.0 
0.0 0.0 0.0 
-1.308025913498e-03 1.962461992981e-04 0.0 
1.962461992981e-04 8.391048569137e-03 0.0 
0.0 0.0 0.0 
-1.941691238682e-04 -1.144545206360e-03 0.0 
-1.144545206360e-03 3.466210408296e-03 0.0 
0.0 0.0 0.0 
-6.223711245243e-04 -9.282380253420e-04 0.0 
-9.282380253420e-04 3.990329640125e-03 0.0 
0.0 0.0 0.0 
-6.387546659368e-04 2.541708584124e-04 0.0 
2.541708584124e-04 1.027909167187e-02 0.0 
0.0 0.0 0.0 
-7.054178998982e-04 3.599902562410e-04 0.0 
3.599902562410e-04 1.011761270860e-02 0.0 
0.0 0.0 0.0 
3.262984778765e-04 -1.690099004056e-03 0.0 
-1.690099004056e-03 1.841164707211e-03 0.0 
0.0 0.0 0.0 
-5.023467974674e-04 -4.735599302278e-04 0.0 
-4.735599302278e-04 5.239855236773e-03 0.0 
0.0 0.0 0.0 
-9.146668437049e-04 7.740730034197e-04 0.0 
7.740730034197e-04 9.790677120078e-03 0.0 
0.0 0.0 0.0 
-9.221666665986e-04 -2.982889040486e-04 0.0 
-2.982889040486e-04 4.871589907953e-03 0.0 
0.0 0.0 0.0 
-6.994822193906e-05 -7.470219829562e-04 0.0 
-7.470219829562e-04 4.579858204049e-03 0.0 
0.0 0.0 0.0 
-6.848936479891e-04 4.525090723132e-04 0.0 
4.525090723132e-04 1.023180711283e-02 0.0 
0.0 0.0 0.0 
-1.139617898395e-03 3.729928291782e-04 0.0 
3.729928291782e-04 9.464429440637e-03 0.0 
0.0 0.0 0.0 
1.202248173197e-03 -1.155588599690e-03 0.0 
-1.155588599690e-03 1.410014386410e-03 0.0 
0.0 0.0 0.0 
-6.583351160783e-04 -8.053268595843e-04 0.0 
-8.053268595843e-04 1.962638773660e-03 0.0 
0.0 0.0 0.0 
1.233028826373e-04 -2.458639627012e-03 0.0 
-2.458639627012e-03 5.179451968362e-04 0.0 
0.0 0.0 0.0 
-1.124909142115e-04 -9.691234632251e-04 0.0 
-9.691234632251e-04 8.476626089926e-04 0.0 
0.0 0.0 0.0 
-1.124739497339e-03 -1.828031080130e-03 0.0 
-1.828031080130e-03 4.316332311423e-04 0.0 
0.0 0.0 0.0 
-7.522371106484e-04 3.307289872853e-04 0.0 
3.307289872853e-04 1.012056981322e-02 0.0 
0.0 0.0 0.0 
-5.834821087226e-04 -3.797842100862e-04 0.0 
-3.797842100862e-04 5.201741358976e-03 0.0 
0.0 0.0 0.0 
-7.264650439596e-04 -1.097176058144e-03 0.0 
-1.097176058144e-03 5.552169365517e-04 0.0 
0.0 0.0 0.0 
-8.595652616610e-04 2.310695338264e-03 0.0 
2.310695338264e-03 8.562445277428e-03 0.0 
0.0 0.0 0.0 
-1.306541496615e-03 2.595017730490e-04 0.0 
2.595017730490e-04 8.567807352231e-03 0.0 
0.0 0.0 0.0 
-5.107598759926e-04 -8.224446913094e-04 0.0 
-8.224446913094e-04 4.248176796143e-03 0.0 
0.0 0.0 0.0 
-7.067590577197e-04 -4.495460173662e-04 0.0 
-4.495460173662e-04 4.910623578474e-03 0.0 
0.0 0.0 0.0 
1.347769792166e-03 -2.537167964268e-03 0.0 
-2.537167964268e-03 -2.919945809494e-04 0.0 
0.0 0.0 0.0 
-8.076991971425e-04 -4.292836651702e-04 0.0 
-4.292836651702e-04 4.908231726500e-03 0.0 
0.0 0.0 0.0 
-1.374571725763e-03 1.481606813921e-04 0.0 
1.481606813921e-04 8.389989147834e-03 0.0 
0.0 0.0 0.0 
2.600536407178e-03 1.531224456178e-03 0.0 
1.531224456178e-03 6.316598824283e-04 0.0 
0.0 0.0 0.0 
-1.035526696391e-04 -6.343411937891e-04 0.0 
-6.343411937891e-04 4.973932260990e-03 0.0 
0.0 0.0 0.0 
-5.991375911204e-04 -4.552181624920e-04 0.0 
-4.552181624920e-04 1.986622371241e-03 0.0 
0.0 0.0 0.0 
1.907515039508e-04 -7.458273190778e-04 0.0 
-7.458273190778e-04 4.155085670419e-03 0.0 
0.0 0.0 0.0 
-1.033379060172e-03 3.330369760706e-04 0.0 
3.330369760706e-04 9.649028038998e-03 0.0 
0.0 0.0 0.0 
-8.183983474418e-04 -6.765130252768e-04 0.0 
-6.765130252768e-04 2.225583910462e-03 0.0 
0.0 0.0 0.0 
3.293947383542e-04 -2.545763772930e-03 0.0 
-2.545763772930e-03 3.357983070817e-04 0.0 
0.0 0.0 0.0 
-1.303721937212e-03 -6.663398290289e-04 0.0 
-6.663398290289e-04 3.896070975916e-03 0.0 
0.0 0.0 0.0 
-1.233696693387e-03 4.474834185888e-04 0.0 
4.474834185888e-04 9.074840266035e-03 0.0 
0.0 0.0 0.0 
-6.888719507322e-04 -1.760691218913e-03 0.0 
-1.760691218913e-03 2.175630738217e-03 0.0 
0.0 0.0 0.0 
-9.258686636715e-04 2.854966431305e-04 0.0 
2.854966431305e-04 9.830288009927e-03 0.0 
0.0 0.0 0.0 
-1.158796104203e-03 2.691103696761e-04 0.0 
2.691103696761e-04 9.320499721994e-03 0.0 
0.0 0.0 0.0 
-8.637157395410e-04 -1.349493323036e-03 0.0 
-1.349493323036e-03 3.207774061653e-03 0.0 
0.0 0.0 0.0 
-9.351556491429e-04 -4.802442676135e-04 0.0 
-4.802442676135e-04 4.626337856886e-03 0.0 
0.0 0.0 0.0 
-7.724694523747e-04 -5.959560274538e-04 0.0 
-5.959560274538e-04 4.623045690702e-03 0.0 
0.0 0.0 0.0 
-9.545353106352e-04 3.609254761097e-04 0.0 
3.609254761097e-04 9.644665734709e-03 0.0 
0.0 0.0 0.0 
-1.898578961144e-04 -7.599878820410e-04 0.0 
-7.599878820410e-04 1.412031997432e-03 0.0 
0.0 0.0 0.0 
-1.087387355414e-03 -1.194822503726e-03 0.0 
-1.194822503726e-03 3.336926316861e-03 0.0 
0.0 0.0 0.0 
1.440211206481e-03 2.190023451551e-03 0.0 
2.190023451551e-03 2.770378014490e-03 0.0 
0.0 0.0 0.0 
-9.954665030762e-04 4.452502353032e-04 0.0 
4.452502353032e-04 9.773387743943e-03 0.0 
0.0 0.0 0.0 
-1.118408836740e-03 -1.262291269296e-03 0.0 
-1.262291269296e-03 3.112934438035e-03 0.0 
0.0 0.0 0.0 
2.912849669001e-05 -1.519484658747e-03 0.0 
-1.519484658747e-03 2.431505753092e-03 0.0 
0.0 0.0 0.0 
3.713459685395e-04 -7.386419530483e-04 0.0 
-7.386419530483e-04 3.687782227646e-03 0.0 
0.0 0.0 0.0 
-1.051471609756e-03 3.979477608151e-04 0.0 
3.979477608151e-04 9.461219779250e-03 0.0 
0.0 0.0 0.0 
1.847104729600e-03 -7.650116731846e-04 0.0 
-7.650116731846e-04 -4.622776382291e-03 0.0 
0.0 0.0 0.0 
2.300359655432e-04 -6.528730134830e-04 0.0 
-6.528730134830e-04 6.958228245673e-04 0.0 
0.0 0.0 0.0 
3.664047430952e-03 4.150946935232e-04 0.0 
4.150946935232e-04 -4.079507359399e-03 0.0 
0.0 0.0 0.0 
-5.495347745729e-04 -5.223613492738e-04 0.0 
-5.223613492738e-04 4.934238731151e-03 0.0 
0.0 0.0 0.0 
-1.145010127327e-03 4.268321998855e-04 0.0 
4.268321998855e-04 9.271307161532e-03 0.0 
0.0 0.0 0.0 
-1.316159211444e-03 -4.628135637831e-04 0.0 
-4.628135637831e-04 4.099343959517e-03 0.0 
0.0 0.0 0.0 
-1.316706579638e-03 3.516648700229e-04 0.0 
3.516648700229e-04 8.732679385998e-03 0.0 
0.0 0.0 0.0 
1.250007774606e-03 -3.343943183495e-04 0.0 
-3.343943183495e-04 2.237020559341e-03 0.0 
0.0 0.0 0.0 
-1.024551226205e-03 -1.095918071350e-03 0.0 
-1.095918071350e-03 3.569054469438e-03 0.0 
0.0 0.0 0.0 
-6.419513398620e-04 -6.176161002195e-04 0.0 
-6.176161002195e-04 4.625597727846e-03 0.0 
0.0 0.0 0.0 
-4.899129831016e-04 -5.413159132958e-04 0.0 
-5.413159132958e-04 1.918803988674e-03 0.0 
0.0 0.0 0.0 
3.317748521470e-06 -6.930077999692e-04 0.0 
-6.930077999692e-04 4.582070372927e-03 0.0 
0.0 0.0 0.0 
-1.024627177023e-03 -1.224797271142e-03 0.0 
-1.224797271142e-03 3.189129530927e-03 0.0 
0.0 0.0 0.0 
-6.720435877015e-04 -4.070747205087e-04 0.0 
-4.070747205087e-04 2.182805291713e-03 0.0 
0.0 0.0 0.0 
-1.204380504901e-03 -1.036989331070e-03 0.0 
-1.036989331070e-03 3.311916443680e-03 0.0 
0.0 0.0 0.0 
-9.150608742647e-04 -1.538790697153e-03 0.0 
-1.538790697153e-03 2.541922847468e-03 0.0 
0.0 0.0 0.0 
-4.463470110074e-04 -1.673970498257e-03 0.0 
-1.673970498257e-03 1.609724793070e-03 0.0 
0.0 0.0 0.0 
-1.212288931787e-03 -5.893821737300e-04 0.0 
-5.893821737300e-04 4.122852749457e-03 0.0 
0.0 0.0 0.0 
9.782225545663e-04 -1.235054187120e-04 0.0 
-1.235054187120e-04 -2.861475103128e-04 0.0 
0.0 0.0 0.0 
5.819930485842e-04 -1.834775233983e-04 0.0 
-1.834775233983e-04 -1.208405609305e-04 0.0 
0.0 0.0 0.0 
-7.971642147370e-04 -8.838717364521e-04 0.0 
-8.838717364521e-04 3.984546500867e-03 0.0 
0.0 0.0 0.0 
-2.973934198440e-04 -6.421295405772e-04 0.0 
-6.421295405772e-04 1.660771334460e-03 0.0 
0.0 0.0 0.0 
-4.246079522722e-04 -1.139179009223e-03 0.0 
-1.139179009223e-03 3.466745455030e-03 0.0 
0.0 0.0 0.0 
-2.211639902889e-04 -1.332363599758e-03 0.0 
-1.332363599758e-03 2.975033826321e-03 0.0 
0.0 0.0 0.0 
-9.934958647417e-05 -2.127920920222e-03 0.0 
-2.127920920222e-03 1.647208570822e-03 0.0 
0.0 0.0 0.0 
1.601690638797e-03 -2.865930427161e-03 0.0 
-2.865930427161e-03 -7.962802783327e-04 0.0 
0.0 0.0 0.0 
-8.962398717839e-04 7.093397670058e-04 0.0 
7.093397670058e-04 9.975948767317e-03 0.0 
0.0 0.0 0.0 
1.725843008045e-03 3.308068801653e-03 0.0 
3.308068801653e-03 -3.134671982182e-03 0.0 
0.0 0.0 0.0 
-1.106471834321e-03 -1.299380667925e-03 0.0 
-1.299380667925e-03 2.864857892802e-03 0.0 
0.0 0.0 0.0 
1.217803357218e-03 -1.021992620974e-05 0.0 
-1.021992620974e-05 2.427413251049e-03 0.0 
0.0 0.0 0.0 
-2.854619025324e-04 -6.245462076196e-04 0.0 
-6.245462076196e-04 1.516285265592e-03 0.0 
0.0 0.0 0.0 
-1.338920490493e-03 3.222103592077e-04 0.0 
3.222103592077e-04 8.937286898209e-03 0.0 
0.0 0.0 0.0 
-1.408263425620e-03 2.293091404976e-04 0.0 
2.293091404976e-04 8.572299655468e-03 0.0 
0.0 0.0 0.0 
-1.534786965910e-04 -1.331384224969e-03 0.0 
-1.331384224969e-03 1.095638512068e-03 0.0 
0.0 0.0 0.0 
6.049858311126e-04 -7.102797407497e-04 0.0 
-7.102797407497e-04 3.161982572296e-03 0.0 
0.0 0.0 0.0 
-1.202433442807e-03 6.603869074558e-04 0.0 
6.603869074558e-04 9.507251106148e-03 0.0 
0.0 0.0 0.0 
-5.248257730178e-04 -9.167169107568e-04 0.0 
-9.167169107568e-04 1.718264461650e-03 0.0 
0.0 0.0 0.0 
-8.376232612892e-04 8.579278591467e-04 0.0 
8.579278591467e-04 1.005395266713e-02 0.0 
0.0 0.0 0.0 
-7.120400293287e-04 8.734256958708e-04 0.0 
8.734256958708e-04 1.005076927487e-02 0.0 
0.0 0.0 0.0 
-4.666485218767e-04 -9.856470251601e-04 0.0 
-9.856470251601e-04 1.752150259874e-03 0.0 
0.0 0.0 0.0 
-3.092285211268e-04 3.409630516442e-03 0.0 
3.409630516442e-03 3.041502501585e-03 0.0 
0.0 0.0 0.0 
-3.434616477552e-04 -1.495383620198e-03 0.0 
-1.495383620198e-03 1.452905116785e-03 0.0 
0.0 0.0 0.0 
-6.953609979075e-04 -7.702132434043e-04 0.0 
-7.702132434043e-04 4.293644784761e-03 0.0 
0.0 0.0 0.0 
-1.139169549340e-03 -8.388503307338e-04 0.0 
-8.388503307338e-04 3.870608396309e-03 0.0 
0.0 0.0 0.0 
-7.719189831734e-04 2.027368725530e-03 0.0 
2.027368725530e-03 9.041891572424e-03 0.0 
0.0 0.0 0.0 
-7.876953174172e-04 7.224913338066e-04 0.0 
7.224913338066e-04 9.974030900113e-03 0.0 
0.0 0.0 0.0 
-5.823312150396e-04 -9.499255432477e-04 0.0 
-9.499255432477e-04 3.906444295474e-03 0.0 
0.0 0.0 0.0 
-3.939737483153e-04 -9.659568578844e-04 0.0 
-9.659568578844e-04 3.907794923450e-03 0.0 
0.0 0.0 0.0 
-4.076237403329e-04 -1.446753564842e-03 0.0 
-1.446753564842e-03 1.294004461238e-03 0.0 
0.0 0.0 0.0 
-5.501000493670e-04 -7.930273719572e-04 0.0 
-7.930273719572e-04 4.296285989677e-03 0.0 
0.0 0.0 0.0 
-1.082207984394e-03 6.709262303317e-04 0.0 
6.709262303317e-04 9.505610616419e-03 0.0 
0.0 0.0 0.0 
-1.251221950767e-03 -7.099947522368e-04 0.0 
-7.099947522368e-04 3.851319419412e-03 0.0 
0.0 0.0 0.0 
-1.242106833721e-03 4.057604245577e-04 0.0 
4.057604245577e-04 9.274087798680e-03 0.0 
0.0 0.0 0.0 
-1.078713282608e-03 6.191546295823e-04 0.0 
6.191546295823e-04 9.698232312248e-03 0.0 
0.0 0.0 0.0 
3.893663632086e-03 2.218324913058e-03 0.0 
2.218324913058e-03 -2.131005902209e-03 0.0 
0.0 0.0 0.0 
-8.503935142659e-04 5.909735472385e-04 0.0 
5.909735472385e-04 9.881256994373e-03 0.0 
0.0 0.0 0.0 
-1.265833212501e-03 -1.011862227487e-03 0.0 
-1.011862227487e-03 3.423662721024e-03 0.0 
0.0 0.0 0.0 
-1.162106163990e-03 -9.647166225852e-04 0.0 
-9.647166225852e-04 3.549276089034e-03 0.0 
0.0 0.0 0.0 
-1.060443889990e-03 -1.293670657245e-03 0.0 
-1.293670657245e-03 2.649784846833e-03 0.0 
0.0 0.0 0.0 
3.334851703349e-04 -2.412095004541e-03 0.0 
-2.412095004541e-03 6.756320401073e-04 0.0 
0.0 0.0 0.0 
-1.117018810200e-03 5.411132611799e-04 0.0 
5.411132611799e-04 9.396431493209e-03 0.0 
0.0 0.0 0.0 
1.136281690843e-03 -2.075393636277e-03 0.0 
-2.075393636277e-03 1.982023901592e-04 0.0 
0.0 0.0 0.0 
-5.123187440107e-04 -1.331737307354e-03 0.0 
-1.331737307354e-03 1.736704436465e-03 0.0 
0.0 0.0 0.0 
-5.894551193319e-05 -9.516738665604e-04 0.0 
-9.516738665604e-04 9.382407817826e-04 0.0 
0.0 0.0 0.0 
-1.226328896373e-03 5.261426018897e-04 0.0 
5.261426018897e-04 9.398550918420e-03 0.0 
0.0 0.0 0.0 
-5.886406727220e-04 -1.564307463305e-03 0.0 
-1.564307463305e-03 1.773192802311e-03 0.0 
0.0 0.0 0.0 
2.842771886054e-04 -6.524312477908e-04 0.0 
-6.524312477908e-04 4.145492880357e-03 0.0 
0.0 0.0 0.0 
-1.012904044414e-03 5.094559878815e-04 0.0 
5.094559878815e-04 9.586571772670e-03 0.0 
0.0 0.0 0.0 
-3.304837591633e-04 -8.159668383474e-04 0.0 
-8.159668383474e-04 4.246155716327e-03 0.0 
0.0 0.0 0.0 
5.264939443659e-04 7.927245880815e-04 0.0 
7.927245880815e-04 3.482482245902e-03 0.0 
0.0 0.0 0.0 
-1.202345420524e-03 -1.083137270758e-03 0.0 
-1.083137270758e-03 3.076303536158e-03 0.0 
0.0 0.0 0.0 
-6.191576718670e-04 -1.233087713678e-03 0.0 
-1.233087713678e-03 1.791248833102e-03 0.0 
0.0 0.0 0.0 
-3.554664695147e-04 -1.117254103978e-03 0.0 
-1.117254103978e-03 1.084000396010e-03 0.0 
0.0 0.0 0.0 
-1.677499271707e-04 -1.142472275938e-03 0.0 
-1.142472275938e-03 3.342547095047e-03 0.0 
0.0 0.0 0.0 
-1.169691985966e-03 3.305927774038e-04 0.0 
3.305927774038e-04 9.132824831295e-03 0.0 
0.0 0.0 0.0 
-1.240555430333e-04 -8.365020824128e-04 0.0 
-8.365020824128e-04 7.459330079980e-04 0.0 
0.0 0.0 0.0 
-7.637489098167e-04 -1.563764260296e-03 0.0 
-1.563764260296e-03 2.145827791755e-03 0.0 
0.0 0.0 0.0 
-2.260414932507e-04 -2.815921445918e-04 0.0 
-2.815921445918e-04 1.700927032899e-03 0.0 
0.0 0.0 0.0 
-1.339981097932e-03 4.322156521875e-04 0.0 
4.322156521875e-04 9.076963590170e-03 0.0 
0.0 0.0 0.0 
-9.829811786262e-04 -1.337029452523e-03 0.0 
-1.337029452523e-03 2.511447204194e-03 0.0 
0.0 0.0 0.0 
4.430961068613e-05 -1.324114017408e-03 0.0 
-1.324114017408e-03 2.972061626932e-03 0.0 
0.0 0.0 0.0 
-1.076159473986e-03 -1.047273782923e-03 0.0 
-1.047273782923e-03 2.624119671051e-03 0.0 
0.0 0.0 0.0 
-8.749380578408e-04 3.935498799767e-04 0.0 
3.935498799767e-04 9.950080148605e-03 0.0 
0.0 0.0 0.0 
-6.542816342472e-04 -1.696779608421e-03 0.0 
-1.696779608421e-03 1.985696147410e-03 0.0 
0.0 0.0 0.0 
3.057415461363e-04 -1.209825003893e-03 0.0 
-1.209825003893e-03 2.705201180507e-03 0.0 
0.0 0.0 0.0 
9.971994319113e-05 -2.362713589880e-03 0.0 
-2.362713589880e-03 5.030641620489e-04 0.0 
0.0 0.0 0.0 
5.863508096282e-05 -1.302686713602e-03 0.0 
-1.302686713602e-03 2.820204953527e-03 0.0 
0.0 0.0 0.0 
-1.322131121567e-03 -7.701664987161e-04 0.0 
-7.701664987161e-04 3.624019582752e-03 0.0 
0.0 0.0 0.0 
-1.492462500491e-04 -9.673417543437e-04 0.0 
-9.673417543437e-04 3.815888734613e-03 0.0 
0.0 0.0 0.0 
4.459169041833e-03 -2.643055017982e-04 0.0 
-2.643055017982e-04 -3.473254886894e-03 0.0 
0.0 0.0 0.0 
-4.438554475574e-04 -5.560251800863e-04 0.0 
-5.560251800863e-04 1.773662475089e-03 0.0 
0.0 0.0 0.0 
-1.334400370999e-03 2.290346100037e-04 0.0 
2.290346100037e-04 8.784269846222e-03 0.0 
0.0 0.0 0.0 
2.535035625798e-03 -4.937561452655e-04 0.0 
-4.937561452655e-04 -3.372322246993e-04 0.0 
0.0 0.0 0.0 
2.383059336024e-04 3.407586037547e-03 0.0 
3.407586037547e-03 2.673306570621e-03 0.0 
0.0 0.0 0.0 
-1.251685355673e-03 3.005166865365e-04 0.0 
3.005166865365e-04 9.133830215663e-03 0.0 
0.0 0.0 0.0 
5.070771459714e-04 -2.719468714986e-03 0.0 
-2.719468714986e-03 -6.990812668650e-05 0.0 
0.0 0.0 0.0 
-1.296656440076e-03 7.269756270775e-04 0.0 
7.269756270775e-04 9.099145516606e-03 0.0 
0.0 0.0 0.0 
-5.507798535442e-05 -3.904281663434e-04 0.0 
-3.904281663434e-04 1.419696897233e-03 0.0 
0.0 0.0 0.0 
2.367672358004e-04 -8.465295497884e-04 0.0 
-8.465295497884e-04 3.673189042685e-03 0.0 
0.0 0.0 0.0 
2.558982950893e-03 2.643974651942e-06 0.0 
2.643974651942e-06 -9.490330582285e-06 0.0 
0.0 0.0 0.0 
2.245227886537e-03 1.832467455427e-03 0.0 
1.832467455427e-03 1.362590189382e-03 0.0 
0.0 0.0 0.0 
-6.820042568542e-04 7.976824136484e-04 0.0 
7.976824136484e-04 1.023866385771e-02 0.0 
0.0 0.0 0.0 
1.074260235472e-03 -1.900666602259e-03 0.0 
-1.900666602259e-03 5.455676867889e-04 0.0 
0.0 0.0 0.0 
-4.183609116912e-04 -1.004720177881e-03 0.0 
-1.004720177881e-03 1.468120998532e-03 0.0 
0.0 0.0 0.0 
6.448238244916e-04 -1.589380488234e-03 0.0 
-1.589380488234e-03 1.633087514535e-03 0.0 
0.0 0.0 0.0 
4.827838390065e-04 -6.330172850562e-04 0.0 
-6.330172850562e-04 3.670756111289e-03 0.0 
0.0 0.0 0.0 
1.337165403261e-03 -2.744885592201e-03 0.0 
-2.744885592201e-03 -8.743458955300e-04 0.0 
0.0 0.0 0.0 
-3.581579542651e-04 -9.820131280956e-04 0.0 
-9.820131280956e-04 3.819338346096e-03 0.0 
0.0 0.0 0.0 
-1.112862479221e-03 4.885664635090e-04 0.0 
4.885664635090e-04 9.589355039866e-03 0.0 
0.0 0.0 0.0 
2.092224332813e-03 -2.912114251226e-03 0.0 
-2.912114251226e-03 -1.408118491942e-03 0.0 
0.0 0.0 0.0 
3.277042269241e-04 -1.454798871944e-03 0.0 
-1.454798871944e-03 2.250126238572e-03 0.0 
0.0 0.0 0.0 
-1.514121942154e-03 4.688824657785e-04 0.0 
4.688824657785e-04 8.662263950995e-03 0.0 
0.0 0.0 0.0 
-8.356361450239e-04 -6.804479598663e-04 0.0 
-6.804479598663e-04 2.317106100500e-03 0.0 
0.0 0.0 0.0 
-5.239004452803e-04 -1.780390576906e-03 0.0 
-1.780390576906e-03 1.766066016572e-03 0.0 
0.0 0.0 0.0 
6.936972675258e-04 3.429026634738e-03 0.0 
3.429026634738e-03 2.800612376157e-03 0.0 
0.0 0.0 0.0 
7.020506285471e-05 -1.117575367806e-03 0.0 
-1.117575367806e-03 3.337307386673e-03 0.0 
0.0 0.0 0.0 
-5.860022365392e-04 3.177478396109e-03 0.0 
3.177478396109e-03 3.993449258746e-03 0.0 
0.0 0.0 0.0 
1.105258829526e-03 3.417052334312e-03 0.0 
3.417052334312e-03 2.029796868761e-03 0.0 
0.0 0.0 0.0 
-1.192129807685e-03 7.004991903870e-04 0.0 
7.004991903870e-04 9.306471910876e-03 0.0 
0.0 0.0 0.0 
-1.243944134251e-03 3.463669573874e-04 0.0 
3.463669573874e-04 8.934164112574e-03 0.0 
0.0 0.0 0.0 
-1.400459386609e-03 5.979762585617e-04 0.0 
5.979762585617e-04 8.788589138771e-03 0.0 
0.0 0.0 0.0 
-1.215616778851e-03 -9.349510557737e-04 0.0 
-9.349510557737e-04 3.658766244601e-03 0.0 
0.0 0.0 0.0 
8.838041981805e-04 -6.801215084219e-04 0.0 
-6.801215084219e-04 2.631086787858e-03 0.0 
0.0 0.0 0.0 
1.010937983126e-03 -1.687495062457e-03 0.0 
-1.687495062457e-03 9.773548388685e-04 0.0 
0.0 0.0 0.0 
-1.425417858959e-03 3.382863641200e-04 0.0 
3.382863641200e-04 8.734564741874e-03 0.0 
0.0 0.0 0.0 
-7.021665788488e-04 2.504482123181e-03 0.0 
2.504482123181e-03 8.406186466122e-03 0.0 
0.0 0.0 0.0 
1.876579695990e-03 2.065982615029e-03 0.0 
2.065982615029e-03 2.094763373294e-03 0.0 
0.0 0.0 0.0 
3.300860284026e-04 -1.260852294880e-03 0.0 
-1.260852294880e-03 2.812154176027e-03 0.0 
0.0 0.0 0.0 
-9.678469778672e-04 6.338847706184e-04 0.0 
6.338847706184e-04 9.696130397310e-03 0.0 
0.0 0.0 0.0 
-3.463825417938e-06 -2.225504467715e-03 0.0 
-2.225504467715e-03 1.159720934924e-03 0.0 
0.0 0.0 0.0 
-3.001709251028e-04 -2.037001929947e-03 0.0 
-2.037001929947e-03 1.497569584590e-03 0.0 
0.0 0.0 0.0 
-1.868829701143e-04 -1.229542207183e-03 0.0 
-1.229542207183e-03 1.259290531227e-03 0.0 
0.0 0.0 0.0 
9.424281487318e-04 -1.409645149926e-03 0.0 
-1.409645149926e-03 1.482733896367e-03 0.0 
0.0 0.0 0.0 
-5.772803964048e-04 -1.816328503998e-03 0.0 
-1.816328503998e-03 1.922922874576e-03 0.0 
0.0 0.0 0.0 
-1.335421529597e-03 5.568582016301e-04 0.0 
5.568582016301e-04 9.201194032598e-03 0.0 
0.0 0.0 0.0 
-1.439925970538e-03 5.843920684845e-04 0.0 
5.843920684845e-04 8.997354387913e-03 0.0 
0.0 0.0 0.0 
4.206826322015e-03 1.165507554544e-03 0.0 
1.165507554544e-03 -2.294445902343e-03 0.0 
0.0 0.0 0.0 
-1.771805358302e-04 -2.138291446983e-03 0.0 
-2.138291446983e-03 1.400303140225e-03 0.0 
0.0 0.0 0.0 
4.292088481549e-03 2.132976018674e-03 0.0 
2.132976018674e-03 -3.271230988872e-03 0.0 
0.0 0.0 0.0 
-4.399105214682e-04 -1.961849517189e-03 0.0 
-1.961849517189e-03 1.793675646638e-03 0.0 
0.0 0.0 0.0 
-1.376077671891e-04 -2.171004977985e-03 0.0 
-2.171004977985e-03 1.517271209224e-03 0.0 
0.0 0.0 0.0 
-4.920571862289e-04 -1.359737076016e-03 0.0 
-1.359737076016e-03 1.535738259733e-03 0.0 
0.0 0.0 0.0 
1.193991638057e-03 -6.212170929775e-04 0.0 
-6.212170929775e-04 2.077937738010e-03 0.0 
0.0 0.0 0.0 
1.115611920515e-03 -2.276570057931e-03 0.0 
-2.276570057931e-03 3.438791093910e-04 0.0 
0.0 0.0 0.0 
-9.504715968415e-04 5.694377121365e-04 0.0 
5.694377121365e-04 9.884133899057e-03 0.0 
0.0 0.0 0.0 
1.548691753138e-03 -2.117007009121e-03 0.0 
-2.117007009121e-03 -6.586674329734e-05 0.0 
0.0 0.0 0.0 
9.865322264428e-04 -1.487455255406e-03 0.0 
-1.487455255406e-03 1.615550909541e-03 0.0 
0.0 0.0 0.0 
1.039244000223e-03 -1.931961482066e-03 0.0 
-1.931961482066e-03 8.271091202969e-04 0.0 
0.0 0.0 0.0 
2.201133175640e-03 3.235104333338e-03 0.0 
3.235104333338e-03 5.829708649254e-04 0.0 
0.0 0.0 0.0 
-3.195946295335e-04 -1.116572651912e-03 0.0 
-1.116572651912e-03 1.494399839820e-03 0.0 
0.0 0.0 0.0 
7.569748058547e-04 -5.989650598847e-04 0.0 
-5.989650598847e-04 3.140120457750e-03 0.0 
0.0 0.0 0.0 
6.817526718690e-04 -5.504159073497e-04 0.0 
-5.504159073497e-04 3.300845823471e-03 0.0 
0.0 0.0 0.0 
2.797585814669e-04 3.189534659969e-03 0.0 
3.189534659969e-03 4.093699863861e-03 0.0 
0.0 0.0 0.0 
2.407209313060e-04 -2.308170446556e-03 0.0 
-2.308170446556e-03 1.171024714923e-03 0.0 
0.0 0.0 0.0 
1.003762031440e-03 -1.731608965149e-03 0.0 
-1.731608965149e-03 1.191911674020e-03 0.0 
0.0 0.0 0.0 
-1.216598779207e-03 5.664499236615e-04 0.0 
5.664499236615e-04 9.199682700074e-03 0.0 
0.0 0.0 0.0 
-3.174828099297e-04 -2.015278630272e-03 0.0 
-2.015278630272e-03 1.631226819215e-03 0.0 
0.0 0.0 0.0 
8.355759825707e-04 3.545196685701e-03 0.0 
3.545196685701e-03 1.975730132899e-03 0.0 
0.0 0.0 0.0 
-6.627981671145e-04 -1.480568612832e-03 0.0 
-1.480568612832e-03 1.952369011457e-03 0.0 
0.0 0.0 0.0 
1.094214484025e-03 -2.917809461780e-03 0.0 
-2.917809461780e-03 -7.852597915483e-04 0.0 
0.0 0.0 0.0 
3.570400084094e-04 -2.331561000581e-03 0.0 
-2.331561000581e-03 7.643069564485e-04 0.0 
0.0 0.0 0.0 
-7.684138661518e-04 -1.400854731227e-03 0.0 
-1.400854731227e-03 2.080200649353e-03 0.0 
0.0 0.0 0.0 
-6.463819925938e-04 -8.351384762440e-04 0.0 
-8.351384762440e-04 2.035002365050e-03 0.0 
0.0 0.0 0.0 
7.104374193376e-04 -2.013195317588e-03 0.0 
-2.013195317588e-03 8.414928331657e-04 0.0 
0.0 0.0 0.0 
6.402739887368e-04 -1.386035420198e-03 0.0 
-1.386035420198e-03 2.237748360145e-03 0.0 
0.0 0.0 0.0 
1.218001370482e-04 2.932670895701e-03 0.0 
2.932670895701e-03 5.557911730451e-03 0.0 
0.0 0.0 0.0 
1.242164574624e-03 -1.822621854662e-04 0.0 
-1.822621854662e-04 -3.797003333601e-04 0.0 
0.0 0.0 0.0 
2.927950319898e-03 -1.575866645783e-03 0.0 
-1.575866645783e-03 -1.536303494154e-03 0.0 
0.0 0.0 0.0 
1.981185318779e-03 -2.046605719644e-03 0.0 
-2.046605719644e-03 -6.209913234306e-04 0.0 
0.0 0.0 0.0 
6.740872370290e-04 -2.345446645188e-03 0.0 
-2.345446645188e-03 7.646597802380e-04 0.0 
0.0 0.0 0.0 
-1.311176039055e-03 5.842065146578e-04 0.0 
5.842065146578e-04 8.996952478833e-03 0.0 
0.0 0.0 0.0 
1.090327524045e-03 -2.108816602998e-03 0.0 
-2.108816602998e-03 5.387846189133e-04 0.0 
0.0 0.0 0.0 
-8.655253026962e-04 -1.500517031451e-03 0.0 
-1.500517031451e-03 2.325514801077e-03 0.0 
0.0 0.0 0.0 
7.560941786053e-04 -2.336380771386e-03 0.0 
-2.336380771386e-03 3.551575366709e-04 0.0 
0.0 0.0 0.0 
-9.062083480882e-04 4.697843912285e-04 0.0 
4.697843912285e-04 9.770241877947e-03 0.0 
0.0 0.0 0.0 
-8.723344190644e-04 -1.280275713963e-03 0.0 
-1.280275713963e-03 2.291383642071e-03 0.0 
0.0 0.0 0.0 
-8.578580311813e-05 -8.155664786572e-04 0.0 
-8.155664786572e-04 8.902071121404e-04 0.0 
0.0 0.0 0.0 
-3.494664602617e-04 -1.059644251884e-03 0.0 
-1.059644251884e-03 1.243568659728e-03 0.0 
0.0 0.0 0.0 
1.141880328554e-03 -2.691054922111e-03 0.0 
-2.691054922111e-03 -2.256738760733e-04 0.0 
0.0 0.0 0.0 
1.804585658589e-04 -2.336272838413e-03 0.0 
-2.336272838413e-03 1.074555916793e-03 0.0 
0.0 0.0 0.0 
2.385261451765e-03 -1.719888731800e-03 0.0 
-1.719888731800e-03 -9.815382104285e-04 0.0 
0.0 0.0 0.0 
1.172322987808e-03 -2.247446912411e-03 0.0 
-2.247446912411e-03 -4.195462981360e-05 0.0 
0.0 0.0 0.0 
1.969764136096e-04 -2.511331216972e-03 0.0 
-2.511331216972e-03 2.085708287241e-04 0.0 
0.0 0.0 0.0 
-5.011602704497e-05 -8.101998768300e-04 0.0 
-8.101998768300e-04 1.205311501400e-03 0.0 
0.0 0.0 0.0 
-1.651451543845e-03 7.910791744311e-04 0.0 
7.910791744311e-04 8.650787833404e-03 0.0 
0.0 0.0 0.0 
-7.053865848343e-04 -1.162228087178e-03 0.0 
-1.162228087178e-03 2.043475869148e-03 0.0 
0.0 0.0 0.0 
1.317783655098e-03 -7.273380910839e-04 0.0 
-7.273380910839e-04 1.987927094272e-03 0.0 
0.0 0.0 0.0 
3.415761402592e-04 2.955782742345e-03 0.0 
2.955782742345e-03 4.852861162971e-03 0.0 
0.0 0.0 0.0 
-1.626827347922e-03 1.910767762000e-03 0.0 
1.910767762000e-03 7.743560460469e-03 0.0 
0.0 0.0 0.0 
-9.168052591684e-04 1.139391245872e-03 0.0 
1.139391245872e-03 9.707341255123e-03 0.0 
0.0 0.0 0.0 
-3.198311482877e-05 2.907511852649e-03 0.0 
2.907511852649e-03 6.207163477407e-03 0.0 
0.0 0.0 0.0 
4.122590305958e-03 1.767887247162e-03 0.0 
1.767887247162e-03 -2.064830797700e-03 0.0 
0.0 0.0 0.0 
3.298159094054e-04 3.048171310389e-03 0.0 
3.048171310389e-03 4.453465727443e-03 0.0 
0.0 0.0 0.0 
7.479569754247e-04 -2.998802753097e-03 0.0 
-2.998802753097e-03 -5.490146387929e-04 0.0 
0.0 0.0 0.0 
3.626392902987e-04 -2.200712541457e-03 0.0 
-2.200712541457e-03 9.220700699928e-04 0.0 
0.0 0.0 0.0 
2.982750719790e-03 3.163882249008e-03 0.0 
3.163882249008e-03 -1.157454432971e-03 0.0 
0.0 0.0 0.0 
3.369398233981e-03 -2.156017964467e-03 0.0 
-2.156017964467e-03 -2.874162757103e-03 0.0 
0.0 0.0 0.0 
2.607279761810e-04 -2.821468290066e-03 0.0 
-2.821468290066e-03 -1.410229614510e-04 0.0 
0.0 0.0 0.0 
-4.277879618871e-04 -1.976556018187e-03 0.0 
-1.976556018187e-03 1.946532219183e-03 0.0 
0.0 0.0 0.0 
1.594824799237e-03 -2.257420895060e-03 0.0 
-2.257420895060e-03 -5.817746609346e-04 0.0 
0.0 0.0 0.0 
2.011083363233e-03 -2.005522134325e-03 0.0 
-2.005522134325e-03 -9.334256713981e-04 0.0 
0.0 0.0 0.0 
-9.477947001424e-04 -1.223638263323e-03 0.0 
-1.223638263323e-03 2.381691341394e-03 0.0 
0.0 0.0 0.0 
1.491685244873e-03 -1.942285362131e-03 0.0 
-1.942285362131e-03 1.757740781232e-04 0.0 
0.0 0.0 0.0 
2.434654593025e-03 -1.853347149475e-03 0.0 
-1.853347149475e-03 -1.484623955225e-03 0.0 
0.0 0.0 0.0 
3.375304386999e-03 -1.126531364680e-03 0.0 
-1.126531364680e-03 -1.897293100299e-03 0.0 
0.0 0.0 0.0 
-1.123030224670e-05 -2.236064028689e-03 0.0 
-2.236064028689e-03 1.060718278742e-03 0.0 
0.0 0.0 0.0 
2.717502198694e-03 7.756286741953e-04 0.0 
7.756286741953e-04 1.338484547198e-04 0.0 
0.0 0.0 0.0 
-1.320811571919e-03 6.985321242429e-04 0.0 
6.985321242429e-04 9.307128098614e-03 0.0 
0.0 0.0 0.0 
3.958125373564e-03 -7.197756846149e-04 0.0 
-7.197756846149e-04 -2.567861389902e-03 0.0 
0.0 0.0 0.0 
1.070735287791e-03 -5.309610567920e-04 0.0 
-5.309610567920e-04 2.607423793271e-03 0.0 
0.0 0.0 0.0 
1.523891592655e-03 -3.120772066153e-03 0.0 
-3.120772066153e-03 -1.373637124512e-03 0.0 
0.0 0.0 0.0 
1.052749182915e-03 -2.035936565616e-05 0.0 
-2.035936565616e-05 2.941175318247e-03 0.0 
0.0 0.0 0.0 
1.959825756088e-03 -1.874847887664e-03 0.0 
-1.874847887664e-03 -4.407007895391e-04 0.0 
0.0 0.0 0.0 
-1.080232761670e-04 2.942624092032e-03 0.0 
2.942624092032e-03 6.839570077447e-03 0.0 
0.0 0.0 0.0 
-8.204386927506e-04 2.896770282316e-03 0.0 
2.896770282316e-03 6.038059432281e-03 0.0 
0.0 0.0 0.0 
8.063564392484e-04 -2.788539716852e-03 0.0 
-2.788539716852e-03 -6.107249307896e-05 0.0 
0.0 0.0 0.0 
-1.460524399098e-03 2.144120286362e-03 0.0 
2.144120286362e-03 7.565744740327e-03 0.0 
0.0 0.0 0.0 
-8.828553521717e-04 1.562349610599e-03 0.0 
1.562349610599e-03 9.476057470850e-03 0.0 
0.0 0.0 0.0 
2.341090531293e-03 -1.560986968612e-03 0.0 
-1.560986968612e-03 -7.632331320711e-04 0.0 
0.0 0.0 0.0 
1.917247959533e-03 3.670047834659e-03 0.0 
3.670047834659e-03 3.798656392275e-04 0.0 
0.0 0.0 0.0 
-1.259048612454e-03 2.356703664035e-03 0.0 
2.356703664035e-03 7.341870074937e-03 0.0 
0.0 0.0 0.0 
3.733906235472e-04 3.409610565363e-03 0.0 
3.409610565363e-03 2.694221105800e-03 0.0 
0.0 0.0 0.0 
2.662032503296e-04 -2.679449710407e-03 0.0 
-2.679449710407e-03 2.355380372372e-04 0.0 
0.0 0.0 0.0 
-4.354316614402e-04 1.380564476050e-03 0.0 
1.380564476050e-03 1.016879780447e-02 0.0 
0.0 0.0 0.0 
-2.409753620373e-04 -2.207701991974e-03 0.0 
-2.207701991974e-03 7.041546044497e-04 0.0 
0.0 0.0 0.0 
1.378505686166e-03 1.546403030846e-03 0.0 
1.546403030846e-03 2.918210824606e-03 0.0 
0.0 0.0 0.0 
-6.583915602417e-04 6.659049374775e-04 0.0 
6.659049374775e-04 1.015211268411e-02 0.0 
0.0 0.0 0.0 
2.475240270580e-03 4.547101832538e-04 0.0 
4.547101832538e-04 4.318896438498e-04 0.0 
0.0 0.0 0.0 
-1.318191827365e-03 4.632272543244e-04 0.0 
4.632272543244e-04 8.868022003807e-03 0.0 
0.0 0.0 0.0 
-1.120090897212e-03 9.709854871396e-04 0.0 
9.709854871396e-04 9.663433409992e-03 0.0 
0.0 0.0 0.0 
2.889418824424e-03 -1.463781597661e-03 0.0 
-1.463781597661e-03 -1.839291063574e-03 0.0 
0.0 0.0 0.0 
3.909078478768e-03 1.140978909505e-03 0.0 
1.140978909505e-03 -1.860344368921e-03 0.0 
0.0 0.0 0.0 
-6.929266808813e-04 1.255379348221e-03 0.0 
1.255379348221e-03 9.940323222697e-03 0.0 
0.0 0.0 0.0 
5.923348435430e-04 -1.130688735508e-03 0.0 
-1.130688735508e-03 2.691140897798e-03 0.0 
0.0 0.0 0.0 
-1.294277756881e-03 8.537869899225e-04 0.0 
8.537869899225e-04 9.391648015761e-03 0.0 
0.0 0.0 0.0 
2.439044055281e-03 -3.879539889312e-04 0.0 
-3.879539889312e-04 1.814664242825e-04 0.0 
0.0 0.0 0.0 
1.223672655708e-03 -2.998358060238e-03 0.0 
-2.998358060238e-03 -5.520291382189e-04 0.0 
0.0 0.0 0.0 
-1.254332192380e-03 1.022823869291e-03 0.0 
1.022823869291e-03 9.453343332328e-03 0.0 
0.0 0.0 0.0 
2.325106097059e-04 3.075911350649e-03 0.0 
3.075911350649e-03 6.178569493678e-03 0.0 
0.0 0.0 0.0 
7.711535125310e-04 -3.929130121613e-04 0.0 
-3.929130121613e-04 3.264784313996e-03 0.0 
0.0 0.0 0.0 
6.821867022566e-04 -2.197650344584e-03 0.0 
-2.197650344584e-03 9.197468196072e-04 0.0 
0.0 0.0 0.0 
-1.432242782743e-03 4.501209347364e-04 0.0 
4.501209347364e-04 8.869488468141e-03 0.0 
0.0 0.0 0.0 
-1.395205791245e-03 4.698235814300e-04 0.0 
4.698235814300e-04 8.661765740431e-03 0.0 
0.0 0.0 0.0 
1.584874056669e-03 -2.072484236533e-03 0.0 
-2.072484236533e-03 -4.081493885831e-04 0.0 
0.0 0.0 0.0 
9.268052442062e-04 -1.212252369337e-03 0.0 
-1.212252369337e-03 2.094448368031e-03 0.0 
0.0 0.0 0.0 
1.154519749784e-03 -9.869650462944e-04 0.0 
-9.869650462944e-04 2.006402728109e-03 0.0 
0.0 0.0 0.0 
-3.965519473059e-05 -9.015445986855e-04 0.0 
-9.015445986855e-04 1.048153872526e-03 0.0 
0.0 0.0 0.0 
4.081725799550e-03 2.355474732357e-03 0.0 
2.355474732357e-03 -3.450989464317e-03 0.0 
0.0 0.0 0.0 
4.185743480394e-03 -1.142415857566e-04 0.0 
-1.142415857566e-04 -2.673360825284e-03 0.0 
0.0 0.0 0.0 
3.530908379106e-03 -1.209609607595e-03 0.0 
-1.209609607595e-03 -2.482689593103e-03 0.0 
0.0 0.0 0.0 
1.264331211795e-03 3.435998966543e-03 0.0 
3.435998966543e-03 1.264497116054e-03 0.0 
0.0 0.0 0.0 
-6.738190136670e-04 1.184891557288e-03 0.0 
1.184891557288e-03 1.014992021949e-02 0.0 
0.0 0.0 0.0 
-7.338539328717e-04 2.286427368821e-03 0.0 
2.286427368821e-03 8.564834741143e-03 0.0 
0.0 0.0 0.0 
-7.532956749193e-04 6.430767751249e-04 0.0 
6.430767751249e-04 1.015404414711e-02 0.0 
0.0 0.0 0.0 
-8.493769743187e-04 2.998357235373e-03 0.0 
2.998357235373e-03 4.558596914864e-03 0.0 
0.0 0.0 0.0 
-1.101028049948e-03 1.425174610846e-03 0.0 
1.425174610846e-03 9.250016401068e-03 0.0 
0.0 0.0 0.0 
6.047028554137e-04 -1.318936523700e-03 0.0 
-1.318936523700e-03 2.112526508496e-03 0.0 
0.0 0.0 0.0 
-6.439581028723e-04 1.026371138011e-03 0.0 
1.026371138011e-03 1.010833773756e-02 0.0 
0.0 0.0 0.0 
-1.379124169773e-03 1.071871661165e-03 0.0 
1.071871661165e-03 9.232243440295e-03 0.0 
0.0 0.0 0.0 
7.463602345015e-04 -2.176704188738e-03 0.0 
-2.176704188738e-03 5.513764916407e-04 0.0 
0.0 0.0 0.0 
4.453015332864e-03 4.994969056057e-04 0.0 
4.994969056057e-04 -2.900961004146e-03 0.0 
0.0 0.0 0.0 
-1.110589135816e-03 1.013993858987e-03 0.0 
1.013993858987e-03 9.453884323620e-03 0.0 
0.0 0.0 0.0 
-9.120563484393e-04 1.082425527090e-03 0.0 
1.082425527090e-03 9.916446603182e-03 0.0 
0.0 0.0 0.0 
-1.038827619526e-03 8.132654264970e-04 0.0 
8.132654264970e-04 9.594322644320e-03 0.0 
0.0 0.0 0.0 
-1.157305405177e-03 8.507300505523e-04 0.0 
8.507300505523e-04 9.391540091988e-03 0.0 
0.0 0.0 0.0 
6.627363283853e-04 -7.632059742921e-04 0.0 
-7.632059742921e-04 3.128626953772e-03 0.0 
0.0 0.0 0.0 
1.463999740444e-03 1.789567917233e-03 0.0 
1.789567917233e-03 2.818886082189e-03 0.0 
0.0 0.0 0.0 
9.757422646353e-04 -7.605900989719e-04 0.0 
-7.605900989719e-04 2.568357854818e-03 0.0 
0.0 0.0 0.0 
6.426616011881e-04 -1.634420924157e-03 0.0 
-1.634420924157e-03 1.830385152401e-03 0.0 
0.0 0.0 0.0 
-1.538843919887e-03 1.852651733342e-03 0.0 
1.852651733342e-03 5.914223724522e-03 0.0 
0.0 0.0 0.0 
2.298161213952e-03 8.634399776949e-04 0.0 
8.634399776949e-04 9.427044770203e-04 0.0 
0.0 0.0 0.0 
-1.313912245756e-03 1.547099248830e-03 0.0 
1.547099248830e-03 8.703172038173e-03 0.0 
0.0 0.0 0.0 
-7.734714628710e-04 -1.098860592117e-03 0.0 
-1.098860592117e-03 2.075584834988e-03 0.0 
0.0 0.0 0.0 
3.883575885028e-03 -6.356455892361e-04 0.0 
-6.356455892361e-04 -2.587411085182e-03 0.0 
0.0 0.0 0.0 
3.388944903573e-03 -4.787803626856e-04 0.0 
-4.787803626856e-04 -1.645055708044e-03 0.0 
0.0 0.0 0.0 
3.444755317138e-03 1.135329198564e-03 0.0 
1.135329198564e-03 -1.056740043001e-03 0.0 
0.0 0.0 0.0 
4.116755384163e-03 -4.179995177213e-04 0.0 
-4.179995177213e-04 -4.012393136516e-03 0.0 
0.0 0.0 0.0 
4.267997170762e-03 -9.626574664104e-05 0.0 
-9.626574664104e-05 -2.799267754408e-03 0.0 
0.0 0.0 0.0 
2.915239667310e-03 1.146492776361e-03 0.0 
1.146492776361e-03 -7.822271415925e-05 0.0 
0.0 0.0 0.0 
-1.252820547989e-03 2.418073601751e-03 0.0 
2.418073601751e-03 5.646608770181e-03 0.0 
0.0 0.0 0.0 
6.577557507903e-04 -2.034120761020e-03 0.0 
-2.034120761020e-03 1.158763597140e-03 0.0 
0.0 0.0 0.0 
-1.524850470147e-03 9.373754980360e-04 0.0 
9.373754980360e-04 8.953786480987e-03 0.0 
0.0 0.0 0.0 
-1.437057618061e-03 2.583890128099e-04 0.0 
2.583890128099e-04 8.122147720412e-03 0.0 
0.0 0.0 0.0 
-1.263045986872e-03 3.175214190367e-03 0.0 
3.175214190367e-03 1.635610876261e-03 0.0 
0.0 0.0 0.0 
6.736523608650e-04 -1.824597685382e-03 0.0 
-1.824597685382e-03 1.208046098267e-03 0.0 
0.0 0.0 0.0 
2.310361018159e-03 4.446101525529e-04 0.0 
4.446101525529e-04 7.550499948241e-04 0.0 
0.0 0.0 0.0 
-6.561898159437e-04 2.213426528007e-03 0.0 
2.213426528007e-03 8.906063970951e-03 0.0 
0.0 0.0 0.0 
4.105675517792e-03 1.062716991416e-03 0.0 
1.062716991416e-03 -2.378342190153e-03 0.0 
0.0 0.0 0.0 
6.391236561565e-04 -1.851123610205e-03 0.0 
-1.851123610205e-03 1.467645246747e-03 0.0 
0.0 0.0 0.0 
-1.434332331416e-03 7.322837987759e-04 0.0 
7.322837987759e-04 9.098985013547e-03 0.0 
0.0 0.0 0.0 
-1.718334039652e-03 3.037834092293e-03 0.0 
3.037834092293e-03 3.034568787851e-03 0.0 
0.0 0.0 0.0 
2.548330424973e-03 7.382516146571e-04 0.0 
7.382516146571e-04 3.887618887111e-04 0.0 
0.0 0.0 0.0 
3.709505880097e-03 6.031626606817e-04 0.0 
6.031626606817e-04 -1.750234858718e-03 0.0 
0.0 0.0 0.0 
-1.420459010983e-03 2.480710587127e-03 0.0 
2.480710587127e-03 6.096975407129e-03 0.0 
0.0 0.0 0.0 
8.568162999847e-04 -1.123608989643e-03 0.0 
-1.123608989643e-03 2.028725342770e-03 0.0 
0.0 0.0 0.0 
2.743785557109e-03 -2.763355568572e-03 0.0 
-2.763355568572e-03 -2.793598406907e-03 0.0 
0.0 0.0 0.0 
1.058821673152e-03 -8.892950401083e-04 0.0 
-8.892950401083e-04 2.014049051379e-03 0.0 
0.0 0.0 0.0 
1.088903210792e-03 -2.872665661634e-04 0.0 
-2.872665661634e-04 2.721813849507e-03 0.0 
0.0 0.0 0.0 
2.733591147082e-03 1.069886304507e-03 0.0 
1.069886304507e-03 8.962666595380e-05 0.0 
0.0 0.0 0.0 
-1.167457753888e-03 8.097743746687e-04 0.0 
8.097743746687e-04 9.595198892479e-03 0.0 
0.0 0.0 0.0 
1.002050840902e-03 2.779809669017e-03 0.0 
2.779809669017e-03 3.822466097492e-03 0.0 
0.0 0.0 0.0 
9.494445395690e-04 -4.375246726176e-04 0.0 
-4.375246726176e-04 2.741425178847e-03 0.0 
0.0 0.0 0.0 
-9.746983832084e-04 1.988871893374e-03 0.0 
1.988871893374e-03 3.856693031196e-03 0.0 
0.0 0.0 0.0 
-1.414100952285e-03 8.960501848199e-04 0.0 
8.960501848199e-04 9.178469132215e-03 0.0 
0.0 0.0 0.0 
1.193034316336e-03 2.240216103580e-03 0.0 
2.240216103580e-03 3.451858050521e-03 0.0 
0.0 0.0 0.0 
-9.842895197789e-04 9.711669366862e-04 0.0 
9.711669366862e-04 9.662937717625e-03 0.0 
0.0 0.0 0.0 
3.185039709635e-03 1.036863103815e-03 0.0 
1.036863103815e-03 -7.847278074469e-04 0.0 
0.0 0.0 0.0 
4.331607501664e-03 5.600051977125e-04 0.0 
5.600051977125e-04 -2.623775413017e-03 0.0 
0.0 0.0 0.0 
-6.008975589273e-04 -1.463523575461e-03 0.0 
-1.463523575461e-03 3.037173372874e-03 0.0 
0.0 0.0 0.0 
2.897847603620e-03 8.245599171513e-04 0.0 
8.245599171513e-04 -4.920034963824e-03 0.0 
0.0 0.0 0.0 
-8.531435870247e-04 9.211963954318e-04 0.0 
9.211963954318e-04 9.860669265014e-03 0.0 
0.0 0.0 0.0 
-9.369064990781e-04 -9.406672040264e-04 0.0 
-9.406672040264e-04 2.351095665830e-03 0.0 
0.0 0.0 0.0 
-9.733347576331e-04 1.723239721079e-03 0.0 
1.723239721079e-03 4.269389606101e-03 0.0 
0.0 0.0 0.0 
7.907320966354e-04 2.931845588735e-03 0.0 
2.931845588735e-03 4.102007217487e-03 0.0 
0.0 0.0 0.0 
-5.828721137445e-04 8.088463911339e-04 0.0 
8.088463911339e-04 1.023682906752e-02 0.0 
0.0 0.0 0.0 
1.976754677290e-03 -3.230002210509e-03 0.0 
-3.230002210509e-03 -2.087831236195e-03 0.0 
0.0 0.0 0.0 
3.201154008459e-04 3.377538942467e-03 0.0 
3.377538942467e-03 3.565805565158e-03 0.0 
0.0 0.0 0.0 
-1.230439315970e-03 1.054045585177e-03 0.0 
1.054045585177e-03 9.233799087721e-03 0.0 
0.0 0.0 0.0 
-6.972211533673e-07 -1.892019121851e-03 0.0 
-1.892019121851e-03 1.760859565951e-03 0.0 
0.0 0.0 0.0 
3.799245200979e-03 -1.504545808933e-03 0.0 
-1.504545808933e-03 -3.838973255964e-03 0.0 
0.0 0.0 0.0 
2.038992181993e-03 3.730453030405e-03 0.0 
3.730453030405e-03 -4.113742003508e-04 0.0 
0.0 0.0 0.0 
4.773290370126e-04 -2.907371191406e-03 0.0 
-2.907371191406e-03 -1.281984807879e-04 0.0 
0.0 0.0 0.0 
2.546989429985e-03 -2.697126820422e-03 0.0 
-2.697126820422e-03 -2.156055583290e-03 0.0 
0.0 0.0 0.0 
1.721648321676e-03 -3.170968301268e-03 0.0 
-3.170968301268e-03 -1.143876993572e-03 0.0 
0.0 0.0 0.0 
3.727891565825e-03 1.023895996140e-03 0.0 
1.023895996140e-03 -1.813019636691e-03 0.0 
0.0 0.0 0.0 
-2.968229701306e-04 1.983165494953e-03 0.0 
1.983165494953e-03 1.002406056085e-02 0.0 
0.0 0.0 0.0 
-1.154695335523e-03 1.551433686400e-03 0.0 
1.551433686400e-03 4.793491442476e-03 0.0 
0.0 0.0 0.0 
3.912406080233e-04 -7.518757838269e-04 0.0 
-7.518757838269e-04 3.656831472037e-03 0.0 
0.0 0.0 0.0 
4.353367944884e-03 1.867375098680e-03 0.0 
1.867375098680e-03 -2.815881830201e-03 0.0 
0.0 0.0 0.0 
-1.493912047932e-03 1.125064559124e-03 0.0 
1.125064559124e-03 8.999625234422e-03 0.0 
0.0 0.0 0.0 
3.503607971399e-03 6.925630178362e-04 0.0 
6.925630178362e-04 -4.537131750653e-03 0.0 
0.0 0.0 0.0 
9.395409208015e-04 -1.867693287486e-04 0.0 
-1.867693287486e-04 2.931766146395e-03 0.0 
0.0 0.0 0.0 
1.043177105523e-03 -3.328417169858e-03 0.0 
-3.328417169858e-03 -1.127462099851e-03 0.0 
0.0 0.0 0.0 
-1.127218224117e-03 -1.022132932041e-03 0.0 
-1.022132932041e-03 2.696077695067e-03 0.0 
0.0 0.0 0.0 
2.422959216712e-03 1.427404360768e-03 0.0 
1.427404360768e-03 7.112373587852e-04 0.0 
0.0 0.0 0.0 
2.395891836048e-03 -1.673432672954e-03 0.0 
-1.673432672954e-03 -1.219376346181e-03 0.0 
0.0 0.0 0.0 
1.522277134693e-03 2.030547160962e-03 0.0 
2.030547160962e-03 2.790786039988e-03 0.0 
0.0 0.0 0.0 
6.047151170201e-04 3.590527400344e-03 0.0 
3.590527400344e-03 2.061817857808e-03 0.0 
0.0 0.0 0.0 
-1.358281008727e-03 1.521889204372e-03 0.0 
1.521889204372e-03 8.981840241769e-03 0.0 
0.0 0.0 0.0 
1.311008095327e-03 1.702706894019e-03 0.0 
1.702706894019e-03 2.894699198746e-03 0.0 
0.0 0.0 0.0 
-1.270441566839e-03 8.835433920546e-04 0.0 
8.835433920546e-04 9.179412362707e-03 0.0 
0.0 0.0 0.0 
-7.771227292687e-04 2.249352578703e-03 0.0 
2.249352578703e-03 8.901354124300e-03 0.0 
0.0 0.0 0.0 
-1.198673369337e-03 1.201398287732e-03 0.0 
1.201398287732e-03 9.490061989345e-03 0.0 
0.0 0.0 0.0 
-1.125152402418e-03 1.387344787007e-03 0.0 
1.387344787007e-03 9.498502134781e-03 0.0 
0.0 0.0 0.0 
3.079877500156e-03 3.367125221303e-03 0.0 
3.367125221303e-03 -2.885661895032e-03 0.0 
0.0 0.0 0.0 
2.444153766556e-04 -8.558402124082e-04 0.0 
-8.558402124082e-04 3.678379871554e-03 0.0 
0.0 0.0 0.0 
-1.174979070773e-03 1.235672498139e-03 0.0 
1.235672498139e-03 9.258238813408e-03 0.0 
0.0 0.0 0.0 
3.385830276127e-03 2.579757783660e-03 0.0 
2.579757783660e-03 -1.480472387546e-03 0.0 
0.0 0.0 0.0 
-1.404180270989e-03 1.364873590926e-03 0.0 
1.364873590926e-03 5.393501616082e-03 0.0 
0.0 0.0 0.0 
1.046235652718e-03 1.821825756147e-03 0.0 
1.821825756147e-03 3.521331607565e-03 0.0 
0.0 0.0 0.0 
4.236705778364e-03 1.583162065601e-03 0.0 
1.583162065601e-03 -4.029420757055e-03 0.0 
0.0 0.0 0.0 
-9.048141445539e-04 -9.708278409795e-04 0.0 
-9.708278409795e-04 2.344888576656e-03 0.0 
0.0 0.0 0.0 
1.751357015922e-03 1.967668553778e-03 0.0 
1.967668553778e-03 2.073326981327e-03 0.0 
0.0 0.0 0.0 
-2.104812025461e-05 5.211237104093e-05 0.0 
5.211237104093e-05 1.538167644636e-03 0.0 
0.0 0.0 0.0 
1.616136970218e-03 3.287616211446e-03 0.0 
3.287616211446e-03 1.414983891501e-03 0.0 
0.0 0.0 0.0 
2.304066218056e-03 1.100843552897e-03 0.0 
1.100843552897e-03 9.109764104247e-04 0.0 
0.0 0.0 0.0 
-8.856609454779e-04 1.504543030301e-03 0.0 
1.504543030301e-03 9.719262942189e-03 0.0 
0.0 0.0 0.0 
-7.821031436770e-04 1.716321870125e-03 0.0 
1.716321870125e-03 9.685227592396e-03 0.0 
0.0 0.0 0.0 
2.477965438878e-03 1.174551067797e-03 0.0 
1.174551067797e-03 7.477557661759e-04 0.0 
0.0 0.0 0.0 
-1.058197264095e-03 1.144677383448e-03 0.0 
1.144677383448e-03 9.707213339935e-03 0.0 
0.0 0.0 0.0 
4.005532474744e-03 2.354118740095e-03 0.0 
2.354118740095e-03 -2.319338404504e-03 0.0 
0.0 0.0 0.0 
2.214162345178e-04 2.978566478908e-03 0.0 
2.978566478908e-03 5.182399921330e-03 0.0 
0.0 0.0 0.0 
-1.627577672940e-03 1.188642403807e-03 0.0 
1.188642403807e-03 6.013561438186e-03 0.0 
0.0 0.0 0.0 
-4.530266372361e-04 2.661374093189e-03 0.0 
2.661374093189e-03 7.731738945760e-03 0.0 
0.0 0.0 0.0 
-1.776140631560e-03 1.068377345838e-03 0.0 
1.068377345838e-03 6.629550903285e-03 0.0 
0.0 0.0 0.0 
-1.833488565188e-03 1.028260145347e-03 0.0 
1.028260145347e-03 6.930189781863e-03 0.0 
0.0 0.0 0.0 
4.090506365943e-03 1.642458720818e-03 0.0 
1.642458720818e-03 -2.363760890535e-03 0.0 
0.0 0.0 0.0 
-1.855941693438e-03 9.972367951103e-04 0.0 
9.972367951103e-04 7.216393536759e-03 0.0 
0.0 0.0 0.0 
2.043307030190e-03 3.013005351360e-03 0.0 
3.013005351360e-03 1.189759833338e-03 0.0 
0.0 0.0 0.0 
2.822035770877e-03 3.129211416443e-03 0.0 
3.129211416443e-03 -3.173681257502e-04 0.0 
0.0 0.0 0.0 
4.071189588566e-03 -2.738872681762e-05 0.0 
-2.738872681762e-05 -2.538834102779e-03 0.0 
0.0 0.0 0.0 
3.695334222531e-03 -1.429291227017e-03 0.0 
-1.429291227017e-03 -3.695045134072e-03 0.0 
0.0 0.0 0.0 
4.358075397197e-03 1.108218312195e-03 0.0 
1.108218312195e-03 -2.707139657703e-03 0.0 
0.0 0.0 0.0 
-7.785729442361e-04 1.088174811312e-03 0.0 
1.088174811312e-03 9.915289789942e-03 0.0 
0.0 0.0 0.0 
-5.657574937347e-04 2.492676305049e-03 0.0 
2.492676305049e-03 8.406694476001e-03 0.0 
0.0 0.0 0.0 
2.986079355498e-04 -1.032291836551e-03 0.0 
-1.032291836551e-03 3.240432475622e-03 0.0 
0.0 0.0 0.0 
1.393898396405e-03 1.937768663302e-03 0.0 
1.937768663302e-03 2.797212980164e-03 0.0 
0.0 0.0 0.0 
2.777820636909e-03 -1.353514520426e-03 0.0 
-1.353514520426e-03 -1.271646878679e-03 0.0 
0.0 0.0 0.0 
-9.756013198707e-04 1.373184560875e-03 0.0 
1.373184560875e-03 9.499665940469e-03 0.0 
0.0 0.0 0.0 
4.240366661742e-03 4.951711956798e-04 0.0 
4.951711956798e-04 -2.617881473567e-03 0.0 
0.0 0.0 0.0 
3.588062975379e-05 -7.819156627173e-04 0.0 
-7.819156627173e-04 4.149073413757e-03 0.0 
0.0 0.0 0.0 
-1.049813964384e-03 1.190207633063e-03 0.0 
1.190207633063e-03 9.490863463200e-03 0.0 
0.0 0.0 0.0 
-1.249758232615e-03 1.452428548631e-03 0.0 
1.452428548631e-03 9.247202614822e-03 0.0 
0.0 0.0 0.0 
2.983683461757e-03 6.401825377167e-04 0.0 
6.401825377167e-04 -4.544899244343e-04 0.0 
0.0 0.0 0.0 
4.278802342899e-03 1.736246342595e-03 0.0 
1.736246342595e-03 -2.603081290012e-03 0.0 
0.0 0.0 0.0 
2.075742809029e-04 2.918231886092e-03 0.0 
2.918231886092e-03 5.558785647441e-03 0.0 
0.0 0.0 0.0 
-8.781997730496e-04 2.781647205505e-03 0.0 
2.781647205505e-03 6.053906183717e-03 0.0 
0.0 0.0 0.0 
3.267177717399e-03 -2.445601435243e-03 0.0 
-2.445601435243e-03 -3.530164552808e-03 0.0 
0.0 0.0 0.0 
4.152306836207e-03 4.456591694691e-04 0.0 
4.456591694691e-04 -3.846729446863e-03 0.0 
0.0 0.0 0.0 
9.783888215529e-04 3.552638811979e-03 0.0 
3.552638811979e-03 1.235984943999e-03 0.0 
0.0 0.0 0.0 
1.433547178891e-04 3.316759818972e-03 0.0 
3.316759818972e-03 3.575158811027e-03 0.0 
0.0 0.0 0.0 
-1.234127013802e-04 -6.938932802219e-04 0.0 
-6.938932802219e-04 4.578990220817e-03 0.0 
0.0 0.0 0.0 
-1.323755483153e-03 1.258936329347e-03 0.0 
1.258936329347e-03 9.256000201084e-03 0.0 
0.0 0.0 0.0 
4.383924048584e-03 1.190980232747e-03 0.0 
1.190980232747e-03 -2.520259030765e-03 0.0 
0.0 0.0 0.0 
1.262911826241e-04 3.222736984124e-03 0.0 
3.222736984124e-03 4.536283800951e-03 0.0 
0.0 0.0 0.0 
2.128953189142e-03 8.226555334512e-04 0.0 
8.226555334512e-04 1.209566549158e-03 0.0 
0.0 0.0 0.0 
-9.801130735457e-04 9.171889873241e-04 0.0 
9.171889873241e-04 9.861636230190e-03 0.0 
0.0 0.0 0.0 
-1.409962785126e-05 2.934783512668e-03 0.0 
2.934783512668e-03 6.204177041741e-03 0.0 
0.0 0.0 0.0 
-1.441687990195e-03 1.135712079890e-03 0.0 
1.135712079890e-03 8.756697918834e-03 0.0 
0.0 0.0 0.0 
1.707877514786e-03 1.590667814201e-05 0.0 
1.590667814201e-05 1.707815178015e-03 0.0 
0.0 0.0 0.0 
4.097141369122e-03 5.683611411542e-04 0.0 
5.683611411542e-04 -2.303850415369e-03 0.0 
0.0 0.0 0.0 
2.069315772610e-03 5.789966234040e-04 0.0 
5.789966234040e-04 1.232182019308e-03 0.0 
0.0 0.0 0.0 
1.341601596996e-03 3.377633480232e-03 0.0 
3.377633480232e-03 1.403065835379e-03 0.0 
0.0 0.0 0.0 
-8.318034820111e-04 1.260196439415e-03 0.0 
1.260196439415e-03 9.940194103646e-03 0.0 
0.0 0.0 0.0 
-1.628687497796e-04 2.931459137803e-03 0.0 
2.931459137803e-03 6.840304846871e-03 0.0 
0.0 0.0 0.0 
3.445635116599e-03 5.367362856349e-04 0.0 
5.367362856349e-04 -1.380340572571e-03 0.0 
0.0 0.0 0.0 
4.084336790946e-03 6.329955837307e-04 0.0 
6.329955837307e-04 -4.332681338022e-03 0.0 
0.0 0.0 0.0 
1.006033605347e-03 2.700452735202e-03 0.0 
2.700452735202e-03 3.585591661776e-03 0.0 
0.0 0.0 0.0 
1.612939169308e-03 3.222244741895e-03 0.0 
3.222244741895e-03 1.653417964210e-03 0.0 
0.0 0.0 0.0 
4.248710872726e-03 1.838356570338e-03 0.0 
1.838356570338e-03 -2.240390122241e-03 0.0 
0.0 0.0 0.0 
3.162052238577e-03 6.769052412249e-04 0.0 
6.769052412249e-04 -7.307825441497e-04 0.0 
0.0 0.0 0.0 
1.524616815364e-03 -5.339300267982e-04 0.0 
-5.339300267982e-04 1.530112748479e-03 0.0 
0.0 0.0 0.0 
3.890479737054e-03 -6.219147562671e-04 0.0 
-6.219147562671e-04 -4.128151891603e-03 0.0 
0.0 0.0 0.0 
3.908989120623e-03 4.875487596710e-04 0.0 
4.875487596710e-04 -2.137344307683e-03 0.0 
0.0 0.0 0.0 
-1.219598421382e-03 2.254902826053e-03 0.0 
2.254902826053e-03 7.355353271215e-03 0.0 
0.0 0.0 0.0 
-2.398503057949e-04 -7.380742329127e-04 0.0 
-7.380742329127e-04 4.585743449255e-03 0.0 
0.0 0.0 0.0 
-1.018763963571e-03 2.453497226882e-03 0.0 
2.453497226882e-03 7.090715273918e-03 0.0 
0.0 0.0 0.0 
8.360459125700e-04 2.866560521070e-03 0.0 
2.866560521070e-03 3.810725149809e-03 0.0 
0.0 0.0 0.0 
-1.388834479405e-03 2.035054154741e-03 0.0 
2.035054154741e-03 7.579803302042e-03 0.0 
0.0 0.0 0.0 
-1.621341916007e-03 1.561742272200e-03 0.0 
1.561742272200e-03 7.887512135699e-03 0.0 
0.0 0.0 0.0 
-5.945734930980e-04 2.934302171690e-03 0.0 
2.934302171690e-03 5.655343998902e-03 0.0 
0.0 0.0 0.0 
1.706705634510e-03 1.701216644767e-03 0.0 
1.701216644767e-03 2.144680338732e-03 0.0 
0.0 0.0 0.0 
2.814345068021e-04 -9.997660078255e-04 0.0 
-9.997660078255e-04 3.179519241420e-03 0.0 
0.0 0.0 0.0 
-1.288267482678e-03 1.285105947898e-03 0.0 
1.285105947898e-03 9.009864077512e-03 0.0 
0.0 0.0 0.0 
-6.521826423334e-04 1.699532699709e-03 0.0 
1.699532699709e-03 9.686822074910e-03 0.0 
0.0 0.0 0.0 
-1.525531812596e-03 1.801082392908e-03 0.0 
1.801082392908e-03 7.758058491242e-03 0.0 
0.0 0.0 0.0 
4.508757624261e-03 1.284244100914e-03 0.0 
1.284244100914e-03 -2.982229103366e-03 0.0 
0.0 0.0 0.0 
8.209523457725e-04 2.709492915981e-03 0.0 
2.709492915981e-03 4.335905309013e-03 0.0 
0.0 0.0 0.0 
-7.596189172194e-04 1.020281696838e-03 0.0 
1.020281696838e-03 1.010942613089e-02 0.0 
0.0 0.0 0.0 
2.335144374912e-03 3.108004630172e-03 0.0 
3.108004630172e-03 -7.581097662823e-05 0.0 
0.0 0.0 0.0 
1.801069626572e-03 3.225961788948e-03 0.0 
3.225961788948e-03 8.356869270727e-04 0.0 
0.0 0.0 0.0 
4.503721610666e-03 1.235836972386e-03 0.0 
1.235836972386e-03 -2.717956686994e-03 0.0 
0.0 0.0 0.0 
-1.214169463933e-03 1.482036382255e-03 0.0 
1.482036382255e-03 8.986489526863e-03 0.0 
0.0 0.0 0.0 
-2.376440445792e-04 3.223583822522e-03 0.0 
3.223583822522e-03 3.373274160319e-03 0.0 
0.0 0.0 0.0 
2.079578766490e-03 2.912159694136e-03 0.0 
2.912159694136e-03 8.167551007283e-04 0.0 
0.0 0.0 0.0 
-9.330399119811e-05 3.393438526581e-03 0.0 
3.393438526581e-03 3.349509036937e-03 0.0 
0.0 0.0 0.0 
2.089838289804e-03 1.724454293526e-03 0.0 
1.724454293526e-03 1.381141108107e-03 0.0 
0.0 0.0 0.0 
5.831593622367e-04 2.712951011651e-03 0.0 
2.712951011651e-03 4.850592414507e-03 0.0 
0.0 0.0 0.0 
4.475381592777e-03 5.372982231363e-04 0.0 
5.372982231363e-04 -2.838177091751e-03 0.0 
0.0 0.0 0.0 
2.806161120445e-03 -7.411026499661e-04 0.0 
-7.411026499661e-04 -4.666241972461e-03 0.0 
0.0 0.0 0.0 
-6.545697659917e-04 1.972656907037e-03 0.0 
1.972656907037e-03 9.348277027103e-03 0.0 
0.0 0.0 0.0 
-5.313793779570e-04 3.048315699494e-03 0.0 
3.048315699494e-03 3.999687976508e-03 0.0 
0.0 0.0 0.0 
3.133875954189e-03 -9.387652790091e-04 0.0 
-9.387652790091e-04 -1.505265949335e-03 0.0 
0.0 0.0 0.0 
8.406169006230e-04 2.661445465849e-03 0.0 
2.661445465849e-03 4.142222931026e-03 0.0 
0.0 0.0 0.0 
-1.436685529319e-03 1.320262664226e-03 0.0 
1.320262664226e-03 9.006209426587e-03 0.0 
0.0 0.0 0.0 
5.474613306764e-04 -1.067054854341e-03 0.0 
-1.067054854341e-03 2.620831952885e-03 0.0 
0.0 0.0 0.0 
3.411482998100e-03 2.867633827127e-03 0.0 
2.867633827127e-03 -1.115336578543e-03 0.0 
0.0 0.0 0.0 
2.569683162462e-03 -4.097920107823e-04 0.0 
-4.097920107823e-04 -5.029881572857e-03 0.0 
0.0 0.0 0.0 
-3.186094392524e-04 -6.578830840386e-04 0.0 
-6.578830840386e-04 4.988697613768e-03 0.0 
0.0 0.0 0.0 
5.667065843646e-04 3.368721571988e-03 0.0 
3.368721571988e-03 3.005359038630e-03 0.0 
0.0 0.0 0.0 
2.231866676768e-03 2.153159771007e-03 0.0 
2.153159771007e-03 1.371517060774e-03 0.0 
0.0 0.0 0.0 
3.191916232654e-04 2.930284752108e-03 0.0 
2.930284752108e-03 5.290218102572e-03 0.0 
0.0 0.0 0.0 
1.169341615589e-03 -1.582294111858e-05 0.0 
-1.582294111858e-05 -4.793351768341e-03 0.0 
0.0 0.0 0.0 
8.115594606699e-04 -9.606942020911e-04 0.0 
-9.606942020911e-04 2.602798407455e-03 0.0 
0.0 0.0 0.0 
2.992170936115e-03 3.325860970757e-03 0.0 
3.325860970757e-03 -1.151297965662e-03 0.0 
0.0 0.0 0.0 
-1.604264311316e-03 1.176903403562e-03 0.0 
1.176903403562e-03 8.752562708858e-03 0.0 
0.0 0.0 0.0 
9.037676498957e-06 -1.723941821336e-03 0.0 
-1.723941821336e-03 2.076143564543e-03 0.0 
0.0 0.0 0.0 
4.508126386393e-03 1.162262399502e-03 0.0 
1.162262399502e-03 -2.941988479084e-03 0.0 
0.0 0.0 0.0 
-1.128523862021e-04 -8.281240885763e-04 0.0 
-8.281240885763e-04 4.157083080055e-03 0.0 
0.0 0.0 0.0 
1.761023255020e-03 3.167384776972e-03 0.0 
3.167384776972e-03 1.167896885891e-03 0.0 
0.0 0.0 0.0 
4.608161895567e-03 1.259279510132e-03 0.0 
1.259279510132e-03 -3.266381214952e-03 0.0 
0.0 0.0 0.0 
4.282508081790e-04 3.321357008462e-03 0.0 
3.321357008462e-03 3.786099487909e-03 0.0 
0.0 0.0 0.0 
2.316840869613e-03 -2.255128018617e-03 0.0 
-2.255128018617e-03 -4.696709487949e-03 0.0 
0.0 0.0 0.0 
5.167516578140e-04 3.030622826367e-03 0.0 
3.030622826367e-03 4.454990754976e-03 0.0 
0.0 0.0 0.0 
2.180743057120e-03 1.508613402830e-03 0.0 
1.508613402830e-03 1.412944147553e-03 0.0 
0.0 0.0 0.0 
-2.518856242806e-04 2.860506253213e-03 0.0 
2.860506253213e-03 7.358381775014e-03 0.0 
0.0 0.0 0.0 
4.722047042029e-04 2.925844750726e-03 0.0 
2.925844750726e-03 4.856374465577e-03 0.0 
0.0 0.0 0.0 
4.400644484905e-03 4.567222067834e-04 0.0 
4.567222067834e-04 -3.577578843403e-03 0.0 
0.0 0.0 0.0 
6.000680326945e-05 -1.086093977764e-03 0.0 
-1.086093977764e-03 3.250375858274e-03 0.0 
0.0 0.0 0.0 
-5.391678515579e-04 1.200111245899e-03 0.0 
1.200111245899e-03 1.014926985676e-02 0.0 
0.0 0.0 0.0 
6.930099391094e-04 2.082949662246e-03 0.0 
2.082949662246e-03 4.155466091534e-03 0.0 
0.0 0.0 0.0 
1.854478485044e-03 1.793883746509e-03 0.0 
1.793883746509e-03 2.098697411520e-03 0.0 
0.0 0.0 0.0 
3.855900488752e-03 2.350055582283e-03 0.0 
2.350055582283e-03 -1.660890707234e-03 0.0 
0.0 0.0 0.0 
5.160626734542e-04 3.185759312888e-03 0.0 
3.185759312888e-03 4.093151534426e-03 0.0 
0.0 0.0 0.0 
-3.852500429651e-04 -5.735653706422e-04 0.0 
-5.735653706422e-04 4.943177392044e-03 0.0 
0.0 0.0 0.0 
-1.375006650955e-03 -5.179264754488e-04 0.0 
-5.179264754488e-04 3.869590789720e-03 0.0 
0.0 0.0 0.0 
6.041901253762e-04 2.974157665748e-03 0.0 
2.974157665748e-03 4.096903273556e-03 0.0 
0.0 0.0 0.0 
-1.341935857264e-03 1.093136273359e-03 0.0 
1.093136273359e-03 9.002761088595e-03 0.0 
0.0 0.0 0.0 
6.184231983486e-05 -9.179436480120e-04 0.0 
-9.179436480120e-04 3.688986627202e-03 0.0 
0.0 0.0 0.0 
7.449293164616e-04 -8.879265801258e-04 0.0 
-8.879265801258e-04 2.589446895471e-03 0.0 
0.0 0.0 0.0 
-1.305701669790e-03 4.257810319739e-05 0.0 
4.257810319739e-05 7.855865146329e-03 0.0 
0.0 0.0 0.0 
-1.287748601014e-03 3.171068557614e-05 0.0 
3.171068557614e-05 7.849294384405e-03 0.0 
0.0 0.0 0.0 
-1.281136645024e-03 2.220288898495e-03 0.0 
2.220288898495e-03 7.752742746629e-03 0.0 
0.0 0.0 0.0 
6.147156610865e-04 3.117563053834e-03 0.0 
3.117563053834e-03 3.677423806020e-03 0.0 
0.0 0.0 0.0 
-2.648066781200e-04 -1.527350909852e-03 0.0 
-1.527350909852e-03 2.632431918743e-03 0.0 
0.0 0.0 0.0 
-6.513541647224e-04 2.848646274607e-03 0.0 
2.848646274607e-03 6.240190992749e-03 0.0 
0.0 0.0 0.0 
2.243953353507e-03 3.021068162071e-03 0.0 
3.021068162071e-03 2.926872524467e-04 0.0 
0.0 0.0 0.0 
1.411552468255e-03 6.281959575278e-04 0.0 
6.281959575278e-04 2.305248037518e-03 0.0 
0.0 0.0 0.0 
3.513578042683e-03 2.736339435567e-03 0.0 
2.736339435567e-03 -1.716719390100e-03 0.0 
0.0 0.0 0.0 
-2.790630464421e-04 1.787531788931e-03 0.0 
1.787531788931e-03 1.018370484577e-02 0.0 
0.0 0.0 0.0 
-1.769610127368e-03 1.420488694586e-03 0.0 
1.420488694586e-03 7.681550217922e-03 0.0 
0.0 0.0 0.0 
2.110934033978e-03 3.116447060099e-03 0.0 
3.116447060099e-03 8.506007234819e-04 0.0 
0.0 0.0 0.0 
2.965004193858e-04 -1.714634768166e-03 0.0 
-1.714634768166e-03 2.072773717891e-03 0.0 
0.0 0.0 0.0 
4.220173031399e-03 1.427285634783e-03 0.0 
1.427285634783e-03 -3.306803677955e-03 0.0 
0.0 0.0 0.0 
3.481800713740e-04 -2.056051931640e-03 0.0 
-2.056051931640e-03 1.164018173341e-03 0.0 
0.0 0.0 0.0 
6.074124353712e-04 3.286200047585e-03 0.0 
3.286200047585e-03 3.294735931923e-03 0.0 
0.0 0.0 0.0 
-1.378304725096e-04 3.210558185932e-03 0.0 
3.210558185932e-03 4.310389602774e-03 0.0 
0.0 0.0 0.0 
-1.391679923519e-03 1.339159972759e-03 0.0 
1.339159972759e-03 8.750967539678e-03 0.0 
0.0 0.0 0.0 
-4.437467279503e-04 2.884151427045e-03 0.0 
2.884151427045e-03 5.888438704506e-03 0.0 
0.0 0.0 0.0 
-5.187979890544e-04 2.812906630964e-03 0.0 
2.812906630964e-03 6.471458663610e-03 0.0 
0.0 0.0 0.0 
7.963821673758e-04 -1.518909636458e-04 0.0 
-1.518909636458e-04 7.491582661376e-04 0.0 
0.0 0.0 0.0 
2.794811454758e-04 -2.065352529686e-03 0.0 
-2.065352529686e-03 1.497738224311e-03 0.0 
0.0 0.0 0.0 
-4.144333136848e-04 3.250994750644e-03 0.0 
3.250994750644e-03 3.975656660577e-03 0.0 
0.0 0.0 0.0 
-9.721254257634e-04 2.606050387809e-03 0.0 
2.606050387809e-03 6.594003197681e-03 0.0 
0.0 0.0 0.0 
-1.029843568932e-03 2.553239758614e-03 0.0 
2.553239758614e-03 7.071005743615e-03 0.0 
0.0 0.0 0.0 
1.596369743688e-03 1.423371476756e-03 0.0 
1.423371476756e-03 2.260310864326e-03 0.0 
0.0 0.0 0.0 
-3.585655289613e-04 -1.372501325424e-04 0.0 
-1.372501325424e-04 1.815551057528e-03 0.0 
0.0 0.0 0.0 
3.531272058599e-03 -1.686660436883e-03 0.0 
-1.686660436883e-03 -4.096284490018e-03 0.0 
0.0 0.0 0.0 
9.358084727382e-04 3.402887817573e-03 0.0 
3.402887817573e-03 2.200165670005e-03 0.0 
0.0 0.0 0.0 
-4.864042618680e-07 -2.030960203625e-03 0.0 
-2.030960203625e-03 1.494143879140e-03 0.0 
0.0 0.0 0.0 
-1.968647472956e-03 1.203091283508e-03 0.0 
1.203091283508e-03 6.895637774981e-03 0.0 
0.0 0.0 0.0 
-2.003694461549e-03 1.145017320004e-03 0.0 
1.145017320004e-03 7.196584359999e-03 0.0 
0.0 0.0 0.0 
-1.535147657536e-03 1.391436333963e-03 0.0 
1.391436333963e-03 8.745330204216e-03 0.0 
0.0 0.0 0.0 
2.578744477939e-03 3.407040062477e-03 0.0 
3.407040062477e-03 -1.743724211125e-03 0.0 
0.0 0.0 0.0 
-4.093774446545e-05 -1.731757810913e-03 0.0 
-1.731757810913e-03 2.325569022612e-03 0.0 
0.0 0.0 0.0 
2.189318839604e-03 1.902336201630e-04 0.0 
1.902336201630e-04 7.943499912590e-04 0.0 
0.0 0.0 0.0 
3.742539066738e-03 -4.078048638789e-04 0.0 
-4.078048638789e-04 -4.373133555860e-03 0.0 
0.0 0.0 0.0 
1.491698018021e-04 2.872183274386e-03 0.0 
2.872183274386e-03 5.950724139783e-03 0.0 
0.0 0.0 0.0 
-9.800883033810e-04 1.321162155692e-03 0.0 
1.321162155692e-03 9.726543326111e-03 0.0 
0.0 0.0 0.0 
-5.834849995696e-04 -1.611454278857e-03 0.0 
-1.611454278857e-03 2.558891900692e-03 0.0 
0.0 0.0 0.0 
5.468051423785e-05 -9.229972643153e-04 0.0 
-9.229972643153e-04 3.741479348346e-03 0.0 
0.0 0.0 0.0 
6.196343114704e-04 -2.965316816737e-04 0.0 
-2.965316816737e-04 4.882327945634e-04 0.0 
0.0 0.0 0.0 
2.216667145829e-03 -2.372661234388e-04 0.0 
-2.372661234388e-04 4.539557747978e-04 0.0 
0.0 0.0 0.0 
7.731558345596e-04 3.375071371744e-03 0.0 
3.375071371744e-03 3.003328129161e-03 0.0 
0.0 0.0 0.0 
7.851441057258e-04 -2.248026395149e-04 0.0 
-2.248026395149e-04 4.340498942939e-04 0.0 
0.0 0.0 0.0 
-8.377669268725e-04 1.317041691125e-03 0.0 
1.317041691125e-03 9.726628130775e-03 0.0 
0.0 0.0 0.0 
3.326390147292e-03 -6.788984950105e-04 0.0 
-6.788984950105e-04 -4.311062426257e-03 0.0 
0.0 0.0 0.0 
-9.371036548942e-04 2.713869696924e-03 0.0 
2.713869696924e-03 6.577326424374e-03 0.0 
0.0 0.0 0.0 
-1.036436574231e-06 3.289061453254e-03 0.0 
3.289061453254e-03 4.299194635655e-03 0.0 
0.0 0.0 0.0 
3.303110139077e-03 -1.008282349532e-03 0.0 
-1.008282349532e-03 -2.075763759786e-03 0.0 
0.0 0.0 0.0 
2.114768973584e-03 -1.223948140650e-03 0.0 
-1.223948140650e-03 8.948095764993e-05 0.0 
0.0 0.0 0.0 
-7.537893618179e-04 1.502168313667e-03 0.0 
1.502168313667e-03 9.719284243421e-03 0.0 
0.0 0.0 0.0 
1.936276790606e-03 -9.285715783283e-04 0.0 
-9.285715783283e-04 7.283053053737e-04 0.0 
0.0 0.0 0.0 
1.376542303421e-03 3.319697791022e-03 0.0 
3.319697791022e-03 1.640011357533e-03 0.0 
0.0 0.0 0.0 
1.170105904071e-03 3.360161806245e-03 0.0 
3.360161806245e-03 2.205189183128e-03 0.0 
0.0 0.0 0.0 
-1.439095572660e-03 3.218574677141e-03 0.0 
3.218574677141e-03 9.680319111780e-04 0.0 
0.0 0.0 0.0 
3.184752182870e-03 -4.580651207161e-04 0.0 
-4.580651207161e-04 -4.621825286624e-03 0.0 
0.0 0.0 0.0 
6.827955252140e-04 2.844681237576e-03 0.0 
2.844681237576e-03 4.549711386920e-03 0.0 
0.0 0.0 0.0 
-1.695784297795e-03 1.563809307158e-03 0.0 
1.563809307158e-03 8.178955772212e-03 0.0 
0.0 0.0 0.0 
7.272222120644e-04 2.804438075830e-03 0.0 
2.804438075830e-03 4.319445684157e-03 0.0 
0.0 0.0 0.0 
2.555456586077e-03 3.668381363513e-03 0.0 
3.668381363513e-03 -1.200669443213e-03 0.0 
0.0 0.0 0.0 
-9.458093892951e-04 2.154732760730e-03 0.0 
2.154732760730e-03 8.354179675509e-03 0.0 
0.0 0.0 0.0 
3.879748538085e-04 2.886701766579e-03 0.0 
2.886701766579e-03 5.293301679112e-03 0.0 
0.0 0.0 0.0 
-1.837309368543e-03 1.260699092244e-03 0.0 
1.260699092244e-03 7.156144057864e-03 0.0 
0.0 0.0 0.0 
5.459107793837e-04 2.874968632670e-03 0.0 
2.874968632670e-03 4.545472551942e-03 0.0 
0.0 0.0 0.0 
-1.413012379756e-04 -9.593332916561e-04 0.0 
-9.593332916561e-04 3.748452749682e-03 0.0 
0.0 0.0 0.0 
9.476116228591e-04 3.186694545778e-03 0.0 
3.186694545778e-03 2.854310306879e-03 0.0 
0.0 0.0 0.0 
2.784929472792e-04 -1.904500161919e-03 0.0 
-1.904500161919e-03 1.761136064144e-03 0.0 
0.0 0.0 0.0 
3.329055485413e-04 -1.891458262642e-03 0.0 
-1.891458262642e-03 1.475596945984e-03 0.0 
0.0 0.0 0.0 
-8.137839360481e-04 2.006395107995e-03 0.0 
2.006395107995e-03 9.341702467737e-03 0.0 
0.0 0.0 0.0 
2.211636985371e-03 -1.416792376167e-03 0.0 
-1.416792376167e-03 -4.091824837777e-04 0.0 
0.0 0.0 0.0 
2.364198355957e-04 3.293378003526e-03 0.0 
3.293378003526e-03 3.790815511539e-03 0.0 
0.0 0.0 0.0 
3.173025291105e-03 2.471663431191e-03 0.0 
2.471663431191e-03 -1.002860278666e-03 0.0 
0.0 0.0 0.0 
1.680144653889e-03 -6.572733266924e-04 0.0 
-6.572733266924e-04 1.389082133929e-03 0.0 
0.0 0.0 0.0 
2.738773842829e-03 2.962801074396e-03 0.0 
2.962801074396e-03 -5.677711183838e-05 0.0 
0.0 0.0 0.0 
4.569736464383e-03 5.335270240605e-04 0.0 
5.335270240605e-04 -3.721626442007e-03 0.0 
0.0 0.0 0.0 
3.506337660313e-03 -1.610030968980e-05 0.0 
-1.610030968980e-05 -1.681609663239e-03 0.0 
0.0 0.0 0.0 
4.587521548544e-03 1.327549710887e-03 0.0 
1.327549710887e-03 -3.503482659328e-03 0.0 
0.0 0.0 0.0 
-7.154099345503e-04 2.769405394127e-03 0.0 
2.769405394127e-03 6.251815543414e-03 0.0 
0.0 0.0 0.0 
4.542594825755e-03 4.767955945487e-04 0.0 
4.767955945487e-04 -3.371059876141e-03 0.0 
0.0 0.0 0.0 
-4.755624909326e-04 3.022998913903e-03 0.0 
3.022998913903e-03 5.642750899030e-03 0.0 
0.0 0.0 0.0 
1.767172115640e-03 1.515074816992e-03 0.0 
1.515074816992e-03 2.172961602868e-03 0.0 
0.0 0.0 0.0 
2.013832299501e-03 1.416846008595e-03 0.0 
1.416846008595e-03 1.502836980668e-03 0.0 
0.0 0.0 0.0 
2.936308243530e-03 2.985281673532e-03 0.0 
2.985281673532e-03 -9.814234174780e-04 0.0 
0.0 0.0 0.0 
-1.476708343199e-03 1.402423547278e-03 0.0 
1.402423547278e-03 8.470727003611e-03 0.0 
0.0 0.0 0.0 
-1.407763458826e-04 -8.080541866638e-04 0.0 
-8.080541866638e-04 4.194884595687e-03 0.0 
0.0 0.0 0.0 
-3.019696344863e-04 -8.344875537247e-04 0.0 
-8.344875537247e-04 4.200170013960e-03 0.0 
0.0 0.0 0.0 
1.499041149568e-03 3.520467119002e-03 0.0 
3.520467119002e-03 -1.429992707945e-03 0.0 
0.0 0.0 0.0 
-2.803421396623e-04 3.028480517902e-03 0.0 
3.028480517902e-03 5.243675928447e-03 0.0 
0.0 0.0 0.0 
-2.412043876735e-04 -6.044589304587e-04 0.0 
-6.044589304587e-04 4.975551512955e-03 0.0 
0.0 0.0 0.0 
-1.093230743218e-03 2.318925884981e-03 0.0 
2.318925884981e-03 4.651758492843e-03 0.0 
0.0 0.0 0.0 
-5.432765090289e-04 -1.475654231586e-03 0.0 
-1.475654231586e-03 2.832529997685e-03 0.0 
0.0 0.0 0.0 
-1.691307756811e-03 3.289761787751e-03 0.0 
3.289761787751e-03 1.640757059144e-03 0.0 
0.0 0.0 0.0 
-2.877790667277e-04 -6.906318726015e-04 0.0 
-6.906318726015e-04 4.595981124180e-03 0.0 
0.0 0.0 0.0 
4.431014330162e-03 1.437044159794e-03 0.0 
1.437044159794e-03 -3.729068831013e-03 0.0 
0.0 0.0 0.0 
-1.347443586636e-03 -4.184991394180e-04 0.0 
-4.184991394180e-04 4.091827958305e-03 0.0 
0.0 0.0 0.0 
2.043808834868e-03 2.371804813235e-03 0.0 
2.371804813235e-03 1.346079331071e-03 0.0 
0.0 0.0 0.0 
-1.625033532724e-03 1.464669676069e-03 0.0 
1.464669676069e-03 8.463269208961e-03 0.0 
0.0 0.0 0.0 
-1.569670053808e-03 1.477933639895e-03 0.0 
1.477933639895e-03 8.189604056624e-03 0.0 
0.0 0.0 0.0 
9.714177742581e-04 3.339977281337e-03 0.0 
3.339977281337e-03 2.470286797214e-03 0.0 
0.0 0.0 0.0 
-1.850157292710e-03 1.357821527928e-03 0.0 
1.357821527928e-03 6.278662087496e-03 0.0 
0.0 0.0 0.0 
-1.916260805078e-03 1.274251153058e-03 0.0 
1.274251153058e-03 6.597900902178e-03 0.0 
0.0 0.0 0.0 
-4.157102710135e-04 -7.126879020735e-04 0.0 
-7.126879020735e-04 4.600463252283e-03 0.0 
0.0 0.0 0.0 
1.985701268869e-03 -1.103731506808e-03 0.0 
-1.103731506808e-03 1.103873679473e-04 0.0 
0.0 0.0 0.0 
3.066090691803e-03 -8.489100397768e-04 0.0 
-8.489100397768e-04 -1.581778461733e-03 0.0 
0.0 0.0 0.0 
2.424060692032e-03 4.952869598648e-05 0.0 
4.952869598648e-05 4.174139755890e-04 0.0 
0.0 0.0 0.0 
3.908544745154e-03 -3.843498141191e-05 0.0 
-3.843498141191e-05 -2.218882232330e-03 0.0 
0.0 0.0 0.0 
4.409583010545e-03 1.319499107953e-03 0.0 
1.319499107953e-03 -3.144428534471e-03 0.0 
0.0 0.0 0.0 
-1.720704165223e-03 1.120289037997e-03 0.0 
1.120289037997e-03 6.331247301244e-03 0.0 
0.0 0.0 0.0 
-1.840201667113e-03 1.424750191475e-03 0.0 
1.424750191475e-03 7.952340156516e-03 0.0 
0.0 0.0 0.0 
-1.300823377537e-03 3.709538609108e-05 0.0 
3.709538609108e-05 7.847406121747e-03 0.0 
0.0 0.0 0.0 
2.057733318618e-03 1.209895427565e-03 0.0 
1.209895427565e-03 1.531930497693e-03 0.0 
0.0 0.0 0.0 
3.340757859570e-03 2.726320003553e-03 0.0 
2.726320003553e-03 -9.460178191385e-04 0.0 
0.0 0.0 0.0 
1.027542772544e-03 1.937716322595e-03 0.0 
1.937716322595e-03 3.498630864844e-03 0.0 
0.0 0.0 0.0 
-7.311291161102e-04 -2.906577706509e-04 0.0 
-2.906577706509e-04 5.152655163428e-03 0.0 
0.0 0.0 0.0 
3.785273226928e-03 5.506560866494e-05 0.0 
5.506560866494e-05 -2.068434220875e-03 0.0 
0.0 0.0 0.0 
-1.475113037446e-04 -6.846250276808e-04 0.0 
-6.846250276808e-04 4.979420757166e-03 0.0 
0.0 0.0 0.0 
4.447913486808e-03 -2.779949598680e-04 0.0 
-2.779949598680e-04 -3.369659453375e-03 0.0 
0.0 0.0 0.0 
1.095260850283e-03 2.166202685398e-03 0.0 
2.166202685398e-03 3.446700262545e-03 0.0 
0.0 0.0 0.0 
1.220926449498e-03 3.277649462696e-03 0.0 
3.277649462696e-03 2.478252740308e-03 0.0 
0.0 0.0 0.0 
1.260622898712e-03 2.993420216023e-03 0.0 
2.993420216023e-03 2.494886993728e-03 0.0 
0.0 0.0 0.0 
1.507447912527e-03 1.493759044601e-04 0.0 
1.493759044601e-04 2.010573558327e-03 0.0 
0.0 0.0 0.0 
7.339322495614e-04 -2.479742705862e-03 0.0 
-2.479742705862e-03 2.521027537774e-04 0.0 
0.0 0.0 0.0 
-5.123449415734e-05 3.180964514103e-03 0.0 
3.180964514103e-03 4.541624798422e-03 0.0 
0.0 0.0 0.0 
3.613155776747e-03 -4.841959619545e-04 0.0 
-4.841959619545e-04 -2.149268353868e-03 0.0 
0.0 0.0 0.0 
-2.653039031139e-04 3.173327364330e-03 0.0 
3.173327364330e-03 4.990305780780e-03 0.0 
0.0 0.0 0.0 
2.479452761870e-03 3.539348843306e-03 0.0 
3.539348843306e-03 -3.857879845655e-04 0.0 
0.0 0.0 0.0 
1.514199168955e-03 2.778643567125e-03 0.0 
2.778643567125e-03 2.244470374819e-03 0.0 
0.0 0.0 0.0 
3.722913269720e-03 -6.018148328887e-04 0.0 
-6.018148328887e-04 -2.143413047396e-03 0.0 
0.0 0.0 0.0 
2.481346371264e-06 -1.539566681317e-03 0.0 
-1.539566681317e-03 2.632619051477e-03 0.0 
0.0 0.0 0.0 
-3.840261687466e-04 3.084650750407e-03 0.0 
3.084650750407e-03 5.002682895298e-03 0.0 
0.0 0.0 0.0 
-8.350107512586e-04 4.107400712117e-03 0.0 
4.107400712117e-03 -6.825445974512e-04 0.0 
0.0 0.0 0.0 
2.810968596013e-03 2.396411465248e-03 0.0 
2.396411465248e-03 -3.008018601811e-04 0.0 
0.0 0.0 0.0 
-7.723824596134e-04 3.697521592739e-03 0.0 
3.697521592739e-03 1.178691254375e-03 0.0 
0.0 0.0 0.0 
-5.979246919352e-05 -7.584374120699e-04 0.0 
-7.584374120699e-04 1.048114531058e-03 0.0 
0.0 0.0 0.0 
-3.092165630596e-04 -1.528173983420e-03 0.0 
-1.528173983420e-03 2.839933169719e-03 0.0 
0.0 0.0 0.0 
-2.036123607752e-05 2.923364335492e-03 0.0 
2.923364335492e-03 5.853160213435e-03 0.0 
0.0 0.0 0.0 
-1.474077996242e-03 1.695945592256e-03 0.0 
1.695945592256e-03 8.090976649927e-03 0.0 
0.0 0.0 0.0 
-1.655605319238e-03 1.579608405127e-03 0.0 
1.579608405127e-03 5.627793739726e-03 0.0 
0.0 0.0 0.0 
0.0 1.818824742159e-03 0.0 
1.818824742159e-03 1.011330690257e-02 0.0 
0.0 0.0 0.0 
-1.884298316622e-03 3.464672762042e-03 0.0 
3.464672762042e-03 2.803946250001e-04 0.0 
0.0 0.0 0.0 
-1.747847479705e-03 1.463398841464e-03 0.0 
1.463398841464e-03 5.968863891078e-03 0.0 
0.0 0.0 0.0 
2.912910835723e-03 -8.228235752860e-04 0.0 
-8.228235752860e-04 -1.173871446691e-03 0.0 
0.0 0.0 0.0 
-7.994379878148e-04 -1.372251880439e-03 0.0 
-1.372251880439e-03 3.023582559307e-03 0.0 
0.0 0.0 0.0 
-1.719350691770e-03 1.980584347096e-03 0.0 
1.980584347096e-03 6.243369718667e-03 0.0 
0.0 0.0 0.0 
3.640586977556e-03 -1.478195026814e-03 0.0 
-1.478195026814e-03 -2.540080123051e-03 0.0 
0.0 0.0 0.0 
2.200984225145e-03 -1.371376288087e-03 0.0 
-1.371376288087e-03 -5.470486358949e-04 0.0 
0.0 0.0 0.0 
8.479993023234e-04 3.265772672448e-03 0.0 
3.265772672448e-03 3.296446272256e-03 0.0 
0.0 0.0 0.0 
2.449773877590e-03 2.179456942979e-03 0.0 
2.179456942979e-03 5.648146039898e-04 0.0 
0.0 0.0 0.0 
-4.469232914048e-04 2.712081912541e-03 0.0 
2.712081912541e-03 7.266951502252e-03 0.0 
0.0 0.0 0.0 
2.516700587245e-03 3.738166384134e-03 0.0 
3.738166384134e-03 -2.899082928548e-03 0.0 
0.0 0.0 0.0 
-3.607110502188e-04 -1.688224053025e-03 0.0 
-1.688224053025e-03 2.569430932297e-03 0.0 
0.0 0.0 0.0 
-7.923287736528e-04 -1.224041102024e-03 0.0 
-1.224041102024e-03 3.450339352806e-03 0.0 
0.0 0.0 0.0 
-4.252601379462e-05 -2.175004304125e-03 0.0 
-2.175004304125e-03 1.022887055668e-03 0.0 
0.0 0.0 0.0 
-1.854054721600e-03 1.219188438870e-03 0.0 
1.219188438870e-03 7.469588816270e-03 0.0 
0.0 0.0 0.0 
-1.588774791906e-03 1.786073594061e-03 0.0 
1.786073594061e-03 8.078904437713e-03 0.0 
0.0 0.0 0.0 
-1.028830517330e-03 -1.344862221741e-04 0.0 
-1.344862221741e-04 4.829634184093e-03 0.0 
0.0 0.0 0.0 
1.223701396404e-03 -2.936569174513e-04 0.0 
-2.936569174513e-04 2.267224775669e-04 0.0 
0.0 0.0 0.0 
2.757421279125e-04 -6.517480007205e-04 0.0 
-6.517480007205e-04 -4.594521237265e-03 0.0 
0.0 0.0 0.0 
-1.388582909138e-04 -1.778141570393e-03 0.0 
-1.778141570393e-03 1.016606886358e-03 0.0 
0.0 0.0 0.0 
-9.660212482905e-04 -1.124752625265e-03 0.0 
-1.124752625265e-03 3.435274873324e-03 0.0 
0.0 0.0 0.0 
4.371723790148e-03 -1.908763050635e-04 0.0 
-1.908763050635e-04 -3.038411364639e-03 0.0 
0.0 0.0 0.0 
3.670691733269e-03 -1.596228072011e-03 0.0 
-1.596228072011e-03 -2.963543089370e-03 0.0 
0.0 0.0 0.0 
4.345437605041e-03 -3.867278552772e-04 0.0 
-3.867278552772e-04 -3.582777699108e-03 0.0 
0.0 0.0 0.0 
-5.309373007921e-04 -1.308352668425e-03 0.0 
-1.308352668425e-03 3.302502990600e-03 0.0 
0.0 0.0 0.0 
-1.199718286711e-03 2.128844466989e-03 0.0 
2.128844466989e-03 7.769788279608e-03 0.0 
0.0 0.0 0.0 
-9.378355317813e-04 -9.798585767952e-04 0.0 
-9.798585767952e-04 3.805821614458e-03 0.0 
0.0 0.0 0.0 
4.571315937955e-03 5.135255511478e-04 0.0 
5.135255511478e-04 -3.154844772274e-03 0.0 
0.0 0.0 0.0 
-1.285303759616e-04 3.082367958333e-03 0.0 
3.082367958333e-03 5.236020503313e-03 0.0 
0.0 0.0 0.0 
-1.588127467839e-03 6.465141598809e-04 0.0 
6.465141598809e-04 8.339120376101e-03 0.0 
0.0 0.0 0.0 
1.741032148606e-03 2.244584246080e-03 0.0 
2.244584246080e-03 2.073344987182e-03 0.0 
0.0 0.0 0.0 
-1.085376453633e-03 -8.753586377287e-04 0.0 
-8.753586377287e-04 3.789379106540e-03 0.0 
0.0 0.0 0.0 
-7.389503960454e-04 -1.242154786826e-03 0.0 
-1.242154786826e-03 3.292499513135e-03 0.0 
0.0 0.0 0.0 
-1.457154018808e-03 1.797818819002e-03 0.0 
1.797818819002e-03 5.034046046158e-03 0.0 
0.0 0.0 0.0 
4.024481399530e-03 -7.556255746381e-04 0.0 
-7.556255746381e-04 -2.814703950496e-03 0.0 
0.0 0.0 0.0 
-1.042716940870e-03 -7.355484436044e-04 0.0 
-7.355484436044e-04 4.112645038233e-03 0.0 
0.0 0.0 0.0 
-1.093927008346e-03 6.853993593102e-05 0.0 
6.853993593102e-05 9.229215256205e-03 0.0 
0.0 0.0 0.0 
-1.182638796186e-03 5.818665845379e-05 0.0 
5.818665845379e-05 8.898477951188e-03 0.0 
0.0 0.0 0.0 
-1.549158164488e-03 1.693542486196e-03 0.0 
1.693542486196e-03 5.332910508327e-03 0.0 
0.0 0.0 0.0 
-7.083752537316e-04 -1.079778769106e-03 0.0 
-1.079778769106e-03 3.709555535831e-03 0.0 
0.0 0.0 0.0 
2.557307729590e-03 -2.350099286366e-03 0.0 
-2.350099286366e-03 -2.051840081641e-03 0.0 
0.0 0.0 0.0 
6.244769531150e-05 3.854882037411e-03 0.0 
3.854882037411e-03 7.332378974056e-04 0.0 
0.0 0.0 0.0 
1.148453282292e-03 2.027776969553e-03 0.0 
2.027776969553e-03 3.477296158163e-03 0.0 
0.0 0.0 0.0 
-2.394204454218e-04 -2.060266366427e-03 0.0 
-2.060266366427e-03 8.818670737945e-04 0.0 
0.0 0.0 0.0 
2.488492698061e-03 -2.180151570740e-03 0.0 
-2.180151570740e-03 -1.377189360410e-03 0.0 
0.0 0.0 0.0 
2.876764750017e-03 2.520592857730e-03 0.0 
2.520592857730e-03 -7.723031998508e-05 0.0 
0.0 0.0 0.0 
-1.539160488214e-03 1.274388949495e-03 0.0 
1.274388949495e-03 5.718129796458e-03 0.0 
0.0 0.0 0.0 
-1.165587103771e-03 -6.308044461495e-04 0.0 
-6.308044461495e-04 4.088496613585e-03 0.0 
0.0 0.0 0.0 
-9.623215203216e-04 -5.550989183025e-05 0.0 
-5.550989183025e-05 2.539446455350e-03 0.0 
0.0 0.0 0.0 
-1.964902741997e-03 1.235024917664e-03 0.0 
1.235024917664e-03 7.727611518769e-03 0.0 
0.0 0.0 0.0 
-8.868462564277e-04 -1.007563169216e-03 0.0 
-1.007563169216e-03 3.698302184663e-03 0.0 
0.0 0.0 0.0 
2.749329355025e-03 -1.282370298381e-03 0.0 
-1.282370298381e-03 -1.444822943728e-03 0.0 
0.0 0.0 0.0 
-2.975637990826e-04 -1.696299928052e-03 0.0 
-1.696299928052e-03 2.321518331415e-03 0.0 
0.0 0.0 0.0 
1.068308059473e-04 2.868328875937e-03 0.0 
2.868328875937e-03 -2.447040703089e-03 0.0 
0.0 0.0 0.0 
-7.113676822473e-04 6.670919214559e-05 0.0 
6.670919214559e-05 1.015552337883e-02 0.0 
0.0 0.0 0.0 
3.054272675358e-03 -1.715572111807e-03 0.0 
-1.715572111807e-03 -2.221228593300e-03 0.0 
0.0 0.0 0.0 
1.707962136949e-03 9.107777253366e-04 0.0 
9.107777253366e-04 2.037034403413e-03 0.0 
0.0 0.0 0.0 
1.534224067045e-03 2.887774053834e-03 0.0 
2.887774053834e-03 2.512107670725e-03 0.0 
0.0 0.0 0.0 
-8.443023734090e-04 -8.535780579177e-04 0.0 
-8.535780579177e-04 4.063976348082e-03 0.0 
0.0 0.0 0.0 
-9.938493111712e-04 -7.747696112336e-04 0.0 
-7.747696112336e-04 4.051527275864e-03 0.0 
0.0 0.0 0.0 
4.456664776258e-03 -2.304403635264e-04 0.0 
-2.304403635264e-04 -3.247776033847e-03 0.0 
0.0 0.0 0.0 
-6.395753015775e-04 -1.842176500441e-03 0.0 
-1.842176500441e-03 8.547866125923e-04 0.0 
0.0 0.0 0.0 
6.710776612364e-04 3.792856757645e-03 0.0 
3.792856757645e-03 -2.635556746697e-03 0.0 
0.0 0.0 0.0 
-9.439638529349e-04 -6.324471459132e-04 0.0 
-6.324471459132e-04 4.375745338700e-03 0.0 
0.0 0.0 0.0 
1.624577129050e-03 3.521537956947e-04 0.0 
3.521537956947e-04 2.017825469517e-03 0.0 
0.0 0.0 0.0 
1.467841574567e-03 -2.561563642738e-03 0.0 
-2.561563642738e-03 -7.889417134046e-04 0.0 
0.0 0.0 0.0 
3.297803329683e-05 3.064554165039e-03 0.0 
3.064554165039e-03 4.843010849950e-03 0.0 
0.0 0.0 0.0 
-9.413821321812e-04 2.452169057602e-03 0.0 
2.452169057602e-03 4.295363044373e-03 0.0 
0.0 0.0 0.0 
-3.501516688506e-04 2.940866172891e-03 0.0 
2.940866172891e-03 5.880046062484e-03 0.0 
0.0 0.0 0.0 
5.716267031139e-04 -3.459766494806e-04 0.0 
-3.459766494806e-04 3.948960483151e-03 0.0 
0.0 0.0 0.0 
-5.160747949964e-03 -7.067573464650e-05 0.0 
-7.067573464650e-05 -2.612542850053e-03 0.0 
0.0 0.0 0.0 
0.0 1.920659959252e-04 0.0 
1.920659959252e-04 1.085115858129e-02 0.0 
0.0 0.0 0.0 
0.0 -2.231658846960e-04 0.0 
-2.231658846960e-04 5.982051323899e-03 0.0 
0.0 0.0 0.0 
-1.257167319537e-03 -2.378651300209e-05 0.0 
-2.378651300209e-05 8.284084442154e-03 0.0 
0.0 0.0 0.0 
1.989810684288e-03 -2.196299218793e-03 0.0 
-2.196299218793e-03 -1.080703123113e-03 0.0 
0.0 0.0 0.0 
1.238672873194e-03 3.105793396898e-03 0.0 
3.105793396898e-03 2.865691701172e-03 0.0 
0.0 0.0 0.0 
4.556275586582e-03 5.054251222698e-04 0.0 
5.054251222698e-04 -3.145715959543e-03 0.0 
0.0 0.0 0.0 
2.836517197038e-04 -5.994929836125e-04 0.0 
-5.994929836125e-04 8.059640286220e-04 0.0 
0.0 0.0 0.0 
-1.985259081797e-03 3.436562045402e-03 0.0 
3.436562045402e-03 9.692482741972e-04 0.0 
0.0 0.0 0.0 
-6.166350857109e-04 5.812455641784e-04 0.0 
5.812455641784e-04 1.032341995791e-02 0.0 
0.0 0.0 0.0 
-1.452341030314e-03 2.010917501879e-03 0.0 
2.010917501879e-03 7.938031246615e-03 0.0 
0.0 0.0 0.0 
-2.035531383523e-03 1.114306932470e-03 0.0 
1.114306932470e-03 7.475379777938e-03 0.0 
0.0 0.0 0.0 
2.282786872965e-04 3.071759629197e-03 0.0 
3.071759629197e-03 6.070480736896e-03 0.0 
0.0 0.0 0.0 
-5.627496474250e-04 -1.909468347845e-05 0.0 
-1.909468347845e-05 2.080844601299e-03 0.0 
0.0 0.0 0.0 
2.638370657322e-04 2.897328042847e-03 0.0 
2.897328042847e-03 5.711081375954e-03 0.0 
0.0 0.0 0.0 
-1.352459594901e-03 1.922306804177e-03 0.0 
1.922306804177e-03 7.952427681503e-03 0.0 
0.0 0.0 0.0 
1.155487091393e-03 -2.425404048179e-03 0.0 
-2.425404048179e-03 -1.772674516809e-04 0.0 
0.0 0.0 0.0 
1.342098979063e-03 3.204796884369e-03 0.0 
3.204796884369e-03 2.003208506969e-03 0.0 
0.0 0.0 0.0 
1.936103689053e-03 -2.216421542540e-03 0.0 
-2.216421542540e-03 -7.250823499823e-04 0.0 
0.0 0.0 0.0 
-1.092422838056e-05 3.632275008234e-03 0.0 
3.632275008234e-03 1.423725089577e-03 0.0 
0.0 0.0 0.0 
1.440657541412e-03 -2.407454907022e-03 0.0 
-2.407454907022e-03 -2.763221487797e-04 0.0 
0.0 0.0 0.0 
-1.022374151741e-03 2.325477222865e-03 0.0 
2.325477222865e-03 7.544174732709e-03 0.0 
0.0 0.0 0.0 
-6.466960751674e-04 -3.801765943295e-04 0.0 
-3.801765943295e-04 5.202222273933e-03 0.0 
0.0 0.0 0.0 
3.084504376833e-03 -1.819649485742e-03 0.0 
-1.819649485742e-03 -1.910045117841e-03 0.0 
0.0 0.0 0.0 
-1.667252536202e-04 2.952920170905e-03 0.0 
2.952920170905e-03 5.525940990955e-03 0.0 
0.0 0.0 0.0 
-1.869510826023e-03 -2.080472558400e-04 0.0 
-2.080472558400e-04 -4.301384778046e-03 0.0 
0.0 0.0 0.0 
4.110286049733e-03 -8.479424038285e-04 0.0 
-8.479424038285e-04 -2.817165895702e-03 0.0 
0.0 0.0 0.0 
-1.218575345668e-03 2.013587149425e-03 0.0 
2.013587149425e-03 8.494838454967e-03 0.0 
0.0 0.0 0.0 
6.018439421127e-04 -2.431098581702e-03 0.0 
-2.431098581702e-03 6.769331631453e-04 0.0 
0.0 0.0 0.0 
9.748130625464e-04 -2.652597888986e-03 0.0 
-2.652597888986e-03 -2.741663274591e-04 0.0 
0.0 0.0 0.0 
1.626371577035e-03 3.096795854799e-03 0.0 
3.096795854799e-03 2.019001560770e-03 0.0 
0.0 0.0 0.0 
2.108928825343e-03 -2.984746454972e-03 0.0 
-2.984746454972e-03 -1.942697744782e-03 0.0 
0.0 0.0 0.0 
-1.298184106050e-03 1.960152834608e-03 0.0 
1.960152834608e-03 4.587403609321e-03 0.0 
0.0 0.0 0.0 
-1.332538580408e-03 1.938258734067e-03 0.0 
1.938258734067e-03 4.744336122281e-03 0.0 
0.0 0.0 0.0 
4.963889803840e-04 -2.463888033717e-03 0.0 
-2.463888033717e-03 6.384346679620e-04 0.0 
0.0 0.0 0.0 
2.646232174275e-03 -1.159117490525e-03 0.0 
-1.159117490525e-03 -1.108454270341e-03 0.0 
0.0 0.0 0.0 
2.825683245390e-03 2.834703299371e-03 0.0 
2.834703299371e-03 -6.214725882214e-04 0.0 
0.0 0.0 0.0 
-5.678355475724e-05 2.980308174666e-03 0.0 
2.980308174666e-03 5.522457234951e-03 0.0 
0.0 0.0 0.0 
-3.785716533755e-04 2.614599701486e-03 0.0 
2.614599701486e-03 8.190562378749e-03 0.0 
0.0 0.0 0.0 
-1.288294198474e-03 1.445926279988e-03 0.0 
1.445926279988e-03 5.105689907342e-03 0.0 
0.0 0.0 0.0 
-9.837664240977e-04 4.177378010595e-05 0.0 
4.177378010595e-05 9.561071232474e-03 0.0 
0.0 0.0 0.0 
2.329940246826e-05 2.920358358830e-03 0.0 
2.920358358830e-03 6.570132101932e-03 0.0 
0.0 0.0 0.0 
4.637972508831e-03 5.061775148809e-04 0.0 
5.061775148809e-04 -3.493962997320e-03 0.0 
0.0 0.0 0.0 
-5.881638822651e-04 3.657306469562e-03 0.0 
3.657306469562e-03 1.177171612144e-03 0.0 
0.0 0.0 0.0 
-1.160936298619e-03 2.649591072540e-03 0.0 
2.649591072540e-03 4.593572784925e-03 0.0 
0.0 0.0 0.0 
2.335998655788e-03 -1.506122858189e-03 0.0 
-1.506122858189e-03 -9.669064896221e-04 0.0 
0.0 0.0 0.0 
-5.560181880435e-04 2.765371824352e-03 0.0 
2.765371824352e-03 6.477626190883e-03 0.0 
0.0 0.0 0.0 
2.663995802779e-03 -1.199981498310e-03 0.0 
-1.199981498310e-03 -1.015245192074e-03 0.0 
0.0 0.0 0.0 
1.727424441976e-03 3.362095187698e-03 0.0 
3.362095187698e-03 -2.392957147516e-03 0.0 
0.0 0.0 0.0 
2.403681346983e-03 -9.959190053155e-04 0.0 
-9.959190053155e-04 -5.381388264181e-04 0.0 
0.0 0.0 0.0 
-2.129973061431e-04 3.454275677200e-03 0.0 
3.454275677200e-03 2.103647661794e-03 0.0 
0.0 0.0 0.0 
3.151393301196e-03 2.594753782634e-03 0.0 
2.594753782634e-03 -5.888691463620e-04 0.0 
0.0 0.0 0.0 
2.505025826170e-03 -1.082025450369e-03 0.0 
-1.082025450369e-03 -5.934576517834e-04 0.0 
0.0 0.0 0.0 
1.643633341593e-03 2.989240491469e-03 0.0 
2.989240491469e-03 1.662869475106e-03 0.0 
0.0 0.0 0.0 
-1.169734446389e-03 1.861828172406e-04 0.0 
1.861828172406e-04 9.141489640082e-03 0.0 
0.0 0.0 0.0 
2.638907553845e-04 -2.428287964787e-03 0.0 
-2.428287964787e-03 6.346556823047e-04 0.0 
0.0 0.0 0.0 
3.033986546865e-04 4.008116980845e-03 0.0 
4.008116980845e-03 -5.695401566730e-05 0.0 
0.0 0.0 0.0 
2.346855126983e-03 -8.272584920687e-04 0.0 
-8.272584920687e-04 6.697051571147e-05 0.0 
0.0 0.0 0.0 
-4.051886382188e-04 3.167782664010e-03 0.0 
3.167782664010e-03 2.762941630727e-03 0.0 
0.0 0.0 0.0 
4.663214055762e-04 1.003467810085e-03 0.0 
1.003467810085e-03 -4.767924119890e-03 0.0 
0.0 0.0 0.0 
-4.600122930142e-04 1.139462087814e-04 0.0 
1.139462087814e-04 1.042882836452e-02 0.0 
0.0 0.0 0.0 
-6.663217964201e-04 9.994332132627e-05 0.0 
9.994332132627e-05 1.015682106451e-02 0.0 
0.0 0.0 0.0 
-4.643942667638e-04 -6.268259042827e-04 0.0 
-6.268259042827e-04 6.081030869975e-04 0.0 
0.0 0.0 0.0 
2.149138822727e-03 -6.782762874381e-04 0.0 
-6.782762874381e-04 2.167227609327e-04 0.0 
0.0 0.0 0.0 
-9.286041216028e-05 -2.035158130202e-03 0.0 
-2.035158130202e-03 1.011941938361e-03 0.0 
0.0 0.0 0.0 
-2.558390362233e-04 -2.036091303949e-03 0.0 
-2.036091303949e-03 1.324195720356e-03 0.0 
0.0 0.0 0.0 
-8.474301540207e-05 2.913864131933e-03 0.0 
2.913864131933e-03 5.853833242424e-03 0.0 
0.0 0.0 0.0 
1.956014407339e-03 2.819935128139e-03 0.0 
2.819935128139e-03 1.684413051153e-03 0.0 
0.0 0.0 0.0 
9.719627482596e-05 2.979224959583e-03 0.0 
2.979224959583e-03 5.182822546927e-03 0.0 
0.0 0.0 0.0 
3.632114744935e-03 -1.430378844828e-03 0.0 
-1.430378844828e-03 -2.705971176930e-03 0.0 
0.0 0.0 0.0 
-1.386133503934e-03 1.115432536496e-04 0.0 
1.115432536496e-04 7.850941792892e-03 0.0 
0.0 0.0 0.0 
2.220168127933e-04 -4.831706072253e-04 0.0 
-4.831706072253e-04 4.185113852132e-03 0.0 
0.0 0.0 0.0 
-3.260473407185e-04 -1.826182008812e-03 0.0 
-1.826182008812e-03 1.230450756723e-03 0.0 
0.0 0.0 0.0 
1.863573147245e-03 9.514295554290e-04 0.0 
9.514295554290e-04 1.708779116999e-03 0.0 
0.0 0.0 0.0 
2.560129662725e-03 2.868015717128e-03 0.0 
2.868015717128e-03 3.156327832288e-04 0.0 
0.0 0.0 0.0 
-1.213627238523e-04 -3.569631727337e-04 0.0 
-3.569631727337e-04 1.454276391095e-03 0.0 
0.0 0.0 0.0 
-7.927352087432e-04 2.622919129817e-03 0.0 
2.622919129817e-03 6.788939921347e-03 0.0 
0.0 0.0 0.0 
4.357133113401e-03 -1.615369277365e-04 0.0 
-1.615369277365e-04 -2.919673088311e-03 0.0 
0.0 0.0 0.0 
-5.407799361317e-04 -1.888539135741e-03 0.0 
-1.888539135741e-03 8.625782623006e-04 0.0 
0.0 0.0 0.0 
4.123439310691e-03 -9.491550155603e-04 0.0 
-9.491550155603e-04 -3.060107283933e-03 0.0 
0.0 0.0 0.0 
-1.110143628328e-03 -4.401741532666e-05 0.0 
-4.401741532666e-05 4.745373675752e-03 0.0 
0.0 0.0 0.0 
-1.080398804321e-03 2.414535461047e-03 0.0 
2.414535461047e-03 7.524137303678e-03 0.0 
0.0 0.0 0.0 
-9.961937454328e-05 -2.047077132986e-03 0.0 
-2.047077132986e-03 6.779936044137e-04 0.0 
0.0 0.0 0.0 
-1.441355711480e-03 -2.916606547011e-04 0.0 
-2.916606547011e-04 4.065566871754e-03 0.0 
0.0 0.0 0.0 
-3.191964005930e-04 2.861538864190e-03 0.0 
2.861538864190e-03 6.163268086007e-03 0.0 
0.0 0.0 0.0 
1.528579994114e-03 2.271416148544e-03 0.0 
2.271416148544e-03 2.812072209270e-03 0.0 
0.0 0.0 0.0 
9.727199896949e-04 -2.496370132798e-03 0.0 
-2.496370132798e-03 1.821094902004e-04 0.0 
0.0 0.0 0.0 
-1.040203252498e-03 -3.116316485694e-04 0.0 
-3.116316485694e-04 2.533787943161e-03 0.0 
0.0 0.0 0.0 
2.607232907931e-03 2.758014062966e-03 0.0 
2.758014062966e-03 -1.087337764735e-04 0.0 
0.0 0.0 0.0 
-1.137252232925e-03 -2.310085988783e-05 0.0 
-2.310085988783e-05 9.039074953609e-03 0.0 
0.0 0.0 0.0 
-3.023291388174e-04 -2.647105172148e-03 0.0 
-2.647105172148e-03 6.504225344701e-04 0.0 
0.0 0.0 0.0 
7.824456773808e-05 3.123460265439e-03 0.0 
3.123460265439e-03 6.619907842359e-03 0.0 
0.0 0.0 0.0 
-2.556309661627e-04 2.465190334661e-03 0.0 
2.465190334661e-03 8.943905225413e-03 0.0 
0.0 0.0 0.0 
-1.229148806569e-03 1.065047160954e-05 0.0 
1.065047160954e-05 8.521549146150e-03 0.0 
0.0 0.0 0.0 
-5.882014404448e-04 1.382181087966e-03 0.0 
1.382181087966e-03 1.016933996458e-02 0.0 
0.0 0.0 0.0 
-1.778047353488e-04 2.744577554939e-03 0.0 
2.744577554939e-03 8.346457760826e-03 0.0 
0.0 0.0 0.0 
3.595324886669e-03 -1.321569872843e-03 0.0 
-1.321569872843e-03 -2.296868407058e-03 0.0 
0.0 0.0 0.0 
2.528501107857e-03 -2.111849605773e-03 0.0 
-2.111849605773e-03 -1.851970477075e-03 0.0 
0.0 0.0 0.0 
9.549106050379e-04 1.310809332907e-03 0.0 
1.310809332907e-03 3.665201683312e-03 0.0 
0.0 0.0 0.0 
-1.581214132202e-03 4.624253276729e-04 0.0 
4.624253276729e-04 -4.173999525891e-03 0.0 
0.0 0.0 0.0 
-8.090869843890e-04 -1.311997235867e-04 0.0 
-1.311997235867e-04 2.319367172644e-03 0.0 
0.0 0.0 0.0 
-1.351862797223e-03 -1.938604898620e-04 0.0 
-1.938604898620e-04 4.169249236695e-03 0.0 
0.0 0.0 0.0 
6.602221164485e-04 -2.556388862295e-03 0.0 
-2.556388862295e-03 1.954083991991e-04 0.0 
0.0 0.0 0.0 
3.095767739633e-03 -1.986187902736e-03 0.0 
-1.986187902736e-03 -2.101384217805e-03 0.0 
0.0 0.0 0.0 
-1.368973441531e-03 2.196175002731e-03 0.0 
2.196175002731e-03 4.230895138074e-03 0.0 
0.0 0.0 0.0 
-1.268651156268e-03 2.247189634179e-03 0.0 
2.247189634179e-03 4.187995883292e-03 0.0 
0.0 0.0 0.0 
-1.611506418622e-03 4.970666625556e-04 0.0 
4.970666625556e-04 8.458849607283e-03 0.0 
0.0 0.0 0.0 
4.128625034666e-03 -9.385669388388e-04 0.0 
-9.385669388388e-04 -3.127622049215e-03 0.0 
0.0 0.0 0.0 
-1.088290143647e-03 -7.657582461825e-04 0.0 
-7.657582461825e-04 2.594043114350e-03 0.0 
0.0 0.0 0.0 
1.330324207748e-03 2.633577922316e-03 0.0 
2.633577922316e-03 2.861684825104e-03 0.0 
0.0 0.0 0.0 
5.421532973648e-05 -7.361260811761e-04 0.0 
-7.361260811761e-04 5.135827030825e-03 0.0 
0.0 0.0 0.0 
1.264093041198e-04 -6.975088192894e-04 0.0 
-6.975088192894e-04 4.907108473530e-03 0.0 
0.0 0.0 0.0 
2.438311273787e-03 -1.940032901848e-03 0.0 
-1.940032901848e-03 -1.131694837951e-03 0.0 
0.0 0.0 0.0 
-1.670815359007e-03 6.096705406585e-04 0.0 
6.096705406585e-04 8.097100057581e-03 0.0 
0.0 0.0 0.0 
-1.781515589034e-03 1.358221076139e-04 0.0 
1.358221076139e-04 -3.662158918095e-03 0.0 
0.0 0.0 0.0 
-1.720754034055e-03 2.847954426526e-03 0.0 
2.847954426526e-03 3.693460626394e-03 0.0 
0.0 0.0 0.0 
1.811788072191e-03 -3.467270014175e-03 0.0 
-3.467270014175e-03 -2.610645035901e-03 0.0 
0.0 0.0 0.0 
-1.535771770991e-03 2.471331791952e-03 0.0 
2.471331791952e-03 3.910956830197e-03 0.0 
0.0 0.0 0.0 
2.393796005877e-03 2.713905540135e-03 0.0 
2.713905540135e-03 8.388482673096e-04 0.0 
0.0 0.0 0.0 
1.906094057629e-03 -2.398653107400e-03 0.0 
-2.398653107400e-03 -8.110309465904e-04 0.0 
0.0 0.0 0.0 
3.147854731587e-03 -1.958902123483e-03 0.0 
-1.958902123483e-03 -2.460448932075e-03 0.0 
0.0 0.0 0.0 
1.088579048139e-03 -3.432648461208e-03 0.0 
-3.432648461208e-03 -3.339207087843e-03 0.0 
0.0 0.0 0.0 
-5.765423267484e-04 1.687396182766e-04 0.0 
1.687396182766e-04 1.021159074262e-02 0.0 
0.0 0.0 0.0 
2.000367243187e-03 -2.377529286178e-03 0.0 
-2.377529286178e-03 -1.346105635476e-03 0.0 
0.0 0.0 0.0 
-5.168509761195e-04 6.027211042843e-04 0.0 
6.027211042843e-04 1.031948510352e-02 0.0 
0.0 0.0 0.0 
-8.020854432025e-04 2.209658685829e-04 0.0 
2.209658685829e-04 9.965860259588e-03 0.0 
0.0 0.0 0.0 
-2.193776493672e-04 2.690090677609e-04 0.0 
2.690090677609e-04 1.083711457504e-02 0.0 
0.0 0.0 0.0 
-2.068662511069e-04 -2.886709447843e-04 0.0 
-2.886709447843e-04 5.965432726424e-03 0.0 
0.0 0.0 0.0 
-1.241019823963e-03 4.704941300755e-05 0.0 
4.704941300755e-05 8.530074267977e-03 0.0 
0.0 0.0 0.0 
1.557171248926e-03 -2.442001934195e-03 0.0 
-2.442001934195e-03 -6.840695253975e-04 0.0 
0.0 0.0 0.0 
-1.045884708897e-03 1.614800246522e-03 0.0 
1.614800246522e-03 4.552765749241e-03 0.0 
0.0 0.0 0.0 
1.543173645315e-03 -2.291233086505e-03 0.0 
-2.291233086505e-03 -2.024702240699e-04 0.0 
0.0 0.0 0.0 
0.0 -6.735636085023e-04 0.0 
-6.735636085023e-04 5.382357198151e-03 0.0 
0.0 0.0 0.0 
-1.616627666978e-03 3.298044526253e-03 0.0 
3.298044526253e-03 2.347795184882e-03 0.0 
0.0 0.0 0.0 
-1.608518767252e-03 3.181901536563e-03 0.0 
3.181901536563e-03 3.047759367943e-03 0.0 
0.0 0.0 0.0 
1.643871453554e-03 1.273273151541e-03 0.0 
1.273273151541e-03 2.272279974875e-03 0.0 
0.0 0.0 0.0 
-1.561933286756e-03 3.948228893751e-04 0.0 
3.948228893751e-04 8.162393000804e-03 0.0 
0.0 0.0 0.0 
-4.835227996864e-04 4.067032661422e-04 0.0 
4.067032661422e-04 1.038908112675e-02 0.0 
0.0 0.0 0.0 
-2.630876518109e-04 2.884930446283e-03 0.0 
2.884930446283e-03 6.161742045194e-03 0.0 
0.0 0.0 0.0 
1.129802754978e-03 2.349082554927e-03 0.0 
2.349082554927e-03 3.425446904891e-03 0.0 
0.0 0.0 0.0 
-7.160030298271e-04 2.635939484078e-03 0.0 
2.635939484078e-03 7.486382279108e-03 0.0 
0.0 0.0 0.0 
-1.251272522505e-03 1.808663549066e-04 0.0 
1.808663549066e-04 8.602228912325e-03 0.0 
0.0 0.0 0.0 
5.174964477275e-04 -2.591048821117e-03 0.0 
-2.591048821117e-03 2.267490792165e-04 0.0 
0.0 0.0 0.0 
7.906313917305e-04 -2.554950556925e-03 0.0 
-2.554950556925e-03 2.208440444664e-04 0.0 
0.0 0.0 0.0 
-1.027542057809e-03 1.294148402637e-04 0.0 
1.294148402637e-04 9.392220367102e-03 0.0 
0.0 0.0 0.0 
1.183398303301e-03 2.411621536072e-03 0.0 
2.411621536072e-03 3.494510826221e-03 0.0 
0.0 0.0 0.0 
-1.848895142442e-03 8.038989355727e-04 0.0 
8.038989355727e-04 7.637877076649e-03 0.0 
0.0 0.0 0.0 
-1.287762448578e-03 4.997021621566e-05 0.0 
4.997021621566e-05 8.187482945384e-03 0.0 
0.0 0.0 0.0 
-1.276986446768e-03 8.104712494953e-05 0.0 
8.104712494953e-05 8.510710718266e-03 0.0 
0.0 0.0 0.0 
-1.330076449074e-03 1.470928156438e-04 0.0 
1.470928156438e-04 8.616758807763e-03 0.0 
0.0 0.0 0.0 
2.661825978783e-03 -1.784273437710e-03 0.0 
-1.784273437710e-03 -4.073442729307e-03 0.0 
0.0 0.0 0.0 
3.062874447852e-04 -2.440165229215e-03 0.0 
-2.440165229215e-03 6.902455775544e-04 0.0 
0.0 0.0 0.0 
-4.272753210732e-04 8.510527559362e-04 0.0 
8.510527559362e-04 1.050402037545e-02 0.0 
0.0 0.0 0.0 
-1.259067190563e-03 2.122568835309e-04 0.0 
2.122568835309e-04 8.978893728996e-03 0.0 
0.0 0.0 0.0 
5.242142589517e-04 1.978822333702e-03 0.0 
1.978822333702e-03 4.249401501986e-03 0.0 
0.0 0.0 0.0 
-5.475740312605e-04 2.720373685733e-03 0.0 
2.720373685733e-03 8.148935278666e-03 0.0 
0.0 0.0 0.0 
-7.803042130753e-04 2.704926756083e-03 0.0 
2.704926756083e-03 6.773588208517e-03 0.0 
0.0 0.0 0.0 
-7.397070133360e-04 1.435894658187e-03 0.0 
1.435894658187e-03 9.936846876095e-03 0.0 
0.0 0.0 0.0 
-1.261608719352e-03 -1.042272605211e-03 0.0 
-1.042272605211e-03 3.179728981572e-03 0.0 
0.0 0.0 0.0 
-1.204591712327e-03 -1.102235416485e-03 0.0 
-1.102235416485e-03 2.919484153389e-03 0.0 
0.0 0.0 0.0 
4.593936480151e-04 -4.926370527763e-04 0.0 
-4.926370527763e-04 3.712889167904e-03 0.0 
0.0 0.0 0.0 
5.723726667570e-04 -1.985752380227e-03 0.0 
-1.985752380227e-03 -3.764150353436e-03 0.0 
0.0 0.0 0.0 
-7.585087100385e-04 -2.006585183670e-04 0.0 
-2.006585183670e-04 2.379794885506e-03 0.0 
0.0 0.0 0.0 
0.0 2.847882178920e-03 0.0 
2.847882178920e-03 5.878756159618e-03 0.0 
0.0 0.0 0.0 
5.398308005946e-04 4.682346845190e-05 0.0 
4.682346845190e-05 8.418367254095e-04 0.0 
0.0 0.0 0.0 
-1.272161645717e-03 6.355090222315e-05 0.0 
6.355090222315e-05 8.198380676036e-03 0.0 
0.0 0.0 0.0 
1.316546467970e-03 7.751796956512e-04 0.0 
7.751796956512e-04 2.898561439913e-03 0.0 
0.0 0.0 0.0 
-2.177428546092e-04 -8.153530166917e-04 0.0 
-8.153530166917e-04 6.242624761226e-04 0.0 
0.0 0.0 0.0 
1.279266921433e-03 -3.930046712153e-04 0.0 
-3.930046712153e-04 -1.623666686300e-04 0.0 
0.0 0.0 0.0 
-2.661406632019e-04 1.247607046338e-03 0.0 
1.247607046338e-03 1.052773197869e-02 0.0 
0.0 0.0 0.0 
-1.492677214452e-03 2.067033169282e-04 0.0 
2.067033169282e-04 7.863698861878e-03 0.0 
0.0 0.0 0.0 
-4.422179306990e-04 1.123717331068e-03 0.0 
1.123717331068e-03 1.034330599344e-02 0.0 
0.0 0.0 0.0 
9.774567000385e-04 1.139713601551e-03 0.0 
1.139713601551e-03 2.936497387217e-03 0.0 
0.0 0.0 0.0 
-1.478502869851e-03 1.460402537483e-04 0.0 
1.460402537483e-04 7.869878745670e-03 0.0 
0.0 0.0 0.0 
-1.585035290686e-03 6.633265446020e-04 0.0 
6.633265446020e-04 -3.623232950710e-03 0.0 
0.0 0.0 0.0 
-2.360668625777e-04 2.016849026875e-04 0.0 
2.016849026875e-04 1.064364996756e-02 0.0 
0.0 0.0 0.0 
1.312460997405e-04 -5.064841509043e-04 0.0 
-5.064841509043e-04 1.035257279448e-03 0.0 
0.0 0.0 0.0 
-4.725536663674e-04 9.467438200669e-04 0.0 
9.467438200669e-04 1.026539501942e-02 0.0 
0.0 0.0 0.0 
0.0 -6.127710689855e-04 0.0 
-6.127710689855e-04 5.599110027132e-03 0.0 
0.0 0.0 0.0 
-5.943680733087e-04 2.383622426588e-03 0.0 
2.383622426588e-03 8.762142923098e-03 0.0 
0.0 0.0 0.0 
3.387022734505e-03 -1.530003475815e-03 0.0 
-1.530003475815e-03 -4.086178242347e-03 0.0 
0.0 0.0 0.0 
-1.720715496417e-03 9.226322156009e-04 0.0 
9.226322156009e-04 8.238645701779e-03 0.0 
0.0 0.0 0.0 
-1.407117666542e-03 -6.376000202088e-04 0.0 
-6.376000202088e-04 3.300080205591e-03 0.0 
0.0 0.0 0.0 
1.462863709349e-03 2.473260740868e-03 0.0 
2.473260740868e-03 2.873492084649e-03 0.0 
0.0 0.0 0.0 
3.905944705684e-04 2.167448306043e-03 0.0 
2.167448306043e-03 4.876163335216e-03 0.0 
0.0 0.0 0.0 
-9.130533517900e-04 1.543976095752e-04 0.0 
1.543976095752e-04 9.732233150824e-03 0.0 
0.0 0.0 0.0 
4.411341929629e-04 1.864918276155e-03 0.0 
1.864918276155e-03 4.602483298353e-03 0.0 
0.0 0.0 0.0 
1.757090531313e-03 -1.628788166286e-03 0.0 
-1.628788166286e-03 -4.586286513568e-03 0.0 
0.0 0.0 0.0 
-3.872136791827e-05 -7.306291009125e-04 0.0 
-7.306291009125e-04 5.056041094280e-03 0.0 
0.0 0.0 0.0 
3.119021680340e-03 -2.466680553935e-03 0.0 
-2.466680553935e-03 -2.835654675436e-03 0.0 
0.0 0.0 0.0 
3.410093378691e-04 -2.362003912607e-04 0.0 
-2.362003912607e-04 9.339371451860e-04 0.0 
0.0 0.0 0.0 
8.122322166799e-04 3.664919249202e-04 0.0 
3.664919249202e-04 3.578737912024e-03 0.0 
0.0 0.0 0.0 
-5.479020626008e-04 1.937816696147e-03 0.0 
1.937816696147e-03 9.807232677535e-03 0.0 
0.0 0.0 0.0 
-3.587156315245e-04 1.265831377816e-03 0.0 
1.265831377816e-03 1.033709774530e-02 0.0 
0.0 0.0 0.0 
-1.342283791777e-03 1.873604208531e-04 0.0 
1.873604208531e-04 8.176058677940e-03 0.0 
0.0 0.0 0.0 
-1.693999235462e-03 1.303838410239e-03 0.0 
1.303838410239e-03 7.990114285171e-03 0.0 
0.0 0.0 0.0 
-8.271597621845e-06 3.715585708466e-03 0.0 
3.715585708466e-03 1.427750201464e-03 0.0 
0.0 0.0 0.0 
-3.483660239803e-04 2.894098839424e-03 0.0 
2.894098839424e-03 8.244328936652e-03 0.0 
0.0 0.0 0.0 
-1.337136988669e-03 -5.828072150976e-04 0.0 
-5.828072150976e-04 3.042631686145e-03 0.0 
0.0 0.0 0.0 
1.057064175676e-03 3.727743763936e-03 0.0 
3.727743763936e-03 -1.167928223129e-03 0.0 
0.0 0.0 0.0 
1.426259947918e-03 2.418109844397e-03 0.0 
2.418109844397e-03 2.793149237799e-03 0.0 
0.0 0.0 0.0 
-1.354662649973e-03 7.611178809288e-05 0.0 
7.611178809288e-05 7.832200499328e-03 0.0 
0.0 0.0 0.0 
-5.108836804180e-04 1.878526815202e-03 0.0 
1.878526815202e-03 9.591001833158e-03 0.0 
0.0 0.0 0.0 
-1.857938183339e-04 -1.209829157915e-05 0.0 
-1.209829157915e-05 1.085098723181e-02 0.0 
0.0 0.0 0.0 
0.0 9.289690916670e-05 0.0 
9.289690916670e-05 1.087518381497e-02 0.0 
0.0 0.0 0.0 
2.732043087345e-03 8.088942141324e-05 0.0 
8.088942141324e-05 -9.736809635141e-04 0.0 
0.0 0.0 0.0 
2.207337245249e-03 -1.368571311647e-04 0.0 
-1.368571311647e-04 -8.844682265736e-04 0.0 
0.0 0.0 0.0 
-1.274512020340e-03 -2.193576307254e-05 0.0 
-2.193576307254e-05 7.879537723512e-03 0.0 
0.0 0.0 0.0 
-1.286535852793e-03 1.030329668025e-05 0.0 
1.030329668025e-05 7.827083436460e-03 0.0 
0.0 0.0 0.0 
0.0 -1.059734754202e-04 0.0 
-1.059734754202e-04 6.026259818608e-03 0.0 
0.0 0.0 0.0 
-2.119469508399e-04 4.520376083489e-06 0.0 
4.520376083489e-06 6.017219066440e-03 0.0 
0.0 0.0 0.0 
2.088410360509e-03 -5.570109675925e-05 0.0 
-5.570109675925e-05 -5.692126128337e-04 0.0 
0.0 0.0 0.0 
-1.633394609055e-03 -3.439608157584e-04 0.0 
-3.439608157584e-04 -4.414268047414e-03 0.0 
0.0 0.0 0.0 
-2.836334117423e-04 -5.169962495966e-04 0.0 
-5.169962495966e-04 5.247046121834e-03 0.0 
0.0 0.0 0.0 
6.015233116550e-04 2.863863023552e-03 0.0 
2.863863023552e-03 4.879765782990e-03 0.0 
0.0 0.0 0.0 
1.516012792591e-04 -5.325395310814e-04 0.0 
-5.325395310814e-04 1.202208665683e-03 0.0 
0.0 0.0 0.0 
5.698303096069e-05 -7.120084482784e-04 0.0 
-7.120084482784e-04 4.523495161377e-03 0.0 
0.0 0.0 0.0 
-1.284577337055e-03 -1.240226226005e-04 0.0 
-1.240226226005e-04 4.367779949880e-03 0.0 
0.0 0.0 0.0 
-1.482343629657e-03 -1.449403488905e-04 0.0 
-1.449403488905e-04 3.925112792168e-03 0.0 
0.0 0.0 0.0 
-1.185225202318e-03 2.042615213180e-04 0.0 
2.042615213180e-04 9.153681137403e-03 0.0 
0.0 0.0 0.0 
7.213608005177e-04 -3.144266441550e-03 0.0 
-3.144266441550e-03 -6.833942773050e-04 0.0 
0.0 0.0 0.0 
1.735519557316e-03 2.613995060405e-03 0.0 
2.613995060405e-03 2.264763546421e-03 0.0 
0.0 0.0 0.0 
4.353695726542e-04 -5.818747389399e-04 0.0 
-5.818747389399e-04 8.396240488895e-04 0.0 
0.0 0.0 0.0 
-1.332736932252e-03 -8.053402071360e-04 0.0 
-8.053402071360e-04 3.404197173987e-03 0.0 
0.0 0.0 0.0 
-2.744522112328e-04 2.750816329702e-03 0.0 
2.750816329702e-03 7.935704553385e-03 0.0 
0.0 0.0 0.0 
-5.880459663807e-04 -1.618072037972e-05 0.0 
-1.618072037972e-05 1.031638342105e-02 0.0 
0.0 0.0 0.0 
-1.454887831451e-03 -2.516812472822e-04 0.0 
-2.516812472822e-04 3.980419727435e-03 0.0 
0.0 0.0 0.0 
-1.234177338970e-03 5.888797886556e-05 0.0 
5.888797886556e-05 8.787417181506e-03 0.0 
0.0 0.0 0.0 
2.102671347055e-04 3.050167885297e-03 0.0 
3.050167885297e-03 5.995406554517e-03 0.0 
0.0 0.0 0.0 
-5.252669317174e-04 2.746648054312e-03 0.0 
2.746648054312e-03 7.262326807317e-03 0.0 
0.0 0.0 0.0 
-6.460655977781e-04 2.715592078417e-03 0.0 
2.715592078417e-03 7.003610643467e-03 0.0 
0.0 0.0 0.0 
-1.412063921006e-03 1.217919357509e-04 0.0 
1.217919357509e-04 7.867140986075e-03 0.0 
0.0 0.0 0.0 
2.152289326782e-03 2.494455255224e-03 0.0 
2.494455255224e-03 1.474817102360e-03 0.0 
0.0 0.0 0.0 
-4.960156553009e-04 2.133615167578e-03 0.0 
2.133615167578e-03 9.213875749858e-03 0.0 
0.0 0.0 0.0 
-9.629384458703e-04 -5.113697576375e-04 0.0 
-5.113697576375e-04 2.434088423696e-03 0.0 
0.0 0.0 0.0 
-1.351560602629e-04 -5.848516925005e-04 0.0 
-5.848516925005e-04 4.368841162645e-04 0.0 
0.0 0.0 0.0 
1.321291915986e-04 2.906326976582e-03 0.0 
2.906326976582e-03 5.937770502469e-03 0.0 
0.0 0.0 0.0 
1.882189715293e-03 1.137122969895e-03 0.0 
1.137122969895e-03 1.696363493959e-03 0.0 
0.0 0.0 0.0 
6.966043782237e-04 -3.208668244100e-03 0.0 
-3.208668244100e-03 -8.471453449932e-04 0.0 
0.0 0.0 0.0 
-1.095671993945e-03 1.009449595480e-04 0.0 
1.009449595480e-04 9.409743493361e-03 0.0 
0.0 0.0 0.0 
-1.636684524158e-04 -5.113590161344e-04 0.0 
-5.113590161344e-04 5.495434978396e-03 0.0 
0.0 0.0 0.0 
4.602867601011e-04 2.830176229587e-03 0.0 
2.830176229587e-03 4.996018733596e-03 0.0 
0.0 0.0 0.0 
3.799183050996e-04 2.978124469757e-03 0.0 
2.978124469757e-03 5.567399317461e-03 0.0 
0.0 0.0 0.0 
-1.165092751615e-03 -1.439615820439e-04 0.0 
-1.439615820439e-04 4.570062719042e-03 0.0 
0.0 0.0 0.0 
2.066810145247e-04 2.839546542734e-03 0.0 
2.839546542734e-03 -3.531977967486e-03 0.0 
0.0 0.0 0.0 
-9.310876417842e-04 1.774095963408e-03 0.0 
1.774095963408e-03 4.192451713664e-03 0.0 
0.0 0.0 0.0 
-4.509723876652e-04 3.442770736744e-03 0.0 
3.442770736744e-03 2.773697881141e-03 0.0 
0.0 0.0 0.0 
-1.678497568197e-03 9.489975586718e-04 0.0 
9.489975586718e-04 8.254788067272e-03 0.0 
0.0 0.0 0.0 
1.895534426790e-03 2.696331648290e-03 0.0 
2.696331648290e-03 1.451427395753e-03 0.0 
0.0 0.0 0.0 
-5.073731861887e-04 7.025917757447e-04 0.0 
7.025917757447e-04 1.037800628316e-02 0.0 
0.0 0.0 0.0 
5.624606957473e-04 1.398821040580e-03 0.0 
1.398821040580e-03 3.659378252187e-03 0.0 
0.0 0.0 0.0 
-8.671871515105e-04 -2.310115116464e-03 0.0 
-2.310115116464e-03 4.501486151398e-04 0.0 
0.0 0.0 0.0 
-4.975752208507e-04 -1.288223295345e-03 0.0 
-1.288223295345e-03 6.852744429933e-04 0.0 
0.0 0.0 0.0 
-1.135300742467e-03 2.226839360704e-03 0.0 
2.226839360704e-03 3.638291649535e-03 0.0 
0.0 0.0 0.0 
-1.000653957649e-03 2.713954932244e-04 0.0 
2.713954932244e-04 9.496440864937e-03 0.0 
0.0 0.0 0.0 
-1.073919903274e-03 -7.918659591353e-04 0.0 
-7.918659591353e-04 2.634443798532e-03 0.0 
0.0 0.0 0.0 
-6.110416629607e-04 1.603875333304e-03 0.0 
1.603875333304e-03 9.899604801379e-03 0.0 
0.0 0.0 0.0 
3.349494738898e-04 -2.446232319403e-04 0.0 
-2.446232319403e-04 1.137594223529e-03 0.0 
0.0 0.0 0.0 
1.096514770307e-03 1.396671695739e-03 0.0 
1.396671695739e-03 2.967084802446e-03 0.0 
0.0 0.0 0.0 
-1.467443721615e-03 4.779745517669e-04 0.0 
4.779745517669e-04 8.461307722659e-03 0.0 
0.0 0.0 0.0 
3.625713605235e-04 2.475159341710e-03 0.0 
2.475159341710e-03 4.839351363195e-03 0.0 
0.0 0.0 0.0 
1.136521391710e-03 2.606889092405e-03 0.0 
2.606889092405e-03 3.601946500470e-03 0.0 
0.0 0.0 0.0 
-1.754169204397e-03 1.092187670619e-03 0.0 
1.092187670619e-03 8.176415850203e-03 0.0 
0.0 0.0 0.0 
6.623337540639e-04 -1.383419053561e-04 0.0 
-1.383419053561e-04 3.784042242386e-03 0.0 
0.0 0.0 0.0 
-4.860873467293e-04 1.813352555190e-03 0.0 
1.813352555190e-03 9.938111261506e-03 0.0 
0.0 0.0 0.0 
-3.858156580204e-04 1.832523955488e-04 0.0 
1.832523955488e-04 1.065825612252e-02 0.0 
0.0 0.0 0.0 
-1.317501208484e-03 3.131052097298e-03 0.0 
3.131052097298e-03 2.338985181882e-03 0.0 
0.0 0.0 0.0 
-5.907892061342e-04 1.434001180145e-03 0.0 
1.434001180145e-03 9.936776718788e-03 0.0 
0.0 0.0 0.0 
1.675043441107e-05 2.979416756115e-03 0.0 
2.979416756115e-03 6.816876852978e-03 0.0 
0.0 0.0 0.0 
1.327179752975e-03 1.325647113811e-03 0.0 
1.325647113811e-03 2.986519089184e-03 0.0 
0.0 0.0 0.0 
1.128315141716e-03 2.547783233972e-03 0.0 
2.547783233972e-03 3.463805223232e-03 0.0 
0.0 0.0 0.0 
0.0 -6.436682971242e-04 0.0 
-6.436682971242e-04 5.048187132148e-03 0.0 
0.0 0.0 0.0 
-6.146474906746e-04 2.665338845334e-03 0.0 
2.665338845334e-03 7.010336333204e-03 0.0 
0.0 0.0 0.0 
-1.602601040287e-03 2.024875171634e-03 0.0 
2.024875171634e-03 -2.474868985947e-03 0.0 
0.0 0.0 0.0 
6.407912387270e-04 4.050037685151e-03 0.0 
4.050037685151e-03 -5.556456277123e-05 0.0 
0.0 0.0 0.0 
-5.534197109474e-04 2.712407738631e-03 0.0 
2.712407738631e-03 7.723001731116e-03 0.0 
0.0 0.0 0.0 
-1.569796773764e-03 9.948400052196e-04 0.0 
9.948400052196e-04 8.500820119345e-03 0.0 
0.0 0.0 0.0 
-4.628068798782e-04 -3.573098963215e-04 0.0 
-3.573098963215e-04 5.485641632460e-03 0.0 
0.0 0.0 0.0 
8.751927773749e-04 2.560765917199e-03 0.0 
2.560765917199e-03 4.157118039388e-03 0.0 
0.0 0.0 0.0 
5.687561262979e-05 -6.564588425343e-04 0.0 
-6.564588425343e-04 4.812587487989e-03 0.0 
0.0 0.0 0.0 
-8.697103335007e-04 3.184851803426e-04 0.0 
3.184851803426e-04 9.826127816757e-03 0.0 
0.0 0.0 0.0 
3.739689279894e-04 2.285093724090e-03 0.0 
2.285093724090e-03 4.550968046899e-03 0.0 
0.0 0.0 0.0 
6.437715477654e-04 -3.212740732416e-04 0.0 
-3.212740732416e-04 3.407307513183e-03 0.0 
0.0 0.0 0.0 
7.101950986237e-04 -1.984017931476e-04 0.0 
-1.984017931476e-04 3.396013966005e-03 0.0 
0.0 0.0 0.0 
-1.199718564973e-03 -5.556538626225e-04 0.0 
-5.556538626225e-04 2.858875442764e-03 0.0 
0.0 0.0 0.0 
-7.323414521254e-06 -7.450862159977e-04 0.0 
-7.450862159977e-04 5.321098019394e-03 0.0 
0.0 0.0 0.0 
-1.703161222092e-03 5.746181809436e-04 0.0 
5.746181809436e-04 8.063981286283e-03 0.0 
0.0 0.0 0.0 
-5.499756138448e-04 3.737764808163e-04 0.0 
3.737764808163e-04 1.039338517113e-02 0.0 
0.0 0.0 0.0 
-4.182300818090e-04 -1.466954369877e-03 0.0 
-1.466954369877e-03 8.735050720963e-04 0.0 
0.0 0.0 0.0 
-7.173227326481e-04 1.718443219073e-04 0.0 
1.718443219073e-04 1.021557348262e-02 0.0 
0.0 0.0 0.0 
-1.104081738781e-03 1.845534956453e-04 0.0 
1.845534956453e-04 9.424403622507e-03 0.0 
0.0 0.0 0.0 
1.327981196373e-03 9.509171044155e-05 0.0 
9.509171044155e-05 2.183556603128e-04 0.0 
0.0 0.0 0.0 
2.942259180798e-03 -1.949768480232e-03 0.0 
-1.949768480232e-03 -4.393456994598e-03 0.0 
0.0 0.0 0.0 
-4.108914455403e-04 2.783573846444e-03 0.0 
2.783573846444e-03 6.754092958918e-03 0.0 
0.0 0.0 0.0 
-2.773763786923e-04 9.943741723308e-04 0.0 
9.943741723308e-04 1.043284006098e-02 0.0 
0.0 0.0 0.0 
-5.139598928601e-04 1.772234727636e-04 0.0 
1.772234727636e-04 1.044897388496e-02 0.0 
0.0 0.0 0.0 
7.974943408109e-04 2.251828466543e-03 0.0 
2.251828466543e-03 4.158425292584e-03 0.0 
0.0 0.0 0.0 
-1.248872054731e-03 2.624689968317e-04 0.0 
2.624689968317e-04 8.778810745164e-03 0.0 
0.0 0.0 0.0 
6.139649905419e-04 -3.737459770314e-04 0.0 
-3.737459770314e-04 1.148530418815e-04 0.0 
0.0 0.0 0.0 
9.339462192981e-04 2.093276234556e-03 0.0 
2.093276234556e-03 -4.035974775815e-03 0.0 
0.0 0.0 0.0 
1.657591412985e-04 -5.266868767452e-04 0.0 
-5.266868767452e-04 2.892037766640e-04 0.0 
0.0 0.0 0.0 
-3.099657592788e-04 -1.604231244533e-03 0.0 
-1.604231244533e-03 8.509538017916e-04 0.0 
0.0 0.0 0.0 
-1.655511975061e-03 4.204059419427e-03 0.0 
4.204059419427e-03 -1.581556671590e-03 0.0 
0.0 0.0 0.0 
-1.403881260864e-03 -8.029675420932e-04 0.0 
-8.029675420932e-04 3.485688734310e-03 0.0 
0.0 0.0 0.0 
-4.359666558387e-04 -3.437708005669e-04 0.0 
-3.437708005669e-04 5.485350766834e-03 0.0 
0.0 0.0 0.0 
-5.128724388839e-04 2.420810164414e-03 0.0 
2.420810164414e-03 8.767005799099e-03 0.0 
0.0 0.0 0.0 
-1.768239591202e-03 1.343060434931e-03 0.0 
1.343060434931e-03 8.241726746223e-03 0.0 
0.0 0.0 0.0 
-1.156981744730e-03 -1.109547622033e-03 0.0 
-1.109547622033e-03 2.837867940494e-03 0.0 
0.0 0.0 0.0 
4.372884085417e-04 -6.073793277336e-04 0.0 
-6.073793277336e-04 3.752780882783e-03 0.0 
0.0 0.0 0.0 
1.290171792662e-03 4.887424869666e-04 0.0 
4.887424869666e-04 2.765394065107e-03 0.0 
0.0 0.0 0.0 
5.820378849926e-04 2.686466497940e-03 0.0 
2.686466497940e-03 4.980735614474e-03 0.0 
0.0 0.0 0.0 
7.172128864430e-05 2.892981808334e-03 0.0 
2.892981808334e-03 6.270645676083e-03 0.0 
0.0 0.0 0.0 
-2.839715064176e-04 2.827469980356e-03 0.0 
2.827469980356e-03 7.052347627536e-03 0.0 
0.0 0.0 0.0 
-4.769301286965e-04 -1.194827399109e-03 0.0 
-1.194827399109e-03 8.159582890337e-04 0.0 
0.0 0.0 0.0 
8.531172326893e-04 -1.763786434317e-03 0.0 
-1.763786434317e-03 -4.050744668947e-03 0.0 
0.0 0.0 0.0 
-3.586206402822e-04 -5.572945732567e-04 0.0 
-5.572945732567e-04 5.262016389715e-03 0.0 
0.0 0.0 0.0 
8.811135886291e-04 -8.856233348639e-05 0.0 
-8.856233348639e-05 3.614730847898e-04 0.0 
0.0 0.0 0.0 
9.192927416000e-04 -7.667911750882e-05 0.0 
-7.667911750882e-05 4.916586416266e-04 0.0 
0.0 0.0 0.0 
-6.064469271200e-04 3.761349941374e-03 0.0 
3.761349941374e-03 -6.174742331085e-04 0.0 
0.0 0.0 0.0 
1.913311995418e-04 -6.326064523927e-04 0.0 
-6.326064523927e-04 6.297948097320e-04 0.0 
0.0 0.0 0.0 
3.218924739352e-04 -1.916536847376e-04 0.0 
-1.916536847376e-04 3.863393979755e-03 0.0 
0.0 0.0 0.0 
-1.435202131903e-04 2.916864915401e-03 0.0 
2.916864915401e-03 7.703881818387e-03 0.0 
0.0 0.0 0.0 
-4.496256851954e-04 7.222142742176e-04 0.0 
7.222142742176e-04 1.037908911306e-02 0.0 
0.0 0.0 0.0 
2.660065269886e-04 2.649238788645e-03 0.0 
2.649238788645e-03 5.200680247990e-03 0.0 
0.0 0.0 0.0 
1.384486095064e-03 4.854670684675e-04 0.0 
4.854670684675e-04 2.323350877077e-03 0.0 
0.0 0.0 0.0 
-1.193778800471e-03 2.591708817560e-04 0.0 
2.591708817560e-04 8.983090733150e-03 0.0 
0.0 0.0 0.0 
0.0 1.321625793571e-03 0.0 
1.321625793571e-03 1.048898644233e-02 0.0 
0.0 0.0 0.0 
2.313009510669e-03 -3.108416810134e-03 0.0 
-3.108416810134e-03 -2.857361121488e-03 0.0 
0.0 0.0 0.0 
-1.480271018593e-03 1.814869974479e-04 0.0 
1.814869974479e-04 7.818843775691e-03 0.0 
0.0 0.0 0.0 
-3.511818110530e-04 -3.325989494365e-03 0.0 
-3.325989494365e-03 -5.204798714786e-05 0.0 
0.0 0.0 0.0 
8.322678960131e-04 -3.238816307644e-04 0.0 
-3.238816307644e-04 9.575209625856e-06 0.0 
0.0 0.0 0.0 
-1.201209883417e-04 -6.410317382409e-04 0.0 
-6.410317382409e-04 5.643646642468e-03 0.0 
0.0 0.0 0.0 
-1.889871498227e-03 1.014793908403e-03 0.0 
1.014793908403e-03 7.852642041128e-03 0.0 
0.0 0.0 0.0 
7.842098255975e-04 -2.740936653198e-04 0.0 
-2.740936653198e-04 6.838365889617e-04 0.0 
0.0 0.0 0.0 
-1.454834903792e-03 -5.793942010026e-04 0.0 
-5.793942010026e-04 3.551380953874e-03 0.0 
0.0 0.0 0.0 
-2.185258682812e-04 3.018658327700e-03 0.0 
3.018658327700e-03 7.873695672246e-03 0.0 
0.0 0.0 0.0 
-6.007520759730e-04 9.427878715332e-04 0.0 
9.427878715332e-04 1.026972829083e-02 0.0 
0.0 0.0 0.0 
-2.898581779923e-04 1.967831469785e-03 0.0 
1.967831469785e-03 9.725162900153e-03 0.0 
0.0 0.0 0.0 
-1.100329911369e-03 -2.692938348063e-04 0.0 
-2.692938348063e-04 2.765860630445e-03 0.0 
0.0 0.0 0.0 
1.119271355313e-03 2.594820884944e-04 0.0 
2.594820884944e-04 -4.572041568186e-03 0.0 
0.0 0.0 0.0 
1.182323629598e-04 -7.224696968299e-04 0.0 
-7.224696968299e-04 4.652091954615e-03 0.0 
0.0 0.0 0.0 
-2.020768655308e-04 1.421185980395e-04 0.0 
1.421185980395e-04 1.086622420434e-02 0.0 
0.0 0.0 0.0 
-2.293057386079e-04 -1.695645902020e-04 0.0 
-1.695645902020e-04 6.010429035417e-03 0.0 
0.0 0.0 0.0 
-1.268105404353e-03 3.282228064721e-05 0.0 
3.282228064721e-05 8.130921605906e-03 0.0 
0.0 0.0 0.0 
9.389847274572e-04 6.210821763551e-04 0.0 
6.210821763551e-04 2.866841027891e-03 0.0 
0.0 0.0 0.0 
3.219136412413e-04 -2.280284799846e-04 0.0 
-2.280284799846e-04 9.324208205110e-04 0.0 
0.0 0.0 0.0 
-5.129044838216e-04 1.609906395649e-03 0.0 
1.609906395649e-03 9.899931830753e-03 0.0 
0.0 0.0 0.0 
6.826193698941e-04 -3.510691687421e-04 0.0 
-3.510691687421e-04 6.955278323306e-05 0.0 
0.0 0.0 0.0 
4.112960299678e-04 2.512673242467e-04 0.0 
2.512673242467e-04 3.637435102920e-03 0.0 
0.0 0.0 0.0 
-4.892942910016e-04 2.141439885200e-03 0.0 
2.141439885200e-03 9.574770854962e-03 0.0 
0.0 0.0 0.0 
5.604906419854e-04 1.243303892363e-03 0.0 
1.243303892363e-03 -4.705787452555e-03 0.0 
0.0 0.0 0.0 
5.394874639391e-04 2.833014514053e-03 0.0 
2.833014514053e-03 4.992379958161e-03 0.0 
0.0 0.0 0.0 
-9.689020019263e-04 1.908753488753e-04 0.0 
1.908753488753e-04 9.676953131202e-03 0.0 
0.0 0.0 0.0 
-2.304332538743e-04 7.470555130090e-04 0.0 
7.470555130090e-04 1.054908367902e-02 0.0 
0.0 0.0 0.0 
0.0 1.946469660458e-03 0.0 
1.946469660458e-03 4.770213557367e-03 0.0 
0.0 0.0 0.0 
-1.099264877495e-03 2.076404697949e-05 0.0 
2.076404697949e-05 9.228641980752e-03 0.0 
0.0 0.0 0.0 
-1.414947142342e-04 2.861110361038e-03 0.0 
2.861110361038e-03 8.058082213570e-03 0.0 
0.0 0.0 0.0 
-6.492382259198e-04 1.902140829114e-03 0.0 
1.902140829114e-03 9.586973126192e-03 0.0 
0.0 0.0 0.0 
-9.932149529460e-04 1.496753607630e-04 0.0 
1.496753607630e-04 9.431148123949e-03 0.0 
0.0 0.0 0.0 
-2.442998705335e-04 2.806425358044e-03 0.0 
2.806425358044e-03 7.696919348561e-03 0.0 
0.0 0.0 0.0 
-1.343731513019e-03 -5.899870810096e-04 0.0 
-5.899870810096e-04 3.104956679721e-03 0.0 
0.0 0.0 0.0 
-1.337625191213e-03 5.567620656578e-05 0.0 
5.567620656578e-05 7.844953212033e-03 0.0 
0.0 0.0 0.0 
5.852098237511e-04 2.693452782976e-03 0.0 
2.693452782976e-03 4.771594554538e-03 0.0 
0.0 0.0 0.0 
-2.561990938968e-04 1.145848664446e-04 0.0 
1.145848664446e-04 1.068428971449e-02 0.0 
0.0 0.0 0.0 
2.102734032622e-03 -2.095425738753e-05 0.0 
-2.095425738753e-05 -8.148147897010e-04 0.0 
0.0 0.0 0.0 
-1.279070868333e-03 2.293254503008e-05 0.0 
2.293254503008e-05 7.835328569635e-03 0.0 
0.0 0.0 0.0 
-2.853863254592e-04 -1.251484869784e-04 0.0 
-1.251484869784e-04 5.856854177060e-03 0.0 
0.0 0.0 0.0 
-1.817319045831e-04 -7.450192737159e-04 0.0 
-7.450192737159e-04 1.310340147579e-03 0.0 
0.0 0.0 0.0 
1.355330093906e-03 1.054455506506e-03 0.0 
1.054455506506e-03 2.932100781660e-03 0.0 
0.0 0.0 0.0 
-6.939341857074e-04 2.187793952390e-03 0.0 
2.187793952390e-03 9.199338205224e-03 0.0 
0.0 0.0 0.0 
-4.314632223518e-04 6.667006411506e-04 0.0 
6.667006411506e-04 1.054747755256e-02 0.0 
0.0 0.0 0.0 
1.104695364111e-04 -4.910377764339e-04 0.0 
-4.910377764339e-04 1.218677332267e-03 0.0 
0.0 0.0 0.0 
6.559114416651e-04 4.472762630298e-03 0.0 
4.472762630298e-03 -2.119933180580e-03 0.0 
0.0 0.0 0.0 
-1.434455337241e-03 -5.724162699333e-05 0.0 
-5.724162699333e-05 4.062008152523e-03 0.0 
0.0 0.0 0.0 
-7.726663684311e-04 1.695150330669e-04 0.0 
1.695150330669e-04 1.000265323443e-02 0.0 
0.0 0.0 0.0 
-5.641960968214e-03 -2.845963205296e-04 0.0 
-2.845963205296e-04 -2.110326118925e-03 0.0 
0.0 0.0 0.0 
-2.691635289608e-04 1.664503944357e-03 0.0 
1.664503944357e-03 1.003894318277e-02 0.0 
0.0 0.0 0.0 
-1.089547358346e-03 1.128621491851e-04 0.0 
1.128621491851e-04 9.125227272306e-03 0.0 
0.0 0.0 0.0 
3.426868511671e-04 -3.209206000948e-03 0.0 
-3.209206000948e-03 -6.897008843462e-04 0.0 
0.0 0.0 0.0 
-1.188316271543e-03 1.640884232508e-04 0.0 
1.640884232508e-04 8.874870038776e-03 0.0 
0.0 0.0 0.0 
4.297184506479e-04 2.848117294325e-03 0.0 
2.848117294325e-03 5.412054278750e-03 0.0 
0.0 0.0 0.0 
-1.404424022436e-03 -1.143172644778e-04 0.0 
-1.143172644778e-04 4.158144398209e-03 0.0 
0.0 0.0 0.0 
-2.279386587331e-03 4.148262506987e-03 0.0 
4.148262506987e-03 2.776773856266e-04 0.0 
0.0 0.0 0.0 
-1.277689558740e-03 -7.533509430647e-04 0.0 
-7.533509430647e-04 2.919430191839e-03 0.0 
0.0 0.0 0.0 
-1.354645935519e-03 -7.553981389854e-04 0.0 
-7.553981389854e-04 3.723084175766e-03 0.0 
0.0 0.0 0.0 
-1.368431459169e-03 -3.781365772546e-05 0.0 
-3.781365772546e-05 4.279193869775e-03 0.0 
0.0 0.0 0.0 
8.377846257472e-04 2.269628693112e-03 0.0 
2.269628693112e-03 4.070544177925e-03 0.0 
0.0 0.0 0.0 
-1.463228139655e-03 -3.771787712060e-04 0.0 
-3.771787712060e-04 3.717225023669e-03 0.0 
0.0 0.0 0.0 
-1.413574360360e-03 -4.865561907980e-04 0.0 
-4.865561907980e-04 3.918970457341e-03 0.0 
0.0 0.0 0.0 
2.564499411066e-04 -6.258714363552e-04 0.0 
-6.258714363552e-04 4.605060110312e-04 0.0 
0.0 0.0 0.0 
1.005654793511e-04 -6.721688506617e-04 0.0 
-6.721688506617e-04 4.531731208970e-03 0.0 
0.0 0.0 0.0 
1.212896599461e-04 2.954268562354e-03 0.0 
2.954268562354e-03 5.942866106863e-03 0.0 
0.0 0.0 0.0 
1.462295418158e-03 3.843321918352e-03 0.0 
3.843321918352e-03 -2.640895214467e-03 0.0 
0.0 0.0 0.0 
-2.090408190326e-04 1.020379773339e-04 0.0 
1.020379773339e-04 1.067640497956e-02 0.0 
0.0 0.0 0.0 
-2.466006961273e-04 -1.094505936737e-04 0.0 
-1.094505936737e-04 5.851333728174e-03 0.0 
0.0 0.0 0.0 
-1.279951863730e-03 2.252532752570e-06 0.0 
2.252532752570e-06 8.147638039876e-03 0.0 
0.0 0.0 0.0 
-1.147338890424e-03 9.410315324011e-05 0.0 
9.410315324011e-05 9.119441478005e-03 0.0 
0.0 0.0 0.0 
-1.459061463305e-03 -5.653214302586e-04 0.0 
-5.653214302586e-04 3.738198469067e-03 0.0 
0.0 0.0 0.0 
-1.426968201678e-03 -5.674786599967e-04 0.0 
-5.674786599967e-04 3.635772396392e-03 0.0 
0.0 0.0 0.0 
-1.465837780892e-03 -3.713577924884e-04 0.0 
-3.713577924884e-04 3.846155421712e-03 0.0 
0.0 0.0 0.0 
1.446746496344e-03 1.184049362097e-03 0.0 
1.184049362097e-03 2.449265405586e-03 0.0 
0.0 0.0 0.0 
4.877817575721e-05 -2.844748461485e-03 0.0 
-2.844748461485e-03 4.406218257758e-04 0.0 
0.0 0.0 0.0 
1.789067990665e-05 3.020503324875e-03 0.0 
3.020503324875e-03 6.522844735307e-03 0.0 
0.0 0.0 0.0 
-1.228270404360e-03 8.349982710468e-05 0.0 
8.349982710468e-05 8.497355844627e-03 0.0 
0.0 0.0 0.0 
-5.212958718547e-04 1.588745032004e-03 0.0 
1.588745032004e-03 1.009126302557e-02 0.0 
0.0 0.0 0.0 
1.368901321017e-03 1.027104436009e-03 0.0 
1.027104436009e-03 2.430032501811e-03 0.0 
0.0 0.0 0.0 
-1.263008008597e-03 1.726559695308e-04 0.0 
1.726559695308e-04 8.875028004692e-03 0.0 
0.0 0.0 0.0 
-3.310770697972e-04 2.777145287210e-03 0.0 
2.777145287210e-03 7.504347314550e-03 0.0 
0.0 0.0 0.0 
7.663082533240e-04 2.318830736902e-03 0.0 
2.318830736902e-03 4.055332265250e-03 0.0 
0.0 0.0 0.0 
6.718611554883e-04 2.500854901978e-03 0.0 
2.500854901978e-03 4.686294746192e-03 0.0 
0.0 0.0 0.0 
-7.748124317415e-04 4.137363391016e-03 0.0 
4.137363391016e-03 -2.007980246040e-03 0.0 
0.0 0.0 0.0 
-3.942559224862e-04 2.795408330054e-03 0.0 
2.795408330054e-03 7.502515747730e-03 0.0 
0.0 0.0 0.0 
-2.315448774967e-04 2.961576234426e-03 0.0 
2.961576234426e-03 7.393969320628e-03 0.0 
0.0 0.0 0.0 
7.141706101144e-04 -5.090819909708e-04 0.0 
-5.090819909708e-04 3.625269340461e-04 0.0 
0.0 0.0 0.0 
-1.441057222996e-03 -5.841243800424e-04 0.0 
-5.841243800424e-04 3.532728057177e-03 0.0 
0.0 0.0 0.0 
-1.402483613189e-03 3.583287739303e-03 0.0 
3.583287739303e-03 -1.583658226356e-03 0.0 
0.0 0.0 0.0 
-4.038106405465e-04 2.869504202961e-03 0.0 
2.869504202961e-03 7.870018296377e-03 0.0 
0.0 0.0 0.0 
-9.114126292576e-04 -2.067871978366e-05 0.0 
-2.067871978366e-05 4.647816455357e-03 0.0 
0.0 0.0 0.0 
-9.518329130180e-04 -2.808987897938e-05 0.0 
-2.808987897938e-05 4.670935050618e-03 0.0 
0.0 0.0 0.0 
-8.520674967596e-04 -2.825917724737e-05 0.0 
-2.825917724737e-05 4.670800491586e-03 0.0 
0.0 0.0 0.0 
-9.391383173503e-04 -7.053637687867e-05 0.0 
-7.053637687867e-05 4.668438224915e-03 0.0 
0.0 0.0 0.0 
-8.387141529420e-04 -5.512717078052e-05 0.0 
-5.512717078052e-05 4.666325987571e-03 0.0 
0.0 0.0 0.0 
-9.273281176048e-04 -9.878560850589e-05 0.0 
-9.878560850589e-05 4.661231184859e-03 0.0 
0.0 0.0 0.0 
-8.197383120877e-04 -7.905797346615e-05 0.0 
-7.905797346615e-05 4.657559538017e-03 0.0 
0.0 0.0 0.0 
-9.143861207911e-04 -1.246114854279e-04 0.0 
-1.246114854279e-04 4.652534184085e-03 0.0 
0.0 0.0 0.0 
-7.930943186500e-04 -9.952780811527e-05 0.0 
-9.952780811527e-05 4.646588989098e-03 0.0 
0.0 0.0 0.0 
-8.984727627183e-04 -1.489503894400e-04 0.0 
-1.489503894400e-04 4.641612346570e-03 0.0 
0.0 0.0 0.0 
-7.584145744663e-04 -1.177197076142e-04 0.0 
-1.177197076142e-04 4.632540586133e-03 0.0 
0.0 0.0 0.0 
-8.790196409401e-04 -1.722755908868e-04 0.0 
-1.722755908868e-04 4.628436934473e-03 0.0 
0.0 0.0 0.0 
-7.155658877905e-04 -1.342828060863e-04 0.0 
-1.342828060863e-04 4.615246113017e-03 0.0 
0.0 0.0 0.0 
-8.559946123756e-04 -1.947457003648e-04 0.0 
-1.947457003648e-04 4.613467934985e-03 0.0 
0.0 0.0 0.0 
-6.650438709626e-04 -1.488623381995e-04 0.0 
-1.488623381995e-04 4.594830433232e-03 0.0 
0.0 0.0 0.0 
-8.296349610138e-04 -2.157062757775e-04 0.0 
-2.157062757775e-04 4.596828523723e-03 0.0 
0.0 0.0 0.0 
-6.072455280579e-04 -1.610097406800e-04 0.0 
-1.610097406800e-04 4.571233294109e-03 0.0 
0.0 0.0 0.0 
-8.006166291328e-04 -2.344643478788e-04 0.0 
-2.344643478788e-04 4.578724750505e-03 0.0 
0.0 0.0 0.0 
-5.421904803830e-04 -1.703937581940e-04 0.0 
-1.703937581940e-04 4.544525035976e-03 0.0 
0.0 0.0 0.0 
-9.585537037492e-04 1.277532886416e-03 0.0 
1.277532886416e-03 4.140163531041e-03 0.0 
0.0 0.0 0.0 
-7.700351287623e-04 -2.503532071236e-04 0.0 
-2.503532071236e-04 4.560079682332e-03 0.0 
0.0 0.0 0.0 
-4.708462866320e-04 -1.753604072964e-04 0.0 
-1.753604072964e-04 4.514963701259e-03 0.0 
0.0 0.0 0.0 
-7.387659045102e-04 -2.617416751154e-04 0.0 
-2.617416751154e-04 4.540601761375e-03 0.0 
0.0 0.0 0.0 
-1.022683274766e-03 1.102312765879e-03 0.0 
1.102312765879e-03 4.315565917786e-03 0.0 
0.0 0.0 0.0 
-3.937810690579e-04 -1.744174224490e-04 0.0 
-1.744174224490e-04 4.481926286698e-03 0.0 
0.0 0.0 0.0 
-7.082565607451e-04 -2.665664567454e-04 0.0 
-2.665664567454e-04 4.520595199363e-03 0.0 
0.0 0.0 0.0 
-3.141810394766e-04 -1.657119700590e-04 0.0 
-1.657119700590e-04 4.445538235990e-03 0.0 
0.0 0.0 0.0 
-6.809360086417e-04 -2.616442264427e-04 0.0 
-2.616442264427e-04 4.501185387745e-03 0.0 
0.0 0.0 0.0 
-2.376121977520e-04 -1.468469178788e-04 0.0 
-1.468469178788e-04 4.407237034170e-03 0.0 
0.0 0.0 0.0 
-5.206335642380e-04 1.001535209815e-03 0.0 
1.001535209815e-03 3.927866778869e-03 0.0 
0.0 0.0 0.0 
-6.609705058952e-04 -2.432599689181e-04 0.0 
-2.432599689181e-04 4.484374646430e-03 0.0 
0.0 0.0 0.0 
-1.716232107557e-04 -1.187821251327e-04 0.0 
-1.187821251327e-04 4.371841888448e-03 0.0 
0.0 0.0 0.0 
-6.514975120742e-04 -2.143367910975e-04 0.0 
-2.143367910975e-04 4.469534353400e-03 0.0 
0.0 0.0 0.0 
-1.178158021966e-04 -7.670737009178e-05 0.0 
-7.670737009178e-05 4.334313246090e-03 0.0 
0.0 0.0 0.0 
-6.323053771984e-04 -1.642164875732e-04 0.0 
-1.642164875732e-04 4.449593032267e-03 0.0 
0.0 0.0 0.0 
-8.643551230614e-05 -1.123745111375e-05 0.0 
-1.123745111375e-05 4.291226417136e-03 0.0 
0.0 0.0 0.0 
-6.156318054210e-04 -8.575758088802e-05 0.0 
-8.575758088802e-05 4.420016260336e-03 0.0 
0.0 0.0 0.0 
-1.822480384406e-05 7.972653245366e-05 0.0 
7.972653245366e-05 4.233867544134e-03 0.0 
0.0 0.0 0.0 
-6.106758591732e-04 1.338660846719e-05 0.0 
1.338660846719e-05 4.388268646271e-03 0.0 
0.0 0.0 0.0 
1.172516056802e-05 1.913312690289e-04 0.0 
1.913312690289e-04 4.175137944594e-03 0.0 
0.0 0.0 0.0 
-6.233041026145e-04 1.386145854856e-04 0.0 
1.386145854856e-04 4.350740327253e-03 0.0 
0.0 0.0 0.0 
-1.577200282003e-03 1.759243148485e-03 0.0 
1.759243148485e-03 4.523436068815e-03 0.0 
0.0 0.0 0.0 
-6.600667563600e-04 3.045611015310e-04 0.0 
3.045611015310e-04 4.315644651172e-03 0.0 
0.0 0.0 0.0 
-7.249518663088e-05 3.222953901722e-04 0.0 
3.222953901722e-04 4.127966791717e-03 0.0 
0.0 0.0 0.0 
-7.199616586618e-04 4.908127211645e-04 0.0 
4.908127211645e-04 4.270458539158e-03 0.0 
0.0 0.0 0.0 
-1.097518059268e-04 4.949435062324e-04 0.0 
4.949435062324e-04 4.072122437797e-03 0.0 
0.0 0.0 0.0 
-7.843217064158e-04 7.377054694565e-04 0.0 
7.377054694565e-04 4.263695955296e-03 0.0 
0.0 0.0 0.0 
-2.043400091453e-04 6.795605123997e-04 0.0 
6.795605123997e-04 4.018455645417e-03 0.0 
0.0 0.0 0.0 
-3.662027142790e-04 9.667733203685e-04 0.0 
9.667733203685e-04 3.979259843537e-03 0.0 
0.0 0.0 0.0 
-1.400769750262e-03 1.156575308935e-03 0.0 
1.156575308935e-03 4.716437606190e-03 0.0 
0.0 0.0 0.0 
-9.829476715684e-04 -5.743956421250e-05 0.0 
-5.743956421250e-05 4.724323801533e-03 0.0 
0.0 0.0 0.0 
-9.598654451645e-04 3.565552004743e-05 0.0 
3.565552004743e-05 4.645667672767e-03 0.0 
0.0 0.0 0.0 
-1.004810759188e-03 -2.324583007384e-05 0.0 
-2.324583007384e-05 4.812426411286e-03 0.0 
0.0 0.0 0.0 
-9.371210768787e-04 3.497995008621e-06 0.0 
3.497995008621e-06 4.560711454306e-03 0.0 
0.0 0.0 0.0 
-1.908433798400e-03 1.833984965251e-03 0.0 
1.833984965251e-03 4.199277839023e-03 0.0 
0.0 0.0 0.0 
-1.047536782208e-03 -3.283113428997e-05 0.0 
-3.283113428997e-05 5.215627591455e-03 0.0 
0.0 0.0 0.0 
-9.518329130180e-04 -4.664710042980e-05 0.0 
-4.664710042980e-05 5.154495427079e-03 0.0 
0.0 0.0 0.0 
-1.019534696743e-03 -5.271582450503e-05 0.0 
-5.271582450503e-05 5.154095692630e-03 0.0 
0.0 0.0 0.0 
-9.391383173503e-04 -8.519962715861e-05 0.0 
-8.519962715861e-05 5.144574434502e-03 0.0 
0.0 0.0 0.0 
-1.018304923385e-03 -7.617717537560e-05 0.0 
-7.617717537560e-05 5.146087996008e-03 0.0 
0.0 0.0 0.0 
-9.273281176048e-04 -1.137676643250e-04 0.0 
-1.137676643250e-04 5.138888829611e-03 0.0 
0.0 0.0 0.0 
-1.017166082091e-03 -1.016192700730e-04 0.0 
-1.016192700730e-04 5.141680897908e-03 0.0 
0.0 0.0 0.0 
-9.143861207911e-04 -1.423920545145e-04 0.0 
-1.423920545145e-04 5.132712007534e-03 0.0 
0.0 0.0 0.0 
-1.015263007494e-03 -1.267988045794e-04 0.0 
-1.267988045794e-04 5.137293679149e-03 0.0 
0.0 0.0 0.0 
-8.984727627183e-04 -1.705507322587e-04 0.0 
-1.705507322587e-04 5.125073784168e-03 0.0 
0.0 0.0 0.0 
-1.012743002786e-03 -1.507014291631e-04 0.0 
-1.507014291631e-04 5.132195969400e-03 0.0 
0.0 0.0 0.0 
-8.790196409401e-04 -1.977502533471e-04 0.0 
-1.977502533471e-04 5.115852844544e-03 0.0 
0.0 0.0 0.0 
-1.010034245107e-03 -1.729579964553e-04 0.0 
-1.729579964553e-04 5.126432206095e-03 0.0 
0.0 0.0 0.0 
-8.559946123756e-04 -2.234000833773e-04 0.0 
-2.234000833773e-04 5.104651632473e-03 0.0 
0.0 0.0 0.0 
-1.007348464603e-03 -1.925424059193e-04 0.0 
-1.925424059193e-04 5.119962547951e-03 0.0 
0.0 0.0 0.0 
-8.296349610138e-04 -2.462529945909e-04 0.0 
-2.462529945909e-04 5.091390268851e-03 0.0 
0.0 0.0 0.0 
-1.005442062525e-03 -2.082332532559e-04 0.0 
-2.082332532559e-04 5.112997414904e-03 0.0 
0.0 0.0 0.0 
-8.006166291328e-04 -2.650212552995e-04 0.0 
-2.650212552995e-04 5.076432245288e-03 0.0 
0.0 0.0 0.0 
-1.005766858668e-03 1.378655238645e-03 0.0 
1.378655238645e-03 4.399477957866e-03 0.0 
0.0 0.0 0.0 
-1.005618468145e-03 -2.190413192971e-04 0.0 
-2.190413192971e-04 5.106111699458e-03 0.0 
0.0 0.0 0.0 
-7.700351287623e-04 -2.781449804927e-04 0.0 
-2.781449804927e-04 5.059667558770e-03 0.0 
0.0 0.0 0.0 
-1.008849812740e-03 -2.234221519787e-04 0.0 
-2.234221519787e-04 5.099495573523e-03 0.0 
0.0 0.0 0.0 
-7.843217064158e-04 1.247120016410e-03 0.0 
1.247120016410e-03 4.238393227659e-03 0.0 
0.0 0.0 0.0 
-7.387659045102e-04 -2.832100157867e-04 0.0 
-2.832100157867e-04 5.040327066944e-03 0.0 
0.0 0.0 0.0 
-1.107153177581e-03 1.162891152720e-03 0.0 
1.162891152720e-03 4.640588623519e-03 0.0 
0.0 0.0 0.0 
-1.016128328860e-03 -2.190019491928e-04 0.0 
-2.190019491928e-04 5.092702253440e-03 0.0 
0.0 0.0 0.0 
-7.082565607451e-04 -2.769105176562e-04 0.0 
-2.769105176562e-04 5.017342167607e-03 0.0 
0.0 0.0 0.0 
-1.028556561526e-03 -2.021096348663e-04 0.0 
-2.021096348663e-04 5.085202543764e-03 0.0 
0.0 0.0 0.0 
-6.809360086417e-04 -2.548935032254e-04 0.0 
-2.548935032254e-04 4.990416278308e-03 0.0 
0.0 0.0 0.0 
-1.047765895832e-03 -1.681252271700e-04 0.0 
-1.681252271700e-04 5.077210322471e-03 0.0 
0.0 0.0 0.0 
-6.609705058952e-04 -2.123683493384e-04 0.0 
-2.123683493384e-04 4.961175830361e-03 0.0 
0.0 0.0 0.0 
-1.051806026201e-03 -1.176743480549e-04 0.0 
-1.176743480549e-04 5.064491385106e-03 0.0 
0.0 0.0 0.0 
-6.514975120742e-04 -1.410144673518e-04 0.0 
-1.410144673518e-04 4.924671473265e-03 0.0 
0.0 0.0 0.0 
-1.250384717107e-03 1.619311323764e-03 0.0 
1.619311323764e-03 4.580966822972e-03 0.0 
0.0 0.0 0.0 
-1.053122384490e-03 -3.974388848336e-05 0.0 
-3.974388848336e-05 5.043710348234e-03 0.0 
0.0 0.0 0.0 
-6.323053771984e-04 -3.814039849494e-05 0.0 
-3.814039849494e-05 4.874435672231e-03 0.0 
0.0 0.0 0.0 
-1.055324821064e-03 6.520290710610e-05 0.0 
6.520290710610e-05 5.008595194555e-03 0.0 
0.0 0.0 0.0 
-6.156318054210e-04 9.056746671871e-05 0.0 
9.056746671871e-05 4.814805766471e-03 0.0 
0.0 0.0 0.0 
-6.106758591732e-04 2.617085416063e-04 0.0 
2.617085416063e-04 4.741165923626e-03 0.0 
0.0 0.0 0.0 
-1.061188408140e-03 2.000737062063e-04 0.0 
2.000737062063e-04 4.968729524444e-03 0.0 
0.0 0.0 0.0 
-6.233041026145e-04 4.776008812006e-04 0.0 
4.776008812006e-04 4.650394826801e-03 0.0 
0.0 0.0 0.0 
-1.064554765679e-03 3.725244832511e-04 0.0 
3.725244832511e-04 4.910143499828e-03 0.0 
0.0 0.0 0.0 
-6.600667563600e-04 7.199851472080e-04 0.0 
7.199851472080e-04 4.533494985249e-03 0.0 
0.0 0.0 0.0 
-7.199616586618e-04 1.028210522389e-03 0.0 
1.028210522389e-03 4.423200017212e-03 0.0 
0.0 0.0 0.0 
-1.062079536454e-03 5.708065722915e-04 0.0 
5.708065722915e-04 4.814387570252e-03 0.0 
0.0 0.0 0.0 
-1.029690786455e-03 8.317187840128e-04 0.0 
8.317187840128e-04 4.712546773330e-03 0.0 
0.0 0.0 0.0 
-1.170374587920e-03 1.334737070612e-03 0.0 
1.334737070612e-03 4.581281215509e-03 0.0 
0.0 0.0 0.0 
-1.011949162729e-03 -5.969855788809e-05 0.0 
-5.969855788809e-05 5.151013134150e-03 0.0 
0.0 0.0 0.0 
-1.049520056241e-03 3.946849488297e-05 0.0 
3.946849488297e-05 5.218771990868e-03 0.0 
0.0 0.0 0.0 
-1.004810759188e-03 -1.601611868840e-05 0.0 
-1.601611868840e-05 5.058716080531e-03 0.0 
0.0 0.0 0.0 
-1.057651999717e-03 -1.987412969543e-06 0.0 
-1.987412969543e-06 5.307663599586e-03 0.0 
0.0 0.0 0.0 
-1.022683274766e-03 1.700710365047e-03 0.0 
1.700710365047e-03 4.178385092786e-03 0.0 
0.0 0.0 0.0 
-1.047536782208e-03 -3.692701775284e-05 0.0 
-3.692701775284e-05 5.580864275834e-03 0.0 
0.0 0.0 0.0 
-1.109401212026e-03 -4.239088195680e-05 0.0 
-4.239088195680e-05 5.627013526228e-03 0.0 
0.0 0.0 0.0 
-1.019534696743e-03 -4.110947025788e-05 0.0 
-4.110947025788e-05 5.626732219133e-03 0.0 
0.0 0.0 0.0 
-1.110042660704e-03 -8.226366583702e-05 0.0 
-8.226366583702e-05 5.628879302148e-03 0.0 
0.0 0.0 0.0 
-1.018304923385e-03 -6.970681602250e-05 0.0 
-6.970681602250e-05 5.626851263310e-03 0.0 
0.0 0.0 0.0 
-1.113134709174e-03 -1.124257076985e-04 0.0 
-1.124257076985e-04 5.627897550977e-03 0.0 
0.0 0.0 0.0 
-1.017166082091e-03 -9.717443040170e-05 0.0 
-9.717443040170e-05 5.624519494232e-03 0.0 
0.0 0.0 0.0 
-1.119809221827e-03 -1.414273263117e-04 0.0 
-1.414273263117e-04 5.627176013388e-03 0.0 
0.0 0.0 0.0 
-1.015263007494e-03 -1.224924100599e-04 0.0 
-1.224924100599e-04 5.621824540409e-03 0.0 
0.0 0.0 0.0 
-1.129590640069e-03 -1.693347820454e-04 0.0 
-1.693347820454e-04 5.626807661028e-03 0.0 
0.0 0.0 0.0 
-1.012743002786e-03 -1.454924248087e-04 0.0 
-1.454924248087e-04 5.618599959647e-03 0.0 
0.0 0.0 0.0 
-1.141760729055e-03 -1.953118083735e-04 0.0 
-1.953118083735e-04 5.626862725926e-03 0.0 
0.0 0.0 0.0 
-1.010034245107e-03 -1.658083765674e-04 0.0 
-1.658083765674e-04 5.614833043613e-03 0.0 
0.0 0.0 0.0 
-1.156153283546e-03 -2.189568302619e-04 0.0 
-2.189568302619e-04 5.626737059406e-03 0.0 
0.0 0.0 0.0 
-1.007348464603e-03 -1.818995811451e-04 0.0 
-1.818995811451e-04 5.609346868606e-03 0.0 
0.0 0.0 0.0 
-1.173372744454e-03 -2.379615300543e-04 0.0 
-2.379615300543e-04 5.626573884233e-03 0.0 
0.0 0.0 0.0 
-1.005442062525e-03 -1.921188083223e-04 0.0 
-1.921188083223e-04 5.602207079514e-03 0.0 
0.0 0.0 0.0 
-1.205457764230e-03 1.305108065552e-03 0.0 
1.305108065552e-03 4.869748621333e-03 0.0 
0.0 0.0 0.0 
-1.194424634829e-03 -2.502176607080e-04 0.0 
-2.502176607080e-04 5.627017105343e-03 0.0 
0.0 0.0 0.0 
-1.005618468145e-03 -1.949670947703e-04 0.0 
-1.949670947703e-04 5.594072333475e-03 0.0 
0.0 0.0 0.0 
-1.340239756168e-03 1.065638065200e-03 0.0 
1.065638065200e-03 5.116485341146e-03 0.0 
0.0 0.0 0.0 
-1.220195779964e-03 -2.544234264737e-04 0.0 
-2.544234264737e-04 5.627818939787e-03 0.0 
0.0 0.0 0.0 
-1.008849812740e-03 -1.880722008325e-04 0.0 
-1.880722008325e-04 5.584000271398e-03 0.0 
0.0 0.0 0.0 
-1.251518200019e-03 -2.479320405885e-04 0.0 
-2.479320405885e-04 5.628084901364e-03 0.0 
0.0 0.0 0.0 
-1.016128328860e-03 -1.680454942380e-04 0.0 
-1.680454942380e-04 5.570385993735e-03 0.0 
0.0 0.0 0.0 
-1.289324097232e-03 -2.269930285014e-04 0.0 
-2.269930285014e-04 5.626409376440e-03 0.0 
0.0 0.0 0.0 
-1.029690786455e-03 1.221332782524e-03 0.0 
1.221332782524e-03 4.702992312730e-03 0.0 
0.0 0.0 0.0 
-1.028556561526e-03 -1.303028534202e-04 0.0 
-1.303028534202e-04 5.550931511196e-03 0.0 
0.0 0.0 0.0 
-1.334254808864e-03 -1.856442695968e-04 0.0 
-1.856442695968e-04 5.621871906337e-03 0.0 
0.0 0.0 0.0 
-1.047765895832e-03 -6.951097381798e-05 0.0 
-6.951097381798e-05 5.524645293934e-03 0.0 
0.0 0.0 0.0 
-1.355472700262e-03 -1.140791979043e-04 0.0 
-1.140791979043e-04 5.604322828916e-03 0.0 
0.0 0.0 0.0 
-1.051806026201e-03 2.180163186339e-05 0.0 
2.180163186339e-05 5.483415198160e-03 0.0 
0.0 0.0 0.0 
-1.370145301744e-03 -1.391226120746e-05 0.0 
-1.391226120746e-05 5.572231362225e-03 0.0 
0.0 0.0 0.0 
-1.053122384490e-03 1.411745744768e-04 0.0 
1.411745744768e-04 5.425990488457e-03 0.0 
0.0 0.0 0.0 
-1.380562026971e-03 1.170982900381e-04 0.0 
1.170982900381e-04 5.525773670157e-03 0.0 
0.0 0.0 0.0 
-1.055324821064e-03 2.936239964199e-04 0.0 
2.936239964199e-04 5.350877754630e-03 0.0 
0.0 0.0 0.0 
-1.386401321191e-03 2.867143719102e-04 0.0 
2.867143719102e-04 5.465133323337e-03 0.0 
0.0 0.0 0.0 
-1.349959860984e-03 1.472299480679e-03 0.0 
1.472299480679e-03 4.995434007600e-03 0.0 
0.0 0.0 0.0 
-1.381183057577e-03 4.890460049072e-04 0.0 
4.890460049072e-04 5.374959760047e-03 0.0 
0.0 0.0 0.0 
-1.061188408140e-03 4.850975003918e-04 0.0 
4.850975003918e-04 5.260080655765e-03 0.0 
0.0 0.0 0.0 
-1.327917337643e-03 7.554396100051e-04 0.0 
7.554396100051e-04 5.246139276582e-03 0.0 
0.0 0.0 0.0 
-1.064554765679e-03 7.241976792284e-04 0.0 
7.241976792284e-04 5.126685686285e-03 0.0 
0.0 0.0 0.0 
-1.062079536454e-03 1.010347627199e-03 0.0 
1.010347627199e-03 4.974227238724e-03 0.0 
0.0 0.0 0.0 
-1.285034698747e-03 1.262717084364e-03 0.0 
1.262717084364e-03 4.929011259199e-03 0.0 
0.0 0.0 0.0 
-1.109559257819e-03 -6.284066509354e-05 0.0 
-6.284066509354e-05 5.653690964778e-03 0.0 
0.0 0.0 0.0 
-1.067466375659e-03 3.457847947060e-05 0.0 
3.457847947060e-05 5.577764759697e-03 0.0 
0.0 0.0 0.0 
-1.118245215107e-03 -2.087919014509e-05 0.0 
-2.087919014509e-05 5.744101914587e-03 0.0 
0.0 0.0 0.0 
-1.057651999717e-03 -5.022184166882e-06 0.0 
-5.022184166882e-06 5.490892898288e-03 0.0 
0.0 0.0 0.0 
-1.107153177581e-03 1.584095645018e-03 0.0 
1.584095645018e-03 4.598505999267e-03 0.0 
0.0 0.0 0.0 
-1.175323674987e-03 -3.368946274423e-05 0.0 
-3.368946274423e-05 6.148978970931e-03 0.0 
0.0 0.0 0.0 
-1.109401212026e-03 -4.149184302419e-05 0.0 
-4.149184302419e-05 6.104308470639e-03 0.0 
0.0 0.0 0.0 
-1.182296095773e-03 -4.074526428514e-05 0.0 
-4.074526428514e-05 6.104565365722e-03 0.0 
0.0 0.0 0.0 
-1.110042660704e-03 -7.234795749044e-05 0.0 
-7.234795749044e-05 6.101208502769e-03 0.0 
0.0 0.0 0.0 
-1.192015049481e-03 -6.035059346495e-05 0.0 
-6.035059346495e-05 6.103469202058e-03 0.0 
0.0 0.0 0.0 
-1.113134709174e-03 -9.479681038297e-05 0.0 
-9.479681038297e-05 6.101579316858e-03 0.0 
0.0 0.0 0.0 
-1.206787140957e-03 -7.996662030555e-05 0.0 
-7.996662030555e-05 6.105481879188e-03 0.0 
0.0 0.0 0.0 
-1.119809221827e-03 -1.166182028399e-04 0.0 
-1.166182028399e-04 6.103029679285e-03 0.0 
0.0 0.0 0.0 
-1.227690812871e-03 -9.850341942114e-05 0.0 
-9.850341942114e-05 6.109244024995e-03 0.0 
0.0 0.0 0.0 
-1.129590640069e-03 -1.375713056423e-04 0.0 
-1.375713056423e-04 6.104782056714e-03 0.0 
0.0 0.0 0.0 
-1.253537565982e-03 -1.157854609818e-04 0.0 
-1.157854609818e-04 6.114106615937e-03 0.0 
0.0 0.0 0.0 
-1.141760729055e-03 -1.566395015558e-04 0.0 
-1.566395015558e-04 6.105437673241e-03 0.0 
0.0 0.0 0.0 
-1.279866496781e-03 -1.307705120334e-04 0.0 
-1.307705120334e-04 6.118721308700e-03 0.0 
0.0 0.0 0.0 
-1.156153283546e-03 -1.714778802793e-04 0.0 
-1.714778802793e-04 6.104676641410e-03 0.0 
0.0 0.0 0.0 
-1.312265474300e-03 -1.404540132702e-04 0.0 
-1.404540132702e-04 6.123330675828e-03 0.0 
0.0 0.0 0.0 
-1.173372744454e-03 -1.802045481993e-04 0.0 
-1.802045481993e-04 6.101521559086e-03 0.0 
0.0 0.0 0.0 
-1.460454856468e-03 1.149238155825e-03 0.0 
1.149238155825e-03 5.437285249100e-03 0.0 
0.0 0.0 0.0 
-1.349185172020e-03 -1.423550171960e-04 0.0 
-1.423550171960e-04 6.127454352162e-03 0.0 
0.0 0.0 0.0 
-1.194424634829e-03 -1.798970746988e-04 0.0 
-1.798970746988e-04 6.096714636223e-03 0.0 
0.0 0.0 0.0 
-1.327917337643e-03 1.088789559750e-03 0.0 
1.088789559750e-03 5.281170015500e-03 0.0 
0.0 0.0 0.0 
-1.389740196277e-03 -1.350468467105e-04 0.0 
-1.350468467105e-04 6.131346972778e-03 0.0 
0.0 0.0 0.0 
-1.220195779964e-03 -1.678220541585e-04 0.0 
-1.678220541585e-04 6.089754239725e-03 0.0 
0.0 0.0 0.0 
-1.583738793893e-03 9.460488110751e-04 0.0 
9.460488110751e-04 5.671295578209e-03 0.0 
0.0 0.0 0.0 
-1.436508352203e-03 -1.163762907830e-04 0.0 
-1.163762907830e-04 6.134408047822e-03 0.0 
0.0 0.0 0.0 
-1.251518200019e-03 -1.408687784014e-04 0.0 
-1.408687784014e-04 6.078052355885e-03 0.0 
0.0 0.0 0.0 
-1.488878753766e-03 -8.265795537037e-05 0.0 
-8.265795537037e-05 6.134341299504e-03 0.0 
0.0 0.0 0.0 
-1.289324097232e-03 -9.418638497145e-05 0.0 
-9.418638497145e-05 6.058982589048e-03 0.0 
0.0 0.0 0.0 
-1.546399116163e-03 -2.976844068489e-05 0.0 
-2.976844068489e-05 6.128007801673e-03 0.0 
0.0 0.0 0.0 
-1.334254808864e-03 -2.038180478219e-05 0.0 
-2.038180478219e-05 6.026174205130e-03 0.0 
0.0 0.0 0.0 
-1.566537074719e-03 1.292285855685e-03 0.0 
1.292285855685e-03 5.541041218752e-03 0.0 
0.0 0.0 0.0 
-1.588217148626e-03 4.974961347686e-05 0.0 
4.974961347686e-05 6.106376584500e-03 0.0 
0.0 0.0 0.0 
-1.355472700262e-03 8.128717081596e-05 0.0 
8.128717081596e-05 5.976038837647e-03 0.0 
0.0 0.0 0.0 
-1.606688769918e-03 1.542388136284e-04 0.0 
1.542388136284e-04 6.066079829523e-03 0.0 
0.0 0.0 0.0 
-1.370145301744e-03 2.167052102746e-04 0.0 
2.167052102746e-04 5.905964504970e-03 0.0 
0.0 0.0 0.0 
-1.380562026971e-03 3.880329779752e-04 0.0 
3.880329779752e-04 5.819276154554e-03 0.0 
0.0 0.0 0.0 
-1.618405162980e-03 2.932456674747e-04 0.0 
2.932456674747e-04 6.006918448504e-03 0.0 
0.0 0.0 0.0 
-1.386401321191e-03 6.032079451255e-04 0.0 
6.032079451255e-04 5.691329483157e-03 0.0 
0.0 0.0 0.0 
-1.620372310185e-03 4.578823545275e-04 0.0 
4.578823545275e-04 5.921963857012e-03 0.0 
0.0 0.0 0.0 
-1.381183057577e-03 8.697437216419e-04 0.0 
8.697437216419e-04 5.553104105248e-03 0.0 
0.0 0.0 0.0 
-1.575049831774e-03 6.836543008706e-04 0.0 
6.836543008706e-04 5.801932526710e-03 0.0 
0.0 0.0 0.0 
-1.520799093819e-03 1.135535879080e-03 0.0 
1.135535879080e-03 5.456896436528e-03 0.0 
0.0 0.0 0.0 
-1.124498676164e-03 -6.248826872557e-05 0.0 
-6.248826872557e-05 6.077111678388e-03 0.0 
0.0 0.0 0.0 
-1.166284494825e-03 3.607746149637e-05 0.0 
3.607746149637e-05 6.152461667653e-03 0.0 
0.0 0.0 0.0 
-1.118245215107e-03 -1.967918634564e-05 0.0 
-1.967918634564e-05 5.987689271330e-03 0.0 
0.0 0.0 0.0 
-1.173769732285e-03 -4.070186845253e-06 0.0 
-4.070186845253e-06 6.237865235780e-03 0.0 
0.0 0.0 0.0 
-1.340239756168e-03 1.415625977251e-03 0.0 
1.415625977251e-03 5.131666503942e-03 0.0 
0.0 0.0 0.0 
-1.175323674987e-03 -3.144715754104e-05 0.0 
-3.144715754104e-05 6.512780574397e-03 0.0 
0.0 0.0 0.0 
-1.230088554491e-03 -3.025037821620e-05 0.0 
-3.025037821620e-05 6.564479758868e-03 0.0 
0.0 0.0 0.0 
-1.182296095773e-03 -3.257554631520e-05 0.0 
-3.257554631520e-05 6.564592794531e-03 0.0 
0.0 0.0 0.0 
-1.240189125735e-03 -5.580635659782e-05 0.0 
-5.580635659782e-05 6.571150519269e-03 0.0 
0.0 0.0 0.0 
-1.192015049481e-03 -4.427175141399e-05 0.0 
-4.427175141399e-05 6.569149349313e-03 0.0 
0.0 0.0 0.0 
-1.256580110840e-03 -6.973560876517e-05 0.0 
-6.973560876517e-05 6.575612105782e-03 0.0 
0.0 0.0 0.0 
-1.206787140957e-03 -5.525292963439e-05 0.0 
-5.525292963439e-05 6.572217640258e-03 0.0 
0.0 0.0 0.0 
-1.278212401788e-03 -8.136583537308e-05 0.0 
-8.136583537308e-05 6.581205020539e-03 0.0 
0.0 0.0 0.0 
-1.227690812871e-03 -6.340044061314e-05 0.0 
-6.340044061314e-05 6.575924272023e-03 0.0 
0.0 0.0 0.0 
-1.307944153742e-03 -8.997976466819e-05 0.0 
-8.997976466819e-05 6.588722459909e-03 0.0 
0.0 0.0 0.0 
-1.253537565982e-03 -6.788205324342e-05 0.0 
-6.788205324342e-05 6.580868998257e-03 0.0 
0.0 0.0 0.0 
-1.343220255824e-03 -9.557478442154e-05 0.0 
-9.557478442154e-05 6.596216272588e-03 0.0 
0.0 0.0 0.0 
-1.279866496781e-03 -6.721246786488e-05 0.0 
-6.721246786488e-05 6.584349252923e-03 0.0 
0.0 0.0 0.0 
-1.387604066483e-03 -9.774879058838e-05 0.0 
-9.774879058838e-05 6.604443181176e-03 0.0 
0.0 0.0 0.0 
-1.312265474300e-03 -6.242835183454e-05 0.0 
-6.242835183454e-05 6.587301461988e-03 0.0 
0.0 0.0 0.0 
-1.692340661241e-03 1.012229450451e-03 0.0 
1.012229450451e-03 6.038370264471e-03 0.0 
0.0 0.0 0.0 
-1.440053875344e-03 -9.618299227731e-05 0.0 
-9.618299227731e-05 6.611734677680e-03 0.0 
0.0 0.0 0.0 
-1.771497914149e-03 8.238650694778e-04 0.0 
8.238650694778e-04 6.223927551051e-03 0.0 
0.0 0.0 0.0 
-1.349185172020e-03 -5.047025937616e-05 0.0 
-5.047025937616e-05 6.586563719771e-03 0.0 
0.0 0.0 0.0 
-1.490170262107e-03 -8.412691839872e-05 0.0 
-8.412691839872e-05 6.615382844413e-03 0.0 
0.0 0.0 0.0 
-1.389740196277e-03 -2.613560927898e-05 0.0 
-2.613560927898e-05 6.580110310741e-03 0.0 
0.0 0.0 0.0 
-1.544122806414e-03 -5.688680455588e-05 0.0 
-5.688680455588e-05 6.616668437045e-03 0.0 
0.0 0.0 0.0 
-1.436508352203e-03 1.297709261223e-05 0.0 
1.297709261223e-05 6.570104950506e-03 0.0 
0.0 0.0 0.0 
-1.603529830620e-03 -1.490339886558e-05 0.0 
-1.490339886558e-05 6.612912786864e-03 0.0 
0.0 0.0 0.0 
-1.575049831774e-03 9.753864244235e-04 0.0 
9.753864244235e-04 5.870756765634e-03 0.0 
0.0 0.0 0.0 
-1.488878753766e-03 7.139088537505e-05 0.0 
7.139088537505e-05 6.550817619406e-03 0.0 
0.0 0.0 0.0 
-1.667162533382e-03 4.818401767232e-05 0.0 
4.818401767232e-05 6.600718895098e-03 0.0 
0.0 0.0 0.0 
-1.546399116163e-03 1.536099562965e-04 0.0 
1.536099562965e-04 6.519436399054e-03 0.0 
0.0 0.0 0.0 
-1.731149169307e-03 1.334114698756e-04 0.0 
1.334114698756e-04 6.571235264164e-03 0.0 
0.0 0.0 0.0 
-1.588217148626e-03 2.614614488974e-04 0.0 
2.614614488974e-04 6.464091106322e-03 0.0 
0.0 0.0 0.0 
-1.767284642111e-03 2.516991925945e-04 0.0 
2.516991925945e-04 6.521836525589e-03 0.0 
0.0 0.0 0.0 
-1.606688769918e-03 3.997159844747e-04 0.0 
3.997159844747e-04 6.388240137161e-03 0.0 
0.0 0.0 0.0 
-1.777518090440e-03 3.943417596634e-04 0.0 
3.943417596634e-04 6.443289622779e-03 0.0 
0.0 0.0 0.0 
-1.753518545948e-03 5.941528733214e-04 0.0 
5.941528733214e-04 6.337533013416e-03 0.0 
0.0 0.0 0.0 
-1.618405162980e-03 5.762664693732e-04 0.0 
5.762664693732e-04 6.272291786628e-03 0.0 
0.0 0.0 0.0 
-1.764084515557e-03 1.121058565007e-03 0.0 
1.121058565007e-03 6.117950317674e-03 0.0 
0.0 0.0 0.0 
-1.620372310185e-03 7.931040705109e-04 0.0 
7.931040705109e-04 6.144374956982e-03 0.0 
0.0 0.0 0.0 
-1.721910732736e-03 9.927840645605e-04 0.0 
9.927840645605e-04 5.992700132016e-03 0.0 
0.0 0.0 0.0 
-1.218880723055e-03 -6.013971354857e-05 0.0 
-6.013971354857e-05 6.577726856039e-03 0.0 
0.0 0.0 0.0 
-1.180904120189e-03 3.944719666492e-05 0.0 
3.944719666492e-05 6.509239344466e-03 0.0 
0.0 0.0 0.0 
-1.224887336190e-03 -1.609834253250e-05 0.0 
-1.609834253250e-05 6.669317566132e-03 0.0 
0.0 0.0 0.0 
-1.173769732285e-03 -2.042154987196e-06 0.0 
-2.042154987196e-06 6.421552981243e-03 0.0 
0.0 0.0 0.0 
-1.583738793893e-03 1.246913291480e-03 0.0 
1.246913291480e-03 5.736004010193e-03 0.0 
0.0 0.0 0.0 
-1.269950656951e-03 -2.043663000249e-05 0.0 
-2.043663000249e-05 7.061785027536e-03 0.0 
0.0 0.0 0.0 
-1.230088554491e-03 -1.644715336277e-05 0.0 
-1.644715336277e-05 7.018965049949e-03 0.0 
0.0 0.0 0.0 
-1.277728075986e-03 -1.593554306353e-05 0.0 
-1.593554306353e-05 7.019190082031e-03 0.0 
0.0 0.0 0.0 
-1.240189125735e-03 -3.254730128315e-05 0.0 
-3.254730128315e-05 7.018275423842e-03 0.0 
0.0 0.0 0.0 
-1.297878204483e-03 -1.749973707828e-05 0.0 
-1.749973707828e-05 7.021380012773e-03 0.0 
0.0 0.0 0.0 
-1.256580110840e-03 -3.638060158969e-05 0.0 
-3.638060158969e-05 7.022546690386e-03 0.0 
0.0 0.0 0.0 
-1.324179768315e-03 -1.981843500362e-05 0.0 
-1.981843500362e-05 7.027379306153e-03 0.0 
0.0 0.0 0.0 
-1.278212401788e-03 -3.785280837083e-05 0.0 
-3.785280837083e-05 7.024702168633e-03 0.0 
0.0 0.0 0.0 
-1.353685769655e-03 -1.552344004870e-05 0.0 
-1.552344004870e-05 7.032901839410e-03 0.0 
0.0 0.0 0.0 
-1.307944153742e-03 -3.358576385374e-05 0.0 
-3.358576385374e-05 7.031629553634e-03 0.0 
0.0 0.0 0.0 
-1.394692414239e-03 -1.082766637726e-05 0.0 
-1.082766637726e-05 7.042363326244e-03 0.0 
0.0 0.0 0.0 
-1.343220255824e-03 -2.619791290767e-05 0.0 
-2.619791290767e-05 7.034315375670e-03 0.0 
0.0 0.0 0.0 
-1.439092167724e-03 3.717346512376e-06 0.0 
3.717346512376e-06 7.050697198464e-03 0.0 
0.0 0.0 0.0 
-1.852458171320e-03 8.878610588179e-04 0.0 
8.878610588179e-04 6.627872916451e-03 0.0 
0.0 0.0 0.0 
-1.387604066483e-03 -9.289231621146e-06 0.0 
-9.289231621146e-06 7.040480653214e-03 0.0 
0.0 0.0 0.0 
-1.495783097932e-03 2.177446869115e-05 0.0 
2.177446869115e-05 7.061088015637e-03 0.0 
0.0 0.0 0.0 
-1.753518545948e-03 8.579425956435e-04 0.0 
8.579425956435e-04 6.461657628912e-03 0.0 
0.0 0.0 0.0 
-1.440053875344e-03 1.611280166640e-05 0.0 
1.611280166640e-05 7.039283577757e-03 0.0 
0.0 0.0 0.0 
-1.555030496473e-03 5.277023794649e-05 0.0 
5.277023794649e-05 7.066746776104e-03 0.0 
0.0 0.0 0.0 
-1.890086123648e-03 7.520489809769e-04 0.0 
7.520489809769e-04 6.773091982374e-03 0.0 
0.0 0.0 0.0 
-1.490170262107e-03 5.315167206032e-05 0.0 
5.315167206032e-05 7.033890378626e-03 0.0 
0.0 0.0 0.0 
-1.625422427740e-03 9.322178486675e-05 0.0 
9.322178486675e-05 7.069161047523e-03 0.0 
0.0 0.0 0.0 
-1.544122806414e-03 1.015208146234e-04 0.0 
1.015208146234e-04 7.020729228977e-03 0.0 
0.0 0.0 0.0 
-1.683142898070e-03 1.431308380036e-04 0.0 
1.431308380036e-04 7.062204772709e-03 0.0 
0.0 0.0 0.0 
-1.603529830620e-03 1.685130120996e-04 0.0 
1.685130120996e-04 6.996024446487e-03 0.0 
0.0 0.0 0.0 
-1.912676092574e-03 9.894496270113e-04 0.0 
9.894496270113e-04 6.699972534087e-03 0.0 
0.0 0.0 0.0 
-1.746949644489e-03 2.134528650489e-04 0.0 
2.134528650489e-04 7.045612139550e-03 0.0 
0.0 0.0 0.0 
-1.667162533382e-03 2.590193496190e-04 0.0 
2.590193496190e-04 6.958886312576e-03 0.0 
0.0 0.0 0.0 
-1.731149169307e-03 3.745376487653e-04 0.0 
3.745376487653e-04 6.905405564382e-03 0.0 
0.0 0.0 0.0 
-1.807688807970e-03 3.045398741389e-04 0.0 
3.045398741389e-04 7.014240191522e-03 0.0 
0.0 0.0 0.0 
-1.767284642111e-03 5.197238290407e-04 0.0 
5.197238290407e-04 6.808733975004e-03 0.0 
0.0 0.0 0.0 
-1.863378083012e-03 4.122386526434e-04 0.0 
4.122386526434e-04 6.958872885113e-03 0.0 
0.0 0.0 0.0 
-1.777518090440e-03 7.041580770735e-04 0.0 
7.041580770735e-04 6.703089629482e-03 0.0 
0.0 0.0 0.0 
-1.854402317068e-03 5.682673534384e-04 0.0 
5.682673534384e-04 6.868522791390e-03 0.0 
0.0 0.0 0.0 
-1.879543681868e-03 8.810710496289e-04 0.0 
8.810710496289e-04 6.565464146755e-03 0.0 
0.0 0.0 0.0 
-1.222410719658e-03 -5.693328180735e-05 0.0 
-5.693328180735e-05 6.990935377931e-03 0.0 
0.0 0.0 0.0 
-1.263947387529e-03 4.548333371845e-05 0.0 
4.548333371845e-05 7.065657479319e-03 0.0 
0.0 0.0 0.0 
-1.224887336190e-03 -1.196823119438e-05 0.0 
-1.196823119438e-05 6.905983355289e-03 0.0 
0.0 0.0 0.0 
-1.262654408916e-03 3.442877535192e-06 0.0 
3.442877535192e-06 7.146047384134e-03 0.0 
0.0 0.0 0.0 
-1.771497914149e-03 1.083714408029e-03 0.0 
1.083714408029e-03 6.335809346425e-03 0.0 
0.0 0.0 0.0 
-1.269950656951e-03 -1.327922004834e-05 0.0 
-1.327922004834e-05 7.423567350507e-03 0.0 
0.0 0.0 0.0 
-1.279334310407e-03 -1.077881381406e-06 0.0 
-1.077881381406e-06 7.454846739850e-03 0.0 
0.0 0.0 0.0 
-1.277728075986e-03 6.918586629123e-06 0.0 
6.918586629123e-06 7.453900421004e-03 0.0 
0.0 0.0 0.0 
-1.300823377537e-03 1.545819677334e-06 0.0 
1.545819677334e-06 7.463302490259e-03 0.0 
0.0 0.0 0.0 
-1.297878204483e-03 1.435416947674e-05 0.0 
1.435416947674e-05 7.461019263689e-03 0.0 
0.0 0.0 0.0 
-1.324945528097e-03 7.845536452611e-06 0.0 
7.845536452611e-06 7.470606616533e-03 0.0 
0.0 0.0 0.0 
-1.324179768315e-03 2.224515819080e-05 0.0 
2.224515819080e-05 7.467207871492e-03 0.0 
0.0 0.0 0.0 
-1.354662649973e-03 1.284050796247e-05 0.0 
1.284050796247e-05 7.473341204735e-03 0.0 
0.0 0.0 0.0 
-1.353685769655e-03 3.862151342065e-05 0.0 
3.862151342065e-05 7.465737429772e-03 0.0 
0.0 0.0 0.0 
-1.386133503934e-03 3.480087535778e-05 0.0 
3.480087535778e-05 7.481450689988e-03 0.0 
0.0 0.0 0.0 
-1.394692414239e-03 5.720069459550e-05 0.0 
5.720069459550e-05 7.473811411898e-03 0.0 
0.0 0.0 0.0 
-1.434118256461e-03 4.939945235172e-05 0.0 
4.939945235172e-05 7.486284040123e-03 0.0 
0.0 0.0 0.0 
-1.944057458581e-03 8.234595722269e-04 0.0 
8.234595722269e-04 7.184307510373e-03 0.0 
0.0 0.0 0.0 
-1.439092167724e-03 8.690999129265e-05 0.0 
8.690999129265e-05 7.471049355978e-03 0.0 
0.0 0.0 0.0 
-1.913863074168e-03 6.996903528082e-04 0.0 
6.996903528082e-04 7.287638710463e-03 0.0 
0.0 0.0 0.0 
-1.480271018593e-03 8.559982294560e-05 0.0 
8.559982294560e-05 7.493125935184e-03 0.0 
0.0 0.0 0.0 
-1.495783097932e-03 1.234607810497e-04 0.0 
1.234607810497e-04 7.476167813975e-03 0.0 
0.0 0.0 0.0 
-1.544359462372e-03 1.179288830339e-04 0.0 
1.179288830339e-04 7.494295842659e-03 0.0 
0.0 0.0 0.0 
-1.555030496473e-03 1.737161142770e-04 0.0 
1.737161142770e-04 7.465509137004e-03 0.0 
0.0 0.0 0.0 
-1.611290719358e-03 1.737908583474e-04 0.0 
1.737908583474e-04 7.493647433473e-03 0.0 
0.0 0.0 0.0 
-1.625422427740e-03 2.391711761239e-04 0.0 
2.391711761239e-04 7.456410889157e-03 0.0 
0.0 0.0 0.0 
-1.676344896290e-03 2.418328426235e-04 0.0 
2.418328426235e-04 7.483314723308e-03 0.0 
0.0 0.0 0.0 
-1.854402317068e-03 8.104735896180e-04 0.0 
8.104735896180e-04 7.012838280689e-03 0.0 
0.0 0.0 0.0 
-1.683142898070e-03 3.229430754535e-04 0.0 
3.229430754535e-04 7.431543187047e-03 0.0 
0.0 0.0 0.0 
-1.750879394943e-03 3.249191398600e-04 0.0 
3.249191398600e-04 7.462460710273e-03 0.0 
0.0 0.0 0.0 
-1.746949644489e-03 4.217234159282e-04 0.0 
4.217234159282e-04 7.393638761040e-03 0.0 
0.0 0.0 0.0 
-1.812574816740e-03 4.251354573850e-04 0.0 
4.251354573850e-04 7.422888844234e-03 0.0 
0.0 0.0 0.0 
-1.862418288674e-03 5.533982854513e-04 0.0 
5.533982854513e-04 7.362990036257e-03 0.0 
0.0 0.0 0.0 
-1.807688807970e-03 5.431151922423e-04 0.0 
5.431151922423e-04 7.331954742960e-03 0.0 
0.0 0.0 0.0 
-1.863378083012e-03 6.846499276812e-04 0.0 
6.846499276812e-04 7.255063181851e-03 0.0 
0.0 0.0 0.0 
-1.988621585144e-03 9.070929652154e-04 0.0 
9.070929652154e-04 7.244491803413e-03 0.0 
0.0 0.0 0.0 
-1.956651088483e-03 8.162081990006e-04 0.0 
8.162081990006e-04 7.089415363479e-03 0.0 
0.0 0.0 0.0 
-1.286106475729e-03 -4.626378640735e-05 0.0 
-4.626378640735e-05 7.459494001947e-03 0.0 
0.0 0.0 0.0 
-1.263773552651e-03 5.956743290057e-05 0.0 
5.956743290057e-05 7.419276909762e-03 0.0 
0.0 0.0 0.0 
-1.286535852793e-03 4.083006289869e-06 0.0 
4.083006289869e-06 7.557630502326e-03 0.0 
0.0 0.0 0.0 
-1.262654408916e-03 1.159175313352e-05 0.0 
1.159175313352e-05 7.325093369167e-03 0.0 
0.0 0.0 0.0 
-1.890086123648e-03 9.849411659465e-04 0.0 
9.849411659465e-04 6.927577350197e-03 0.0 
0.0 0.0 0.0 

TENSORS element_materi_strain_plasti float
-1.278716781713e-04 2.317088785895e-03 0.0 
2.317088785895e-03 1.725589617193e-03 0.0 
0.0 0.0 -6.847362595807e-04 
-1.156199042648e-04 2.024353748068e-03 0.0 
2.024353748068e-03 1.515455915080e-03 0.0 
0.0 0.0 -5.999297189210e-04 
-1.399419419615e-03 2.869344170324e-03 0.0 
2.869344170324e-03 7.127002349296e-03 0.0 
0.0 0.0 -1.278236581085e-03 
-1.499770292198e-03 1.938127459123e-04 0.0 
1.938127459123e-04 8.462485561252e-03 0.0 
0.0 0.0 -1.255598393855e-03 
-1.590286579790e-03 5.866412250785e-04 0.0 
5.866412250785e-04 5.570411940462e-03 0.0 
0.0 0.0 -7.961861350945e-04 
9.753052699299e-04 2.049730811989e-03 0.0 
2.049730811989e-03 -7.410546550660e-04 0.0 
0.0 0.0 -1.003931206560e-04 
-1.532722360608e-03 5.037005669365e-04 0.0 
5.037005669365e-04 5.548158926813e-03 0.0 
0.0 0.0 -8.011023898636e-04 
6.217083316277e-05 2.386622999709e-03 0.0 
2.386622999709e-03 1.415043626867e-03 0.0 
0.0 0.0 -6.330919114413e-04 
-1.605315258057e-03 4.380832637376e-06 0.0 
4.380832637376e-06 5.621376957900e-03 0.0 
0.0 0.0 -7.977904104816e-04 
-1.475813289088e-03 8.034655794974e-04 0.0 
8.034655794974e-04 8.366055234102e-03 0.0 
0.0 0.0 -1.253060141438e-03 
-1.723349006480e-03 -4.463465104632e-04 0.0 
-4.463465104632e-04 5.097851564140e-03 0.0 
0.0 0.0 -1.066978692879e-03 
5.108532101028e-06 1.964113970332e-03 0.0 
1.964113970332e-03 1.245831196254e-03 0.0 
0.0 0.0 -5.361170264378e-04 
-1.727294747470e-03 -3.711696677191e-04 0.0 
-3.711696677191e-04 6.945132129710e-03 0.0 
0.0 0.0 -1.259187713256e-03 
-1.707478703098e-03 1.059006860170e-03 0.0 
1.059006860170e-03 5.791719022601e-03 0.0 
0.0 0.0 -8.526168115438e-04 
-1.560262196776e-03 -9.393570101401e-04 0.0 
-9.393570101401e-04 6.928774089182e-03 0.0 
0.0 0.0 -1.289538875031e-03 
-1.440818830272e-03 6.754770737443e-04 0.0 
6.754770737443e-04 8.548838696717e-03 0.0 
0.0 0.0 -1.285984941237e-03 
-1.662616207287e-03 5.344607310422e-04 0.0 
5.344607310422e-04 5.529033418926e-03 0.0 
0.0 0.0 -7.740676797406e-04 
7.357046437425e-05 6.570695833459e-05 0.0 
6.570695833459e-05 -7.357046437425e-05 0.0 
0.0 0.0 0.0 
-6.149932217399e-04 -2.296531181353e-04 0.0 
-2.296531181353e-04 1.902161440616e-03 0.0 
0.0 0.0 -2.776016825098e-04 
-5.498585393581e-04 -2.166839192677e-04 0.0 
-2.166839192677e-04 1.738279106343e-03 0.0 
0.0 0.0 -4.484512109716e-04 
-1.512957112042e-03 4.043623184242e-04 0.0 
4.043623184242e-04 8.437324312554e-03 0.0 
0.0 0.0 -1.250388265701e-03 
-3.873012428043e-04 2.129273940428e-03 0.0 
2.129273940428e-03 2.185606563766e-03 0.0 
0.0 0.0 -7.707022804121e-04 
-4.415956435739e-04 2.226005795527e-03 0.0 
2.226005795527e-03 2.374460708771e-03 0.0 
0.0 0.0 -8.283707422273e-04 
-4.392711161920e-04 -9.745966439417e-04 0.0 
-9.745966439417e-04 3.836297522503e-03 0.0 
0.0 0.0 -1.210372970477e-03 
-1.729903628601e-03 1.506745383258e-03 0.0 
1.506745383258e-03 5.975665893657e-03 0.0 
0.0 0.0 -9.130988374533e-04 
-1.810671457854e-03 -7.476421640110e-04 0.0 
-7.476421640110e-04 5.330964071115e-03 0.0 
0.0 0.0 -1.080045423496e-03 
-1.736477005164e-03 1.109495533801e-03 0.0 
1.109495533801e-03 4.957414051106e-03 0.0 
0.0 0.0 -7.148082707961e-04 
-9.553018808659e-04 3.102749138761e-03 0.0 
3.102749138761e-03 5.566273317297e-03 0.0 
0.0 0.0 -1.266047838742e-03 
-1.821356794347e-03 1.188786638151e-03 0.0 
1.188786638151e-03 6.013421513739e-03 0.0 
0.0 0.0 -9.113908267906e-04 
-6.554257296263e-04 -8.444129216472e-04 0.0 
-8.444129216472e-04 4.294151155513e-03 0.0 
0.0 0.0 -1.237914324842e-03 
1.345111965206e-03 -2.563071370678e-03 0.0 
-2.563071370678e-03 -3.409519374557e-04 0.0 
0.0 0.0 -4.303542976074e-04 
3.575551772738e-04 -9.432915107626e-04 0.0 
-9.432915107626e-04 3.359353657627e-04 0.0 
0.0 0.0 -1.059755802940e-04 
-1.524187206040e-03 3.047553797097e-03 0.0 
3.047553797097e-03 7.492448074924e-03 0.0 
0.0 0.0 -1.261301343383e-03 
-2.126259398598e-03 -4.008249318176e-04 0.0 
-4.008249318176e-04 6.245433906960e-03 0.0 
0.0 0.0 -1.090200430068e-03 
-1.168924377092e-03 -2.135391167217e-03 0.0 
-2.135391167217e-03 5.528728836968e-03 0.0 
0.0 0.0 -1.254989870190e-03 
-1.506183274607e-03 -1.403999252581e-03 0.0 
-1.403999252581e-03 6.695784423920e-03 0.0 
0.0 0.0 -1.314886350686e-03 
-1.405965625827e-03 -2.094418066157e-03 0.0 
-2.094418066157e-03 6.677666447639e-03 0.0 
0.0 0.0 -1.314653105918e-03 
-6.328504155879e-04 1.260189016710e-03 0.0 
1.260189016710e-03 4.185986138576e-03 0.0 
0.0 0.0 -1.264739017786e-03 
-1.486815579568e-03 -1.990720886798e-04 0.0 
-1.990720886798e-04 5.107008468447e-03 0.0 
0.0 0.0 -7.380763454961e-04 
-1.448070308282e-03 4.493602178438e-04 0.0 
4.493602178438e-04 5.173305882684e-03 0.0 
0.0 0.0 -7.371174501546e-04 
-8.280494050984e-04 2.109474212237e-03 0.0 
2.109474212237e-03 3.158688487348e-03 0.0 
0.0 0.0 -8.774464902234e-04 
-1.113239206738e-03 -1.655283581889e-03 0.0 
-1.655283581889e-03 5.115282801902e-03 0.0 
0.0 0.0 -1.280756488215e-03 
3.008174076713e-04 2.119260517804e-03 0.0 
2.119260517804e-03 8.825314744810e-04 0.0 
0.0 0.0 -5.071495209224e-04 
-1.653413400617e-03 1.159238962241e-03 0.0 
1.159238962241e-03 4.683778627350e-03 0.0 
0.0 0.0 -7.557105610435e-04 
-1.547330050851e-03 3.671214089611e-05 0.0 
3.671214089611e-05 8.340609894927e-03 0.0 
0.0 0.0 -1.212858513926e-03 
3.049695683184e-04 2.191509382836e-03 0.0 
2.191509382836e-03 9.207765491606e-04 0.0 
0.0 0.0 -5.253197646338e-04 
1.207574275293e-03 -2.365696291912e-03 0.0 
-2.365696291912e-03 -7.132596237324e-04 0.0 
0.0 0.0 -2.118491363831e-04 
-1.445646034229e-03 2.633500934319e-04 0.0 
2.633500934319e-04 8.137788974429e-03 0.0 
0.0 0.0 -1.234743356787e-03 
1.908988241954e-04 -8.061125310431e-04 0.0 
-8.061125310431e-04 -1.579045808258e-05 0.0 
0.0 0.0 -7.504644261978e-05 
-1.740092141895e-03 6.147961927965e-04 0.0 
6.147961927965e-04 5.664008038323e-03 0.0 
0.0 0.0 -8.229436299569e-04 
-6.078592580179e-04 2.220023986171e-03 0.0 
2.220023986171e-03 2.788765867991e-03 0.0 
0.0 0.0 -9.296584868968e-04 
-8.623973456416e-04 -2.162048895284e-04 0.0 
-2.162048895284e-04 2.432076766193e-03 0.0 
0.0 0.0 -4.150917825895e-04 
2.292279279293e-03 -2.762669743217e-03 0.0 
-2.762669743217e-03 -9.405005062222e-04 0.0 
0.0 0.0 -5.793337598876e-04 
-6.898259874441e-04 2.091701766161e-03 0.0 
2.091701766161e-03 2.855891423984e-03 0.0 
0.0 0.0 -8.656335400463e-04 
-1.445100174427e-03 2.379194139466e-03 0.0 
2.379194139466e-03 7.706829156199e-03 0.0 
0.0 0.0 -1.282189168212e-03 
-9.586804568965e-04 -6.913799780171e-04 0.0 
-6.913799780171e-04 2.989840683449e-03 0.0 
0.0 0.0 -7.128710764410e-04 
-6.997308059935e-04 -2.320910788817e-04 0.0 
-2.320910788817e-04 2.233925226019e-03 0.0 
0.0 0.0 -5.951090654820e-04 
-2.130460140960e-03 -2.340494849444e-04 0.0 
-2.340494849444e-04 6.282260078053e-03 0.0 
0.0 0.0 -1.087734043503e-03 
1.076454852669e-04 -7.426368379909e-04 0.0 
-7.426368379909e-04 1.194913348537e-03 0.0 
0.0 0.0 -3.122055485762e-04 
-1.457512378927e-03 3.071898754378e-04 0.0 
3.071898754378e-04 8.560769857503e-03 0.0 
0.0 0.0 -1.285320035817e-03 
0.0 0.0 0.0 
0.0 0.0 0.0 
0.0 0.0 0.0 
-5.387044635242e-04 2.656482396914e-03 0.0 
2.656482396914e-03 4.203857407929e-03 0.0 
0.0 0.0 -1.210824713543e-03 
3.439414593790e-04 2.794168595655e-03 0.0 
2.794168595655e-03 1.235314347192e-03 0.0 
0.0 0.0 -6.768239171020e-04 
2.349935129578e-03 -2.770680198001e-03 0.0 
-2.770680198001e-03 -6.796113691984e-04 0.0 
0.0 0.0 -7.158530401625e-04 
-1.671429738175e-03 -1.210022446990e-03 0.0 
-1.210022446990e-03 6.777156017205e-03 0.0 
0.0 0.0 -1.257478522087e-03 
-5.278364963199e-04 2.118194625541e-03 0.0 
2.118194625541e-03 2.531471725177e-03 0.0 
0.0 0.0 -8.587008123673e-04 
0.0 0.0 0.0 
0.0 0.0 0.0 
0.0 0.0 0.0 
-1.493925828084e-03 3.040545355870e-03 0.0 
3.040545355870e-03 7.302395090943e-03 0.0 
0.0 0.0 -1.261660853087e-03 
4.867824217369e-04 -2.505859056628e-03 0.0 
-2.505859056628e-03 8.835287678333e-04 0.0 
0.0 0.0 -5.872762241015e-04 
-1.271990412820e-03 3.214687538356e-03 0.0 
3.214687538356e-03 6.250345422673e-03 0.0 
0.0 0.0 -1.282376455277e-03 
-1.831786578585e-03 -1.075910520083e-03 0.0 
-1.075910520083e-03 5.407233681497e-03 0.0 
0.0 0.0 -1.080053202689e-03 
-1.338499280800e-03 1.682976327997e-03 0.0 
1.682976327997e-03 8.399936015446e-03 0.0 
0.0 0.0 -1.338499280800e-03 
-9.312572041143e-04 2.894697176184e-03 0.0 
2.894697176184e-03 4.910832013066e-03 0.0 
0.0 0.0 -1.232909111256e-03 
1.433784453303e-03 -9.093882019497e-05 0.0 
-9.093882019497e-05 -5.456392549777e-05 0.0 
0.0 0.0 -2.878745769087e-04 
-9.147252279940e-04 -5.669281210358e-04 0.0 
-5.669281210358e-04 2.973437083954e-03 0.0 
0.0 0.0 -8.116687730804e-04 
-1.536993954654e-03 1.126957410002e-03 0.0 
1.126957410002e-03 8.303326713538e-03 0.0 
0.0 0.0 -1.262626981217e-03 
-1.574019976009e-03 2.576738749078e-03 0.0 
2.576738749078e-03 7.875617774672e-03 0.0 
0.0 0.0 -1.265352048664e-03 
4.720058723338e-04 2.134723574062e-03 0.0 
2.134723574062e-03 6.830651359346e-04 0.0 
0.0 0.0 -4.950304321150e-04 
-3.200456338227e-04 -3.352696368382e-04 0.0 
-3.352696368382e-04 1.110105412521e-03 0.0 
0.0 0.0 -3.374836250442e-04 
5.206675697946e-04 2.217090668705e-03 0.0 
2.217090668705e-03 6.763455683265e-04 0.0 
0.0 0.0 -5.130056306233e-04 
4.804782057485e-04 -2.508358039830e-03 0.0 
-2.508358039830e-03 8.916054330170e-04 0.0 
0.0 0.0 -5.880358451852e-04 
-1.625607394925e-03 4.831506481737e-04 0.0 
4.831506481737e-04 5.291976980867e-03 0.0 
0.0 0.0 -7.918363975426e-04 
-2.908848742719e-04 2.252062443166e-03 0.0 
2.252062443166e-03 2.033636756898e-03 0.0 
0.0 0.0 -7.468936639825e-04 
-2.599695243754e-04 1.891700121758e-03 0.0 
1.891700121758e-03 1.743771242898e-03 0.0 
0.0 0.0 -6.359150222241e-04 
-1.678000531135e-03 1.594922248822e-04 0.0 
1.594922248822e-04 5.821879659601e-03 0.0 
0.0 0.0 -8.336771054075e-04 
-1.596383286677e-03 5.670740920774e-04 0.0 
5.670740920774e-04 5.789976808295e-03 0.0 
0.0 0.0 -8.358076868167e-04 
-1.951624680642e-03 -7.308270384445e-04 0.0 
-7.308270384445e-04 5.657668243585e-03 0.0 
0.0 0.0 -1.080533843704e-03 
-2.196082702137e-03 8.354918695911e-05 0.0 
8.354918695911e-05 6.184278536814e-03 0.0 
0.0 0.0 -1.059807920279e-03 
-1.525646772161e-03 2.625569910847e-03 0.0 
2.625569910847e-03 6.112973773832e-03 0.0 
0.0 0.0 -1.085941371602e-03 
-1.648645582224e-03 1.246285648401e-04 0.0 
1.246285648401e-04 5.489793155500e-03 0.0 
0.0 0.0 -7.983229688164e-04 
-1.123057724715e-05 -5.872900984588e-04 0.0 
-5.872900984588e-04 3.960725969021e-04 0.0 
0.0 0.0 -1.649322941379e-04 
-1.757846623502e-03 1.222419041867e-03 0.0 
1.222419041867e-03 5.122536551657e-03 0.0 
0.0 0.0 -7.928983479555e-04 
-1.578530100158e-03 5.920453420347e-05 0.0 
5.920453420347e-05 7.247400490716e-03 0.0 
0.0 0.0 -1.069439317440e-03 
-1.600676841679e-03 3.339381263473e-04 0.0 
3.339381263473e-04 7.321452075562e-03 0.0 
0.0 0.0 -1.046447409317e-03 
-1.502072334268e-03 1.832498170444e-03 0.0 
1.832498170444e-03 8.633609047693e-03 0.0 
0.0 0.0 -1.319970921405e-03 
-9.007094055422e-04 1.223013959388e-03 0.0 
1.223013959388e-03 4.725884480151e-03 0.0 
0.0 0.0 -1.294194962782e-03 
-1.674253522828e-03 4.484898109266e-04 0.0 
4.484898109266e-04 5.280548957068e-03 0.0 
0.0 0.0 -7.889745663688e-04 
-1.078149223136e-03 -1.912876176720e-03 0.0 
-1.912876176720e-03 5.515902141362e-03 0.0 
0.0 0.0 -1.263183913703e-03 
-1.546584036688e-03 -9.624953365827e-05 0.0 
-9.624953365827e-05 6.233353762451e-03 0.0 
0.0 0.0 -9.040008563810e-04 
1.411194399049e-04 2.915371637598e-03 0.0 
2.915371637598e-03 1.618838156256e-03 0.0 
0.0 0.0 -7.542675412120e-04 
-1.587713497171e-03 1.272120189302e-04 0.0 
1.272120189302e-04 5.375209747655e-03 0.0 
0.0 0.0 -7.643292725053e-04 
-1.604005809179e-03 -6.682657737697e-04 0.0 
-6.682657737697e-04 6.948639054056e-03 0.0 
0.0 0.0 -1.287517816355e-03 
3.542986660605e-04 2.115271012738e-03 0.0 
2.115271012738e-03 2.453989176071e-03 0.0 
0.0 0.0 -1.043751955586e-03 
-5.121197440995e-04 2.106847301720e-03 0.0 
2.106847301720e-03 4.264562002622e-03 0.0 
0.0 0.0 -1.209599240962e-03 
8.414669120651e-04 2.750323762399e-03 0.0 
2.750323762399e-03 6.433152604662e-04 0.0 
0.0 0.0 -6.363352167991e-04 
5.516999887664e-04 -2.796976242529e-03 0.0 
-2.796976242529e-03 1.148224010342e-04 0.0 
0.0 0.0 -2.856524527717e-04 
-1.904299824368e-03 -6.917450604687e-04 0.0 
-6.917450604687e-04 6.641778035438e-03 0.0 
0.0 0.0 -1.189902873528e-03 
-1.601708388107e-03 3.286250233117e-04 0.0 
3.286250233117e-04 7.722816405099e-03 0.0 
0.0 0.0 -1.108790581071e-03 
3.810766207412e-05 -6.205157488134e-04 0.0 
-6.205157488134e-04 -3.810766207412e-05 0.0 
0.0 0.0 0.0 
-1.434793545909e-03 -1.524718547292e-03 0.0 
-1.524718547292e-03 6.503522325473e-03 0.0 
0.0 0.0 -1.285127980003e-03 
-1.436465131336e-03 2.957908754166e-03 0.0 
2.957908754166e-03 5.615958785865e-03 0.0 
0.0 0.0 -1.051491716222e-03 
2.107685358584e-03 1.966346604052e-04 0.0 
1.966346604052e-04 -5.019158565474e-04 0.0 
0.0 0.0 -2.190510374322e-04 
1.208695653732e-03 2.926354061763e-03 0.0 
2.926354061763e-03 1.261066979529e-04 0.0 
0.0 0.0 -5.720581507223e-04 
-1.531499204645e-03 1.574438431832e-03 0.0 
1.574438431832e-03 4.499656748010e-03 0.0 
0.0 0.0 -7.914135736088e-04 
-9.815222315618e-04 -1.138374471426e-03 0.0 
-1.138374471426e-03 3.347141370850e-03 0.0 
0.0 0.0 -9.587991763485e-04 
2.655737035557e-04 2.419593458192e-03 0.0 
2.419593458192e-03 1.115288623384e-03 0.0 
0.0 0.0 -5.917981401168e-04 
3.744529332960e-04 2.946102748991e-03 0.0 
2.946102748991e-03 1.286129190467e-03 0.0 
0.0 0.0 -7.116780530414e-04 
-1.321847859093e-03 -1.772500593240e-03 0.0 
-1.772500593240e-03 5.826707907603e-03 0.0 
0.0 0.0 -1.283833066805e-03 
-1.525040410968e-03 2.578190730368e-04 0.0 
2.578190730368e-04 6.156621214154e-03 0.0 
0.0 0.0 -8.766975940251e-04 
5.363756903500e-04 2.629255494055e-03 0.0 
2.629255494055e-03 8.922896369145e-04 0.0 
0.0 0.0 -6.122851402562e-04 
1.683483209039e-04 -2.096310185990e-03 0.0 
-2.096310185990e-03 1.080312045122e-03 0.0 
0.0 0.0 -5.351401568681e-04 
-1.746303579404e-03 1.473532537081e-03 0.0 
1.473532537081e-03 5.178940412439e-03 0.0 
0.0 0.0 -7.744920945421e-04 
-1.517476482960e-03 1.097936493812e-04 0.0 
1.097936493812e-04 7.545801257606e-03 0.0 
0.0 0.0 -1.129288753466e-03 
5.838877050126e-04 2.764835075281e-03 0.0 
2.764835075281e-03 9.155423273699e-04 0.0 
0.0 0.0 -6.426128710211e-04 
3.893622582553e-04 1.575203385168e-03 0.0 
1.575203385168e-03 3.980592224466e-04 0.0 
0.0 0.0 -3.374663488723e-04 
-1.195366450636e-03 1.829833708586e-03 0.0 
1.829833708586e-03 3.827762851113e-03 0.0 
0.0 0.0 -8.233021825037e-04 
-1.094193203907e-03 -1.066143348073e-03 0.0 
-1.066143348073e-03 3.532112380788e-03 0.0 
0.0 0.0 -8.981558865158e-04 
-1.046482062160e-03 1.913988030913e-03 0.0 
1.913988030913e-03 3.510208918747e-03 0.0 
0.0 0.0 -8.113141688877e-04 
-1.442225258082e-03 1.605824937381e-03 0.0 
1.605824937381e-03 8.359073722744e-03 0.0 
0.0 0.0 -1.290671971449e-03 
1.101065632512e-03 2.933128537393e-03 0.0 
2.933128537393e-03 9.745442457705e-05 0.0 
0.0 0.0 -5.136514530381e-04 
-1.801548102835e-03 -7.282038970032e-04 0.0 
-7.282038970032e-04 5.288878918754e-03 0.0 
0.0 0.0 -1.060402641786e-03 
-1.486141105577e-03 5.585996661944e-04 0.0 
5.585996661944e-04 8.452622925900e-03 0.0 
0.0 0.0 -1.256690274141e-03 
-3.198454740031e-04 3.015481670953e-03 0.0 
3.015481670953e-03 2.568097898378e-03 0.0 
0.0 0.0 -9.635367533037e-04 
-1.021958554670e-03 1.956756434106e-03 0.0 
1.956756434106e-03 3.500404682426e-03 0.0 
0.0 0.0 -8.457158960689e-04 
-1.158957625686e-03 -1.674495574427e-03 0.0 
-1.674495574427e-03 5.533719249484e-03 0.0 
0.0 0.0 -1.254964138299e-03 
-1.718729624033e-03 -7.379037217155e-04 0.0 
-7.379037217155e-04 6.953664324138e-03 0.0 
0.0 0.0 -1.261070974318e-03 
-1.967620110819e-03 -6.331696876036e-04 0.0 
-6.331696876036e-04 5.669647458342e-03 0.0 
0.0 0.0 -1.061066130071e-03 
-6.061740370739e-04 3.049979969874e-03 0.0 
3.049979969874e-03 3.089302566165e-03 0.0 
0.0 0.0 -9.441827087005e-04 
-7.851765230129e-04 -1.170373150230e-03 0.0 
-1.170373150230e-03 4.916146318737e-03 0.0 
0.0 0.0 -1.270330610962e-03 
-5.043578746139e-04 2.747041251980e-03 0.0 
2.747041251980e-03 2.809200300211e-03 0.0 
0.0 0.0 -9.719555150774e-04 
-1.411040385942e-03 9.892815171228e-04 0.0 
9.892815171228e-04 8.317615504874e-03 0.0 
0.0 0.0 -1.283174495648e-03 
-1.289076372121e-03 3.481935391156e-03 0.0 
3.481935391156e-03 6.606253020577e-03 0.0 
0.0 0.0 -1.267437373369e-03 
-1.784736589840e-03 7.085096522011e-04 0.0 
7.085096522011e-04 5.733057783552e-03 0.0 
0.0 0.0 -8.543707170918e-04 
-1.586571893561e-03 5.026260166066e-04 0.0 
5.026260166066e-04 6.801986481939e-03 0.0 
0.0 0.0 -9.817831382938e-04 
-5.156399995053e-04 2.841155344974e-03 0.0 
2.841155344974e-03 2.858892473080e-03 0.0 
0.0 0.0 -9.645491798066e-04 
-8.623176927628e-04 1.998107917208e-03 0.0 
1.998107917208e-03 3.164246376073e-03 0.0 
0.0 0.0 -8.398345356346e-04 
-3.881715109885e-04 3.210536691478e-03 0.0 
3.210536691478e-03 2.805390491743e-03 0.0 
0.0 0.0 -1.009766620266e-03 
9.302504035183e-04 2.952397877038e-03 0.0 
2.952397877038e-03 6.425944529841e-04 0.0 
0.0 0.0 -6.740763670724e-04 
-1.542505755946e-03 1.216931962656e-05 0.0 
1.216931962656e-05 5.518918282905e-03 0.0 
0.0 0.0 -7.693993191400e-04 
1.440386328935e-03 3.141679147944e-03 0.0 
3.141679147944e-03 1.287757348394e-04 0.0 
0.0 0.0 -6.724980273319e-04 
1.173568897977e-04 -7.192653952147e-04 0.0 
-7.192653952147e-04 2.932653952173e-04 0.0 
0.0 0.0 -1.759809792922e-04 
-1.513364044801e-03 4.633102658988e-05 0.0 
4.633102658988e-05 5.921965621168e-03 0.0 
0.0 0.0 -8.171079392438e-04 
-4.255541535768e-04 -1.657123349734e-04 0.0 
-1.657123349734e-04 1.278602330907e-03 0.0 
0.0 0.0 -2.802839825148e-04 
-1.368206188634e-03 1.704449020245e-03 0.0 
1.704449020245e-03 4.168743630605e-03 0.0 
0.0 0.0 -8.053258742841e-04 
-1.010207907769e-03 -1.246817911064e-03 0.0 
-1.246817911064e-03 4.735746548095e-03 0.0 
0.0 0.0 -1.284796145094e-03 
7.390568671829e-04 2.553228098249e-03 0.0 
2.553228098249e-03 5.918003010214e-04 0.0 
0.0 0.0 -5.703673578019e-04 
-2.093082199977e-03 -2.605836003403e-04 0.0 
-2.605836003403e-04 5.949086090445e-03 0.0 
0.0 0.0 -1.062413871926e-03 
1.655520854684e-04 2.161371362285e-03 0.0 
2.161371362285e-03 1.103022204114e-03 0.0 
0.0 0.0 -5.436746955351e-04 
2.242015872536e-04 2.776975076431e-03 0.0 
2.776975076431e-03 2.408189383906e-03 0.0 
0.0 0.0 -1.044905595188e-03 
-1.509926535812e-03 9.806530388370e-05 0.0 
9.806530388370e-05 5.368363465218e-03 0.0 
0.0 0.0 -7.899655494116e-04 
1.682599579449e-03 2.941445331381e-03 0.0 
2.941445331381e-03 -2.715371857708e-04 0.0 
0.0 0.0 -6.047410258623e-04 
-2.057240178145e-03 -7.296543458156e-04 0.0 
-7.296543458156e-04 6.353419805029e-03 0.0 
0.0 0.0 -1.120963572432e-03 
7.939550842650e-05 -1.701837783695e-03 0.0 
-1.701837783695e-03 9.541700722220e-04 0.0 
0.0 0.0 -4.429566774208e-04 
-1.888286542342e-03 -4.078361496187e-04 0.0 
-4.078361496187e-04 6.637817436663e-03 0.0 
0.0 0.0 -1.189111243166e-03 
-1.407485654430e-03 2.291313923690e-03 0.0 
2.291313923690e-03 4.423118315057e-03 0.0 
0.0 0.0 -8.496092609019e-04 
-1.655956820216e-03 -1.430755689950e-03 0.0 
-1.430755689950e-03 6.808595235967e-03 0.0 
0.0 0.0 -1.265987209193e-03 
-1.479137566383e-03 6.125436213776e-05 0.0 
6.125436213776e-05 5.372221524286e-03 0.0 
0.0 0.0 -7.842605076999e-04 
1.138347058752e-03 2.740886700746e-03 0.0 
2.740886700746e-03 1.338850972854e-04 0.0 
0.0 0.0 -5.452423525874e-04 
-1.371065394049e-03 1.713545049238e-03 0.0 
1.713545049238e-03 4.152463321133e-03 0.0 
0.0 0.0 -7.801847948469e-04 
-1.782923268792e-03 -4.744584193542e-04 0.0 
-4.744584193542e-04 5.239530130494e-03 0.0 
0.0 0.0 -1.068702715777e-03 
1.574789883305e-04 2.145072666255e-03 0.0 
2.145072666255e-03 1.105288466408e-03 0.0 
0.0 0.0 -5.411860520308e-04 
1.917158204157e-03 2.902714119045e-03 0.0 
2.902714119045e-03 -2.818191306246e-04 0.0 
0.0 0.0 -7.008596029424e-04 
-1.624113157274e-03 6.876053139899e-05 0.0 
6.876053139899e-05 7.048361475913e-03 0.0 
0.0 0.0 -1.016465148841e-03 
-1.496185645618e-03 2.597795714976e-04 0.0 
2.597795714976e-04 5.580042956141e-03 0.0 
0.0 0.0 -7.680022369673e-04 
1.209193990119e-03 2.857448575399e-03 0.0 
2.857448575399e-03 6.945453600021e-05 0.0 
0.0 0.0 -5.479922254795e-04 
-1.208481437465e-03 1.793019710120e-03 0.0 
1.793019710120e-03 3.824789842828e-03 0.0 
0.0 0.0 -7.984459790235e-04 
-1.152184433486e-03 3.335097296693e-03 0.0 
3.335097296693e-03 5.424015752646e-03 0.0 
0.0 0.0 -1.136725521675e-03 
-1.147448492341e-03 -1.324005404889e-03 0.0 
-1.324005404889e-03 3.757906895843e-03 0.0 
0.0 0.0 -9.635001610743e-04 
-1.057040178935e-03 2.860292126594e-03 0.0 
2.860292126594e-03 5.175691718835e-03 0.0 
0.0 0.0 -1.285202198870e-03 
-1.235950081423e-03 3.387647794385e-03 0.0 
3.387647794385e-03 6.387700415222e-03 0.0 
0.0 0.0 -1.265486236287e-03 
9.281696803103e-05 2.658900655702e-03 0.0 
2.658900655702e-03 1.536267417270e-03 0.0 
0.0 0.0 -6.981790222718e-04 
-1.143109251794e-03 -9.968271358534e-04 0.0 
-9.968271358534e-04 3.727905850470e-03 0.0 
0.0 0.0 -9.933498913217e-04 
8.375618411632e-06 -4.309904929494e-04 0.0 
-4.309904929494e-04 3.045007785971e-03 0.0 
0.0 0.0 -1.152822474774e-03 
-6.877546197814e-04 2.505636337626e-03 0.0 
2.505636337626e-03 3.038701524841e-03 0.0 
0.0 0.0 -9.245708556394e-04 
1.703115487888e-04 2.091650289530e-03 0.0 
2.091650289530e-03 1.051916456575e-03 0.0 
0.0 0.0 -5.238120022987e-04 
-1.475392442541e-03 1.965496358724e-03 0.0 
1.965496358724e-03 4.467421796523e-03 0.0 
0.0 0.0 -8.137754052845e-04 
9.749921592096e-04 3.123149167265e-03 0.0 
3.123149167265e-03 7.036965901566e-04 0.0 
0.0 0.0 -7.194380354427e-04 
-1.431612767918e-03 8.458326217491e-04 0.0 
8.458326217491e-04 8.384155646033e-03 0.0 
0.0 0.0 -1.279059907835e-03 
-1.564281029058e-03 2.665406032541e-03 0.0 
2.665406032541e-03 6.081997352065e-03 0.0 
0.0 0.0 -1.060691896764e-03 
-1.994493389840e-03 -1.486147162618e-04 0.0 
-1.486147162618e-04 6.559276794178e-03 0.0 
0.0 0.0 -1.155968210243e-03 
4.093528604226e-04 2.208508467563e-03 0.0 
2.208508467563e-03 7.981291822907e-04 0.0 
0.0 0.0 -5.174923040200e-04 
2.334418016396e-03 2.579116851284e-03 0.0 
2.579116851284e-03 -5.999483228990e-04 0.0 
0.0 0.0 -7.433441543560e-04 
-1.484568773685e-03 2.868377484862e-03 0.0 
2.868377484862e-03 6.031945958818e-03 0.0 
0.0 0.0 -1.089453766084e-03 
0.0 0.0 0.0 
0.0 0.0 0.0 
0.0 0.0 0.0 
-6.877179378264e-04 2.407578529618e-03 0.0 
2.407578529618e-03 2.994584755227e-03 0.0 
0.0 0.0 -9.117638418509e-04 
1.701472924961e-04 -1.416553182353e-03 0.0 
-1.416553182353e-03 2.527445138619e-03 0.0 
0.0 0.0 -1.080675545910e-03 
7.614101656211e-04 -9.306526935755e-04 0.0 
-9.306526935755e-04 6.714955075901e-04 0.0 
0.0 0.0 -3.004177607877e-04 
-1.466695883915e-03 2.895664536321e-03 0.0 
2.895664536321e-03 7.498365973997e-03 0.0 
0.0 0.0 -1.257517519450e-03 
-1.714163728762e-03 1.976135659385e-03 0.0 
1.976135659385e-03 6.108584287411e-03 0.0 
0.0 0.0 -9.749624431058e-04 
4.925108656531e-04 -3.055158529449e-03 0.0 
-3.055158529449e-03 1.195571453177e-03 0.0 
0.0 0.0 -7.234638509273e-04 
2.687278214663e-04 -6.810653139458e-04 0.0 
-6.810653139458e-04 2.481884598028e-03 0.0 
0.0 0.0 -1.082135573043e-03 
-1.799351909415e-03 1.409259675503e-03 0.0 
1.409259675503e-03 5.578155389814e-03 0.0 
0.0 0.0 -8.259898420369e-04 
-1.801064707900e-03 1.064269352962e-03 0.0 
1.064269352962e-03 5.991738140388e-03 0.0 
0.0 0.0 -8.838609275114e-04 
-6.913788155709e-04 -1.227574140941e-03 0.0 
-1.227574140941e-03 4.246435019945e-03 0.0 
0.0 0.0 -1.237791025003e-03 
1.617016974438e-05 -2.476429670131e-03 0.0 
-2.476429670131e-03 1.553276678470e-03 0.0 
0.0 0.0 -6.726200778060e-04 
-1.931314796257e-04 3.392233640780e-03 0.0 
3.392233640780e-03 2.538226820427e-03 0.0 
0.0 0.0 -1.005040860343e-03 
-1.319730188756e-03 2.601972306617e-03 0.0 
2.601972306617e-03 4.340655659079e-03 0.0 
0.0 0.0 -8.816854262052e-04 
-1.791217628275e-03 1.648610109221e-03 0.0 
1.648610109221e-03 6.470941124492e-03 0.0 
0.0 0.0 -1.008548823165e-03 
-1.624650418518e-03 2.058268446018e-03 0.0 
2.058268446018e-03 4.841940123608e-03 0.0 
0.0 0.0 -8.379792476443e-04 
-1.489577849007e-03 1.897054155513e-03 0.0 
1.897054155513e-03 4.494677002446e-03 0.0 
0.0 0.0 -8.233332215064e-04 
9.144592983676e-04 2.103723640953e-03 0.0 
2.103723640953e-03 1.164621970286e-03 0.0 
0.0 0.0 -8.910348294228e-04 
-1.234709836901e-03 2.936622841749e-03 0.0 
2.936622841749e-03 5.525011386670e-03 0.0 
0.0 0.0 -1.105110859848e-03 
0.0 0.0 0.0 
0.0 0.0 0.0 
0.0 0.0 0.0 
5.533753092925e-05 2.321065575708e-03 0.0 
2.321065575708e-03 1.385026181291e-03 0.0 
0.0 0.0 -6.172987338087e-04 
9.775337925356e-05 2.647350784272e-03 0.0 
2.647350784272e-03 1.520581698043e-03 0.0 
0.0 0.0 -6.935721759841e-04 
-4.200121646643e-04 3.335963278249e-03 0.0 
3.335963278249e-03 2.868206010904e-03 0.0 
0.0 0.0 -9.575728814879e-04 
-1.648855317221e-03 2.317084043405e-03 0.0 
2.317084043405e-03 6.523041636329e-03 0.0 
0.0 0.0 -1.095076276885e-03 
2.058287304795e-03 2.313329836799e-03 0.0 
2.313329836799e-03 -1.214980310369e-03 0.0 
0.0 0.0 -3.614172833254e-04 
1.621278099486e-04 -1.894393997341e-03 0.0 
-1.894393997341e-03 2.355296152545e-03 0.0 
0.0 0.0 -1.043355442177e-03 
-1.517251520276e-03 -1.088769506638e-04 0.0 
-1.088769506638e-04 5.367725382565e-03 0.0 
0.0 0.0 -7.763349569542e-04 
2.071225716726e-03 2.817742222964e-03 0.0 
2.817742222964e-03 -5.830940965428e-04 0.0 
0.0 0.0 -6.377706943641e-04 
8.701785889744e-05 -2.378886716450e-03 0.0 
-2.378886716450e-03 2.268431335651e-03 0.0 
0.0 0.0 -1.006238978475e-03 
6.688501451719e-04 -8.570105726374e-04 0.0 
-8.570105726374e-04 2.508766139633e-04 0.0 
0.0 0.0 -2.227849532966e-04 
-1.684683593515e-03 2.138149817611e-03 0.0 
2.138149817611e-03 6.451465524737e-03 0.0 
0.0 0.0 -1.040010908530e-03 
1.085799585697e-03 -9.338136306232e-04 0.0 
-9.338136306232e-04 4.841625588175e-05 0.0 
0.0 0.0 -1.827119720807e-04 
1.032861128012e-04 -6.271925775052e-04 0.0 
-6.271925775052e-04 6.433353347809e-04 0.0 
0.0 0.0 -2.890002659678e-04 
4.284292636794e-04 2.188011980544e-03 0.0 
2.188011980544e-03 7.634628543711e-04 0.0 
0.0 0.0 -5.108109077359e-04 
5.217682496462e-06 -2.221552624950e-03 0.0 
-2.221552624950e-03 1.410136832977e-03 0.0 
0.0 0.0 -6.065805066316e-04 
-1.756426844714e-03 1.797081824779e-03 0.0 
1.797081824779e-03 6.815040634103e-03 0.0 
0.0 0.0 -1.073797489760e-03 
1.622101319788e-04 -2.264597495009e-03 0.0 
-2.264597495009e-03 1.173181540105e-03 0.0 
0.0 0.0 -5.723107166073e-04 
1.082074594484e-03 2.640607073619e-03 0.0 
2.640607073619e-03 2.626720583109e-04 0.0 
0.0 0.0 -5.763199940550e-04 
1.605964786137e-03 -3.583242349909e-03 0.0 
-3.583242349909e-03 -7.906667844752e-05 0.0 
0.0 0.0 -6.543849032956e-04 
-3.494454807525e-05 -1.610984925714e-03 0.0 
-1.610984925714e-03 1.099950761190e-03 0.0 
0.0 0.0 -4.564312341920e-04 
1.739023189569e-04 -2.645147422265e-04 0.0 
-2.645147422265e-04 2.696870324371e-03 0.0 
0.0 0.0 -1.117524173959e-03 
-1.429083730494e-03 2.211537082543e-03 0.0 
2.211537082543e-03 4.453302943283e-03 0.0 
0.0 0.0 -8.507820156577e-04 
-1.682802659426e-03 -8.879633472863e-04 0.0 
-8.879633472863e-04 6.796328964063e-03 0.0 
0.0 0.0 -1.256743614961e-03 
0.0 0.0 0.0 
0.0 0.0 0.0 
0.0 0.0 0.0 
1.341168508293e-03 2.860330611598e-03 0.0 
2.860330611598e-03 7.949426344501e-05 0.0 
0.0 0.0 -6.088554736019e-04 
2.068683241690e-03 2.743594093827e-03 0.0 
2.743594093827e-03 -6.076247593681e-04 0.0 
0.0 0.0 -6.261679209952e-04 
-4.650783933680e-04 2.487333802040e-03 0.0 
2.487333802040e-03 2.583809885183e-03 0.0 
0.0 0.0 -9.080277822064e-04 
3.082871487027e-04 -1.189402361213e-03 0.0 
-1.189402361213e-03 2.304624928689e-03 0.0 
0.0 0.0 -1.045235091131e-03 
-1.579554839483e-03 -1.394031692893e-03 0.0 
-1.394031692893e-03 6.678028948098e-03 0.0 
0.0 0.0 -1.275930989368e-03 
-1.684299046229e-03 2.211375405385e-03 0.0 
2.211375405385e-03 6.180161065170e-03 0.0 
0.0 0.0 -1.029499106509e-03 
2.603806802799e-03 2.336705660835e-03 0.0 
2.336705660835e-03 -7.411156882784e-04 0.0 
0.0 0.0 -7.982961919374e-04 
1.043592575535e-04 -8.852470439530e-04 0.0 
-8.852470439530e-04 2.718008520162e-03 0.0 
0.0 0.0 -1.116166892424e-03 
-1.922924089839e-03 -2.680134474821e-04 0.0 
-2.680134474821e-04 5.558845052998e-03 0.0 
0.0 0.0 -1.068822925414e-03 
-7.222094777076e-04 3.206300168432e-03 0.0 
3.206300168432e-03 3.349356457826e-03 0.0 
0.0 0.0 -9.235973587808e-04 
-1.677093997722e-03 2.220083154297e-03 0.0 
2.220083154297e-03 6.117933896180e-03 0.0 
0.0 0.0 -1.003200534345e-03 
-7.865873312168e-04 2.395249233040e-03 0.0 
2.395249233040e-03 4.693437656803e-03 0.0 
0.0 0.0 -1.239730878702e-03 
2.351260119446e-03 2.575200545511e-03 0.0 
2.575200545511e-03 -6.504486438349e-04 0.0 
0.0 0.0 -7.289192038335e-04 
9.551102574568e-04 2.654829682591e-03 0.0 
2.654829682591e-03 4.928673923672e-04 0.0 
0.0 0.0 -6.205618499245e-04 
-1.702788092325e-03 2.198389791733e-03 0.0 
2.198389791733e-03 5.173682012494e-03 0.0 
0.0 0.0 -8.662621843288e-04 
-1.465090691244e-03 1.772844143032e-03 0.0 
1.772844143032e-03 8.679771669805e-03 0.0 
0.0 0.0 -1.323568725688e-03 
-2.196076664333e-04 3.542355712652e-03 0.0 
3.542355712652e-03 2.609169075547e-03 0.0 
0.0 0.0 -9.604425725471e-04 
2.156116458846e-03 1.930277635860e-03 0.0 
1.930277635860e-03 -8.514533959833e-04 0.0 
0.0 0.0 -5.591413126556e-04 
-1.551301896676e-03 9.806982104899e-05 0.0 
9.806982104899e-05 6.010438701821e-03 0.0 
0.0 0.0 -8.293613651800e-04 
5.856186318512e-04 -2.658816906517e-03 0.0 
-2.658816906517e-03 8.548743103245e-04 0.0 
0.0 0.0 -6.173541180753e-04 
-1.598852307231e-03 2.167741205054e-03 0.0 
2.167741205054e-03 4.803959338789e-03 0.0 
0.0 0.0 -8.353017157004e-04 
2.274495282906e-03 2.779935450298e-03 0.0 
2.779935450298e-03 -7.589577722122e-04 0.0 
0.0 0.0 -6.495160760114e-04 
2.298330951285e-03 2.091471460167e-03 0.0 
2.091471460167e-03 -1.204105301713e-03 0.0 
0.0 0.0 -4.689538498166e-04 
2.194832401766e-03 -2.977249775004e-03 0.0 
-2.977249775004e-03 -1.184035248941e-03 0.0 
0.0 0.0 -4.331987797821e-04 
-1.681597496447e-03 2.058302471615e-03 0.0 
2.058302471615e-03 6.767260745606e-03 0.0 
0.0 0.0 -1.075985979751e-03 
-1.563333733845e-03 2.379244648904e-03 0.0 
2.379244648904e-03 4.793451180047e-03 0.0 
0.0 0.0 -8.585603458244e-04 
7.771067329277e-04 2.601388271392e-03 0.0 
2.601388271392e-03 5.653213737160e-04 0.0 
0.0 0.0 -5.753263314187e-04 
-1.744996038836e-03 1.710273158382e-03 0.0 
1.710273158382e-03 7.117718959599e-03 0.0 
0.0 0.0 -1.109763131677e-03 
-1.606390224900e-03 2.419672085247e-03 0.0 
2.419672085247e-03 6.148327333334e-03 0.0 
0.0 0.0 -1.057773507355e-03 
-9.992751282894e-04 3.042009890222e-03 0.0 
3.042009890222e-03 3.819168416919e-03 0.0 
0.0 0.0 -9.009204134091e-04 
-1.375955048470e-03 -1.683400062222e-03 0.0 
-1.683400062222e-03 6.152421885777e-03 0.0 
0.0 0.0 -1.288412101370e-03 
1.944327134549e-03 1.768812360803e-03 0.0 
1.768812360803e-03 -8.136324325899e-04 0.0 
0.0 0.0 -4.845834436969e-04 
-1.254552424136e-03 2.860314366234e-03 0.0 
2.860314366234e-03 4.275922517579e-03 0.0 
0.0 0.0 -8.847105569873e-04 
9.718205800213e-04 3.231436175948e-03 0.0 
3.231436175948e-03 7.715228841926e-04 0.0 
0.0 0.0 -7.471471989488e-04 
1.727666947234e-03 1.978971680572e-03 0.0 
1.978971680572e-03 -4.287431573860e-04 0.0 
0.0 0.0 -5.566816242204e-04 
2.636933750934e-03 1.964049691199e-03 0.0 
1.964049691199e-03 -1.267164226969e-03 0.0 
0.0 0.0 -5.870440816995e-04 
-1.756261579278e-03 1.027223545009e-03 0.0 
1.027223545009e-03 5.150592098184e-03 0.0 
0.0 0.0 -7.898058234521e-04 
2.669142654027e-03 2.047008583083e-03 0.0 
2.047008583083e-03 -9.582484116816e-04 0.0 
0.0 0.0 -7.332403895767e-04 
2.689606729154e-03 -1.689602510838e-03 0.0 
-1.689602510838e-03 -1.205625742808e-03 0.0 
0.0 0.0 -6.359918512911e-04 
-1.629595190705e-03 2.449686769187e-03 0.0 
2.449686769187e-03 6.117601231972e-03 0.0 
0.0 0.0 -1.032318248600e-03 
0.0 0.0 0.0 
0.0 0.0 0.0 
0.0 0.0 0.0 
-1.769475386321e-03 1.897454184282e-03 0.0 
1.897454184282e-03 5.196794091963e-03 0.0 
0.0 0.0 -8.386390795737e-04 
2.679831450569e-03 2.298078295471e-03 0.0 
2.298078295471e-03 -1.117110075304e-03 0.0 
0.0 0.0 -6.697377322564e-04 
1.525405513799e-03 2.895304825734e-03 0.0 
2.895304825734e-03 1.054559655311e-04 0.0 
0.0 0.0 -6.989406339984e-04 
2.631491351563e-03 9.404993485972e-04 0.0 
9.404993485972e-04 -1.150887457296e-03 0.0 
0.0 0.0 -6.345445261146e-04 
-1.595995973144e-03 2.618038279511e-03 0.0 
2.618038279511e-03 5.071323653385e-03 0.0 
0.0 0.0 -8.965110541436e-04 
1.511841627677e-04 -1.773057166612e-03 0.0 
-1.773057166612e-03 8.535234281834e-04 0.0 
0.0 0.0 -3.901044503889e-04 
-9.397222903951e-05 2.775799572976e-03 0.0 
2.775799572976e-03 1.950195750929e-03 0.0 
0.0 0.0 -7.955243665241e-04 
1.510533742235e-03 1.893368219128e-03 0.0 
1.893368219128e-03 -3.333023352098e-04 0.0 
0.0 0.0 -5.045277458680e-04 
-1.529633938128e-03 2.472556152499e-03 0.0 
2.472556152499e-03 4.747231259560e-03 0.0 
0.0 0.0 -8.651285257930e-04 
-1.800570073848e-03 1.187623183650e-03 0.0 
1.187623183650e-03 5.684872286068e-03 0.0 
0.0 0.0 -8.301023967811e-04 
9.558821828944e-04 1.012922103067e-03 0.0 
1.012922103067e-03 -8.983468077863e-04 0.0 
0.0 0.0 -2.465801790350e-05 
2.929345942082e-03 -7.362875197769e-04 0.0 
-7.362875197769e-04 -1.325012703078e-03 0.0 
0.0 0.0 -6.875713881444e-04 
2.465820499106e-03 -2.486373233668e-03 0.0 
-2.486373233668e-03 -9.885187097241e-04 0.0 
0.0 0.0 -6.331293383067e-04 
-1.000270138248e-04 2.665501899130e-03 0.0 
2.665501899130e-03 1.891739969722e-03 0.0 
0.0 0.0 -7.678769810987e-04 
-1.745645462288e-03 1.969965136157e-03 0.0 
1.969965136157e-03 6.177510406470e-03 0.0 
0.0 0.0 -1.000663671924e-03 
-6.743676206496e-05 2.958894746749e-03 0.0 
2.958894746749e-03 2.016036742517e-03 0.0 
0.0 0.0 -8.351142773366e-04 
2.740866472437e-03 2.036102310260e-03 0.0 
2.036102310260e-03 -1.186449683482e-03 0.0 
0.0 0.0 -6.661786238380e-04 
2.465496107494e-03 2.525824601176e-03 0.0 
2.525824601176e-03 -9.322172367962e-04 0.0 
0.0 0.0 -6.571195160133e-04 
1.273787981714e-03 8.615297331710e-04 0.0 
8.615297331710e-04 -7.497623681705e-04 0.0 
0.0 0.0 -2.245824058045e-04 
1.142131131016e-03 2.936542087170e-03 0.0 
2.936542087170e-03 2.802751358821e-04 0.0 
0.0 0.0 -6.096026858133e-04 
8.727535464249e-04 2.453256376776e-03 0.0 
2.453256376776e-03 4.670237874706e-04 0.0 
0.0 0.0 -5.741902859552e-04 
-1.475760748405e-03 2.695142501196e-03 0.0 
2.695142501196e-03 8.197923622284e-03 0.0 
0.0 0.0 -1.321446319728e-03 
-1.492107186378e-03 3.030650340964e-03 0.0 
3.030650340964e-03 7.905007360297e-03 0.0 
0.0 0.0 -1.318029376683e-03 
-1.178085073701e-05 3.500120593452e-03 0.0 
3.500120593452e-03 2.258084084144e-03 0.0 
0.0 0.0 -9.627013857460e-04 
2.548877331085e-03 2.529452683065e-03 0.0 
2.529452683065e-03 -1.024625724028e-03 0.0 
0.0 0.0 -6.532506887387e-04 
1.850654072594e-03 2.843628912083e-03 0.0 
2.843628912083e-03 -1.310735320691e-04 0.0 
0.0 0.0 -7.369630887965e-04 
-1.088841516862e-03 3.167027765780e-03 0.0 
3.167027765780e-03 4.070335559596e-03 0.0 
0.0 0.0 -9.333628341409e-04 
2.340427504556e-03 2.434956062557e-03 0.0 
2.434956062557e-03 -5.727957500432e-04 0.0 
0.0 0.0 -7.575564662197e-04 
2.682095355776e-03 -1.550453496673e-03 0.0 
-1.550453496673e-03 -1.096738406614e-03 0.0 
0.0 0.0 -6.794386924979e-04 
-6.843102871119e-04 3.138323977980e-03 0.0 
3.138323977980e-03 3.288670793621e-03 0.0 
0.0 0.0 -9.652881140700e-04 
-1.560571318974e-03 1.068024078019e-03 0.0 
1.068024078019e-03 8.561491499252e-03 0.0 
0.0 0.0 -1.266640259566e-03 
2.402271625794e-03 2.610626999267e-03 0.0 
2.610626999267e-03 -8.722989033853e-04 0.0 
0.0 0.0 -6.557025953181e-04 
6.813860835502e-04 2.812347985425e-03 0.0 
2.812347985425e-03 1.059490988612e-03 0.0 
0.0 0.0 -7.460901737839e-04 
1.236363456041e-03 2.703241249809e-03 0.0 
2.703241249809e-03 7.838624202409e-05 0.0 
0.0 0.0 -5.634641563138e-04 
-9.652389989340e-04 -6.720183629338e-04 0.0 
-6.720183629338e-04 5.271242622276e-03 0.0 
0.0 0.0 -1.322863172658e-03 
2.098067576592e-03 2.923737740925e-03 0.0 
2.923737740925e-03 -6.205768400508e-04 0.0 
0.0 0.0 -6.332103156605e-04 
-5.055876985533e-04 3.367364034790e-03 0.0 
3.367364034790e-03 3.063510178626e-03 0.0 
0.0 0.0 -9.919420460789e-04 
1.879903345484e-03 1.255087970799e-03 0.0 
1.255087970799e-03 -1.207356077200e-03 0.0 
0.0 0.0 -2.882345435504e-04 
1.114970489587e-03 -6.571475029199e-04 0.0 
-6.571475029199e-04 3.550721468189e-04 0.0 
0.0 0.0 -6.300182727452e-04 
2.369471702773e-03 2.352310472614e-03 0.0 
2.352310472614e-03 -9.003050297677e-04 0.0 
0.0 0.0 -6.296428598595e-04 
2.511210871122e-03 -2.213592529972e-03 0.0 
-2.213592529972e-03 -7.926901794877e-04 0.0 
0.0 0.0 -7.365088678434e-04 
-1.351376459572e-03 2.550480813182e-03 0.0 
2.550480813182e-03 4.385207787700e-03 0.0 
0.0 0.0 -8.710486452961e-04 
-1.397658873592e-03 3.467085405935e-03 0.0 
3.467085405935e-03 7.331557043367e-03 0.0 
0.0 0.0 -1.324865334549e-03 
2.762976518654e-03 2.129275318385e-03 0.0 
2.129275318385e-03 -1.188719051590e-03 0.0 
0.0 0.0 -6.746817715991e-04 
1.650992187785e-03 1.271809720393e-03 0.0 
1.271809720393e-03 -3.513789338484e-04 0.0 
0.0 0.0 -5.569771088299e-04 
1.383242402169e-03 2.669272504238e-03 0.0 
2.669272504238e-03 1.108605796806e-04 0.0 
0.0 0.0 -6.403298493639e-04 
-1.712702943967e-03 1.199021659258e-03 0.0 
1.199021659258e-03 6.429834953111e-03 0.0 
0.0 0.0 -9.576894438039e-04 
2.851085176734e-04 -1.709536430844e-03 0.0 
-1.709536430844e-03 2.195876444368e-03 0.0 
0.0 0.0 -1.008345180213e-03 
7.579314461175e-04 2.705809604616e-03 0.0 
2.705809604616e-03 6.993839864940e-04 0.0 
0.0 0.0 -6.245637568335e-04 
-1.777734376668e-03 7.086825961679e-04 0.0 
7.086825961679e-04 6.354608604567e-03 0.0 
0.0 0.0 -9.257128893455e-04 
-1.277191206466e-03 3.589282529004e-03 0.0 
3.589282529004e-03 6.665823351058e-03 0.0 
0.0 0.0 -1.322580803729e-03 
1.403185707494e-06 -1.439264409054e-03 0.0 
-1.439264409054e-03 2.848558759865e-03 0.0 
0.0 0.0 -1.075861678316e-03 
-1.430658668499e-03 3.358596416292e-03 0.0 
3.358596416292e-03 7.549163922134e-03 0.0 
0.0 0.0 -1.322091174222e-03 
-1.793445118784e-03 9.356262614995e-04 0.0 
9.356262614995e-04 6.204769543778e-03 0.0 
0.0 0.0 -9.196498359204e-04 
-1.442068331431e-03 2.746821175537e-03 0.0 
2.746821175537e-03 5.682562585269e-03 0.0 
0.0 0.0 -1.048263655743e-03 
5.998084775859e-04 2.508005665207e-03 0.0 
2.508005665207e-03 7.531788584781e-04 0.0 
0.0 0.0 -5.798517154560e-04 
-1.223045542115e-03 2.387086346015e-03 0.0 
2.387086346015e-03 4.064515837256e-03 0.0 
0.0 0.0 -8.681697709544e-04 
-1.209389184573e-03 2.902758957536e-03 0.0 
2.902758957536e-03 4.217242041572e-03 0.0 
0.0 0.0 -9.102795160361e-04 
-1.488840206319e-03 2.679198250696e-03 0.0 
2.679198250696e-03 4.716368235080e-03 0.0 
0.0 0.0 -8.732807453983e-04 
1.119499660130e-04 3.567291341735e-03 0.0 
3.567291341735e-03 2.082472498151e-03 0.0 
0.0 0.0 -9.404667703562e-04 
-1.189299144518e-03 3.334584496646e-03 0.0 
3.334584496646e-03 6.217817091132e-03 0.0 
0.0 0.0 -1.322334986692e-03 
-1.743738005580e-03 1.571409251216e-03 0.0 
1.571409251216e-03 5.783273679231e-03 0.0 
0.0 0.0 -8.810748613436e-04 
-1.668503733379e-03 1.747174983457e-03 0.0 
1.747174983457e-03 4.858766838357e-03 0.0 
0.0 0.0 -8.123974380148e-04 
2.689502468919e-03 2.075432867186e-03 0.0 
2.075432867186e-03 -9.257907609435e-04 0.0 
0.0 0.0 -7.558764462751e-04 
-2.431074983303e-05 -1.913003925140e-03 0.0 
-1.913003925140e-03 1.267148434552e-03 0.0 
0.0 0.0 -5.326447220222e-04 
-1.300250353668e-03 2.028546891134e-03 0.0 
2.028546891134e-03 4.120204910714e-03 0.0 
0.0 0.0 -8.415228793236e-04 
1.029960534553e-03 2.697834854064e-03 0.0 
2.697834854064e-03 2.742713854926e-04 0.0 
0.0 0.0 -5.589565371624e-04 
-1.478386704748e-03 4.206789908739e-05 0.0 
4.206789908739e-05 5.616715806328e-03 0.0 
0.0 0.0 -7.696142143080e-04 
2.082223251132e-03 -2.739881630323e-03 0.0 
-2.739881630323e-03 -6.915223042800e-04 0.0 
0.0 0.0 -5.960146915079e-04 
2.687145576905e-03 2.150944824992e-03 0.0 
2.150944824992e-03 -8.619858571997e-04 0.0 
0.0 0.0 -7.822113084450e-04 
-1.642192723937e-03 2.370627921536e-03 0.0 
2.370627921536e-03 6.463774212935e-03 0.0 
0.0 0.0 -1.069052450572e-03 
1.210732016110e-03 2.901093481449e-03 0.0 
2.901093481449e-03 3.403089247521e-04 0.0 
0.0 0.0 -6.647318317980e-04 
-1.090838761359e-03 2.744646813510e-03 0.0 
2.744646813510e-03 3.916911857046e-03 0.0 
0.0 0.0 -9.030726692333e-04 
1.373131851669e-03 1.385595291722e-03 0.0 
1.385595291722e-03 -2.069114301952e-04 0.0 
0.0 0.0 -4.998087520603e-04 
5.484712090762e-04 -3.075676285272e-03 0.0 
-3.075676285272e-03 1.137788810983e-03 0.0 
0.0 0.0 -7.226828657397e-04 
-1.016387097360e-03 2.517297286892e-03 0.0 
2.517297286892e-03 5.594754578216e-03 0.0 
0.0 0.0 -1.324762665914e-03 
-9.072903591933e-04 2.355207703591e-03 0.0 
2.355207703591e-03 3.405907050817e-03 0.0 
0.0 0.0 -8.881387192877e-04 
2.946142820410e-03 1.617684650386e-04 0.0 
1.617684650386e-04 -1.452636572549e-03 0.0 
0.0 0.0 -6.400741062262e-04 
6.309307785542e-04 -2.673296576986e-03 0.0 
-2.673296576986e-03 8.118285156915e-04 0.0 
0.0 0.0 -6.183254118196e-04 
2.654857369397e-04 2.566176722282e-03 0.0 
2.566176722282e-03 1.206224560431e-03 0.0 
0.0 0.0 -6.307329845874e-04 
6.292944620548e-04 2.356029893105e-03 0.0 
2.356029893105e-03 6.393485700988e-04 0.0 
0.0 0.0 -5.437041566372e-04 
-1.573343830476e-03 2.521088319541e-03 0.0 
2.521088319541e-03 6.487888532466e-03 0.0 
0.0 0.0 -1.123886314723e-03 
-8.643744592464e-04 3.301393799564e-03 0.0 
3.301393799564e-03 3.642299074364e-03 0.0 
0.0 0.0 -9.055216267950e-04 
-4.630807398905e-04 2.550759047776e-03 0.0 
2.550759047776e-03 2.616100997212e-03 0.0 
0.0 0.0 -9.227229674235e-04 
-9.883417377340e-04 2.554278731018e-03 0.0 
2.554278731018e-03 3.636783780997e-03 0.0 
0.0 0.0 -8.916891917129e-04 
-9.188251607234e-04 7.915048635257e-04 0.0 
7.915048635257e-04 5.164894119245e-03 0.0 
0.0 0.0 -1.320675234999e-03 
-5.234519663279e-04 8.018217957374e-04 0.0 
8.018217957374e-04 4.358356351167e-03 0.0 
0.0 0.0 -1.258064670439e-03 
-1.519847497081e-03 2.784288839478e-03 0.0 
2.784288839478e-03 6.420730520918e-03 0.0 
0.0 0.0 -1.126590436115e-03 
-1.758421539440e-03 1.881967215149e-03 0.0 
1.881967215149e-03 6.509172932200e-03 0.0 
0.0 0.0 -1.037522200811e-03 
7.328240466091e-04 -2.682401726123e-03 0.0 
-2.682401726123e-03 7.115913620792e-04 0.0 
0.0 0.0 -6.190351751521e-04 
1.760096404851e-04 3.185483329578e-03 0.0 
3.185483329578e-03 1.733233248228e-03 0.0 
0.0 0.0 -8.182469523055e-04 
2.700024770010e-03 1.747528214601e-03 0.0 
1.747528214601e-03 -9.576266826323e-04 0.0 
0.0 0.0 -7.467420374474e-04 
2.935361494200e-03 1.596241168019e-03 0.0 
1.596241168019e-03 -1.073012164550e-03 0.0 
0.0 0.0 -7.981497127072e-04 
-5.548455542571e-04 3.454533405249e-03 0.0 
3.454533405249e-03 3.132006875912e-03 0.0 
0.0 0.0 -9.270064166112e-04 
1.279127165458e-03 -9.870557535994e-04 0.0 
-9.870557535994e-04 -3.854326390960e-05 0.0 
0.0 0.0 -5.316788149495e-04 
-4.227815079073e-04 -2.784371059583e-03 0.0 
-2.784371059583e-03 2.659310912429e-03 0.0 
0.0 0.0 -9.585126019377e-04 
-1.599277265462e-03 2.517332469059e-03 0.0 
2.517332469059e-03 6.812542085539e-03 0.0 
0.0 0.0 -1.134236807130e-03 
2.838543821024e-03 -9.388703813827e-04 0.0 
-9.388703813827e-04 -1.339013732820e-03 0.0 
0.0 0.0 -6.426557520871e-04 
4.165970448057e-04 3.486050932692e-03 0.0 
3.486050932692e-03 1.558675942698e-03 0.0 
0.0 0.0 -8.465455660731e-04 
-9.570428297717e-04 3.028568391790e-03 0.0 
3.028568391790e-03 3.758744006407e-03 0.0 
0.0 0.0 -9.331417602438e-04 
4.382192218767e-04 3.304842555304e-03 0.0 
3.304842555304e-03 1.417845423766e-03 0.0 
0.0 0.0 -7.954562767040e-04 
-1.443236035943e-03 3.221098478814e-03 0.0 
3.221098478814e-03 7.736365815094e-03 0.0 
0.0 0.0 -1.320088186226e-03 
-1.483693740833e-03 2.932428243371e-03 0.0 
2.932428243371e-03 8.049345893719e-03 0.0 
0.0 0.0 -1.318462653075e-03 
-1.548932721531e-03 2.525807133433e-03 0.0 
2.525807133433e-03 7.540510939249e-03 0.0 
0.0 0.0 -1.256494544188e-03 
5.199835747165e-04 -2.886590158864e-03 0.0 
-2.886590158864e-03 1.061442334883e-03 0.0 
0.0 0.0 -6.777539612569e-04 
-1.663138327388e-03 1.991577787862e-03 0.0 
1.991577787862e-03 7.067165816428e-03 0.0 
0.0 0.0 -1.112065035246e-03 
8.530770766536e-04 2.505748462956e-03 0.0 
2.505748462956e-03 4.288710739428e-04 0.0 
0.0 0.0 -5.494063502556e-04 
2.976026969438e-03 1.471613804293e-03 0.0 
1.471613804293e-03 -1.145802400427e-03 0.0 
0.0 0.0 -7.843819581477e-04 
2.176227096681e-03 9.823823306462e-04 0.0 
9.823823306462e-04 -1.042597419614e-03 0.0 
0.0 0.0 -4.858412901716e-04 
-2.813268701102e-04 2.910442502919e-03 0.0 
2.910442502919e-03 2.419195128745e-03 0.0 
0.0 0.0 -9.162292537005e-04 
-1.720195429854e-03 7.985877951349e-04 0.0 
7.985877951349e-04 5.205169340213e-03 0.0 
0.0 0.0 -7.914980036671e-04 
-1.719905413863e-03 1.237364143320e-03 0.0 
1.237364143320e-03 6.165155044144e-03 0.0 
0.0 0.0 -9.214502702889e-04 
-6.210179595173e-04 -4.728660276610e-04 0.0 
-4.728660276610e-04 4.588006840987e-03 0.0 
0.0 0.0 -1.265403586923e-03 
-1.395878555712e-03 3.050861695832e-03 0.0 
3.050861695832e-03 5.954496201824e-03 0.0 
0.0 0.0 -1.117224974728e-03 
-1.665465805844e-03 2.334336493253e-03 0.0 
2.334336493253e-03 5.128095132681e-03 0.0 
0.0 0.0 -8.687609488834e-04 
-1.346991783092e-03 3.039323733030e-03 0.0 
3.039323733030e-03 4.548648496957e-03 0.0 
0.0 0.0 -9.141259787764e-04 
2.498396854009e-03 1.198516088911e-03 0.0 
1.198516088911e-03 -1.399925765526e-03 0.0 
0.0 0.0 -4.707733236356e-04 
1.968831457284e-04 -1.841720632066e-03 0.0 
-1.841720632066e-03 8.576900148433e-04 0.0 
0.0 0.0 -4.519599259593e-04 
1.596184388708e-03 2.912527136814e-03 0.0 
2.912527136814e-03 -2.859190939001e-04 0.0 
0.0 0.0 -5.615422692032e-04 
3.342051080177e-04 3.634224831363e-03 0.0 
3.634224831363e-03 1.769838707620e-03 0.0 
0.0 0.0 -9.017330638447e-04 
1.350991084574e-03 3.130179827696e-03 0.0 
3.130179827696e-03 2.729672728852e-04 0.0 
0.0 0.0 -6.959821531966e-04 
5.181840272175e-04 1.740426048580e-03 0.0 
1.740426048580e-03 4.204450595975e-04 0.0 
0.0 0.0 -4.022696086350e-04 
-1.537623298193e-03 1.946789295788e-04 0.0 
1.946789295788e-04 5.729068901156e-03 0.0 
0.0 0.0 -8.462285223656e-04 
1.561759615532e-04 -2.189651726713e-03 0.0 
-2.189651726713e-03 1.146850025796e-03 0.0 
0.0 0.0 -5.584397088639e-04 
1.820241129970e-03 2.972056139581e-03 0.0 
2.972056139581e-03 -3.351854464419e-04 0.0 
0.0 0.0 -6.364524357979e-04 
-1.341153861134e-03 -4.057244270456e-04 0.0 
-4.057244270456e-04 4.982459086358e-03 0.0 
0.0 0.0 -1.341153861134e-03 
9.256271036625e-04 1.500053370618e-03 0.0 
1.500053370618e-03 1.273019829082e-03 0.0 
0.0 0.0 -9.422772568906e-04 
-1.647307264160e-03 1.862922357847e-03 0.0 
1.862922357847e-03 4.824359254377e-03 0.0 
0.0 0.0 -8.054468608743e-04 
2.951539872400e-04 -9.116816188897e-05 0.0 
-9.116816188897e-05 1.187821972232e-03 0.0 
0.0 0.0 -3.103042898065e-04 
7.971140923123e-05 3.343947047482e-03 0.0 
3.343947047482e-03 1.995422628245e-03 0.0 
0.0 0.0 -8.893431589182e-04 
1.873943254827e-03 2.954249127679e-03 0.0 
2.954249127679e-03 -3.006422023954e-04 0.0 
0.0 0.0 -6.742718796133e-04 
-1.609808059559e-03 2.466698786463e-03 0.0 
2.466698786463e-03 5.115271177997e-03 0.0 
0.0 0.0 -8.940630110299e-04 
-1.355176868643e-03 3.602829940139e-03 0.0 
3.602829940139e-03 7.115897601981e-03 0.0 
0.0 0.0 -1.323832587333e-03 
-1.204260933556e-03 2.429327504665e-03 0.0 
2.429327504665e-03 4.034179858945e-03 0.0 
0.0 0.0 -8.669777983973e-04 
-1.147063666963e-03 3.130382852526e-03 0.0 
3.130382852526e-03 4.139734973133e-03 0.0 
0.0 0.0 -8.917420716958e-04 
-4.014841504774e-04 -2.920877032072e-03 0.0 
-2.920877032072e-03 2.692647303736e-03 0.0 
0.0 0.0 -9.819270656821e-04 
-1.644216929044e-03 2.295172595936e-03 0.0 
2.295172595936e-03 6.800207970354e-03 0.0 
0.0 0.0 -1.105258581891e-03 
2.154052283226e-04 -3.118779152528e-03 0.0 
-3.118779152528e-03 1.628210503259e-03 0.0 
0.0 0.0 -7.901210278208e-04 
-1.316497550801e-03 3.592083674646e-03 0.0 
3.592083674646e-03 6.907418394644e-03 0.0 
0.0 0.0 -1.322174839672e-03 
-1.340103718614e-03 3.152086803121e-03 0.0 
3.152086803121e-03 7.377926064128e-03 0.0 
0.0 0.0 -1.340103718614e-03 
-1.341028575724e-03 2.465513317577e-03 0.0 
2.465513317577e-03 8.006817596930e-03 0.0 
0.0 0.0 -1.341028575724e-03 
-1.338044909071e-03 2.820900205836e-03 0.0 
2.820900205836e-03 7.687427743330e-03 0.0 
0.0 0.0 -1.338044909071e-03 
-1.502118998928e-03 2.871852761975e-03 0.0 
2.871852761975e-03 4.986656915824e-03 0.0 
0.0 0.0 -9.244680137507e-04 
-1.717961893973e-03 2.025609505479e-03 0.0 
2.025609505479e-03 6.849693926195e-03 0.0 
0.0 0.0 -1.103002250422e-03 
-1.441498127645e-03 2.997575274703e-03 0.0 
2.997575274703e-03 6.385826432379e-03 0.0 
0.0 0.0 -1.155914796392e-03 
3.567381933021e-04 2.998203481649e-03 0.0 
2.998203481649e-03 1.342739046541e-03 0.0 
0.0 0.0 -7.283473885043e-04 
1.335922643098e-04 2.946545576970e-03 0.0 
2.946545576970e-03 1.651048719616e-03 0.0 
0.0 0.0 -7.648461359682e-04 
-5.579616973433e-04 -2.537817501247e-03 0.0 
-2.537817501247e-03 2.842838828880e-03 0.0 
0.0 0.0 -9.792330563728e-04 
-1.668326353393e-03 2.237680070997e-03 0.0 
2.237680070997e-03 6.867008378533e-03 0.0 
0.0 0.0 -1.131852245309e-03 
-1.231232325275e-03 3.483829197783e-03 0.0 
3.483829197783e-03 6.428087696954e-03 0.0 
0.0 0.0 -1.322440284024e-03 
-1.629405615007e-03 2.216510426988e-03 0.0 
2.216510426988e-03 7.107180567101e-03 0.0 
0.0 0.0 -1.141180801552e-03 
1.287843860462e-03 1.762496620991e-03 0.0 
1.762496620991e-03 4.118181214961e-04 0.0 
0.0 0.0 -7.284265636965e-04 
-1.709232452093e-03 1.946096254963e-03 0.0 
1.946096254963e-03 7.158440520652e-03 0.0 
0.0 0.0 -1.138864741757e-03 
-2.474149681312e-04 3.241320627208e-03 0.0 
3.241320627208e-03 3.249866169459e-03 0.0 
0.0 0.0 -9.903545940741e-04 
5.390850837396e-04 3.135204886366e-03 0.0 
3.135204886366e-03 1.184502769340e-03 0.0 
0.0 0.0 -7.386805084625e-04 
-2.903565977667e-04 2.791530756056e-03 0.0 
2.791530756056e-03 2.364850385229e-03 0.0 
0.0 0.0 -8.890687660554e-04 
1.802555558832e-03 3.001147534895e-03 0.0 
3.001147534895e-03 -4.575658841899e-04 0.0 
0.0 0.0 -5.764241462752e-04 
-1.445725615323e-03 1.812858751269e-03 0.0 
1.812858751269e-03 8.104070872614e-03 0.0 
0.0 0.0 -1.282213402295e-03 
5.637528850199e-04 2.798374850836e-03 0.0 
2.798374850836e-03 9.579403324455e-04 0.0 
0.0 0.0 -6.521542360566e-04 
-9.878773185600e-04 3.005495027809e-03 0.0 
3.005495027809e-03 5.183572772416e-03 0.0 
0.0 0.0 -1.230767059693e-03 
-5.402829230253e-04 -2.645980312191e-03 0.0 
-2.645980312191e-03 2.860421160958e-03 0.0 
0.0 0.0 -9.943449591140e-04 
1.769669881029e-03 -3.137855469582e-03 0.0 
-3.137855469582e-03 -3.291852005029e-04 0.0 
0.0 0.0 -6.173505773685e-04 
-9.286667060019e-04 -5.578005299265e-04 0.0 
-5.578005299265e-04 4.405534968834e-03 0.0 
0.0 0.0 -1.284312900220e-03 
1.520178245233e-03 2.880262458528e-03 0.0 
2.880262458528e-03 -9.597643010145e-05 0.0 
0.0 0.0 -6.103722064851e-04 
-1.341987455608e-03 3.278682198062e-03 0.0 
3.278682198062e-03 7.180670491989e-03 0.0 
0.0 0.0 -1.341987455608e-03 
-1.479381738464e-03 2.518547494800e-03 0.0 
2.518547494800e-03 7.585721855360e-03 0.0 
0.0 0.0 -1.282654109251e-03 
-6.562251040144e-04 3.476488520305e-03 0.0 
3.476488520305e-03 3.368345711390e-03 0.0 
0.0 0.0 -9.747411499392e-04 
2.825665296399e-05 -9.471346053823e-04 0.0 
-9.471346053823e-04 5.562669983103e-04 0.0 
0.0 0.0 -2.505101362604e-04 
-1.340954708391e-03 3.409829937737e-03 0.0 
3.409829937737e-03 6.752010148723e-03 0.0 
0.0 0.0 -1.340954708391e-03 
-8.893530910468e-04 2.080039302171e-04 0.0 
2.080039302171e-04 4.249386795326e-03 0.0 
0.0 0.0 -1.284661450484e-03 
2.094151919582e-03 -2.710389235349e-03 0.0 
-2.710389235349e-03 -4.177516275291e-04 0.0 
0.0 0.0 -7.184572680229e-04 
1.187697048236e-03 1.044937454993e-03 0.0 
1.044937454993e-03 6.336881744863e-04 0.0 
0.0 0.0 -7.805936668811e-04 
-1.022563228378e-03 2.126685754851e-03 0.0 
2.126685754851e-03 5.450229037892e-03 0.0 
0.0 0.0 -1.323014926434e-03 
0.0 0.0 0.0 
0.0 0.0 0.0 
0.0 0.0 0.0 
5.629949439262e-04 2.943398902906e-03 0.0 
2.943398902906e-03 1.042834511407e-03 0.0 
0.0 0.0 -6.882126237144e-04 
-9.611236283513e-04 3.382262119005e-03 0.0 
3.382262119005e-03 3.900518768528e-03 0.0 
0.0 0.0 -9.507003520820e-04 
-3.264045535916e-04 3.528503760233e-03 0.0 
3.528503760233e-03 2.824189618732e-03 0.0 
0.0 0.0 -1.009382277479e-03 
-8.072349097140e-04 3.285348527428e-03 0.0 
3.285348527428e-03 3.572080463846e-03 0.0 
0.0 0.0 -9.583016177293e-04 
1.577973122007e-03 2.940745778594e-03 0.0 
2.940745778594e-03 -1.562631387263e-04 0.0 
0.0 0.0 -6.093042785491e-04 
-1.341360672448e-03 3.349227255108e-03 0.0 
3.349227255108e-03 6.276206882279e-03 0.0 
0.0 0.0 -1.341360672448e-03 
2.936452016240e-03 1.405586798284e-03 0.0 
1.405586798284e-03 -1.170886952934e-03 0.0 
0.0 0.0 -7.566707414170e-04 
6.010236317608e-04 7.677500863631e-05 0.0 
7.677500863631e-05 -6.010236317608e-04 0.0 
0.0 0.0 0.0 
-1.410674428243e-03 -1.887614969753e-03 0.0 
-1.887614969753e-03 6.271959657533e-03 0.0 
0.0 0.0 -1.272354826527e-03 
6.614899321087e-05 -1.031236819356e-03 0.0 
-1.031236819356e-03 5.476349804252e-04 0.0 
0.0 0.0 -2.630502744155e-04 
-7.579795143834e-04 2.669538043242e-03 0.0 
2.669538043242e-03 3.232540244350e-03 0.0 
0.0 0.0 -9.235262116470e-04 
1.408180871100e-03 -2.447837261249e-03 0.0 
-2.447837261249e-03 -4.054811993359e-04 0.0 
0.0 0.0 -4.297284307560e-04 
-1.289231145457e-03 2.085970842819e-03 0.0 
2.085970842819e-03 4.096251684655e-03 0.0 
0.0 0.0 -8.281323822960e-04 
-9.265632325981e-04 2.208084020548e-04 0.0 
2.208084020548e-04 5.136068338207e-03 0.0 
0.0 0.0 -1.321823097425e-03 
-1.341255375116e-03 3.077672806554e-03 0.0 
3.077672806554e-03 5.842647393183e-03 0.0 
0.0 0.0 -1.341255375116e-03 
-1.444220396543e-03 2.772557237900e-03 0.0 
2.772557237900e-03 4.661509496866e-03 0.0 
0.0 0.0 -8.916520742786e-04 
1.049542071535e-03 -2.597397009894e-03 0.0 
-2.597397009894e-03 2.940040078369e-04 0.0 
0.0 0.0 -5.758054625880e-04 
3.025347595527e-04 1.047283111649e-04 0.0 
1.047283111649e-04 -3.025347595527e-04 0.0 
0.0 0.0 0.0 
1.083086267670e-03 -3.284229385575e-03 0.0 
-3.284229385575e-03 2.814197768567e-04 0.0 
0.0 0.0 -5.847883047970e-04 
-1.038610003698e-03 -2.337728934242e-03 0.0 
-2.337728934242e-03 4.541183857773e-03 0.0 
0.0 0.0 -1.121833217354e-03 
-1.742165347554e-03 9.878882661806e-04 0.0 
9.878882661806e-04 5.401825771171e-03 0.0 
0.0 0.0 -7.704300227928e-04 
-1.803256776378e-03 1.584392787159e-03 0.0 
1.584392787159e-03 5.170803389825e-03 0.0 
0.0 0.0 -8.109332722942e-04 
-1.342502730507e-03 2.572106331239e-03 0.0 
2.572106331239e-03 5.434857979280e-03 0.0 
0.0 0.0 -1.342502730507e-03 
-1.732554351108e-03 7.529304742537e-04 0.0 
7.529304742537e-04 5.461566678014e-03 0.0 
0.0 0.0 -7.720444664677e-04 
-1.484252812585e-03 2.496905312066e-03 0.0 
2.496905312066e-03 8.327686936920e-03 0.0 
0.0 0.0 -1.322852565091e-03 
-2.616390310425e-04 3.420254192840e-03 0.0 
3.420254192840e-03 3.046539849901e-03 0.0 
0.0 0.0 -1.020998643257e-03 
-1.702171015059e-03 1.025221701453e-03 0.0 
1.025221701453e-03 6.037527275999e-03 0.0 
0.0 0.0 -8.907448815977e-04 
4.435059004645e-04 2.367634267758e-03 0.0 
2.367634267758e-03 8.500300084059e-04 0.0 
0.0 0.0 -5.543725323730e-04 
9.902971440261e-04 1.854120232773e-03 0.0 
1.854120232773e-03 5.282487487715e-04 0.0 
0.0 0.0 -6.508053826275e-04 
2.181030243503e-03 2.087940198003e-03 0.0 
2.087940198003e-03 -6.964523607222e-04 0.0 
0.0 0.0 -6.362476640488e-04 
-1.340754991027e-03 1.822804665951e-03 0.0 
1.822804665951e-03 5.126572871134e-03 0.0 
0.0 0.0 -1.340754991027e-03 
-1.339984467612e-03 3.017885242806e-03 0.0 
3.017885242806e-03 7.530573259310e-03 0.0 
0.0 0.0 -1.339984467612e-03 
-1.340417744004e-03 2.627800699396e-03 0.0 
2.627800699396e-03 7.874468285687e-03 0.0 
0.0 0.0 -1.340417744004e-03 
1.663950741528e-04 -3.102222571978e-03 0.0 
-3.102222571978e-03 1.696065106834e-03 0.0 
0.0 0.0 -7.981972204228e-04 
-6.783966376360e-04 -2.229795002151e-03 0.0 
-2.229795002151e-03 2.989937542639e-03 0.0 
0.0 0.0 -9.906603878584e-04 
6.633751209167e-04 3.479464549828e-03 0.0 
3.479464549828e-03 1.235326207863e-03 0.0 
0.0 0.0 -8.137291409057e-04 
-1.800452847873e-04 -3.089059520932e-03 0.0 
-3.089059520932e-03 2.334973482046e-03 0.0 
0.0 0.0 -8.981573260837e-04 
-1.339627896631e-03 1.005258068188e-03 0.0 
1.005258068188e-03 4.944567484942e-03 0.0 
0.0 0.0 -1.339627896631e-03 
2.106481318219e-03 2.804312139354e-03 0.0 
2.804312139354e-03 -3.247815718152e-04 0.0 
0.0 0.0 -7.635856056017e-04 
2.753925008266e-03 -1.471183718442e-03 0.0 
-1.471183718442e-03 -1.118113294929e-03 0.0 
0.0 0.0 -7.010621628588e-04 
2.411027346534e-03 -2.022185411865e-03 0.0 
-2.022185411865e-03 -8.248269265831e-04 0.0 
0.0 0.0 -6.798001799788e-04 
-1.695040583491e-03 9.943495357559e-04 0.0 
9.943495357559e-04 6.306677945551e-03 0.0 
0.0 0.0 -9.279583942086e-04 
-1.067283559268e-03 -1.131551148477e-03 0.0 
-1.131551148477e-03 5.382018527302e-03 0.0 
0.0 0.0 -1.323537156312e-03 
4.718253126561e-04 -2.654545060497e-03 0.0 
-2.654545060497e-03 7.297491663584e-04 0.0 
0.0 0.0 -5.149604910062e-04 
-1.340775759057e-03 3.168705887180e-05 0.0 
3.168705887180e-05 4.893000414627e-03 0.0 
0.0 0.0 -1.340775759057e-03 
2.068072739009e-03 -2.533209175997e-03 0.0 
-2.533209175997e-03 -4.905385770438e-04 0.0 
0.0 0.0 -6.760860694135e-04 
-1.342877878941e-03 3.371101462632e-03 0.0 
3.371101462632e-03 6.986301559429e-03 0.0 
0.0 0.0 -1.342877878941e-03 
-1.502505102679e-03 2.723409331035e-03 0.0 
2.723409331035e-03 6.453774250835e-03 0.0 
0.0 0.0 -1.152765850879e-03 
4.995410750134e-04 -2.508167894462e-04 0.0 
-2.508167894462e-04 1.439641133543e-04 0.0 
0.0 0.0 -1.045622396246e-04 
7.611624550475e-04 2.811491361200e-03 0.0 
2.811491361200e-03 7.486160262995e-04 0.0 
0.0 0.0 -6.470479205773e-04 
-1.718973478826e-03 1.632227495642e-03 0.0 
1.632227495642e-03 7.402026443868e-03 0.0 
0.0 0.0 -1.146019594970e-03 
-1.341220131281e-03 3.403196875767e-03 0.0 
3.403196875767e-03 6.531514611794e-03 0.0 
0.0 0.0 -1.341220131281e-03 
-1.493257815958e-03 2.709508550359e-03 0.0 
2.709508550359e-03 5.031766487179e-03 0.0 
0.0 0.0 -9.220067723808e-04 
-1.371432860580e-04 3.167005571068e-03 0.0 
3.167005571068e-03 2.958438968348e-03 0.0 
0.0 0.0 -1.049000704964e-03 
1.363417131051e-03 2.771598718083e-03 0.0 
2.771598718083e-03 -2.175926074803e-04 0.0 
0.0 0.0 -4.910676529589e-04 
-4.822149847462e-04 -8.933705669701e-06 0.0 
-8.933705669701e-06 3.680115228026e-03 0.0 
0.0 0.0 -1.228682347183e-03 
1.589016691459e-03 -2.728398742501e-03 0.0 
-2.728398742501e-03 -1.477483424757e-04 0.0 
0.0 0.0 -6.176864352786e-04 
2.014961445712e-03 -2.490489286961e-03 0.0 
-2.490489286961e-03 -7.248651286365e-04 0.0 
0.0 0.0 -5.528984216039e-04 
6.740675851827e-05 -1.946268609011e-03 0.0 
-1.946268609011e-03 5.144006658537e-04 0.0 
0.0 0.0 -2.493460390166e-04 
-1.341079611575e-03 3.240452696934e-03 0.0 
3.240452696934e-03 6.054614633037e-03 0.0 
0.0 0.0 -1.341079611575e-03 
2.419438568119e-03 1.848358171578e-03 0.0 
1.848358171578e-03 -8.324259170898e-04 0.0 
0.0 0.0 -6.801482790127e-04 
-1.052268534162e-04 -1.626163501332e-03 0.0 
-1.626163501332e-03 3.065488155398e-03 0.0 
0.0 0.0 -1.110501492391e-03 
-1.743720672030e-03 5.076947702062e-04 0.0 
5.076947702062e-04 5.915487175230e-03 0.0 
0.0 0.0 -8.555322119248e-04 
6.419311454372e-04 -2.457777299007e-03 0.0 
-2.457777299007e-03 6.816602911272e-04 0.0 
0.0 0.0 -5.672534728133e-04 
2.432948694747e-03 -2.224719869907e-03 0.0 
-2.224719869907e-03 -1.006521097821e-03 0.0 
0.0 0.0 -6.113261129685e-04 
-1.391571865871e-03 2.947954310513e-03 0.0 
2.947954310513e-03 4.611783904251e-03 0.0 
0.0 0.0 -8.867075537039e-04 
-1.342259935407e-03 2.196586378398e-03 0.0 
2.196586378398e-03 5.267748778168e-03 0.0 
0.0 0.0 -1.342259935407e-03 
-8.685003091139e-04 -2.019621362732e-03 0.0 
-2.019621362732e-03 3.358195832711e-03 0.0 
0.0 0.0 -1.026543027222e-03 
-6.279763244927e-05 -2.831980191268e-03 0.0 
-2.831980191268e-03 2.234263021353e-03 0.0 
0.0 0.0 -9.306280238158e-04 
1.626113199364e-04 3.532469173109e-03 0.0 
3.532469173109e-03 1.975304410449e-03 0.0 
0.0 0.0 -9.162495987365e-04 
9.545056478258e-04 -2.197984859117e-03 0.0 
-2.197984859117e-03 2.830222850847e-04 0.0 
0.0 0.0 -5.303691141045e-04 
2.741947853495e-03 -1.576053757195e-03 0.0 
-1.576053757195e-03 -1.238751484203e-03 0.0 
0.0 0.0 -6.442270154112e-04 
2.055993336022e-04 -3.019147266732e-03 0.0 
-3.019147266732e-03 1.580796400243e-03 0.0 
0.0 0.0 -7.655981716482e-04 
-1.735594457478e-05 3.684409886977e-03 0.0 
3.684409886977e-03 2.338058889169e-03 0.0 
0.0 0.0 -9.525257740877e-04 
-6.815819430517e-04 3.271309776104e-03 0.0 
3.271309776104e-03 3.991806398053e-03 0.0 
0.0 0.0 -9.982497011217e-04 
7.359468455794e-04 1.655488137203e-03 0.0 
1.655488137203e-03 1.311171725172e-03 0.0 
0.0 0.0 -8.773365303219e-04 
4.616179257589e-04 3.326983553877e-03 0.0 
3.326983553877e-03 1.399682897410e-03 0.0 
0.0 0.0 -7.977003527865e-04 
-1.068767707281e-04 -3.106568222755e-03 0.0 
-3.106568222755e-03 2.185893574205e-03 0.0 
0.0 0.0 -8.910072014901e-04 
1.770168940932e-03 2.939268167283e-03 0.0 
2.939268167283e-03 -7.940642901587e-05 0.0 
0.0 0.0 -7.246125051071e-04 
-6.590777518814e-04 -2.312052235482e-03 0.0 
-2.312052235482e-03 2.981136073476e-03 0.0 
0.0 0.0 -9.951678521122e-04 
-9.129757635956e-05 3.002240536259e-03 0.0 
3.002240536259e-03 3.121089298537e-03 0.0 
0.0 0.0 -1.018204129641e-03 
1.890566440799e-03 1.226789186906e-03 0.0 
1.226789186906e-03 -8.288946358717e-04 0.0 
0.0 0.0 -4.550022021117e-04 
-9.478871216341e-04 -2.661712448175e-04 0.0 
-2.661712448175e-04 5.203816778040e-03 0.0 
0.0 0.0 -1.321929620191e-03 
-1.684709762555e-03 1.865268109453e-03 0.0 
1.865268109453e-03 7.458111656375e-03 0.0 
0.0 0.0 -1.174325249119e-03 
4.942655387039e-04 -2.660349188538e-03 0.0 
-2.660349188538e-03 9.600175774831e-04 0.0 
0.0 0.0 -6.232641926516e-04 
-1.341047338368e-03 5.012584263435e-04 0.0 
5.012584263435e-04 4.843287135669e-03 0.0 
0.0 0.0 -1.341047338368e-03 
-5.199572059754e-04 -1.240456273397e-05 0.0 
-1.240456273397e-05 4.514719369705e-03 0.0 
0.0 0.0 -1.266414110344e-03 
1.456677627038e-03 2.847158529750e-03 0.0 
2.847158529750e-03 -1.224358696167e-04 0.0 
0.0 0.0 -5.718178960378e-04 
3.073160228107e-04 -2.142796274570e-03 0.0 
-2.142796274570e-03 8.896681783000e-04 0.0 
0.0 0.0 -5.129932290474e-04 
-1.050487114865e-03 -1.427509562772e-03 0.0 
-1.427509562772e-03 5.540080609798e-03 0.0 
0.0 0.0 -1.323469717371e-03 
-1.667087300368e-03 2.181750680949e-03 0.0 
2.181750680949e-03 7.186411773731e-03 0.0 
0.0 0.0 -1.167157861819e-03 
1.716323073858e-03 -2.955825605783e-03 0.0 
-2.955825605783e-03 -9.287262183541e-05 0.0 
0.0 0.0 -6.957644794382e-04 
-1.341709311524e-03 -8.333733019742e-04 0.0 
-8.333733019742e-04 5.041051645130e-03 0.0 
0.0 0.0 -1.341709311524e-03 
-1.554347035982e-04 -3.091276428888e-03 0.0 
-3.091276428888e-03 2.271745765848e-03 0.0 
0.0 0.0 -9.069904552498e-04 
-8.856300375339e-05 3.015707065978e-03 0.0 
3.015707065978e-03 2.092630915718e-03 0.0 
0.0 0.0 -8.588862479847e-04 
-1.708652242928e-03 2.038029542744e-03 0.0 
2.038029542744e-03 5.155213329433e-03 0.0 
0.0 0.0 -8.408860858065e-04 
2.150251675539e-03 1.246957804337e-03 0.0 
1.246957804337e-03 -9.518176328647e-04 0.0 
0.0 0.0 -5.136145897175e-04 
4.280369650893e-04 -2.993089053083e-03 0.0 
-2.993089053083e-03 1.242185283195e-03 0.0 
0.0 0.0 -7.158095349792e-04 
1.005063584136e-03 -1.534038141676e-03 0.0 
-1.534038141676e-03 4.706218155617e-04 0.0 
0.0 0.0 -6.324365998706e-04 
-1.787330646013e-03 1.744437882435e-03 0.0 
1.744437882435e-03 6.165539261386e-03 0.0 
0.0 0.0 -9.721028620036e-04 
-5.830614128886e-04 2.963568587990e-03 0.0 
2.963568587990e-03 3.036456168777e-03 0.0 
0.0 0.0 -9.703272795031e-04 
5.013338592635e-04 2.022867758426e-03 0.0 
2.022867758426e-03 1.903789761340e-03 0.0 
0.0 0.0 -1.030767265973e-03 
-1.583428582628e-03 1.234393199571e-04 0.0 
1.234393199571e-04 6.348909220080e-03 0.0 
0.0 0.0 -8.839498032872e-04 
-1.538973880155e-04 -2.905891545860e-03 0.0 
-2.905891545860e-03 2.151085361499e-03 0.0 
0.0 0.0 -8.559377029216e-04 
9.606550472545e-04 1.198365472328e-03 0.0 
1.198365472328e-03 7.584169667693e-04 0.0 
0.0 0.0 -7.367451488674e-04 
1.240241290569e-03 -2.615402293113e-03 0.0 
-2.615402293113e-03 9.801779930628e-06 0.0 
0.0 0.0 -5.357327444998e-04 
-1.264139912559e-03 -2.295922563033e-03 0.0 
-2.295922563033e-03 4.258611210865e-03 0.0 
0.0 0.0 -1.003470032316e-03 
4.779492527782e-04 -1.976862769587e-04 0.0 
-1.976862769587e-04 3.079286874380e-05 0.0 
0.0 0.0 -9.731995102935e-05 
1.375001823881e-03 3.007557583602e-03 0.0 
3.007557583602e-03 2.077996425490e-04 0.0 
0.0 0.0 -6.783434856127e-04 
1.686675147585e-03 -2.826451651131e-03 0.0 
-2.826451651131e-03 -3.979102607463e-04 0.0 
0.0 0.0 -5.523278086452e-04 
-6.775751599431e-04 -2.656016194715e-03 0.0 
-2.656016194715e-03 3.173617743200e-03 0.0 
0.0 0.0 -1.041231529553e-03 
9.547448531119e-04 2.912205143476e-03 0.0 
2.912205143476e-03 5.651456179382e-04 0.0 
0.0 0.0 -6.513816304500e-04 
3.545197186364e-05 -2.683422917804e-03 0.0 
-2.683422917804e-03 2.222563700784e-03 0.0 
0.0 0.0 -9.350600278798e-04 
-1.737561363205e-03 5.251994903431e-04 0.0 
5.251994903431e-04 6.205644374021e-03 0.0 
0.0 0.0 -8.962969588583e-04 
1.356254452431e-03 -2.984093401581e-03 0.0 
-2.984093401581e-03 -2.215529665071e-05 0.0 
0.0 0.0 -5.717567810488e-04 
-1.341827844788e-03 -1.146584425421e-03 0.0 
-1.146584425421e-03 5.213236186647e-03 0.0 
0.0 0.0 -1.341827844788e-03 
-1.032358392854e-03 3.358744228303e-03 0.0 
3.358744228303e-03 3.981695232776e-03 0.0 
0.0 0.0 -8.921909746423e-04 
-9.403772787457e-04 -2.333509821859e-03 0.0 
-2.333509821859e-03 3.602948163807e-03 0.0 
0.0 0.0 -1.032584340947e-03 
-7.230784000767e-04 3.517969959091e-03 0.0 
3.517969959091e-03 3.446928309249e-03 0.0 
0.0 0.0 -9.025917034692e-04 
-6.743760556383e-04 -2.567033021564e-03 0.0 
-2.567033021564e-03 3.158224002336e-03 0.0 
0.0 0.0 -1.064506262870e-03 
0.0 0.0 0.0 
0.0 0.0 0.0 
0.0 0.0 0.0 
-1.792312889487e-03 1.741412585942e-03 0.0 
1.741412585942e-03 5.511837739733e-03 0.0 
0.0 0.0 -8.733545218784e-04 
-1.159018419121e-03 -6.757248724201e-04 0.0 
-6.757248724201e-04 3.679422689167e-03 0.0 
0.0 0.0 -9.437415894182e-04 
1.526598219851e-03 -2.022984547481e-04 0.0 
-2.022984547481e-04 -5.806947110268e-04 0.0 
0.0 0.0 -1.518789559795e-04 
-1.008983259281e-03 -2.022851433489e-03 0.0 
-2.022851433489e-03 3.664714944016e-03 0.0 
0.0 0.0 -1.031099917346e-03 
-1.552203916554e-04 -2.266492036209e-03 0.0 
-2.266492036209e-03 2.794636645768e-03 0.0 
0.0 0.0 -1.001254648526e-03 
-1.559997350991e-03 7.763984245468e-04 0.0 
7.763984245468e-04 7.736769108545e-03 0.0 
0.0 0.0 -1.146946825052e-03 
1.304436411006e-03 -1.537118457164e-03 0.0 
-1.537118457164e-03 -1.929375046108e-04 0.0 
0.0 0.0 -4.763566741695e-04 
1.141009119650e-03 -1.409930863555e-03 0.0 
-1.409930863555e-03 1.287642799873e-04 0.0 
0.0 0.0 -5.441885998444e-04 
-1.689284059370e-03 1.450746420627e-03 0.0 
1.450746420627e-03 4.831311448006e-03 0.0 
0.0 0.0 -7.833574767318e-04 
-1.686952509024e-03 5.790488882109e-04 0.0 
5.790488882109e-04 4.855993105087e-03 0.0 
0.0 0.0 -7.312625299844e-04 
-1.435530838734e-03 2.039856500826e-03 0.0 
2.039856500826e-03 7.934174766789e-03 0.0 
0.0 0.0 -1.286111585339e-03 
-3.846383815358e-04 3.631348853507e-03 0.0 
3.631348853507e-03 2.894402056622e-03 0.0 
0.0 0.0 -9.211198782815e-04 
2.563042352686e-03 -3.462434059620e-04 0.0 
-3.462434059620e-04 -8.334153675030e-04 0.0 
0.0 0.0 -9.050770260813e-05 
-2.801224181591e-06 -1.851492159178e-03 0.0 
-1.851492159178e-03 1.218501688618e-03 0.0 
0.0 0.0 -5.210144847585e-04 
8.331805258011e-05 -1.317049816552e-03 0.0 
-1.317049816552e-03 7.003703442878e-04 0.0 
0.0 0.0 -3.358664558005e-04 
1.821034446314e-04 -2.408967732496e-03 0.0 
-2.408967732496e-03 1.233113086777e-03 0.0 
0.0 0.0 -6.065213706036e-04 
-1.138435434649e-03 2.989604430891e-03 0.0 
2.989604430891e-03 5.462421315605e-03 0.0 
0.0 0.0 -1.134523071099e-03 
-1.613429135808e-03 4.247551468927e-04 0.0 
4.247551468927e-04 7.790174225159e-03 0.0 
0.0 0.0 -1.144649651339e-03 
-1.027154245499e-03 -2.035960934847e-03 0.0 
-2.035960934847e-03 4.492443968240e-03 0.0 
0.0 0.0 -1.087427768671e-03 
-2.215897922679e-04 -2.343741531637e-03 0.0 
-2.343741531637e-03 1.937473062545e-03 0.0 
0.0 0.0 -7.353785444044e-04 
-1.224434476437e-03 -2.373415610936e-03 0.0 
-2.373415610936e-03 4.259607832396e-03 0.0 
0.0 0.0 -1.074887456883e-03 
-2.765309671832e-04 -1.235730925308e-03 0.0 
-1.235730925308e-03 3.492398506195e-03 0.0 
0.0 0.0 -1.142106164841e-03 
1.609002123108e-03 9.641353836346e-05 0.0 
9.641353836346e-05 -1.014383706755e-03 0.0 
0.0 0.0 -2.548364641514e-04 
-1.185520630974e-03 -6.216129085547e-04 0.0 
-6.216129085547e-04 3.715832065426e-03 0.0 
0.0 0.0 -9.234434510542e-04 
-9.870309350746e-04 -2.949408640791e-04 0.0 
-2.949408640791e-04 3.127712701104e-03 0.0 
0.0 0.0 -8.176025220169e-04 
-1.158159835052e-03 -1.705545964426e-03 0.0 
-1.705545964426e-03 5.701758529228e-03 0.0 
0.0 0.0 -1.322396863610e-03 
-1.341641872583e-03 -1.478861783549e-03 0.0 
-1.478861783549e-03 5.355371918508e-03 0.0 
0.0 0.0 -1.341641872583e-03 
-1.283076775259e-03 -6.373143896461e-04 0.0 
-6.373143896461e-04 4.006265140635e-03 0.0 
0.0 0.0 -9.869148323457e-04 
-9.252167440016e-04 -2.284187084932e-03 0.0 
-2.284187084932e-03 3.604049524323e-03 0.0 
0.0 0.0 -1.082955583678e-03 
1.424947381447e-04 -3.218131506232e-03 0.0 
-3.218131506232e-03 1.808876759913e-03 0.0 
0.0 0.0 -8.363020705961e-04 
-2.858765317582e-04 -8.912097981478e-04 0.0 
-8.912097981478e-04 3.661087959600e-03 0.0 
0.0 0.0 -1.177278300149e-03 
-1.642185562706e-04 -1.468912040377e-03 0.0 
-1.468912040377e-03 1.269461247680e-03 0.0 
0.0 0.0 -4.736754391754e-04 
-2.865195494759e-04 -1.594101584254e-03 0.0 
-1.594101584254e-03 3.398007437901e-03 0.0 
0.0 0.0 -1.104707344597e-03 
9.194713961983e-04 -6.793234433339e-04 0.0 
-6.793234433339e-04 6.261768049846e-04 0.0 
0.0 0.0 -3.206774383567e-04 
-7.790564292393e-04 -2.283470906283e-03 0.0 
-2.283470906283e-03 3.292851518803e-03 0.0 
0.0 0.0 -1.077340752670e-03 
-5.608514076299e-04 -2.798496030794e-03 0.0 
-2.798496030794e-03 2.999147072071e-03 0.0 
0.0 0.0 -1.044983856189e-03 
1.138912068891e-03 -3.473598627530e-04 0.0 
-3.473598627530e-04 -1.413469007123e-04 0.0 
0.0 0.0 -2.684313900889e-04 
-1.253955737825e-03 -3.715260469387e-04 0.0 
-3.715260469387e-04 3.888476539148e-03 0.0 
0.0 0.0 -9.536442305595e-04 
-1.602308644549e-03 2.138646014206e-03 0.0 
2.138646014206e-03 7.398169050205e-03 0.0 
0.0 0.0 -1.176862138969e-03 
2.761299412783e-03 -2.184006917307e-04 0.0 
-2.184006917307e-04 -8.957163604378e-04 0.0 
0.0 0.0 -9.160000506328e-05 
-1.698158774402e-03 7.543543168281e-04 0.0 
7.543543168281e-04 4.798515189366e-03 0.0 
0.0 0.0 -7.322753781719e-04 
-1.694678419912e-03 8.983255451051e-04 0.0 
8.983255451051e-04 4.996965617242e-03 0.0 
0.0 0.0 -7.130472889423e-04 
9.905782610910e-04 -8.253624912090e-04 0.0 
-8.253624912090e-04 7.976802919736e-04 0.0 
0.0 0.0 -7.663965227419e-04 
-1.039035016572e-03 -2.144348817903e-04 0.0 
-2.144348817903e-04 3.210973696896e-03 0.0 
0.0 0.0 -7.829545016062e-04 
1.212299874062e-03 -2.903037830351e-03 0.0 
-2.903037830351e-03 2.395213764874e-04 0.0 
0.0 0.0 -6.222091073784e-04 
1.174115903652e-03 2.662474741674e-03 0.0 
2.662474741674e-03 2.969730930284e-04 0.0 
0.0 0.0 -6.304667128631e-04 
-1.289472189001e-03 -1.746360051319e-03 0.0 
-1.746360051319e-03 5.399223758463e-03 0.0 
0.0 0.0 -1.180895453064e-03 
-1.199251439186e-03 3.128969763373e-03 0.0 
3.128969763373e-03 5.740281679720e-03 0.0 
0.0 0.0 -1.286194385238e-03 
-1.685234284086e-03 7.030718583631e-04 0.0 
7.030718583631e-04 7.477737434154e-03 0.0 
0.0 0.0 -1.101088927253e-03 
5.511702260285e-04 2.711119680311e-03 0.0 
2.711119680311e-03 9.222763951361e-04 0.0 
0.0 0.0 -6.314771233563e-04 
-3.649363196540e-05 -1.210836942261e-03 0.0 
-1.210836942261e-03 8.486569891216e-04 0.0 
0.0 0.0 -3.480700102098e-04 
-1.004741383637e-03 2.553626350246e-03 0.0 
2.553626350246e-03 3.669626505377e-03 0.0 
0.0 0.0 -8.905302458185e-04 
-1.568290103670e-03 2.798930321494e-04 0.0 
2.798930321494e-04 4.936656992355e-03 0.0 
0.0 0.0 -7.345111139194e-04 
-1.542599483069e-03 2.307996019665e-04 0.0 
2.307996019665e-04 5.186209951631e-03 0.0 
0.0 0.0 -7.144802219086e-04 
1.697260921232e-03 -1.822504204338e-04 0.0 
-1.822504204338e-04 -6.526688675189e-04 0.0 
0.0 0.0 -1.584708362264e-04 
9.885439547911e-04 -4.650217645265e-04 0.0 
-4.650217645265e-04 -7.811083121429e-05 0.0 
0.0 0.0 -2.719350994485e-04 
3.764836072069e-04 -3.171144431772e-04 0.0 
-3.171144431772e-04 5.254813268562e-04 0.0 
0.0 0.0 -2.992029258896e-04 
-3.222613347251e-04 -1.717475984859e-03 0.0 
-1.717475984859e-03 1.786840537745e-03 0.0 
0.0 0.0 -6.276768012942e-04 
1.995445303676e-03 -3.544912217161e-04 0.0 
-3.544912217161e-04 -1.783707534186e-04 0.0 
0.0 0.0 -2.505695937184e-04 
-1.385796394707e-03 -3.802460944882e-04 0.0 
-3.802460944882e-04 4.246303149623e-03 0.0 
0.0 0.0 -1.004230634435e-03 
0.0 0.0 0.0 
0.0 0.0 0.0 
0.0 0.0 0.0 
-3.537348662354e-04 -2.028219451660e-03 0.0 
-2.028219451660e-03 2.045322960423e-03 0.0 
0.0 0.0 -7.249663260806e-04 
-1.566153664312e-03 2.377992970035e-04 0.0 
2.377992970035e-04 6.488131571459e-03 0.0 
0.0 0.0 -9.582560723523e-04 
-1.634454558496e-03 5.707793053276e-04 0.0 
5.707793053276e-04 5.108535752511e-03 0.0 
0.0 0.0 -7.120344407548e-04 
-1.255391157734e-03 2.956292385131e-03 0.0 
2.956292385131e-03 5.913112370001e-03 0.0 
0.0 0.0 -1.169483110168e-03 
-3.211066572615e-04 -2.624140315591e-03 0.0 
-2.624140315591e-03 2.858415319154e-03 0.0 
0.0 0.0 -9.641449249716e-04 
-1.553469395463e-03 1.980732768992e-04 0.0 
1.980732768992e-04 6.108450087988e-03 0.0 
0.0 0.0 -8.988447104697e-04 
-1.086829048493e-03 -4.298554506639e-05 0.0 
-4.298554506639e-05 3.376551179836e-03 0.0 
0.0 0.0 -8.404787427002e-04 
1.157325761144e-03 -4.144839602351e-04 0.0 
-4.144839602351e-04 5.556060787113e-04 0.0 
0.0 0.0 -3.489577299251e-04 
-1.340974968048e-03 1.141125960794e-03 0.0 
1.141125960794e-03 8.560634098268e-03 0.0 
0.0 0.0 -1.340974968048e-03 
-1.479514720207e-03 1.290754629394e-03 0.0 
1.290754629394e-03 8.817356864728e-03 0.0 
0.0 0.0 -1.320295381545e-03 
-1.658748233041e-03 8.637494445187e-04 0.0 
8.637494445187e-04 5.855760830743e-03 0.0 
0.0 0.0 -8.588387843224e-04 
-1.626246500550e-03 3.507062076516e-04 0.0 
3.507062076516e-04 4.917310602464e-03 0.0 
0.0 0.0 -7.326073368542e-04 
-1.101733211462e-03 -4.903419461906e-04 0.0 
-4.903419461906e-04 3.425201513199e-03 0.0 
0.0 0.0 -8.368382630048e-04 
-1.457935752510e-03 9.072104527732e-04 0.0 
9.072104527732e-04 8.880607743519e-03 0.0 
0.0 0.0 -1.322576402756e-03 
-2.087604691238e-04 -2.081308369903e-03 0.0 
-2.081308369903e-03 1.746392936312e-03 0.0 
0.0 0.0 -6.589853430805e-04 
-1.662826015092e-03 7.083533780780e-04 0.0 
7.083533780780e-04 5.042251775661e-03 0.0 
0.0 0.0 -7.125614225629e-04 
-1.628165374516e-03 4.707510309731e-04 0.0 
4.707510309731e-04 4.889560536843e-03 0.0 
0.0 0.0 -7.312775522649e-04 
-1.109436790681e-03 2.207974280543e-03 0.0 
2.207974280543e-03 3.753226225228e-03 0.0 
0.0 0.0 -8.460010047089e-04 
-1.341823989366e-03 2.274932854254e-03 0.0 
2.274932854254e-03 8.137856468635e-03 0.0 
0.0 0.0 -1.341823989366e-03 
-1.447499776368e-03 1.123885033130e-03 0.0 
1.123885033130e-03 8.849685221172e-03 0.0 
0.0 0.0 -1.322582685247e-03 
1.858413942134e-03 -4.468674671497e-04 0.0 
-4.468674671497e-04 -1.442261551490e-04 0.0 
0.0 0.0 -2.523401230232e-04 
1.933225188622e-03 -1.733881547272e-04 0.0 
-1.733881547272e-04 -7.561870514403e-04 0.0 
0.0 0.0 -1.563839533901e-04 
-1.406822219416e-04 -1.124602410666e-03 0.0 
-1.124602410666e-03 1.005262349108e-03 0.0 
0.0 0.0 -3.705343402142e-04 
-5.636260726475e-04 -2.890778252910e-03 0.0 
-2.890778252910e-03 3.024028366260e-03 0.0 
0.0 0.0 -1.029090130247e-03 
-1.836231348186e-03 -1.061046282737e-04 0.0 
-1.061046282737e-04 6.851957631603e-03 0.0 
0.0 0.0 -1.224669017856e-03 
0.0 0.0 0.0 
0.0 0.0 0.0 
0.0 0.0 0.0 
-1.578428037932e-03 -1.076945805976e-04 0.0 
-1.076945805976e-04 7.488341038297e-03 0.0 
0.0 0.0 -1.092518628634e-03 
-1.550925910831e-05 -1.170234142814e-04 0.0 
-1.170234142814e-04 1.067621659097e-04 0.0 
0.0 0.0 -3.910838862915e-05 
8.665365973905e-04 -1.142786771002e-03 0.0 
-1.142786771002e-03 9.419164366956e-04 0.0 
0.0 0.0 -7.750513003226e-04 
2.093383490481e-04 -3.500473738276e-04 0.0 
-3.500473738276e-04 8.081195732960e-06 0.0 
0.0 0.0 -9.317980490615e-05 
0.0 0.0 0.0 
0.0 0.0 0.0 
0.0 0.0 0.0 
8.379829542950e-04 -1.828387007204e-03 0.0 
-1.828387007204e-03 8.061078686980e-04 0.0 
0.0 0.0 -7.046103527113e-04 
-1.789860880868e-03 -9.343042948716e-04 0.0 
-9.343042948716e-04 6.450275194502e-03 0.0 
0.0 0.0 -1.192963836147e-03 
-1.590104708056e-03 6.107842018535e-05 0.0 
6.107842018535e-05 6.703688956183e-03 0.0 
0.0 0.0 -9.361271490834e-04 
-8.759783829009e-04 2.898559650342e-03 0.0 
2.898559650342e-03 3.532916901786e-03 0.0 
0.0 0.0 -9.106555839008e-04 
1.248462822196e-03 -2.813829483536e-04 0.0 
-2.813829483536e-04 -1.929931588244e-04 0.0 
0.0 0.0 -2.625419092021e-04 
-1.459678414727e-03 -2.058426133646e-03 0.0 
-2.058426133646e-03 4.704925736718e-03 0.0 
0.0 0.0 -1.075952622059e-03 
-1.337797817327e-03 3.504757910850e-04 0.0 
3.504757910850e-04 8.685617780919e-03 0.0 
0.0 0.0 -1.337797817327e-03 
-1.451734133111e-03 3.024014936646e-04 0.0 
3.024014936646e-04 8.945645325804e-03 0.0 
0.0 0.0 -1.322354755130e-03 
-1.599337559302e-03 4.517969448523e-04 0.0 
4.517969448523e-04 5.137060814106e-03 0.0 
0.0 0.0 -7.125764448434e-04 
8.243811469618e-04 -5.070143029738e-04 0.0 
-5.070143029738e-04 1.170642242664e-03 0.0 
0.0 0.0 -8.550100241253e-04 
-1.341607717199e-03 9.922961128721e-04 0.0 
9.922961128721e-04 8.617013640237e-03 0.0 
0.0 0.0 -1.341607717199e-03 
1.651597580356e-05 2.683416658655e-03 0.0 
2.683416658655e-03 3.024822145470e-03 0.0 
0.0 0.0 -1.046710270629e-03 
1.210451057929e-03 -1.943692124057e-04 0.0 
-1.943692124057e-04 4.706046126820e-04 0.0 
0.0 0.0 -3.531810144492e-04 
2.099767295814e-03 -2.484083841165e-04 0.0 
-2.484083841165e-04 -2.289154150212e-04 0.0 
0.0 0.0 -2.475227046456e-04 
1.335233375907e-03 -9.196830328825e-05 0.0 
-9.196830328825e-05 -2.038367509550e-04 0.0 
0.0 0.0 -2.481890828467e-04 
-1.206645058523e-03 -4.413417753443e-05 0.0 
-4.413417753443e-05 3.734312456454e-03 0.0 
0.0 0.0 -9.186759157619e-04 
-1.554661254855e-03 -1.173104092863e-03 0.0 
-1.173104092863e-03 7.206653129246e-03 0.0 
0.0 0.0 -1.322828574513e-03 
-1.468378470940e-03 -2.055954314762e-04 0.0 
-2.055954314762e-04 8.477100898234e-03 0.0 
0.0 0.0 -1.258329778789e-03 
2.187416576026e-03 -1.653808446854e-04 0.0 
-1.653808446854e-04 -8.676741714944e-04 0.0 
0.0 0.0 -1.587067154099e-04 
-1.371588137901e-03 -3.169762198632e-04 0.0 
-3.169762198632e-04 4.214800910036e-03 0.0 
0.0 0.0 -1.008438243783e-03 
-1.344798314370e-03 -8.279531255943e-04 0.0 
-8.279531255943e-04 7.026886665436e-03 0.0 
0.0 0.0 -1.344798314369e-03 
-1.564884777426e-03 -1.287545985866e-03 0.0 
-1.287545985866e-03 7.147060172158e-03 0.0 
0.0 0.0 -1.318785251170e-03 
-1.158469832793e-03 -1.923166980148e-03 0.0 
-1.923166980148e-03 5.883371209853e-03 0.0 
0.0 0.0 -1.321151187552e-03 
-1.585912391543e-03 2.691560132111e-04 0.0 
2.691560132111e-04 7.090908885405e-03 0.0 
0.0 0.0 -1.027148381742e-03 
-1.555187588006e-03 -1.971572702211e-04 0.0 
-1.971572702211e-04 7.705246922455e-03 0.0 
0.0 0.0 -1.125709525796e-03 
-1.338030260144e-03 -1.094386398329e-03 0.0 
-1.094386398329e-03 6.909148412757e-03 0.0 
0.0 0.0 -1.338030260144e-03 
-1.340754991027e-03 -1.372687681983e-03 0.0 
-1.372687681983e-03 6.806607219922e-03 0.0 
0.0 0.0 -1.340754991027e-03 
-1.561602649575e-03 2.480043620058e-04 0.0 
2.480043620058e-04 7.494608831512e-03 0.0 
0.0 0.0 -1.092518628634e-03 
3.307271248664e-03 4.314548185695e-05 0.0 
4.314548185695e-05 -1.214475185733e-03 0.0 
0.0 0.0 -8.755379438333e-05 
-1.478032168390e-03 1.489804673206e-04 0.0 
1.489804673206e-04 5.167022187345e-03 0.0 
0.0 0.0 -7.139539158865e-04 
-1.574977551316e-03 3.717997235828e-04 0.0 
3.717997235828e-04 5.188881553203e-03 0.0 
0.0 0.0 -7.133642253441e-04 
2.078295521971e-03 -1.511499007421e-04 0.0 
-1.511499007421e-04 -8.199563945998e-04 0.0 
0.0 0.0 -1.576675707606e-04 
-1.342313591240e-03 -1.872687525586e-03 0.0 
-1.872687525586e-03 6.355359522584e-03 0.0 
0.0 0.0 -1.342313591240e-03 
-1.269922737054e-03 -2.029167704155e-03 0.0 
-2.029167704155e-03 6.094262192879e-03 0.0 
0.0 0.0 -1.318355947622e-03 
-1.337959751097e-03 -1.908784167046e-03 0.0 
-1.908784167046e-03 5.900685640896e-03 0.0 
0.0 0.0 -1.337959751097e-03 
3.106621107953e-03 -1.497773368645e-04 0.0 
-1.497773368645e-04 -1.029211139497e-03 0.0 
0.0 0.0 -9.540963664561e-05 
2.941822019467e-03 -1.767432348869e-04 0.0 
-1.767432348869e-04 -9.568393427299e-04 0.0 
0.0 0.0 -9.747405510327e-05 
-1.340754991027e-03 -1.672627381109e-03 0.0 
-1.672627381109e-03 5.518495974516e-03 0.0 
0.0 0.0 -1.340754991027e-03 
-1.340396196526e-03 -1.852966983193e-03 0.0 
-1.852966983193e-03 5.697134399037e-03 0.0 
0.0 0.0 -1.340396196526e-03 
-1.600296610560e-03 -2.152006829150e-04 0.0 
-2.152006829150e-04 6.887323541576e-03 0.0 
0.0 0.0 -9.936726122374e-04 
-1.422222177314e-03 8.859389962602e-05 0.0 
8.859389962602e-05 5.179295465595e-03 0.0 
0.0 0.0 -7.124851972278e-04 
-1.571159218797e-03 -2.082021183410e-04 0.0 
-2.082021183410e-04 7.291178693471e-03 0.0 
0.0 0.0 -1.060142436171e-03 
-1.552782223510e-03 -2.129194587244e-04 0.0 
-2.129194587244e-04 6.002253842572e-03 0.0 
0.0 0.0 -8.626607521899e-04 
-1.382122713210e-03 3.570213775188e-05 0.0 
3.570213775188e-05 5.182667103943e-03 0.0 
0.0 0.0 -7.121912678902e-04 
2.259827960221e-03 -3.791885520061e-04 0.0 
-3.791885520061e-04 -6.773411335669e-04 0.0 
0.0 0.0 -9.442328267794e-05 
1.489465085535e-03 -3.873061726619e-04 0.0 
-3.873061726619e-04 -3.302723319640e-04 0.0 
0.0 0.0 -4.591167563965e-05 
1.195706273835e-03 -4.439423179226e-04 0.0 
-4.439423179226e-04 -2.457069974477e-04 0.0 
0.0 0.0 -4.589015575604e-05 
7.928883186884e-04 -4.308369996379e-04 0.0 
-4.308369996379e-04 -1.962835067220e-05 0.0 
0.0 0.0 -4.556578909549e-05 
-1.455576565641e-03 5.369324781881e-06 0.0 
5.369324781881e-06 4.421569252006e-03 0.0 
0.0 0.0 -1.025222297049e-03 
-1.326853145310e-03 -3.193870868211e-05 0.0 
-3.193870868211e-05 4.074529080795e-03 0.0 
0.0 0.0 -9.784754570978e-04 
3.643447720584e-04 -2.807478551813e-04 0.0 
-2.807478551813e-04 -8.302826669459e-05 0.0 
0.0 0.0 -1.159392125903e-04 
-1.882114812679e-03 5.257899597366e-05 0.0 
5.257899597366e-05 5.463849854237e-03 0.0 
0.0 0.0 -1.072123180932e-03 
1.624781745822e-04 -2.648253394118e-04 0.0 
-2.648253394118e-04 3.767456551543e-06 0.0 
0.0 0.0 -7.124812762874e-05 
-1.341471640605e-03 1.902532918980e-03 0.0 
1.902532918980e-03 8.304452194875e-03 0.0 
0.0 0.0 -1.341471640605e-03 
-1.340968685557e-03 8.342263842268e-04 0.0 
8.342263842268e-04 8.620360450522e-03 0.0 
0.0 0.0 -1.340968685557e-03 
-1.339320413496e-03 1.336323062728e-03 0.0 
1.336323062728e-03 8.515855351859e-03 0.0 
0.0 0.0 -1.339320413496e-03 
-5.175251243654e-04 1.147272255642e-05 0.0 
1.147272255642e-05 1.550881351190e-03 0.0 
0.0 0.0 -2.599136149544e-04 
-9.633323041400e-04 -3.549644401783e-05 0.0 
-3.549644401783e-05 2.981977788141e-03 0.0 
0.0 0.0 -7.340959586659e-04 
-1.337132911908e-03 6.510662741128e-04 0.0 
6.510662741128e-04 8.656607653519e-03 0.0 
0.0 0.0 -1.337132911908e-03 
-2.083032595708e-03 9.922266011855e-05 0.0 
9.922266011855e-05 6.472696883650e-03 0.0 
0.0 0.0 -1.124956933753e-03 
-1.344556937803e-03 5.003882733929e-04 0.0 
5.003882733929e-04 8.710429521741e-03 0.0 
0.0 0.0 -1.344556937803e-03 
-1.932677962729e-03 1.288201926386e-04 0.0 
1.288201926386e-04 6.746175248938e-03 0.0 
0.0 0.0 -1.192538251246e-03 
-1.740079752366e-03 1.547682996820e-04 0.0 
1.547682996820e-04 7.002368902305e-03 0.0 
0.0 0.0 -1.259905836238e-03 
-1.256318881540e-03 -3.058147318078e-04 0.0 
-3.058147318078e-04 3.889569585195e-03 0.0 
0.0 0.0 -9.521061186879e-04 
-1.479483252636e-03 7.231400883548e-04 0.0 
7.231400883548e-04 8.931379513718e-03 0.0 
0.0 0.0 -1.318101597465e-03 
-1.454407492241e-03 7.329644933787e-04 0.0 
7.329644933787e-04 8.932547234701e-03 0.0 
0.0 0.0 -1.321689849711e-03 
-1.996720130669e-03 -4.240856891719e-04 0.0 
-4.240856891719e-04 6.546271744836e-03 0.0 
0.0 0.0 -1.157495185000e-03 
-1.833092771074e-03 -4.338479580684e-04 0.0 
-4.338479580684e-04 6.845712330688e-03 0.0 
0.0 0.0 -1.225777420818e-03 
-1.841879665554e-03 -1.392809369192e-03 0.0 
-1.392809369192e-03 5.462425115064e-03 0.0 
0.0 0.0 -1.076967794221e-03 
0.0 0.0 0.0 
0.0 0.0 0.0 
0.0 0.0 0.0 
-8.795889895974e-04 -1.952925740306e-03 0.0 
-1.952925740306e-03 3.376145193665e-03 0.0 
0.0 0.0 -1.039304039601e-03 
1.660434101197e-03 -6.141622579472e-04 0.0 
-6.141622579472e-04 -6.719522836332e-05 0.0 
0.0 0.0 -2.442944474907e-04 
-1.378694188408e-03 -2.097012646119e-03 0.0 
-2.097012646119e-03 5.460269496084e-03 0.0 
0.0 0.0 -1.177819030284e-03 
-7.813950936845e-04 -2.358745935075e-03 0.0 
-2.358745935075e-03 3.287112188259e-03 0.0 
0.0 0.0 -1.040987640873e-03 
-1.809630590335e-03 -1.291578548695e-03 0.0 
-1.291578548695e-03 5.821414157847e-03 0.0 
0.0 0.0 -1.099016898379e-03 
-2.060296257065e-04 -1.796631504213e-03 0.0 
-1.796631504213e-03 1.564117229874e-03 0.0 
0.0 0.0 -5.820375446434e-04 
4.475341314438e-05 -9.010547106959e-04 0.0 
-9.010547106959e-04 6.723802247933e-04 0.0 
0.0 0.0 -2.733874678612e-04 
-1.819661686397e-03 -1.463949205523e-03 0.0 
-1.463949205523e-03 6.215728401457e-03 0.0 
0.0 0.0 -1.161668299909e-03 
-1.009350816753e-03 -1.981157607315e-03 0.0 
-1.981157607315e-03 3.679610224835e-03 0.0 
0.0 0.0 -1.056886766371e-03 
-1.124597673924e-03 -3.416283390981e-04 0.0 
-3.416283390981e-04 3.530274889455e-03 0.0 
0.0 0.0 -8.978673291013e-04 
-1.908614693689e-03 -1.553426855284e-03 0.0 
-1.553426855284e-03 5.883638228136e-03 0.0 
0.0 0.0 -1.096102707776e-03 
-1.506564574904e-03 4.784902240182e-04 0.0 
4.784902240182e-04 7.990398295391e-03 0.0 
0.0 0.0 -1.188907866872e-03 
-1.145966443117e-03 -2.688887835076e-04 0.0 
-2.688887835076e-04 3.559257817850e-03 0.0 
0.0 0.0 -8.802182425544e-04 
-2.343808151550e-04 -2.448482601409e-03 0.0 
-2.448482601409e-03 2.867036480139e-03 0.0 
0.0 0.0 -1.035646790376e-03 
-9.500506080825e-04 -2.724089328098e-03 0.0 
-2.724089328098e-03 3.674446532369e-03 0.0 
0.0 0.0 -9.625389225288e-04 
-1.856114660532e-03 -1.247587492440e-03 0.0 
-1.247587492440e-03 5.444374226428e-03 0.0 
0.0 0.0 -1.042884296030e-03 
-2.003615679542e-03 -9.107189773551e-04 0.0 
-9.107189773551e-04 5.760788445208e-03 0.0 
0.0 0.0 -1.050199500156e-03 
3.015162384708e-03 1.478491521065e-03 0.0 
1.478491521065e-03 -1.420788746949e-03 0.0 
0.0 0.0 -6.833029876111e-04 
-7.703338813803e-04 2.711642704622e-03 0.0 
2.711642704622e-03 3.268676482316e-03 0.0 
0.0 0.0 -9.206815977879e-04 
8.952220710028e-04 3.337500451005e-03 0.0 
3.337500451005e-03 9.018971507738e-04 0.0 
0.0 0.0 -7.701939521900e-04 
-1.492273682533e-03 -1.948749897048e-03 0.0 
-1.948749897048e-03 4.700056634630e-03 0.0 
0.0 0.0 -1.018483763552e-03 
-1.953152701418e-03 -1.266064436280e-03 0.0 
-1.266064436280e-03 6.190905664489e-03 0.0 
0.0 0.0 -1.125100902632e-03 
-2.130434678919e-03 -5.674193057818e-04 0.0 
-5.674193057818e-04 6.039060582820e-03 0.0 
0.0 0.0 -1.053755873404e-03 
1.981272582958e-04 -2.339075750409e-03 0.0 
-2.339075750409e-03 1.164667172993e-03 0.0 
0.0 0.0 -5.840547562666e-04 
-1.516698384373e-03 7.243684231909e-04 0.0 
7.243684231909e-04 7.963201592157e-03 0.0 
0.0 0.0 -1.183514100502e-03 
-1.571889609711e-03 6.492262438020e-04 0.0 
6.492262438020e-04 7.577660240319e-03 0.0 
0.0 0.0 -1.117084069417e-03 
-1.526943038589e-03 4.067391407097e-04 0.0 
4.067391407097e-04 5.686565415721e-03 0.0 
0.0 0.0 -8.110481619253e-04 
-1.474195239190e-03 -2.107699134124e-03 0.0 
-2.107699134124e-03 4.674985602820e-03 0.0 
0.0 0.0 -1.001070066037e-03 
-1.687869148980e-03 -1.597447162641e-03 0.0 
-1.597447162641e-03 5.094192157887e-03 0.0 
0.0 0.0 -1.032102790996e-03 
-1.559878786953e-03 1.186239496982e-04 0.0 
1.186239496982e-04 8.091883647163e-03 0.0 
0.0 0.0 -1.185362187646e-03 
-1.553576411269e-03 5.639076835034e-04 0.0 
5.639076835034e-04 7.828849217298e-03 0.0 
0.0 0.0 -1.150972777267e-03 
-5.736846005059e-04 -3.010470759541e-03 0.0 
-3.010470759541e-03 3.112745496219e-03 0.0 
0.0 0.0 -1.058777908313e-03 
-1.827264969184e-03 -1.207689843267e-03 0.0 
-1.207689843267e-03 6.491929530035e-03 0.0 
0.0 0.0 -1.190872049285e-03 
-1.617401302618e-03 1.036699389917e-03 0.0 
1.036699389917e-03 7.425262889637e-03 0.0 
0.0 0.0 -1.103416240745e-03 
-2.113993614968e-03 -7.222808743220e-04 0.0 
-7.222808743220e-04 6.023476369147e-03 0.0 
0.0 0.0 -1.069496670503e-03 
-1.471914821471e-03 -1.998353424490e-03 0.0 
-1.998353424490e-03 5.883536090439e-03 0.0 
0.0 0.0 -1.210017230578e-03 
-1.575272729869e-03 3.494544289054e-04 0.0 
3.494544289054e-04 8.019533452472e-03 0.0 
0.0 0.0 -1.181737430652e-03 
-1.652502708926e-03 2.520535947120e-04 0.0 
2.520535947120e-04 7.001595806507e-03 0.0 
0.0 0.0 -1.011817915138e-03 
-3.838894113269e-04 -2.804191833148e-03 0.0 
-2.804191833148e-03 2.874279057775e-03 0.0 
0.0 0.0 -9.985655989919e-04 
-6.304965187655e-04 -7.604202958905e-04 0.0 
-7.604202958905e-04 2.203620271365e-03 0.0 
0.0 0.0 -6.656342390725e-04 
4.047615641515e-04 -2.474054827037e-03 0.0 
-2.474054827037e-03 9.613198754716e-04 0.0 
0.0 0.0 -5.854634741242e-04 
2.836227978939e-05 -1.580599960261e-03 0.0 
-1.580599960261e-03 9.832792497712e-04 0.0 
0.0 0.0 -4.149592254337e-04 
1.034548557929e-04 -1.227500156599e-03 0.0 
-1.227500156599e-03 6.126727267546e-04 0.0 
0.0 0.0 -3.069118210918e-04 
-1.577352812428e-03 2.114313367924e-04 0.0 
2.114313367924e-04 7.845695102100e-03 0.0 
0.0 0.0 -1.150998037120e-03 
-1.900941556448e-03 -7.041406832224e-04 0.0 
-7.041406832224e-04 6.386638876857e-03 0.0 
0.0 0.0 -1.156839719840e-03 
6.843292428348e-05 -1.144232504345e-03 0.0 
-1.144232504345e-03 6.143886100226e-04 0.0 
0.0 0.0 -2.926378004169e-04 
-1.601987702258e-03 2.442990824200e-03 0.0 
2.442990824200e-03 6.852419756780e-03 0.0 
0.0 0.0 -1.160298666437e-03 
-1.543111448516e-03 4.596328783708e-04 0.0 
4.596328783708e-04 5.853297686999e-03 0.0 
0.0 0.0 -8.436798659344e-04 
-1.824750470194e-03 -1.859013687658e-03 0.0 
-1.859013687658e-03 5.532595994557e-03 0.0 
0.0 0.0 -1.067477449466e-03 
-2.006499161308e-03 -7.976010001953e-04 0.0 
-7.976010001953e-04 6.083504909474e-03 0.0 
0.0 0.0 -1.090430023688e-03 
7.833829666557e-04 -2.711290744461e-03 0.0 
-2.711290744461e-03 6.776524641225e-04 0.0 
0.0 0.0 -6.261580417621e-04 
-2.076799610215e-03 -1.031710463461e-03 0.0 
-1.031710463461e-03 6.135351760274e-03 0.0 
0.0 0.0 -1.087955833448e-03 
-1.557514890525e-03 -6.173462151110e-05 0.0 
-6.173462151110e-05 5.695796094032e-03 0.0 
0.0 0.0 -8.100176300978e-04 
8.750615862245e-04 9.176848780839e-04 0.0 
9.176848780839e-04 1.438408062181e-03 0.0 
0.0 0.0 -9.914869921737e-04 
-1.497791782641e-03 -1.444847597853e-03 0.0 
-1.444847597853e-03 6.204442023908e-03 0.0 
0.0 0.0 -1.242964905849e-03 
-6.875629852487e-04 -4.240155203853e-04 0.0 
-4.240155203853e-04 2.190912803371e-03 0.0 
0.0 0.0 -5.658909553065e-04 
-1.268098618658e-03 -2.126035490962e-03 0.0 
-2.126035490962e-03 5.495926708526e-03 0.0 
0.0 0.0 -1.215045542354e-03 
-1.631557581403e-03 2.235766335083e-04 0.0 
2.235766335083e-04 7.237605270102e-03 0.0 
0.0 0.0 -1.048288725887e-03 
-7.383595785151e-04 -6.377031037024e-04 0.0 
-6.377031037024e-04 2.446869421887e-03 0.0 
0.0 0.0 -6.818911139857e-04 
3.993077738021e-04 -2.419206884214e-03 0.0 
-2.419206884214e-03 9.348823657586e-04 0.0 
0.0 0.0 -5.717957740974e-04 
-1.500476059484e-03 -8.906484908892e-04 0.0 
-8.906484908892e-04 4.589149281530e-03 0.0 
0.0 0.0 -1.044847128380e-03 
-1.630418366467e-03 6.661053165545e-04 0.0 
6.661053165545e-04 6.481746764143e-03 0.0 
0.0 0.0 -9.409807611877e-04 
-5.756498552716e-04 -2.159817615522e-03 0.0 
-2.159817615522e-03 2.678873720584e-03 0.0 
0.0 0.0 -9.013816565627e-04 
-1.610525300296e-03 1.600914995101e-04 0.0 
1.600914995101e-04 7.460282061065e-03 0.0 
0.0 0.0 -1.085119818393e-03 
-1.626505474320e-03 1.193898643633e-04 0.0 
1.193898643633e-04 6.796479922044e-03 0.0 
0.0 0.0 -9.816794289629e-04 
-1.168002604940e-03 -1.979309092588e-03 0.0 
-1.979309092588e-03 4.001814082530e-03 0.0 
0.0 0.0 -1.032510638845e-03 
-1.993224441762e-03 -1.056137829821e-03 0.0 
-1.056137829821e-03 5.774090597717e-03 0.0 
0.0 0.0 -1.075584385303e-03 
-2.021709392423e-03 -1.349459280440e-03 0.0 
-1.349459280440e-03 5.860171390496e-03 0.0 
0.0 0.0 -1.066391945090e-03 
-1.595291763312e-03 5.874023300959e-04 0.0 
5.874023300959e-04 7.178060268656e-03 0.0 
0.0 0.0 -1.050681058959e-03 
-5.082515002275e-04 -8.941420093747e-04 0.0 
-8.941420093747e-04 1.798316205834e-03 0.0 
0.0 0.0 -5.009000172756e-04 
-1.206852124203e-03 -1.671075112969e-03 0.0 
-1.671075112969e-03 4.019505130445e-03 0.0 
0.0 0.0 -1.029746919386e-03 
-5.152753143586e-05 2.170825683475e-03 0.0 
2.170825683475e-03 3.140726951459e-03 0.0 
0.0 0.0 -1.141128458404e-03 
-1.641668485544e-03 3.431501301840e-04 0.0 
3.431501301840e-04 7.404941610079e-03 0.0 
0.0 0.0 -1.078198857115e-03 
-1.057951637287e-03 -1.671343146736e-03 0.0 
-1.671343146736e-03 3.677031607098e-03 0.0 
0.0 0.0 -1.017599913258e-03 
-8.954401304147e-04 -2.800206404235e-03 0.0 
-2.800206404235e-03 3.674164100142e-03 0.0 
0.0 0.0 -1.058318663232e-03 
-1.115312546428e-03 -2.189534952593e-03 0.0 
-2.189534952593e-03 5.045014028914e-03 0.0 
0.0 0.0 -1.187586327529e-03 
-1.596801678993e-03 6.045917028781e-04 0.0 
6.045917028781e-04 6.950727632054e-03 0.0 
0.0 0.0 -1.013969106439e-03 
2.322873706387e-04 -1.368679716301e-04 0.0 
-1.368679716301e-04 -2.322873706387e-04 0.0 
0.0 0.0 0.0 
4.726741315202e-05 -1.330898926681e-03 0.0 
-1.330898926681e-03 8.674614564573e-04 0.0 
0.0 0.0 -2.916872467244e-04 
2.273358372470e-03 1.445761220817e-05 0.0 
1.445761220817e-05 -1.234043607805e-03 0.0 
0.0 0.0 -4.454206134279e-04 
-1.880676767284e-03 -9.969975945957e-04 0.0 
-9.969975945957e-04 6.131847364448e-03 0.0 
0.0 0.0 -1.127837695838e-03 
-1.619604464873e-03 6.374782176385e-04 0.0 
6.374782176385e-04 6.719807393941e-03 0.0 
0.0 0.0 -9.775003154318e-04 
-1.665473239862e-03 -8.814240019008e-04 0.0 
-8.814240019008e-04 4.990171794499e-03 0.0 
0.0 0.0 -1.065326950858e-03 
-1.596762474986e-03 5.442334346395e-04 0.0 
5.442334346395e-04 6.065464133813e-03 0.0 
0.0 0.0 -8.745614812816e-04 
-3.748877525410e-04 -1.800985621523e-03 0.0 
-1.800985621523e-03 3.574605346147e-03 0.0 
0.0 0.0 -1.139196670502e-03 
-1.359206623324e-03 -1.598338811102e-03 0.0 
-1.598338811102e-03 4.356288718259e-03 0.0 
0.0 0.0 -1.038619054332e-03 
-1.952425401121e-03 -1.122489104774e-03 0.0 
-1.122489104774e-03 5.808139918506e-03 0.0 
0.0 0.0 -1.061632825506e-03 
-7.352512267089e-04 -7.174892847169e-04 0.0 
-7.174892847169e-04 2.324934696345e-03 0.0 
0.0 0.0 -5.540246046759e-04 
-1.437645385880e-03 -1.599317358972e-03 0.0 
-1.599317358972e-03 5.870614125847e-03 0.0 
0.0 0.0 -1.211531131004e-03 
-1.154210490817e-03 -1.954082935906e-03 0.0 
-1.954082935906e-03 4.005717739264e-03 0.0 
0.0 0.0 -1.074148950826e-03 
-8.379192553434e-04 -5.906240485017e-04 0.0 
-5.906240485017e-04 2.576604047046e-03 0.0 
0.0 0.0 -5.876558844704e-04 
-1.197102623790e-03 -1.637680359765e-03 0.0 
-1.637680359765e-03 4.017415051808e-03 0.0 
0.0 0.0 -1.056762485630e-03 
-7.509293429896e-04 -1.933738058068e-03 0.0 
-1.933738058068e-03 3.044668356527e-03 0.0 
0.0 0.0 -9.830310058020e-04 
-3.848069222800e-04 -1.987035085230e-03 0.0 
-1.987035085230e-03 2.096507399408e-03 0.0 
0.0 0.0 -7.335859187690e-04 
-1.641529108376e-03 -8.260601691015e-04 0.0 
-8.260601691015e-04 4.922455749525e-03 0.0 
0.0 0.0 -1.057704792895e-03 
1.274028603033e-03 -1.869459937269e-04 0.0 
-1.869459937269e-04 -4.728594485301e-04 0.0 
0.0 0.0 -1.484808277242e-04 
8.391344234421e-04 -3.183235339587e-04 0.0 
-3.183235339587e-04 -2.967630892776e-04 0.0 
0.0 0.0 -1.070543391422e-04 
-1.665019363331e-03 -1.732448119605e-03 0.0 
-1.732448119605e-03 5.107282910853e-03 0.0 
0.0 0.0 -1.076850574752e-03 
-6.443609575616e-04 -8.027982188953e-04 0.0 
-8.027982188953e-04 2.093114862673e-03 0.0 
0.0 0.0 -5.127475950200e-04 
-1.433152566994e-03 -2.256582062865e-03 0.0 
-2.256582062865e-03 4.678524487026e-03 0.0 
0.0 0.0 -1.065643708224e-03 
-1.181624258185e-03 -2.541209283503e-03 0.0 
-2.541209283503e-03 4.198630913141e-03 0.0 
0.0 0.0 -1.061543848411e-03 
-2.864899867882e-04 -2.872572545388e-03 0.0 
-2.872572545388e-03 2.406784440249e-03 0.0 
0.0 0.0 -9.086976229117e-04 
1.281208818910e-03 -3.086935772070e-03 0.0 
-3.086935772070e-03 3.369465702636e-04 0.0 
0.0 0.0 -6.934951667886e-04 
-1.645375116221e-03 6.411920099951e-04 0.0 
6.411920099951e-04 7.711017833911e-03 0.0 
0.0 0.0 -1.137719822027e-03 
1.154207816654e-03 1.867319367673e-03 0.0 
1.867319367673e-03 -6.876363112737e-04 0.0 
0.0 0.0 -1.999592165914e-04 
-9.249733248304e-04 -1.654130041636e-03 0.0 
-1.654130041636e-03 3.362873241434e-03 0.0 
0.0 0.0 -9.992710862841e-04 
-3.877098979375e-04 -1.380494157509e-03 0.0 
-1.380494157509e-03 3.663297430763e-03 0.0 
0.0 0.0 -1.175533656463e-03 
-5.174404311479e-04 -5.539878075327e-04 0.0 
-5.539878075327e-04 1.742776399261e-03 0.0 
0.0 0.0 -4.908139796285e-04 
-1.654366313170e-03 2.025707585884e-04 0.0 
2.025707585884e-04 6.355277344232e-03 0.0 
0.0 0.0 -9.088859120638e-04 
-1.608026372927e-03 7.066471578212e-05 0.0 
7.066471578212e-05 5.908321987661e-03 0.0 
0.0 0.0 -8.416286270284e-04 
-1.832935889570e-04 -1.554120033244e-03 0.0 
-1.554120033244e-03 1.379295739965e-03 0.0 
0.0 0.0 -5.125723504322e-04 
-9.249495539582e-04 -2.182927448984e-03 0.0 
-2.182927448984e-03 4.540217093715e-03 0.0 
0.0 0.0 -1.158722036769e-03 
-1.708983070523e-03 5.831805314674e-04 0.0 
5.831805314674e-04 7.093076428562e-03 0.0 
0.0 0.0 -1.034898561726e-03 
-5.347835094169e-04 -8.712026877687e-04 0.0 
-8.712026877687e-04 1.955284966163e-03 0.0 
0.0 0.0 -6.087863386054e-04 
-1.641053002078e-03 8.278210871732e-04 0.0 
8.278210871732e-04 7.844844353227e-03 0.0 
0.0 0.0 -1.166520446339e-03 
-1.573669309360e-03 1.135775076811e-03 0.0 
1.135775076811e-03 7.785651679837e-03 0.0 
0.0 0.0 -1.169001632583e-03 
-5.801197933913e-04 -1.186925299187e-03 0.0 
-1.186925299187e-03 2.194197512368e-03 0.0 
0.0 0.0 -6.784273028471e-04 
3.325860372313e-04 2.756630050232e-03 0.0 
2.756630050232e-03 1.228114910237e-03 0.0 
0.0 0.0 -6.688718346291e-04 
-3.593200341485e-04 -1.692198470874e-03 0.0 
-1.692198470874e-03 1.863660251544e-03 0.0 
0.0 0.0 -6.447172360267e-04 
-1.851327153153e-03 -1.651837749691e-03 0.0 
-1.651837749691e-03 5.510234686298e-03 0.0 
0.0 0.0 -1.068438311093e-03 
-1.517049278155e-03 -1.208152311661e-03 0.0 
-1.208152311661e-03 4.665351215207e-03 0.0 
0.0 0.0 -1.047608655120e-03 
-1.588271255534e-03 2.440442444252e-03 0.0 
2.440442444252e-03 7.130284191767e-03 0.0 
0.0 0.0 -1.169529464977e-03 
-1.586290284398e-03 9.796528348583e-04 0.0 
9.796528348583e-04 7.658587432112e-03 0.0 
0.0 0.0 -1.140030709108e-03 
-1.655646109898e-03 -1.957177626158e-03 0.0 
-1.957177626158e-03 5.116194479746e-03 0.0 
0.0 0.0 -1.068248785331e-03 
-1.685997880852e-03 -1.784608356716e-03 0.0 
-1.784608356716e-03 5.105111501202e-03 0.0 
0.0 0.0 -1.017402529519e-03 
-2.876771207717e-04 -1.389411797297e-03 0.0 
-1.389411797297e-03 1.511875759344e-03 0.0 
0.0 0.0 -5.246565593881e-04 
-1.860731135260e-03 -1.457489852606e-03 0.0 
-1.457489852606e-03 5.487326218288e-03 0.0 
0.0 0.0 -1.032853941699e-03 
-1.642797758815e-03 9.181312676492e-04 0.0 
9.181312676492e-04 7.041840567815e-03 0.0 
0.0 0.0 -1.037144748481e-03 
-1.515109443870e-03 -1.227447560286e-03 0.0 
-1.227447560286e-03 4.684685552436e-03 0.0 
0.0 0.0 -1.069204617036e-03 
-1.671620005891e-03 2.929392441870e-04 0.0 
2.929392441870e-04 6.771202525829e-03 0.0 
0.0 0.0 -9.752741834902e-04 
-1.678948556331e-03 5.367956015661e-04 0.0 
5.367956015661e-04 7.330127940856e-03 0.0 
0.0 0.0 -1.071415751597e-03 
2.313268375330e-03 1.796314023182e-03 0.0 
1.796314023182e-03 -1.074261141593e-03 0.0 
0.0 0.0 -5.310031001729e-04 
-1.592584348350e-03 8.322792606474e-04 0.0 
8.322792606474e-04 7.512035850087e-03 0.0 
0.0 0.0 -1.110258267496e-03 
-1.248028584087e-03 -1.336863044777e-03 0.0 
-1.336863044777e-03 4.037984938667e-03 0.0 
0.0 0.0 -1.014964823884e-03 
-1.349668852610e-03 -1.596461481346e-03 0.0 
-1.596461481346e-03 4.366516516387e-03 0.0 
0.0 0.0 -1.071455489612e-03 
-8.215746796524e-04 -1.528227033612e-03 0.0 
-1.528227033612e-03 3.070718427055e-03 0.0 
0.0 0.0 -9.608678829247e-04 
1.835549677296e-04 -2.809528380429e-03 0.0 
-2.809528380429e-03 1.483313829287e-03 0.0 
0.0 0.0 -7.143723415785e-04 
-1.633555633710e-03 7.702002767988e-04 0.0 
7.702002767988e-04 6.885994191198e-03 0.0 
0.0 0.0 -1.007339817349e-03 
3.076530191659e-04 -3.054269635980e-03 0.0 
-3.054269635980e-03 1.447807107602e-03 0.0 
0.0 0.0 -7.523400543292e-04 
-5.051265774841e-04 -1.582649049219e-03 0.0 
-1.582649049219e-03 2.186388830496e-03 0.0 
0.0 0.0 -7.205409655765e-04 
-1.167533049478e-04 -1.421228658134e-03 0.0 
-1.421228658134e-03 1.178987498042e-03 0.0 
0.0 0.0 -4.201231086673e-04 
-1.691347074083e-03 4.318386709728e-04 0.0 
4.318386709728e-04 6.937090811669e-03 0.0 
0.0 0.0 -1.005115000480e-03 
-4.635122803593e-04 -1.604799167025e-03 0.0 
-1.604799167025e-03 2.085354868508e-03 0.0 
0.0 0.0 -6.950753949209e-04 
-1.191515342284e-03 -1.717007076640e-03 0.0 
-1.717007076640e-03 5.423834924642e-03 0.0 
0.0 0.0 -1.218716866995e-03 
-1.611990725284e-03 7.358230951730e-04 0.0 
7.358230951730e-04 7.120198208464e-03 0.0 
0.0 0.0 -1.043883448597e-03 
-1.702982719558e-03 -1.584997506959e-03 0.0 
-1.584997506959e-03 5.470541578607e-03 0.0 
0.0 0.0 -1.070373463590e-03 
-9.109045738307e-04 -2.286339166372e-04 0.0 
-2.286339166372e-04 4.268441463060e-03 0.0 
0.0 0.0 -1.284729618418e-03 
-1.071268175159e-03 -1.648454023553e-03 0.0 
-1.648454023553e-03 3.707169372543e-03 0.0 
0.0 0.0 -1.023311028316e-03 
-5.174967158518e-04 -1.184771327579e-03 0.0 
-1.184771327579e-03 2.030619627748e-03 0.0 
0.0 0.0 -6.484812479557e-04 
-2.326317737538e-04 -1.038651026586e-03 0.0 
-1.038651026586e-03 1.174275035768e-03 0.0 
0.0 0.0 -4.035613980062e-04 
-1.410090236189e-03 -2.406400776569e-03 0.0 
-2.406400776569e-03 4.648410275236e-03 0.0 
0.0 0.0 -1.051259780966e-03 
-1.600848466290e-03 5.345976904083e-04 0.0 
5.345976904083e-04 6.550294708413e-03 0.0 
0.0 0.0 -9.473489374553e-04 
-8.717253142324e-05 -9.933700925620e-04 0.0 
-9.933700925620e-04 8.344671106644e-04 0.0 
0.0 0.0 -3.202691053891e-04 
-6.027995719924e-04 -2.107392599842e-03 0.0 
-2.107392599842e-03 2.722751826872e-03 0.0 
0.0 0.0 -9.085509663768e-04 
-7.199860598078e-04 -4.341095348245e-04 0.0 
-4.341095348245e-04 2.121552428607e-03 0.0 
0.0 0.0 -4.196057652059e-04 
-1.682938822042e-03 3.318724932828e-04 0.0 
3.318724932828e-04 6.532037136807e-03 0.0 
0.0 0.0 -9.387834224271e-04 
-7.776326742692e-04 -1.884645157224e-03 0.0 
-1.884645157224e-03 3.094899202807e-03 0.0 
0.0 0.0 -9.909213861921e-04 
-1.231039957355e-03 -2.426325464904e-03 0.0 
-2.426325464904e-03 4.199347214172e-03 0.0 
0.0 0.0 -9.819879942351e-04 
-8.554599545912e-04 -1.459966539243e-03 0.0 
-1.459966539243e-03 3.093994812612e-03 0.0 
0.0 0.0 -9.237817853494e-04 
-1.614515104562e-03 2.789174945577e-04 0.0 
2.789174945577e-04 7.633843682432e-03 0.0 
0.0 0.0 -1.114809527198e-03 
-5.165996464755e-04 -1.902435422896e-03 0.0 
-1.902435422896e-03 2.384778332934e-03 0.0 
0.0 0.0 -8.006480084822e-04 
-1.128557246388e-03 -2.713813412197e-03 0.0 
-2.713813412197e-03 4.096504171839e-03 0.0 
0.0 0.0 -1.021386065992e-03 
3.769531236008e-04 -2.410295298791e-03 0.0 
-2.410295298791e-03 9.611755011410e-04 0.0 
0.0 0.0 -5.734836963179e-04 
-1.146759310470e-03 -2.656955500371e-03 0.0 
-2.656955500371e-03 4.139056916818e-03 0.0 
0.0 0.0 -1.043150860743e-03 
-1.375457983811e-03 -1.244246825682e-03 0.0 
-1.244246825682e-03 4.353109699875e-03 0.0 
0.0 0.0 -1.054662228279e-03 
-1.554003148348e-03 -1.878419659560e-03 0.0 
-1.878419659560e-03 5.069341272683e-03 0.0 
0.0 0.0 -1.041555045145e-03 
3.002499616426e-03 -7.287809856288e-04 0.0 
-7.287809856288e-04 -1.352929250409e-03 0.0 
0.0 0.0 -7.069587282928e-04 
-6.177242885591e-04 -4.890935474393e-04 0.0 
-4.890935474393e-04 2.000133674606e-03 0.0 
0.0 0.0 -5.285791946032e-04 
-1.609261505607e-03 9.637114852810e-05 0.0 
9.637114852810e-05 6.165456359686e-03 0.0 
0.0 0.0 -8.787268422831e-04 
6.987156508361e-04 -1.946712657170e-03 0.0 
-1.946712657170e-03 1.033985256572e-03 0.0 
0.0 0.0 -7.425861031749e-04 
3.405430775163e-04 3.191948666083e-03 0.0 
3.191948666083e-03 1.485409776068e-03 0.0 
0.0 0.0 -7.825512229649e-04 
-1.644262011324e-03 1.659911649759e-04 0.0 
1.659911649759e-04 6.584724351472e-03 0.0 
0.0 0.0 -9.453210152248e-04 
6.455202986104e-04 -2.635854245695e-03 0.0 
-2.635854245695e-03 6.894465372206e-04 0.0 
0.0 0.0 -5.721286439276e-04 
-1.681255032869e-03 9.721382689111e-04 0.0 
9.721382689111e-04 6.557103597372e-03 0.0 
0.0 0.0 -9.642804585795e-04 
-6.124308423891e-04 -5.450173225678e-04 0.0 
-5.450173225678e-04 1.850421424375e-03 0.0 
0.0 0.0 -3.816933993452e-04 
-1.231036729784e-03 -2.253664933021e-03 0.0 
-2.253664933021e-03 5.042416419642e-03 0.0 
0.0 0.0 -1.150402778756e-03 
7.350617248358e-04 -1.287476273638e-03 0.0 
-1.287476273638e-03 1.272883254993e-03 0.0 
0.0 0.0 -8.605478484981e-04 
6.223710608225e-04 1.356379083397e-03 0.0 
1.356379083397e-03 1.985099964088e-03 0.0 
0.0 0.0 -1.037051012011e-03 
-1.598102879927e-03 7.448720335872e-04 0.0 
7.448720335872e-04 8.095744984387e-03 0.0 
0.0 0.0 -1.204463612412e-03 
8.919152436734e-05 -3.143989424638e-03 0.0 
-3.143989424638e-03 1.851557330956e-03 0.0 
0.0 0.0 -8.317495094241e-04 
-4.309306607764e-04 -9.183848167176e-04 0.0 
-9.183848167176e-04 1.661245254261e-03 0.0 
0.0 0.0 -5.272776829218e-04 
-5.215676815475e-04 -3.050968300431e-03 0.0 
-3.050968300431e-03 3.002352665044e-03 0.0 
0.0 0.0 -1.027200950222e-03 
-1.049023862644e-03 -1.741518653201e-03 0.0 
-1.741518653201e-03 4.976635689622e-03 0.0 
0.0 0.0 -1.189963100592e-03 
9.320234363391e-04 -2.596047537173e-03 0.0 
-2.596047537173e-03 3.625727901238e-04 0.0 
0.0 0.0 -5.548269541984e-04 
-1.645253786717e-03 -2.142300707641e-03 0.0 
-2.142300707641e-03 5.116342603387e-03 0.0 
0.0 0.0 -1.056575865346e-03 
-1.668373394945e-03 3.866502142135e-04 0.0 
3.866502142135e-04 7.172333763355e-03 0.0 
0.0 0.0 -1.041631482750e-03 
1.707610751817e-03 -3.111302323773e-03 0.0 
-3.111302323773e-03 2.006678016111e-05 0.0 
0.0 0.0 -7.404332279907e-04 
-8.518987020310e-04 -2.879189791171e-03 0.0 
-2.879189791171e-03 3.589652711545e-03 0.0 
0.0 0.0 -1.034177093206e-03 
-1.689258382171e-03 3.631400807220e-04 0.0 
3.631400807220e-04 6.026727173804e-03 0.0 
0.0 0.0 -8.663127257150e-04 
-8.305596344540e-04 -9.136388392921e-04 0.0 
-9.136388392921e-04 2.720781083117e-03 0.0 
0.0 0.0 -7.057144296542e-04 
-4.174774710502e-04 -2.264727665933e-03 0.0 
-2.264727665933e-03 2.338052704739e-03 0.0 
0.0 0.0 -8.231036715810e-04 
1.803968687695e-04 3.742029911528e-03 0.0 
3.742029911528e-03 2.055326787370e-03 0.0 
0.0 0.0 -9.358934819731e-04 
-1.362318107691e-03 -2.168484734475e-03 0.0 
-2.168484734475e-03 4.618346883937e-03 0.0 
0.0 0.0 -1.012809740122e-03 
-6.445707195622e-05 3.204089462648e-03 0.0 
3.204089462648e-03 2.166873657449e-03 0.0 
0.0 0.0 -9.010356794969e-04 
5.513709198924e-04 3.609450072054e-03 0.0 
3.609450072054e-03 1.451733722049e-03 0.0 
0.0 0.0 -8.584734179747e-04 
-1.663785911262e-03 9.479908707512e-04 0.0 
9.479908707512e-04 6.801753296704e-03 0.0 
0.0 0.0 -1.000670320419e-03 
-1.603261119446e-03 5.580378966873e-04 0.0 
5.580378966873e-04 6.304876685805e-03 0.0 
0.0 0.0 -9.110000341593e-04 
-1.665053571431e-03 8.222814637678e-04 0.0 
8.222814637678e-04 6.156291516455e-03 0.0 
0.0 0.0 -8.984003255416e-04 
-1.378097458895e-03 -1.307048665384e-03 0.0 
-1.307048665384e-03 4.348190678149e-03 0.0 
0.0 0.0 -1.034446146726e-03 
-6.901682956972e-04 -2.185652284413e-03 0.0 
-2.185652284413e-03 4.019713840668e-03 0.0 
0.0 0.0 -1.130631056169e-03 
-1.834308716731e-04 -3.140526153133e-03 0.0 
-3.140526153133e-03 2.359250978041e-03 0.0 
0.0 0.0 -9.324943313006e-04 
-1.664409897791e-03 2.283299940873e-04 0.0 
2.283299940873e-04 6.118881933301e-03 0.0 
0.0 0.0 -8.720525204519e-04 
-1.540055594527e-03 2.603535571495e-03 0.0 
2.603535571495e-03 6.865325717395e-03 0.0 
0.0 0.0 -1.193584144721e-03 
3.472050528190e-04 1.692564590117e-03 0.0 
1.692564590117e-03 2.541247573186e-03 0.0 
0.0 0.0 -1.073433710836e-03 
-1.128039575521e-03 -2.445102979842e-03 0.0 
-2.445102979842e-03 4.119062361786e-03 0.0 
0.0 0.0 -9.841343610905e-04 
-1.618130106290e-03 8.767059940841e-04 0.0 
8.767059940841e-04 7.278368023729e-03 0.0 
0.0 0.0 -1.073677668998e-03 
-6.910390954277e-05 -2.799918663238e-03 0.0 
-2.799918663238e-03 1.917780934052e-03 0.0 
0.0 0.0 -7.922901533612e-04 
-2.515921695526e-04 -2.585539987467e-03 0.0 
-2.585539987467e-03 2.152735873912e-03 0.0 
0.0 0.0 -8.147758732969e-04 
-3.310614028043e-04 -1.379924337061e-03 0.0 
-1.379924337061e-03 1.616149347076e-03 0.0 
0.0 0.0 -5.507519761165e-04 
-5.011752582021e-04 -3.030712813107e-03 0.0 
-3.030712813107e-03 2.924383664169e-03 0.0 
0.0 0.0 -9.894786617912e-04 
-4.694395913292e-04 -2.445221033123e-03 0.0 
-2.445221033123e-03 2.569902493715e-03 0.0 
0.0 0.0 -9.001983867369e-04 
-1.710187933828e-03 4.633984892961e-04 0.0 
4.633984892961e-04 6.694041267773e-03 0.0 
0.0 0.0 -9.686535345556e-04 
-1.726289188827e-03 4.896054940225e-04 0.0 
4.896054940225e-04 6.449117765340e-03 0.0 
0.0 0.0 -9.322463471790e-04 
2.416944889244e-03 5.439879453653e-04 0.0 
5.439879453653e-04 -1.208818724836e-03 0.0 
0.0 0.0 -5.177683561747e-04 
-1.928901237433e-04 -2.408049599402e-03 0.0 
-2.408049599402e-03 1.916746904624e-03 0.0 
0.0 0.0 -7.387957632348e-04 
2.990366271950e-03 1.613745370932e-03 0.0 
1.613745370932e-03 -1.371577636674e-03 0.0 
0.0 0.0 -6.937665579755e-04 
-3.910486537430e-04 -2.315216698545e-03 0.0 
-2.315216698545e-03 2.304304739270e-03 0.0 
0.0 0.0 -8.199668937971e-04 
-2.230223782308e-04 -2.682222528879e-03 0.0 
-2.682222528879e-03 2.152181418268e-03 0.0 
0.0 0.0 -8.267824457303e-04 
-4.073029906979e-04 -1.294483440297e-03 0.0 
-1.294483440297e-03 1.772331589387e-03 0.0 
0.0 0.0 -5.850122565809e-04 
-4.258807302887e-04 -2.144389728424e-03 0.0 
-2.144389728424e-03 3.478718025925e-03 0.0 
0.0 0.0 -1.101849228969e-03 
4.193172772845e-04 -3.233569204744e-03 0.0 
-3.233569204744e-03 1.400177349689e-03 0.0 
0.0 0.0 -7.797834115600e-04 
-1.646879822787e-03 4.813878958504e-04 0.0 
4.813878958504e-04 7.564621706005e-03 0.0 
0.0 0.0 -1.107989045227e-03 
6.164328486864e-04 -3.141645067701e-03 0.0 
-3.141645067701e-03 1.094713369857e-03 0.0 
0.0 0.0 -7.333483793757e-04 
-5.352671715167e-04 -2.920481306985e-03 0.0 
-2.920481306985e-03 2.976534494236e-03 0.0 
0.0 0.0 -9.268471029391e-04 
3.090740504692e-05 -3.263078096127e-03 0.0 
-3.263078096127e-03 2.029516789361e-03 0.0 
0.0 0.0 -8.830389404605e-04 
1.224821345307e-03 3.216271527602e-03 0.0 
3.216271527602e-03 4.534564749945e-04 0.0 
0.0 0.0 -7.192619229864e-04 
-4.591680976874e-04 -1.267727629031e-03 0.0 
-1.267727629031e-03 1.902437159688e-03 0.0 
0.0 0.0 -6.185438837147e-04 
-8.295759423418e-04 -1.747729159177e-03 0.0 
-1.747729159177e-03 4.457598420488e-03 0.0 
0.0 0.0 -1.161691925552e-03 
-8.640451209017e-04 -2.074084677624e-03 0.0 
-2.074084677624e-03 4.658509439049e-03 0.0 
0.0 0.0 -1.198716319349e-03 
-6.013355258858e-04 3.714306523016e-03 0.0 
3.714306523016e-03 3.360817493125e-03 0.0 
0.0 0.0 -9.650368815299e-04 
-1.923559704036e-05 -2.994572033542e-03 0.0 
-2.994572033542e-03 1.948727475502e-03 0.0 
0.0 0.0 -8.269250907692e-04 
-2.503696762219e-04 -3.166835997765e-03 0.0 
-3.166835997765e-03 2.485701371906e-03 0.0 
0.0 0.0 -9.354962741733e-04 
-1.647815013080e-03 8.021683468908e-04 0.0 
8.021683468908e-04 6.643407279142e-03 0.0 
0.0 0.0 -9.708520278613e-04 
-3.181114656463e-04 -2.713015915343e-03 0.0 
-2.713015915343e-03 2.377429006136e-03 0.0 
0.0 0.0 -8.825646602100e-04 
7.116670481849e-04 3.351796189116e-03 0.0 
3.351796189116e-03 1.105566406541e-03 0.0 
0.0 0.0 -7.788143377395e-04 
-5.501781971430e-04 -1.884487968291e-03 0.0 
-1.884487968291e-03 2.464549120431e-03 0.0 
0.0 0.0 -8.204446814089e-04 
9.957483789486e-04 -2.931560812442e-03 0.0 
-2.931560812442e-03 3.486105119444e-04 0.0 
0.0 0.0 -5.761538103827e-04 
1.170702144068e-04 -2.917551374595e-03 0.0 
-2.917551374595e-03 1.660101911363e-03 0.0 
0.0 0.0 -7.616451967584e-04 
-5.960830469200e-04 -1.478493121431e-03 0.0 
-1.478493121431e-03 2.390521820873e-03 0.0 
0.0 0.0 -7.690451888369e-04 
-7.193147455851e-04 -1.069003876046e-03 0.0 
-1.069003876046e-03 2.479314286133e-03 0.0 
0.0 0.0 -6.849754419779e-04 
-1.850126680382e-05 -3.140240111362e-03 0.0 
-3.140240111362e-03 2.040450553655e-03 0.0 
0.0 0.0 -8.665496943648e-04 
-8.517286139436e-04 -2.699031265188e-03 0.0 
-2.699031265188e-03 3.572094775893e-03 0.0 
0.0 0.0 -9.554846610150e-04 
-9.258628841067e-04 3.334973100130e-03 0.0 
3.334973100130e-03 4.800766489173e-03 0.0 
0.0 0.0 -1.128610778606e-03 
1.795476015728e-03 -3.745896555992e-04 0.0 
-3.745896555992e-04 -4.681407310308e-04 0.0 
0.0 0.0 -1.007271482096e-04 
1.477477984760e-03 -2.160820890410e-03 0.0 
-2.160820890410e-03 -1.640262078733e-04 0.0 
0.0 0.0 -5.629079043802e-04 
9.457248714060e-04 -2.859194649623e-03 0.0 
-2.859194649623e-03 6.047505636496e-04 0.0 
0.0 0.0 -6.644894721667e-04 
2.064739481844e-04 -3.194226446081e-03 0.0 
-3.194226446081e-03 1.689929388459e-03 0.0 
0.0 0.0 -8.127442871328e-04 
-1.656928892650e-03 8.151295774597e-04 0.0 
8.151295774597e-04 6.399838907814e-03 0.0 
0.0 0.0 -9.344164207832e-04 
2.545948249673e-04 -3.270064507394e-03 0.0 
-3.270064507394e-03 1.662466157556e-03 0.0 
0.0 0.0 -8.215975639385e-04 
-6.717590179400e-04 -1.743398916895e-03 0.0 
-1.743398916895e-03 2.730040439290e-03 0.0 
0.0 0.0 -8.821206091502e-04 
2.940147133768e-04 -2.953116785718e-03 0.0 
-2.953116785718e-03 1.404914365559e-03 0.0 
0.0 0.0 -7.281124624012e-04 
-1.597640344519e-03 6.950049643667e-04 0.0 
6.950049643667e-04 7.352823299798e-03 0.0 
0.0 0.0 -1.080452943103e-03 
-7.063133806754e-04 -1.717335593378e-03 0.0 
-1.717335593378e-03 2.816704678048e-03 0.0 
0.0 0.0 -9.044534131596e-04 
-1.993759384210e-04 -8.715145545495e-04 0.0 
-8.715145545495e-04 1.025473523807e-03 0.0 
0.0 0.0 -3.540418223084e-04 
-3.396899465816e-04 -1.001666654583e-03 0.0 
-1.001666654583e-03 1.438762041900e-03 0.0 
0.0 0.0 -4.710308979937e-04 
8.199892085620e-04 -2.799788621547e-03 0.0 
-2.799788621547e-03 6.522727846800e-04 0.0 
0.0 0.0 -6.309694256751e-04 
9.078868863824e-06 -2.738074417405e-03 0.0 
-2.738074417405e-03 1.733216879781e-03 0.0 
0.0 0.0 -7.466981779906e-04 
1.103409613190e-03 -2.545332485906e-03 0.0 
-2.545332485906e-03 3.291592924430e-04 0.0 
0.0 0.0 -6.139581024141e-04 
4.609298661722e-04 -2.917080397583e-03 0.0 
-2.917080397583e-03 1.153463791195e-03 0.0 
0.0 0.0 -6.918829960147e-04 
6.174604848126e-04 -2.601794133831e-03 0.0 
-2.601794133831e-03 7.903429974379e-04 0.0 
0.0 0.0 -6.033443495359e-04 
-4.149645807323e-04 -9.518115957764e-04 0.0 
-9.518115957764e-04 1.570452979312e-03 0.0 
0.0 0.0 -4.579617190245e-04 
-1.800428115941e-03 6.964731656622e-04 0.0 
6.964731656622e-04 6.067707299324e-03 0.0 
0.0 0.0 -8.885078876198e-04 
-6.431842488821e-04 -1.481881899324e-03 0.0 
-1.481881899324e-03 2.527966751562e-03 0.0 
0.0 0.0 -8.077639297199e-04 
-3.542476587942e-04 -1.933324559496e-03 0.0 
-1.933324559496e-03 3.366073220136e-03 0.0 
0.0 0.0 -1.067401112627e-03 
-7.301428169590e-04 3.365159558875e-03 0.0 
3.365159558875e-03 4.241956460408e-03 0.0 
0.0 0.0 -1.093380752811e-03 
-1.742519381031e-03 2.013539484841e-03 0.0 
2.013539484841e-03 5.514346305573e-03 0.0 
0.0 0.0 -9.013836717722e-04 
-1.638703746775e-03 1.447396884762e-03 0.0 
1.447396884762e-03 7.437681461836e-03 0.0 
0.0 0.0 -1.126084317643e-03 
-1.069717058735e-03 3.316002143618e-03 0.0 
3.316002143618e-03 5.313047036020e-03 0.0 
0.0 0.0 -1.164310864388e-03 
2.494431731371e-03 1.270414999422e-03 0.0 
1.270414999422e-03 -1.135062232485e-03 0.0 
0.0 0.0 -5.825869280942e-04 
-6.518857880869e-04 3.512796865886e-03 0.0 
3.512796865886e-03 3.785510000148e-03 0.0 
0.0 0.0 -1.029042339204e-03 
9.845026743479e-04 -3.000223110364e-03 0.0 
-3.000223110364e-03 4.820355227438e-04 0.0 
0.0 0.0 -6.285163701822e-04 
9.169108146701e-06 -3.021931346183e-03 0.0 
-3.021931346183e-03 1.914436153364e-03 0.0 
0.0 0.0 -8.244022549332e-04 
1.935620549985e-03 2.666280335606e-03 0.0 
2.666280335606e-03 -6.114645168814e-04 0.0 
0.0 0.0 -5.674954427585e-04 
2.434658683002e-03 -2.349214516508e-03 0.0 
-2.349214516508e-03 -7.291186468832e-04 0.0 
0.0 0.0 -7.309457297651e-04 
8.115117363057e-04 -2.741951264447e-03 0.0 
-2.741951264447e-03 6.655581968644e-04 0.0 
0.0 0.0 -6.330299713586e-04 
-4.450599208505e-04 -2.552111804523e-03 0.0 
-2.552111804523e-03 2.573524769895e-03 0.0 
0.0 0.0 -9.121992210190e-04 
7.181167573208e-04 -2.648058741041e-03 0.0 
-2.648058741041e-03 7.077719066917e-04 0.0 
0.0 0.0 -6.110951417196e-04 
8.603807904587e-04 -2.481932762305e-03 0.0 
-2.481932762305e-03 4.907815371097e-04 0.0 
0.0 0.0 -5.790695689579e-04 
-7.220048660239e-04 -1.343093892557e-03 0.0 
-1.343093892557e-03 2.702939106315e-03 0.0 
0.0 0.0 -8.489718172674e-04 
4.166245934909e-04 -3.209488587121e-03 0.0 
-3.209488587121e-03 1.389160896237e-03 0.0 
0.0 0.0 -7.739080670262e-04 
1.094305293400e-03 -2.135240774913e-03 0.0 
-2.135240774913e-03 1.298780956037e-04 0.0 
0.0 0.0 -5.246500238586e-04 
1.735397459642e-03 -1.790668401916e-03 0.0 
-1.790668401916e-03 -5.241960348096e-04 0.0 
0.0 0.0 -5.190863249281e-04 
-2.953118235533e-05 -2.621242279383e-03 0.0 
-2.621242279383e-03 1.729246141722e-03 0.0 
0.0 0.0 -7.284492682998e-04 
9.068086297483e-04 -1.885631159827e-04 0.0 
-1.885631159827e-04 1.202081875786e-03 0.0 
0.0 0.0 -9.038102166577e-04 
-1.735518635242e-03 6.223275928078e-04 0.0 
6.223275928078e-04 6.851645939463e-03 0.0 
0.0 0.0 -9.984673180475e-04 
2.290762220203e-03 -1.318712250617e-03 0.0 
-1.318712250617e-03 -1.027744525883e-03 0.0 
0.0 0.0 -5.412932975660e-04 
-5.654229652914e-04 -1.684995955007e-03 0.0 
-1.684995955007e-03 3.940963543082e-03 0.0 
0.0 0.0 -1.133495712197e-03 
1.398246767020e-03 -3.216441844472e-03 0.0 
-3.216441844472e-03 9.154783719246e-05 0.0 
0.0 0.0 -6.384834018056e-04 
-5.648051924757e-04 -1.107091868774e-03 0.0 
-1.107091868774e-03 4.182104582450e-03 0.0 
0.0 0.0 -1.208505026952e-03 
7.869283801720e-04 -2.957311971993e-03 0.0 
-2.957311971993e-03 8.055017795032e-04 0.0 
0.0 0.0 -6.824700684322e-04 
-1.163518298392e-03 3.423968427013e-03 0.0 
3.423968427013e-03 5.864548636599e-03 0.0 
0.0 0.0 -1.203459118631e-03 
-1.226888468028e-03 3.131439724330e-03 0.0 
3.131439724330e-03 4.473148429932e-03 0.0 
0.0 0.0 -9.144069900286e-04 
8.146311757364e-04 -2.866044643526e-03 0.0 
-2.866044643526e-03 7.279520038073e-04 0.0 
0.0 0.0 -6.611070769473e-04 
-1.669436221743e-03 2.273068641771e-03 0.0 
2.273068641771e-03 5.485810747731e-03 0.0 
0.0 0.0 -9.292863832265e-04 
-1.634774651159e-03 1.926043724267e-03 0.0 
1.926043724267e-03 7.350223961808e-03 0.0 
0.0 0.0 -1.148369591821e-03 
9.266283371582e-04 -2.700818447501e-03 0.0 
-2.700818447501e-03 5.423083712425e-04 0.0 
0.0 0.0 -6.295443036003e-04 
1.446287545932e-03 3.073556646394e-03 0.0 
3.073556646394e-03 1.275065551695e-04 0.0 
0.0 0.0 -6.744831861864e-04 
-1.574055992192e-03 2.506613091125e-03 0.0 
2.506613091125e-03 5.429733742182e-03 0.0 
0.0 0.0 -9.572423940436e-04 
2.774777350088e-04 3.373231360525e-03 0.0 
3.373231360525e-03 1.692140773898e-03 0.0 
0.0 0.0 -8.441222181028e-04 
6.686313295052e-04 -2.714647588195e-03 0.0 
-2.714647588195e-03 7.978373867195e-04 0.0 
0.0 0.0 -6.284865926677e-04 
-1.493705396886e-03 1.751261100369e-03 0.0 
1.751261100369e-03 8.145178326217e-03 0.0 
0.0 0.0 -1.259077240559e-03 
2.909241618845e-04 -2.201062680806e-03 0.0 
-2.201062680806e-03 9.491865650592e-04 0.0 
0.0 0.0 -5.314760258330e-04 
-1.393014638960e-04 7.789838351986e-04 0.0 
7.789838351986e-04 3.592179503210e-03 0.0 
0.0 0.0 -1.194426649262e-03 
-1.554233915862e-03 9.163364700516e-04 0.0 
9.163364700516e-04 7.887220632938e-03 0.0 
0.0 0.0 -1.175981821618e-03 
7.026255322913e-04 -6.834983021250e-04 0.0 
-6.834983021250e-04 1.598542050998e-03 0.0 
0.0 0.0 -9.862146785524e-04 
-1.631602720906e-03 6.968439340323e-04 0.0 
6.968439340323e-04 6.226177705545e-03 0.0 
0.0 0.0 -9.041796124736e-04 
-1.724067531766e-03 9.331717393615e-04 0.0 
9.331717393615e-04 7.373782435820e-03 0.0 
0.0 0.0 -1.094228678348e-03 
1.385482593825e-03 -2.030831099799e-03 0.0 
-2.030831099799e-03 -2.112692183438e-04 0.0 
0.0 0.0 -5.032343037776e-04 
1.999660538583e-03 5.238969397191e-04 0.0 
5.238969397191e-04 -8.881969286874e-04 0.0 
0.0 0.0 -4.763415470983e-04 
-1.569811974871e-03 1.587727422304e-03 0.0 
1.587727422304e-03 7.784527269149e-03 0.0 
0.0 0.0 -1.191782302182e-03 
-9.330696091187e-04 -2.330125100931e-03 0.0 
-2.330125100931e-03 4.026828994110e-03 0.0 
0.0 0.0 -1.021464098896e-03 
-1.750430558126e-03 7.997395592586e-04 0.0 
7.997395592586e-04 6.994945578504e-03 0.0 
0.0 0.0 -1.028225029406e-03 
5.898974709842e-04 -1.490603234069e-03 0.0 
-1.490603234069e-03 1.573546015772e-03 0.0 
0.0 0.0 -9.271900657525e-04 
1.226199290364e-03 -3.133713578343e-03 0.0 
-3.133713578343e-03 4.720804484946e-04 0.0 
0.0 0.0 -7.278341737966e-04 
-1.755813224466e-03 9.900590192067e-04 0.0 
9.900590192067e-04 7.121505765451e-03 0.0 
0.0 0.0 -1.057861461704e-03 
-1.020230912339e-03 3.255501544884e-03 0.0 
3.255501544884e-03 5.845285965923e-03 0.0 
0.0 0.0 -1.268085107495e-03 
-8.098027228146e-04 -1.517662878241e-03 0.0 
-1.517662878241e-03 4.547334409745e-03 0.0 
0.0 0.0 -1.202195648613e-03 
7.610076650519e-05 -3.235453866840e-03 0.0 
-3.235453866840e-03 1.932455716982e-03 0.0 
0.0 0.0 -8.608099214947e-04 
-1.689275270792e-03 3.359122450795e-04 0.0 
3.359122450795e-04 6.273459191033e-03 0.0 
0.0 0.0 -9.020111041354e-04 
-1.632588233776e-03 6.974904632293e-04 0.0 
6.974904632293e-04 5.987209936235e-03 0.0 
0.0 0.0 -8.677534307045e-04 
6.088392128265e-04 -2.822537476632e-03 0.0 
-2.822537476632e-03 9.202084504230e-04 0.0 
0.0 0.0 -6.553061413926e-04 
-6.443122983676e-04 -2.499706879338e-03 0.0 
-2.499706879338e-03 3.462729029903e-03 0.0 
0.0 0.0 -9.927925938930e-04 
-4.755079025855e-04 -2.238751106190e-03 0.0 
-2.238751106190e-03 3.389731406328e-03 0.0 
0.0 0.0 -1.030113165296e-03 
-2.437047899643e-04 -1.231397142334e-03 0.0 
-1.231397142334e-03 1.345917923955e-03 0.0 
0.0 0.0 -4.426674065645e-04 
2.847402133071e-03 1.832321194303e-03 0.0 
1.832321194303e-03 -1.311219245011e-03 0.0 
0.0 0.0 -6.583640948828e-04 
2.391065633377e-03 -7.030644689003e-04 0.0 
-7.030644689003e-04 -1.190042454993e-03 0.0 
0.0 0.0 -5.147242193072e-04 
1.968235762107e-03 -1.858343853594e-03 0.0 
-1.858343853594e-03 -8.473461408074e-04 0.0 
0.0 0.0 -4.803812662710e-04 
7.235144373202e-04 3.006853977664e-03 0.0 
3.006853977664e-03 8.982936940798e-04 0.0 
0.0 0.0 -6.950606277428e-04 
-1.594047644543e-03 1.198778980109e-03 0.0 
1.198778980109e-03 8.076345274144e-03 0.0 
0.0 0.0 -1.225426844749e-03 
-1.544957883650e-03 2.714187828761e-03 0.0 
2.714187828761e-03 6.803087963728e-03 0.0 
0.0 0.0 -1.162686153705e-03 
-1.603786220280e-03 5.743670581703e-04 0.0 
5.743670581703e-04 7.933574954986e-03 0.0 
0.0 0.0 -1.173632101657e-03 
-3.176362262569e-04 3.157680560962e-03 0.0 
3.157680560962e-03 2.644961507973e-03 0.0 
0.0 0.0 -9.922833334649e-04 
-1.686655624371e-03 1.762581410411e-03 0.0 
1.762581410411e-03 7.001695775819e-03 0.0 
0.0 0.0 -1.082713561900e-03 
-8.312311815285e-04 -2.893135141048e-03 0.0 
-2.893135141048e-03 3.527094208899e-03 0.0 
0.0 0.0 -1.005652543148e-03 
-1.566323459329e-03 1.337573114455e-03 0.0 
1.337573114455e-03 7.933955714899e-03 0.0 
0.0 0.0 -1.198415070424e-03 
-1.781797660459e-03 1.042297273604e-03 0.0 
1.042297273604e-03 6.860193468522e-03 0.0 
0.0 0.0 -1.021631336281e-03 
1.651541321597e-04 -3.069309819670e-03 0.0 
-3.069309819670e-03 1.677218775847e-03 0.0 
0.0 0.0 -7.895883891459e-04 
2.729895556258e-03 -3.816222067232e-05 0.0 
-3.816222067232e-05 -1.329892949249e-03 0.0 
0.0 0.0 -6.000011172896e-04 
-1.678629276342e-03 1.301261135869e-03 0.0 
1.301261135869e-03 7.071604861536e-03 0.0 
0.0 0.0 -1.060111126929e-03 
-1.674561038714e-03 1.060445620383e-03 0.0 
1.060445620383e-03 7.740408073351e-03 0.0 
0.0 0.0 -1.160283895044e-03 
-1.648358362413e-03 1.080960708592e-03 0.0 
1.080960708592e-03 7.188263314287e-03 0.0 
0.0 0.0 -1.066842251349e-03 
-1.675485628863e-03 1.117801916471e-03 0.0 
1.117801916471e-03 6.945334177936e-03 0.0 
0.0 0.0 -1.030428295937e-03 
-9.047694827226e-04 -1.891564198184e-03 0.0 
-1.891564198184e-03 4.463027696646e-03 0.0 
0.0 0.0 -1.124756152480e-03 
-3.636288725448e-05 1.185092302766e-03 0.0 
1.185092302766e-03 3.361330425582e-03 0.0 
0.0 0.0 -1.167530213646e-03 
-6.417903686716e-04 -1.936633603608e-03 0.0 
-1.936633603608e-03 3.924941189051e-03 0.0 
0.0 0.0 -1.096139997395e-03 
-6.252750457425e-04 -2.981929184320e-03 0.0 
-2.981929184320e-03 3.101913023538e-03 0.0 
0.0 0.0 -9.455690924112e-04 
-9.133871784712e-04 2.307173197510e-03 0.0 
2.307173197510e-03 3.388339270904e-03 0.0 
0.0 0.0 -8.706649152390e-04 
5.857890875911e-04 -1.165024071921e-04 0.0 
-1.165024071921e-04 1.961403903997e-03 0.0 
0.0 0.0 -1.057160997780e-03 
-1.717096850446e-03 1.897490647652e-03 0.0 
1.897490647652e-03 6.421227655064e-03 0.0 
0.0 0.0 -1.010795753303e-03 
-6.313703935137e-04 -1.096821766549e-03 0.0 
-1.096821766549e-03 2.333660856895e-03 0.0 
0.0 0.0 -7.295530557346e-04 
2.168606455157e-03 -1.381490462849e-03 0.0 
-1.381490462849e-03 -1.049895932277e-03 0.0 
0.0 0.0 -4.794473669488e-04 
1.521212506514e-03 -1.320220071534e-03 0.0 
-1.320220071534e-03 -4.274634539344e-04 0.0 
0.0 0.0 -4.687495939627e-04 
1.466355838383e-03 4.602651966615e-04 0.0 
4.602651966615e-04 -3.624189179880e-05 0.0 
0.0 0.0 -6.129059771076e-04 
2.718390450017e-03 -6.950340879152e-04 0.0 
-6.950340879152e-04 -1.327258381844e-03 0.0 
0.0 0.0 -5.961994577885e-04 
2.586833026508e-03 -8.035069926998e-04 0.0 
-8.035069926998e-04 -1.237368745637e-03 0.0 
0.0 0.0 -5.783418346592e-04 
1.064335855091e-03 3.871345564871e-04 0.0 
3.871345564871e-04 8.878223967010e-04 0.0 
0.0 0.0 -8.366392507678e-04 
-8.479776809358e-04 2.867626528881e-03 0.0 
2.867626528881e-03 3.485177703647e-03 0.0 
0.0 0.0 -9.312627088267e-04 
-1.048673303190e-04 -3.229543423404e-03 0.0 
-3.229543423404e-03 2.260338218225e-03 0.0 
0.0 0.0 -9.237732376742e-04 
-1.787010102696e-03 8.860662194747e-04 0.0 
8.860662194747e-04 6.472161902549e-03 0.0 
0.0 0.0 -9.556638187253e-04 
-1.534511977861e-03 4.226734842399e-04 0.0 
4.226734842399e-04 5.386267654424e-03 0.0 
0.0 0.0 -7.638029664831e-04 
2.694004404959e-04 1.692225150283e-03 0.0 
1.692225150283e-03 6.665564429896e-04 0.0 
0.0 0.0 -4.011243786367e-04 
-2.485044760616e-04 -3.138222606519e-03 0.0 
-3.138222606519e-03 2.491915244985e-03 0.0 
0.0 0.0 -9.614617581102e-04 
5.241395104488e-04 -3.820643100564e-04 0.0 
-3.820643100564e-04 1.948070463321e-03 0.0 
0.0 0.0 -1.051835763028e-03 
-1.541512456067e-03 2.665389691955e-03 0.0 
2.665389691955e-03 7.146978989113e-03 0.0 
0.0 0.0 -1.196871286280e-03 
2.182111420875e-03 6.070828475979e-04 0.0 
6.070828475979e-04 -1.164368423359e-03 0.0 
0.0 0.0 -4.361755703639e-04 
-3.379696423289e-04 -3.147707957552e-03 0.0 
-3.147707957552e-03 2.662191701970e-03 0.0 
0.0 0.0 -9.747355338013e-04 
-1.758283285419e-03 6.606645787396e-04 0.0 
6.606645787396e-04 6.605527542412e-03 0.0 
0.0 0.0 -9.620958722924e-04 
2.572595780151e-04 1.907531255629e-03 0.0 
1.907531255629e-03 8.125007966372e-04 0.0 
0.0 0.0 -4.584687319938e-04 
7.215561543483e-04 7.088538436549e-05 0.0 
7.088538436549e-05 1.489224739350e-03 0.0 
0.0 0.0 -9.474775258706e-04 
1.699588376700e-03 -2.701395224992e-04 0.0 
-2.701395224992e-04 -6.431195081869e-04 0.0 
0.0 0.0 -4.527723722201e-04 
-1.123050040693e-03 2.722320328238e-03 0.0 
2.722320328238e-03 3.963607121214e-03 0.0 
0.0 0.0 -8.880452441696e-04 
-6.861996964778e-04 -2.718033399413e-03 0.0 
-2.718033399413e-03 3.467552900927e-03 0.0 
0.0 0.0 -1.027225276160e-03 
2.084513055480e-03 -2.969236307345e-03 0.0 
-2.969236307345e-03 -6.426223811324e-04 0.0 
0.0 0.0 -6.179531461491e-04 
-5.320903479306e-04 -2.451811030805e-03 0.0 
-2.451811030805e-03 3.446359028726e-03 0.0 
0.0 0.0 -1.064556537081e-03 
-5.475761825290e-04 -1.405154027486e-03 0.0 
-1.405154027486e-03 4.014926747039e-03 0.0 
0.0 0.0 -1.170878753521e-03 
8.694157167214e-04 5.959603823475e-04 0.0 
5.959603823475e-04 1.083517633446e-03 0.0 
0.0 0.0 -8.369714357860e-04 
-1.720938074938e-03 7.528205405103e-04 0.0 
7.528205405103e-04 7.239876321155e-03 0.0 
0.0 0.0 -1.064574987933e-03 
-2.581275539260e-04 2.774157829489e-03 0.0 
2.774157829489e-03 3.637568838645e-03 0.0 
0.0 0.0 -1.082686220397e-03 
-6.278749381159e-04 -1.931446236287e-03 0.0 
-1.931446236287e-03 4.088424354687e-03 0.0 
0.0 0.0 -1.168035910845e-03 
7.662032872175e-05 1.799978139758e-03 0.0 
1.799978139758e-03 1.016865245771e-03 0.0 
0.0 0.0 -4.686366747828e-04 
-1.772766923136e-03 8.481702159287e-04 0.0 
8.481702159287e-04 6.740907635403e-03 0.0 
0.0 0.0 -9.919185416031e-04 
-2.292199257427e-04 1.889849914101e-03 0.0 
1.889849914101e-03 3.718845686110e-03 0.0 
0.0 0.0 -1.173906618061e-03 
-1.648981142695e-03 1.259232254070e-03 0.0 
1.259232254070e-03 7.322595481216e-03 0.0 
0.0 0.0 -1.096489272820e-03 
1.160861635041e-03 6.400460397782e-04 0.0 
6.400460397782e-04 2.605650516831e-04 0.0 
0.0 0.0 -6.091828657388e-04 
2.574979574883e-03 -1.390903072999e-04 0.0 
-1.390903072999e-04 -1.282434716650e-03 0.0 
0.0 0.0 -5.539477963855e-04 
-1.116067155649e-03 -2.250326754200e-03 0.0 
-2.250326754200e-03 3.947993630682e-03 0.0 
0.0 0.0 -1.025516461270e-03 
1.249937303602e-03 3.552940721610e-04 0.0 
3.552940721610e-04 -1.039148958258e-03 0.0 
0.0 0.0 -9.033786229011e-05 
-1.613458135025e-03 1.210057674443e-03 0.0 
1.210057674443e-03 7.562124248112e-03 0.0 
0.0 0.0 -1.132911322290e-03 
-7.377235371559e-04 -9.591054036843e-04 0.0 
-9.591054036843e-04 2.612387194917e-03 0.0 
0.0 0.0 -8.013069569330e-04 
-1.500810255742e-04 1.675008285432e-03 0.0 
1.675008285432e-03 1.366929482546e-03 0.0 
0.0 0.0 -5.215064815592e-04 
-3.658200529699e-04 3.020199158602e-03 0.0 
3.020199158602e-03 3.713742958922e-03 0.0 
0.0 0.0 -1.054483161448e-03 
-1.538001914897e-03 1.084053552084e-03 0.0 
1.084053552084e-03 8.041309965801e-03 0.0 
0.0 0.0 -1.206783194404e-03 
1.727844094968e-03 -3.343181964838e-03 0.0 
-3.343181964838e-03 -2.401420928011e-04 0.0 
0.0 0.0 -6.375865723574e-04 
-2.167964077171e-04 3.747756050696e-03 0.0 
3.747756050696e-03 2.648111889763e-03 0.0 
0.0 0.0 -9.072936044704e-04 
-1.701887886532e-03 1.344630388867e-03 0.0 
1.344630388867e-03 6.812020791196e-03 0.0 
0.0 0.0 -1.023814440555e-03 
-4.458873681724e-04 -2.966430795108e-03 0.0 
-2.966430795108e-03 2.822625691825e-03 0.0 
0.0 0.0 -1.018602138708e-03 
2.635787731545e-03 -1.799593391660e-03 0.0 
-1.799593391660e-03 -1.225014149329e-03 0.0 
0.0 0.0 -6.046172495213e-04 
1.631098457746e-03 2.876803562451e-03 0.0 
2.876803562451e-03 -2.192512757881e-04 0.0 
0.0 0.0 -6.050773636963e-04 
9.159182720240e-04 -2.840057079041e-03 0.0 
-2.840057079041e-03 6.236111220924e-04 0.0 
0.0 0.0 -6.597983117642e-04 
1.988952410622e-03 -2.773207495313e-03 0.0 
-2.773207495313e-03 -3.142881963505e-04 0.0 
0.0 0.0 -7.177132346876e-04 
1.648220485470e-03 -3.321848158051e-03 0.0 
-3.321848158051e-03 2.024080431041e-04 0.0 
0.0 0.0 -7.931265122462e-04 
1.705098340266e-03 6.558868029328e-04 0.0 
6.558868029328e-04 -6.969008095806e-04 0.0 
0.0 0.0 -4.320846560080e-04 
-1.468520801646e-03 2.285525207987e-03 0.0 
2.285525207987e-03 8.442456052557e-03 0.0 
0.0 0.0 -1.324146187826e-03 
-3.956257745020e-04 1.730887625779e-03 0.0 
1.730887625779e-03 1.977050055323e-03 0.0 
0.0 0.0 -6.777532632091e-04 
-1.125863067977e-03 -1.827974217199e-03 0.0 
-1.827974217199e-03 4.964930907455e-03 0.0 
0.0 0.0 -1.153422328581e-03 
2.868285214674e-03 1.352379803766e-03 0.0 
1.352379803766e-03 -1.299848991907e-03 0.0 
0.0 0.0 -6.721869526143e-04 
-1.802402553613e-03 1.096854962503e-03 0.0 
1.096854962503e-03 6.595527473872e-03 0.0 
0.0 0.0 -9.856407671940e-04 
1.971085959338e-03 3.239399902758e-04 0.0 
3.239399902758e-04 -1.217941390756e-03 0.0 
0.0 0.0 -3.227762436777e-04 
-6.307118357170e-04 -1.642290149673e-03 0.0 
-1.642290149673e-03 4.191316448183e-03 0.0 
0.0 0.0 -1.206759618350e-03 
1.281188306004e-03 -3.309115169896e-03 0.0 
-3.309115169896e-03 2.482805933930e-04 0.0 
0.0 0.0 -6.554866711701e-04 
-8.580919722624e-04 -1.141606507875e-03 0.0 
-1.141606507875e-03 3.004910753851e-03 0.0 
0.0 0.0 -8.925927511852e-04 
6.775973206905e-04 1.090261256499e-03 0.0 
1.090261256499e-03 1.554850184539e-03 0.0 
0.0 0.0 -9.567632165269e-04 
9.810193940895e-04 -2.270636417532e-03 0.0 
-2.270636417532e-03 2.960510298287e-04 0.0 
0.0 0.0 -5.473158959649e-04 
3.899080625908e-05 1.591876067608e-03 0.0 
1.591876067608e-03 3.206945282166e-03 0.0 
0.0 0.0 -1.139062866688e-03 
6.623861865506e-04 3.094490503078e-03 0.0 
3.094490503078e-03 1.014638708619e-03 0.0 
0.0 0.0 -7.187249550728e-04 
-1.786253758345e-03 1.560633333520e-03 0.0 
1.560633333520e-03 6.766601134335e-03 0.0 
0.0 0.0 -1.044446328659e-03 
-2.152386475275e-04 1.351101504798e-03 0.0 
1.351101504798e-03 3.486323150058e-03 0.0 
0.0 0.0 -1.198892520503e-03 
-1.697142570711e-03 1.154161816812e-03 0.0 
1.154161816812e-03 6.693519511439e-03 0.0 
0.0 0.0 -9.940794652285e-04 
-1.618144651602e-03 2.389450829648e-03 0.0 
2.389450829648e-03 7.197343605865e-03 0.0 
0.0 0.0 -1.194784139986e-03 
-1.753520328123e-03 1.193661618907e-03 0.0 
1.193661618907e-03 7.230580119665e-03 0.0 
0.0 0.0 -1.087318097122e-03 
-1.742396685637e-03 1.406428765971e-03 0.0 
1.406428765971e-03 7.327343743658e-03 0.0 
0.0 0.0 -1.116677092124e-03 
2.275785242891e-03 2.632435729676e-03 0.0 
2.632435729676e-03 -9.199828087608e-04 0.0 
0.0 0.0 -5.810581860557e-04 
-1.241644556097e-03 -1.898381689041e-03 0.0 
-1.898381689041e-03 4.975895501890e-03 0.0 
0.0 0.0 -1.115908039155e-03 
-1.698919862003e-03 1.546534393052e-03 0.0 
1.546534393052e-03 6.917732160494e-03 0.0 
0.0 0.0 -1.053364550114e-03 
1.868987763194e-03 2.227953552638e-03 0.0 
2.227953552638e-03 -6.775743179747e-04 0.0 
0.0 0.0 -5.106057622367e-04 
-6.587012442941e-04 1.777273701504e-03 0.0 
1.777273701504e-03 2.655555522869e-03 0.0 
0.0 0.0 -8.209451439681e-04 
-3.975005523331e-04 1.166939029163e-03 0.0 
1.166939029163e-03 4.024011475053e-03 0.0 
0.0 0.0 -1.232292820449e-03 
2.869313435600e-03 1.110657499061e-03 0.0 
1.110657499061e-03 -1.453214644336e-03 0.0 
0.0 0.0 -6.068994819702e-04 
-7.856974671747e-04 -1.309919738143e-03 0.0 
-1.309919738143e-03 2.807619278170e-03 0.0 
0.0 0.0 -8.201145810434e-04 
1.968962910781e-04 1.862464300239e-03 0.0 
1.862464300239e-03 2.595514694035e-03 0.0 
0.0 0.0 -1.105063927110e-03 
-7.017846764740e-04 -1.435456886112e-05 0.0 
-1.435456886112e-05 1.960630528106e-03 0.0 
0.0 0.0 -3.231071520192e-04 
7.474966936510e-04 3.481240265895e-03 0.0 
3.481240265895e-03 1.138823329650e-03 0.0 
0.0 0.0 -8.084228671290e-04 
5.678040040528e-04 5.673257875062e-04 0.0 
5.673257875062e-04 1.874262662432e-03 0.0 
0.0 0.0 -1.046599999922e-03 
-1.677286885825e-03 1.562425953110e-03 0.0 
1.562425953110e-03 7.659770185164e-03 0.0 
0.0 0.0 -1.181155146799e-03 
-1.652320647354e-03 1.808826218554e-03 0.0 
1.808826218554e-03 7.744329424571e-03 0.0 
0.0 0.0 -1.210943746944e-03 
7.584470326040e-04 3.628423669224e-04 0.0 
3.628423669224e-04 1.668047544981e-03 0.0 
0.0 0.0 -1.028825005900e-03 
-1.718024774256e-03 1.129889074764e-03 0.0 
1.129889074764e-03 7.489751701523e-03 0.0 
0.0 0.0 -1.123737208958e-03 
2.593889195352e-03 1.856767809109e-03 0.0 
1.856767809109e-03 -1.126153271608e-03 0.0 
0.0 0.0 -6.290296816045e-04 
-7.519765885532e-04 3.109043581873e-03 0.0 
3.109043581873e-03 4.411738950076e-03 0.0 
0.0 0.0 -1.062452857821e-03 
-9.715076255527e-04 1.639125050494e-03 0.0 
1.639125050494e-03 3.248586274010e-03 0.0 
0.0 0.0 -7.769695025612e-04 
-1.390466882155e-03 3.112822277327e-03 0.0 
3.112822277327e-03 6.316045090648e-03 0.0 
0.0 0.0 -1.181751882508e-03 
-1.269001708520e-03 1.478688136927e-03 0.0 
1.478688136927e-03 3.854232216412e-03 0.0 
0.0 0.0 -7.538120163098e-04 
-1.420223830458e-03 1.391784125232e-03 0.0 
1.391784125232e-03 4.161040048690e-03 0.0 
0.0 0.0 -7.332406657776e-04 
2.298674918512e-03 1.220061250636e-03 0.0 
1.220061250636e-03 -1.173783310071e-03 0.0 
0.0 0.0 -4.820964036177e-04 
-1.557422700527e-03 1.363360327043e-03 0.0 
1.363360327043e-03 4.471575651466e-03 0.0 
0.0 0.0 -7.361032999402e-04 
6.913968744153e-04 3.249644441005e-03 0.0 
3.249644441005e-03 1.296623038176e-03 0.0 
0.0 0.0 -8.520085339679e-04 
1.718973007646e-03 2.924390266821e-03 0.0 
2.924390266821e-03 -1.924867080382e-04 0.0 
0.0 0.0 -6.542084141176e-04 
2.210348991445e-03 -8.088378780929e-04 0.0 
-8.088378780929e-04 -1.123482344713e-03 0.0 
0.0 0.0 -4.657999914567e-04 
2.497491272241e-03 -1.532773257142e-03 0.0 
-1.532773257142e-03 -1.081083643723e-03 0.0 
0.0 0.0 -6.070318407937e-04 
2.586887755130e-03 6.094796342036e-04 0.0 
6.094796342036e-04 -1.311719394663e-03 0.0 
0.0 0.0 -5.465007259145e-04 
-1.601167176657e-03 1.396089815657e-03 0.0 
1.396089815657e-03 7.688892179250e-03 0.0 
0.0 0.0 -1.162517914204e-03 
-1.471528092625e-03 3.001207936412e-03 0.0 
3.001207936412e-03 6.831752371077e-03 0.0 
0.0 0.0 -1.195263893373e-03 
-1.182311321110e-03 -2.133379308242e-03 0.0 
-2.133379308242e-03 4.544787139884e-03 0.0 
0.0 0.0 -1.050100468764e-03 
-1.223721568856e-04 1.745261046552e-03 0.0 
1.745261046552e-03 3.281782845900e-03 0.0 
0.0 0.0 -1.170266998156e-03 
1.214604030940e-03 -2.155562007462e-03 0.0 
-2.155562007462e-03 9.364629533618e-05 0.0 
0.0 0.0 -5.606787112612e-04 
-1.656719624483e-03 1.711448335042e-03 0.0 
1.711448335042e-03 7.275839845738e-03 0.0 
0.0 0.0 -1.119019617531e-03 
2.359890878457e-03 -4.267964440931e-05 0.0 
-4.267964440931e-05 -1.248439169515e-03 0.0 
0.0 0.0 -4.763364466896e-04 
-1.407406798469e-03 -1.723847992245e-03 0.0 
-1.723847992245e-03 5.419782439974e-03 0.0 
0.0 0.0 -1.144395376583e-03 
-1.671654625585e-03 1.497806515934e-03 0.0 
1.497806515934e-03 7.180003972529e-03 0.0 
0.0 0.0 -1.089631904438e-03 
-1.769810542863e-03 1.479525562214e-03 0.0 
1.479525562214e-03 7.051291447038e-03 0.0 
0.0 0.0 -1.080451501872e-03 
1.020279383885e-03 1.759819708792e-05 0.0 
1.759819708792e-05 6.806225927368e-04 0.0 
0.0 0.0 -7.289579899807e-04 
2.670406423032e-03 1.253518595181e-03 0.0 
1.253518595181e-03 -1.265788156022e-03 0.0 
0.0 0.0 -6.019792572901e-04 
-8.493845713370e-04 3.018177913519e-03 0.0 
3.018177913519e-03 4.847344094450e-03 0.0 
0.0 0.0 -1.126038590206e-03 
-1.241437732375e-03 3.272568664608e-03 0.0 
3.272568664608e-03 4.414773958175e-03 0.0 
0.0 0.0 -9.324202963083e-04 
2.392506853527e-03 -2.638222039722e-03 0.0 
-2.638222039722e-03 -9.888506330534e-04 0.0 
0.0 0.0 -6.015669516317e-04 
2.802892214258e-03 -1.137304662585e-05 0.0 
-1.137304662585e-05 -1.333498735436e-03 0.0 
0.0 0.0 -6.297400623524e-04 
7.949185057269e-04 2.716848624173e-03 0.0 
2.716848624173e-03 6.207904953631e-04 0.0 
0.0 0.0 -6.067324290386e-04 
-1.563287978713e-04 3.620132007229e-03 0.0 
3.620132007229e-03 2.581411168791e-03 0.0 
0.0 0.0 -1.015946800258e-03 
-1.534351365184e-03 -1.516799222336e-03 0.0 
-1.516799222336e-03 5.828494836448e-03 0.0 
0.0 0.0 -1.173545322487e-03 
-1.782237154873e-03 1.254534813549e-03 0.0 
1.254534813549e-03 6.967044995053e-03 0.0 
0.0 0.0 -1.051102540299e-03 
2.754613032243e-03 5.835371394657e-04 0.0 
5.835371394657e-04 -1.282545286099e-03 0.0 
0.0 0.0 -6.308861769187e-04 
-6.435068013720e-04 3.480233123954e-03 0.0 
3.480233123954e-03 3.600985193807e-03 0.0 
0.0 0.0 -9.344940742331e-04 
3.980809440766e-04 1.365381173478e-04 0.0 
1.365381173478e-04 2.266784517746e-03 0.0 
0.0 0.0 -1.088599101970e-03 
-1.685240832100e-03 8.774447861184e-04 0.0 
8.774447861184e-04 7.615424303421e-03 0.0 
0.0 0.0 -1.130578931274e-03 
-1.056611405718e-03 3.085021790290e-03 0.0 
3.085021790290e-03 5.374856941272e-03 0.0 
0.0 0.0 -1.160781586281e-03 
-1.731537587415e-03 1.425159992310e-03 0.0 
1.425159992310e-03 6.282505969900e-03 0.0 
0.0 0.0 -9.517943393003e-04 
-1.629224858150e-05 -1.008868814593e-03 0.0 
-1.008868814593e-03 2.976796140904e-03 0.0 
0.0 0.0 -1.113435711030e-03 
2.175710495241e-03 -1.797462906061e-04 0.0 
-1.797462906061e-04 -1.087187483949e-03 0.0 
0.0 0.0 -4.665098619825e-04 
3.691792219411e-04 -5.499254361333e-04 0.0 
-5.499254361333e-04 2.333255494325e-03 0.0 
0.0 0.0 -1.086118700983e-03 
6.267430188437e-04 3.216016004345e-03 0.0 
3.216016004345e-03 1.125673463038e-03 0.0 
0.0 0.0 -7.510356350920e-04 
-1.659468944553e-03 1.282087032836e-03 0.0 
1.282087032836e-03 7.843512833905e-03 0.0 
0.0 0.0 -1.188704642750e-03 
-1.184759635984e-03 3.039469531493e-03 0.0 
3.039469531493e-03 5.917915895918e-03 0.0 
0.0 0.0 -1.200489323427e-03 
1.397717749359e-03 -3.084135371350e-05 0.0 
-3.084135371350e-05 -2.483823730722e-04 0.0 
0.0 0.0 -4.925723041230e-04 
2.632145634489e-03 2.594608975648e-04 0.0 
2.594608975648e-04 -1.433557919304e-03 0.0 
0.0 0.0 -5.136804493649e-04 
-3.195071874589e-04 2.949770132737e-03 0.0 
2.949770132737e-03 3.519559910753e-03 0.0 
0.0 0.0 -1.113685640909e-03 
5.151939740245e-04 3.610223291188e-03 0.0 
3.610223291188e-03 1.499767463066e-03 0.0 
0.0 0.0 -8.635549016102e-04 
2.789061016644e-03 1.329285031073e-03 0.0 
1.329285031073e-03 -1.174648499198e-03 0.0 
0.0 0.0 -6.918910789057e-04 
1.203480951529e-03 -2.452700069764e-04 0.0 
-2.452700069764e-04 3.890277914199e-04 0.0 
0.0 0.0 -6.825037469782e-04 
-1.401752245562e-04 -2.049705526548e-03 0.0 
-2.049705526548e-03 2.929158581755e-03 0.0 
0.0 0.0 -1.072977024862e-03 
2.580288745065e-03 -9.059416529247e-04 0.0 
-9.059416529247e-04 -1.319309692526e-03 0.0 
0.0 0.0 -5.404195939453e-04 
1.923073746863e-03 -4.525221159699e-05 0.0 
-4.525221159699e-05 -9.232494801660e-04 0.0 
0.0 0.0 -4.284961142987e-04 
-1.564398244357e-03 2.691343570358e-03 0.0 
2.691343570358e-03 5.384100406286e-03 0.0 
0.0 0.0 -9.596127204057e-04 
-1.615413359891e-03 -1.869412921893e-03 0.0 
-1.869412921893e-03 5.891470981236e-03 0.0 
0.0 0.0 -1.170838755190e-03 
-1.469366754309e-03 2.906743993666e-03 0.0 
2.906743993666e-03 5.300260062947e-03 0.0 
0.0 0.0 -9.876491701490e-04 
-3.947067001148e-04 3.217756852044e-03 0.0 
3.217756852044e-03 3.568382132428e-03 0.0 
0.0 0.0 -1.085374163265e-03 
-1.640677092253e-03 2.445403796559e-03 0.0 
2.445403796559e-03 5.441088956569e-03 0.0 
0.0 0.0 -9.316602363005e-04 
-1.740388366318e-03 1.924888427331e-03 0.0 
1.924888427331e-03 5.465143202308e-03 0.0 
0.0 0.0 -8.756372412555e-04 
-1.133390563237e-03 3.456670762875e-03 0.0 
3.456670762875e-03 4.264491800942e-03 0.0 
0.0 0.0 -9.452931837154e-04 
1.258865816682e-04 1.427076262396e-03 0.0 
1.427076262396e-03 2.787339061218e-03 0.0 
0.0 0.0 -1.133505030480e-03 
-1.184151913809e-03 -2.442035502192e-03 0.0 
-2.442035502192e-03 4.566403913145e-03 0.0 
0.0 0.0 -1.084522140297e-03 
-1.719906891250e-03 1.595024504340e-03 0.0 
1.595024504340e-03 6.646342255881e-03 0.0 
0.0 0.0 -1.017300281410e-03 
-1.572744207127e-03 2.077724400643e-03 0.0 
2.077724400643e-03 7.699948884985e-03 0.0 
0.0 0.0 -1.212886757924e-03 
-1.697994519952e-03 2.183604815945e-03 0.0 
2.183604815945e-03 5.469670954577e-03 0.0 
0.0 0.0 -9.037302385344e-04 
3.109518991990e-03 7.142103845853e-04 0.0 
7.142103845853e-04 -1.355577660133e-03 0.0 
0.0 0.0 -7.516891422245e-04 
-4.615783183021e-04 2.634115171252e-03 0.0 
2.634115171252e-03 4.171995570701e-03 0.0 
0.0 0.0 -1.146733564437e-03 
-1.623397737588e-03 9.830618757014e-04 0.0 
9.830618757014e-04 7.977997106224e-03 0.0 
0.0 0.0 -1.196744929305e-03 
1.210285564886e-03 2.794819533997e-03 0.0 
2.794819533997e-03 2.142507881916e-04 0.0 
0.0 0.0 -6.105155798904e-04 
7.664634744892e-04 3.055447408668e-03 0.0 
3.055447408668e-03 8.799111198642e-04 0.0 
0.0 0.0 -7.055891118657e-04 
3.026285545234e-03 6.479754984525e-04 0.0 
6.479754984525e-04 -1.309294928286e-03 0.0 
0.0 0.0 -7.358531215491e-04 
-1.707025994169e-03 1.825045050910e-03 0.0 
1.825045050910e-03 6.718430060264e-03 0.0 
0.0 0.0 -1.046609947212e-03 
1.285120213061e-04 3.160317099540e-03 0.0 
3.160317099540e-03 1.795393702842e-03 0.0 
0.0 0.0 -8.245310246350e-04 
6.213466678406e-04 3.150191375349e-03 0.0 
3.150191375349e-03 1.093887972575e-03 0.0 
0.0 0.0 -7.351005601782e-04 
1.723951590445e-04 3.402388421843e-03 0.0 
3.402388421843e-03 1.876640106691e-03 0.0 
0.0 0.0 -8.781579710297e-04 
4.568820957443e-04 1.515113560259e-03 0.0 
1.515113560259e-03 2.072520192967e-03 0.0 
0.0 0.0 -1.068254633495e-03 
-7.126619732765e-04 2.634214240334e-03 0.0 
2.634214240334e-03 4.664743447894e-03 0.0 
0.0 0.0 -1.211228670573e-03 
2.874495408011e-03 -1.147543994212e-04 0.0 
-1.147543994212e-04 -1.321663854737e-03 0.0 
0.0 0.0 -6.654992371173e-04 
1.333222057608e-03 -6.083160362555e-04 0.0 
-6.083160362555e-04 -1.046303648964e-03 0.0 
0.0 0.0 -1.229650322759e-04 
-1.560287505520e-03 2.397443585750e-03 0.0 
2.397443585750e-03 7.445606798374e-03 0.0 
0.0 0.0 -1.207184308065e-03 
-1.227743039735e-04 3.216961996269e-03 0.0 
3.216961996269e-03 2.287126095753e-03 0.0 
0.0 0.0 -9.275793393341e-04 
1.407399929741e-03 -1.790726840241e-03 0.0 
-1.790726840241e-03 -2.123508212015e-04 0.0 
0.0 0.0 -5.121639036598e-04 
-5.005943122338e-04 2.854917982027e-03 0.0 
2.854917982027e-03 4.092431792890e-03 0.0 
0.0 0.0 -1.177925372349e-03 
-1.802105864534e-03 1.325377431051e-03 0.0 
1.325377431051e-03 6.693893706785e-03 0.0 
0.0 0.0 -1.015069748350e-03 
-9.552400268193e-04 -2.590206578427e-03 0.0 
-2.590206578427e-03 4.033946220946e-03 0.0 
0.0 0.0 -1.055879354346e-03 
2.213755167184e-03 2.540569608467e-03 0.0 
2.540569608467e-03 -6.561328527755e-04 0.0 
0.0 0.0 -6.675524204610e-04 
8.596589765025e-04 -2.241190996513e-04 0.0 
-2.241190996513e-04 -8.596589765025e-04 0.0 
0.0 0.0 0.0 
-1.695761363760e-03 -1.692827267884e-03 0.0 
-1.692827267884e-03 6.306533924159e-03 0.0 
0.0 0.0 -1.202131160132e-03 
-2.109701725834e-06 3.652134540712e-03 0.0 
3.652134540712e-03 2.337584034461e-03 0.0 
0.0 0.0 -1.000917571172e-03 
6.440987285096e-04 1.846403855810e-03 0.0 
1.846403855810e-03 1.851485320469e-03 0.0 
0.0 0.0 -1.007142642412e-03 
-8.363103258721e-04 3.298399834443e-03 0.0 
3.298399834443e-03 4.744308506763e-03 0.0 
0.0 0.0 -1.157822513452e-03 
0.0 0.0 0.0 
0.0 0.0 0.0 
0.0 0.0 0.0 
-7.671375815713e-04 -2.153381723597e-03 0.0 
-2.153381723597e-03 3.958636255064e-03 0.0 
0.0 0.0 -1.058763633038e-03 
2.277342632696e-03 2.678034488429e-03 0.0 
2.678034488429e-03 -4.950023667951e-04 0.0 
0.0 0.0 -7.638601139576e-04 
-1.817865112225e-03 1.160846124058e-03 0.0 
1.160846124058e-03 6.325027627169e-03 0.0 
0.0 0.0 -9.498437721210e-04 
-6.483445776371e-04 -2.910728448364e-03 0.0 
-2.910728448364e-03 3.240421631363e-03 0.0 
0.0 0.0 -1.081826897668e-03 
2.882336660409e-03 6.507094583248e-04 0.0 
6.507094583248e-04 -1.354897536976e-03 0.0 
0.0 0.0 -6.546167671857e-04 
-1.512905320875e-03 -2.064322058959e-03 0.0 
-2.064322058959e-03 5.485314435598e-03 0.0 
0.0 0.0 -1.141635569211e-03 
5.629634582603e-04 3.291314317230e-03 0.0 
3.291314317230e-03 1.247171813043e-03 0.0 
0.0 0.0 -7.757722591300e-04 
3.097498388755e-03 7.515594805802e-04 0.0 
7.515594805802e-04 -1.504351798864e-03 0.0 
0.0 0.0 -6.827771099535e-04 
-3.950988348044e-04 3.677355835862e-03 0.0 
3.677355835862e-03 3.018937195948e-03 0.0 
0.0 0.0 -8.989548790023e-04 
1.227636575782e-03 -1.512351808794e-03 0.0 
-1.512351808794e-03 -1.085715777594e-03 0.0 
0.0 0.0 -6.082319922330e-05 
-5.120566939223e-04 3.175912523353e-03 0.0 
3.175912523353e-03 3.844622698218e-03 0.0 
0.0 0.0 -1.026417656363e-03 
5.399418997976e-04 8.396772710701e-04 0.0 
8.396772710701e-04 2.161243029461e-03 0.0 
0.0 0.0 -1.065496432940e-03 
-1.316213487934e-03 3.030027547422e-03 0.0 
3.030027547422e-03 6.243260056489e-03 0.0 
0.0 0.0 -1.233600908384e-03 
-6.242951805065e-04 3.006743678072e-03 0.0 
3.006743678072e-03 4.303063931573e-03 0.0 
0.0 0.0 -1.090749533212e-03 
3.026627229701e-03 -6.016138979488e-05 0.0 
-6.016138979488e-05 -1.354975115356e-03 0.0 
0.0 0.0 -7.164223347191e-04 
-1.354858739815e-03 -2.484739121398e-03 0.0 
-2.484739121398e-03 4.613680447839e-03 0.0 
0.0 0.0 -1.047231727503e-03 
-1.514361396418e-03 1.521820591863e-03 0.0 
1.521820591863e-03 8.031763007479e-03 0.0 
0.0 0.0 -1.228155452712e-03 
-7.050516080877e-04 1.545847486976e-03 0.0 
1.545847486976e-03 4.498069063216e-03 0.0 
0.0 0.0 -1.267145247477e-03 
2.943450069451e-04 1.256402020470e-03 0.0 
1.256402020470e-03 2.679722888331e-03 0.0 
0.0 0.0 -1.102242875413e-03 
2.428652697383e-03 1.957638321578e-03 0.0 
1.957638321578e-03 -9.445444981417e-04 0.0 
0.0 0.0 -6.360463711034e-04 
-4.362885790870e-04 3.400866484877e-03 0.0 
3.400866484877e-03 3.416922100764e-03 0.0 
0.0 0.0 -9.624716764950e-04 
-1.751273191057e-03 -1.178364827428e-03 0.0 
-1.178364827428e-03 6.153449964232e-03 0.0 
0.0 0.0 -1.164316760544e-03 
-1.510592316959e-03 -9.050842607301e-04 0.0 
-9.050842607301e-04 4.622892738446e-03 0.0 
0.0 0.0 -1.053897668350e-03 
-5.098353463404e-04 3.384769362386e-03 0.0 
3.384769362386e-03 3.650364032255e-03 0.0 
0.0 0.0 -1.057196955382e-03 
-1.719373888211e-03 1.382981273232e-03 0.0 
1.382981273232e-03 6.550039956498e-03 0.0 
0.0 0.0 -9.877098122506e-04 
-1.368682583039e-03 -2.262414624365e-03 0.0 
-2.262414624365e-03 5.045630347078e-03 0.0 
0.0 0.0 -1.112977059762e-03 
-8.018931633473e-04 -2.405053121667e-03 0.0 
-2.405053121667e-03 4.002834443873e-03 0.0 
0.0 0.0 -1.093234982489e-03 
-1.439791436846e-03 3.326807682738e-05 0.0 
3.326807682738e-05 4.943594407769e-03 0.0 
0.0 0.0 -7.313513689239e-04 
-1.427152505588e-03 6.033982237060e-05 0.0 
6.033982237060e-05 4.941916582327e-03 0.0 
0.0 0.0 -7.310574395863e-04 
-1.640756721107e-03 2.340459270020e-03 0.0 
2.340459270020e-03 5.815255979654e-03 0.0 
0.0 0.0 -9.927888931628e-04 
-4.210846566685e-04 3.601854565047e-03 0.0 
3.601854565047e-03 3.185506434217e-03 0.0 
0.0 0.0 -9.930598132463e-04 
-9.560102716365e-04 -2.664544190492e-03 0.0 
-2.664544190492e-03 3.772312719303e-03 0.0 
0.0 0.0 -1.075560717398e-03 
-1.206510850392e-03 3.047967158976e-03 0.0 
3.047967158976e-03 4.800933324251e-03 0.0 
0.0 0.0 -9.775429604618e-04 
9.349897265997e-04 2.908831422528e-03 0.0 
2.908831422528e-03 6.057047016785e-04 0.0 
0.0 0.0 -6.602976121192e-04 
-2.228664070200e-04 -2.583623366081e-04 0.0 
-2.583623366081e-04 3.335250712245e-03 0.0 
0.0 0.0 -1.180288150054e-03 
2.187201504106e-03 2.288354873068e-03 0.0 
2.288354873068e-03 -8.791309691096e-04 0.0 
0.0 0.0 -5.606016578557e-04 
-1.487430872272e-03 2.032395386043e-03 0.0 
2.032395386043e-03 8.531052034659e-03 0.0 
0.0 0.0 -1.323793839065e-03 
-1.724651487443e-03 1.733577269253e-03 0.0 
1.733577269253e-03 5.152685708698e-03 0.0 
0.0 0.0 -8.119939454945e-04 
9.559001502051e-04 3.301449321883e-03 0.0 
3.301449321883e-03 8.023167039533e-04 0.0 
0.0 0.0 -7.535215089251e-04 
-6.923989162598e-04 -2.921867110632e-03 0.0 
-2.921867110632e-03 3.238107663680e-03 0.0 
0.0 0.0 -9.778014170610e-04 
2.952487269304e-03 8.767188776773e-04 0.0 
8.767188776773e-04 -1.231732878316e-03 0.0 
0.0 0.0 -7.374661675664e-04 
-1.449260709310e-04 -3.081657457247e-03 0.0 
-3.081657457247e-03 2.244720614764e-03 0.0 
0.0 0.0 -8.999119473571e-04 
-2.467797576170e-04 3.715212164584e-03 0.0 
3.715212164584e-03 2.738719973416e-03 0.0 
0.0 0.0 -9.758126512751e-04 
-5.058945486498e-04 3.618733188483e-03 0.0 
3.618733188483e-03 3.154888480052e-03 0.0 
0.0 0.0 -9.833357802921e-04 
-1.733759676165e-03 1.654794489536e-03 0.0 
1.654794489536e-03 6.367451579884e-03 0.0 
0.0 0.0 -9.814596669550e-04 
-1.124005872780e-03 3.379084100680e-03 0.0 
3.379084100680e-03 4.616783585522e-03 0.0 
0.0 0.0 -1.008022096355e-03 
-1.207720735867e-03 2.984451381318e-03 0.0 
2.984451381318e-03 5.147076662744e-03 0.0 
0.0 0.0 -1.040850218070e-03 
2.462504755941e-04 -3.466601191775e-04 0.0 
-3.466601191775e-04 1.225957598323e-03 0.0 
0.0 0.0 -3.048810613884e-04 
-2.528363505661e-04 -3.115888982409e-03 0.0 
-3.115888982409e-03 2.486992936593e-03 0.0 
0.0 0.0 -9.574956797260e-04 
-1.072167557266e-04 3.402438706717e-03 0.0 
3.402438706717e-03 2.375040834749e-03 0.0 
0.0 0.0 -9.719246052952e-04 
-1.390405142798e-03 3.085939311603e-03 0.0 
3.085939311603e-03 4.874750960273e-03 0.0 
0.0 0.0 -9.521954671713e-04 
-1.463685875107e-03 2.723658434378e-03 0.0 
2.723658434378e-03 5.354618705334e-03 0.0 
0.0 0.0 -9.850634846466e-04 
6.151608619470e-06 9.602693822456e-04 0.0 
9.602693822456e-04 3.003172333009e-03 0.0 
0.0 0.0 -1.160108757481e-03 
-7.116028528234e-04 -3.542186094007e-05 0.0 
-3.542186094007e-05 2.109496799795e-03 0.0 
0.0 0.0 -4.489418961951e-04 
2.420991236615e-03 -1.793290854156e-03 0.0 
-1.793290854156e-03 -1.206914640352e-03 0.0 
0.0 0.0 -5.203185412556e-04 
3.220195077698e-04 3.501557464345e-03 0.0 
3.501557464345e-03 1.705209014718e-03 0.0 
0.0 0.0 -8.688122239235e-04 
-2.823129498517e-04 -2.964277233818e-03 0.0 
-2.964277233818e-03 2.454860756862e-03 0.0 
0.0 0.0 -9.310919172903e-04 
-1.415275034250e-03 1.292164494452e-03 0.0 
1.292164494452e-03 4.167269738145e-03 0.0 
0.0 0.0 -7.665650418521e-04 
-1.567864091306e-03 1.226683465556e-03 0.0 
1.226683465556e-03 4.493286725470e-03 0.0 
0.0 0.0 -7.530137074853e-04 
-1.810136366687e-03 1.412997826384e-03 0.0 
1.412997826384e-03 6.411444835685e-03 0.0 
0.0 0.0 -9.793492904611e-04 
2.087664328359e-03 2.568536785539e-03 0.0 
2.568536785539e-03 -3.889452908062e-04 0.0 
0.0 0.0 -7.280224446656e-04 
-7.741376345699e-04 -2.792621548151e-03 0.0 
-2.792621548151e-03 3.378364177398e-03 0.0 
0.0 0.0 -1.004244986112e-03 
4.531124457367e-04 -1.076750210340e-03 0.0 
-1.076750210340e-03 2.037967656610e-03 0.0 
0.0 0.0 -1.049209916622e-03 
2.297209205504e-03 -5.483206442365e-04 0.0 
-5.483206442365e-04 -1.311033635610e-03 0.0 
0.0 0.0 -4.226466728115e-04 
-1.149618319309e-03 2.959992214286e-03 0.0 
2.959992214286e-03 5.456359281312e-03 0.0 
0.0 0.0 -1.285586381397e-03 
-1.702357103576e-03 1.352649744862e-03 0.0 
1.352649744862e-03 7.576949821791e-03 0.0 
0.0 0.0 -1.152455342817e-03 
-8.320143767109e-04 -2.543685297260e-03 0.0 
-2.543685297260e-03 3.497707295059e-03 0.0 
0.0 0.0 -1.095064427584e-03 
-1.386779618523e-03 -1.910481505052e-03 0.0 
-1.910481505052e-03 5.018049845752e-03 0.0 
0.0 0.0 -1.078722419643e-03 
2.229975894309e-04 -4.489617714331e-04 0.0 
-4.489617714331e-04 5.979694486616e-04 0.0 
0.0 0.0 -2.949115613585e-04 
4.540170595140e-04 -1.645489130381e-03 0.0 
-1.645489130381e-03 1.801582255490e-03 0.0 
0.0 0.0 -9.666854207159e-04 
-6.035540888641e-05 3.789347029411e-03 0.0 
3.789347029411e-03 2.399475313532e-03 0.0 
0.0 0.0 -8.867106850074e-04 
4.160484422948e-04 -3.622442174599e-04 0.0 
-3.622442174599e-04 5.441875866839e-04 0.0 
0.0 0.0 -3.067690066256e-04 
-1.619412582140e-03 1.641534764462e-03 0.0 
1.641534764462e-03 7.530266774085e-03 0.0 
0.0 0.0 -1.154859126927e-03 
1.948099663815e-03 -7.569421743857e-04 0.0 
-7.569421743857e-04 -1.147440738389e-03 0.0 
0.0 0.0 -3.431395394681e-04 
-1.356737557429e-03 2.911706860265e-03 0.0 
2.911706860265e-03 4.923580709307e-03 0.0 
0.0 0.0 -9.496453321265e-04 
-5.843331771905e-04 3.664260117298e-03 0.0 
3.664260117298e-03 3.237703376181e-03 0.0 
0.0 0.0 -8.924259012440e-04 
1.585702125321e-03 -1.745985882028e-03 0.0 
-1.745985882028e-03 -4.551642142343e-04 0.0 
0.0 0.0 -4.845162476086e-04 
3.886198775371e-04 -2.656776709997e-03 0.0 
-2.656776709997e-03 1.521016158266e-03 0.0 
0.0 0.0 -8.184154439158e-04 
-1.604458387616e-03 1.854152015569e-03 0.0 
1.854152015569e-03 7.626319442818e-03 0.0 
0.0 0.0 -1.182898372388e-03 
1.911502030331e-04 -2.214449408558e-03 0.0 
-2.214449408558e-03 2.167051973238e-03 0.0 
0.0 0.0 -9.716005391690e-04 
4.578213256305e-04 3.411459955915e-03 0.0 
3.411459955915e-03 1.456160682634e-03 0.0 
0.0 0.0 -8.202780035418e-04 
3.627077773465e-04 3.714478666179e-03 0.0 
3.714478666179e-03 1.773296424289e-03 0.0 
0.0 0.0 -9.111404029742e-04 
1.874131474266e-04 1.317598379107e-03 0.0 
1.317598379107e-03 5.481764939296e-04 0.0 
0.0 0.0 -3.152527034384e-04 
1.643748758810e-03 -4.204231761426e-04 0.0 
-4.204231761426e-04 -1.117599327178e-03 0.0 
0.0 0.0 -2.254926135565e-04 
-5.203694144565e-04 2.878386602619e-03 0.0 
2.878386602619e-03 4.197902991695e-03 0.0 
0.0 0.0 -1.118331045454e-03 
-1.809983628728e-03 1.593568509076e-03 0.0 
1.593568509076e-03 5.817131701425e-03 0.0 
0.0 0.0 -9.085367473448e-04 
-5.577334774043e-04 3.082426156906e-03 0.0 
3.082426156906e-03 4.104685153811e-03 0.0 
0.0 0.0 -1.148691026115e-03 
1.974680470733e-03 2.873021825660e-03 0.0 
2.873021825660e-03 -4.940617528099e-04 0.0 
0.0 0.0 -6.345508791099e-04 
-1.588961869452e-03 2.584393938582e-03 0.0 
2.584393938582e-03 6.455891274831e-03 0.0 
0.0 0.0 -1.097950598811e-03 
-7.723714131083e-04 2.927319470345e-03 0.0 
2.927319470345e-03 4.791549148204e-03 0.0 
0.0 0.0 -1.155407764312e-03 
-1.528620740983e-03 1.641090201076e-03 0.0 
1.641090201076e-03 4.483124494598e-03 0.0 
0.0 0.0 -7.696970057192e-04 
-6.364037100851e-04 3.205127351833e-03 0.0 
3.205127351833e-03 4.133031580390e-03 0.0 
0.0 0.0 -1.120992621467e-03 
-1.531289715330e-03 -2.235814658200e-03 0.0 
-2.235814658200e-03 5.083560864057e-03 0.0 
0.0 0.0 -1.075946734593e-03 
-1.542078502361e-04 3.681831680089e-03 0.0 
3.681831680089e-03 2.560354402538e-03 0.0 
0.0 0.0 -9.606735922745e-04 
-4.462082875552e-04 -3.056851139717e-03 0.0 
-3.056851139717e-03 2.847631123845e-03 0.0 
0.0 0.0 -1.006543408955e-03 
-3.390473984761e-04 -3.081268501996e-03 0.0 
-3.081268501996e-03 2.650937052075e-03 0.0 
0.0 0.0 -9.908098515424e-04 
-1.654766843293e-03 2.110154288789e-03 0.0 
2.110154288789e-03 7.526175185133e-03 0.0 
0.0 0.0 -1.204704583718e-03 
6.478121330843e-04 -2.891464683005e-03 0.0 
-2.891464683005e-03 9.158033438756e-04 0.0 
0.0 0.0 -6.701209186971e-04 
-3.674328541616e-04 3.694790859021e-03 0.0 
3.694790859021e-03 2.941360548218e-03 0.0 
0.0 0.0 -9.833476869619e-04 
1.512914527637e-03 2.270095044354e-03 0.0 
2.270095044354e-03 -2.495167818894e-04 0.0 
0.0 0.0 -5.414561767490e-04 
-4.689248235342e-05 -1.859495784931e-03 0.0 
-1.859495784931e-03 2.784842397477e-03 0.0 
0.0 0.0 -1.038364586984e-03 
1.508518420493e-03 2.943740230317e-03 0.0 
2.943740230317e-03 4.760392635737e-05 0.0 
0.0 0.0 -6.669095772216e-04 
3.102345530720e-03 7.378269526544e-05 0.0 
7.378269526544e-05 -1.464469892876e-03 0.0 
0.0 0.0 -7.019467019332e-04 
1.507578771505e-03 -7.604032194635e-04 0.0 
-7.604032194635e-04 -4.928220476776e-04 0.0 
0.0 0.0 -4.348957387830e-04 
3.148975456484e-03 8.306636056168e-04 0.0 
8.306636056168e-04 -1.496370463473e-03 0.0 
0.0 0.0 -7.082592827190e-04 
-1.261991141926e-03 3.267444165813e-03 0.0 
3.267444165813e-03 4.752384958846e-03 0.0 
0.0 0.0 -9.799122972177e-04 
3.123536661893e-03 -9.721135346994e-05 0.0 
-9.721135346994e-05 -1.405927083563e-03 0.0 
0.0 0.0 -7.361183907127e-04 
-1.047249439091e-03 3.250277679615e-03 0.0 
3.250277679615e-03 4.315763371752e-03 0.0 
0.0 0.0 -9.420580210740e-04 
1.883489007768e-04 8.010579783403e-04 0.0 
8.010579783403e-04 2.876523535355e-03 0.0 
0.0 0.0 -1.130549445556e-03 
3.588863471818e-04 1.014874640691e-03 0.0 
1.014874640691e-03 2.306525440664e-03 0.0 
0.0 0.0 -1.096529089934e-03 
1.700464822711e-03 2.598856322658e-03 0.0 
2.598856322658e-03 -4.407098144151e-04 0.0 
0.0 0.0 -5.398950035552e-04 
-1.732708782740e-03 1.731245879395e-03 0.0 
1.731245879395e-03 6.071080868846e-03 0.0 
0.0 0.0 -9.460253849645e-04 
-1.548270655095e-03 -1.671057713006e-03 0.0 
-1.671057713006e-03 5.446327602559e-03 0.0 
0.0 0.0 -1.107441567342e-03 
-1.667313564664e-03 -1.981097125204e-03 0.0 
-1.981097125204e-03 5.509726630970e-03 0.0 
0.0 0.0 -1.104747680386e-03 
1.318532451431e-03 2.199681040646e-03 0.0 
2.199681040646e-03 -1.454539841179e-04 0.0 
0.0 0.0 -5.027479145627e-04 
-9.715008187727e-04 3.547635970715e-03 0.0 
3.547635970715e-03 4.097719530490e-03 0.0 
0.0 0.0 -9.724793438395e-04 
-1.624312607657e-03 -1.275879739373e-03 0.0 
-1.275879739373e-03 6.206545711786e-03 0.0 
0.0 0.0 -1.205818386895e-03 
-2.985133365854e-04 2.525233875689e-03 0.0 
2.525233875689e-03 2.218258876373e-03 0.0 
0.0 0.0 -8.227480884806e-04 
-1.021411894397e-03 -2.472960565398e-03 0.0 
-2.472960565398e-03 3.861949643739e-03 0.0 
0.0 0.0 -1.085013296808e-03 
1.242793848756e-04 1.186515148645e-03 0.0 
1.186515148645e-03 5.554989300674e-04 0.0 
0.0 0.0 -2.913335635470e-04 
-1.667346094177e-03 -1.424810251550e-03 0.0 
-1.424810251550e-03 5.825346578498e-03 0.0 
0.0 0.0 -1.136235114959e-03 
3.019668846566e-03 9.582089678435e-04 0.0 
9.582089678435e-04 -1.448201355488e-03 0.0 
0.0 0.0 -6.734860676048e-04 
-1.578302787965e-03 -5.539699262797e-04 0.0 
-5.539699262797e-04 4.756261434844e-03 0.0 
0.0 0.0 -1.057437106069e-03 
4.911868189057e-04 2.542757255714e-03 0.0 
2.542757255714e-03 1.777357060087e-03 0.0 
0.0 0.0 -9.722330909969e-04 
-1.811529723315e-03 1.498050121893e-03 0.0 
1.498050121893e-03 6.116522056800e-03 0.0 
0.0 0.0 -9.438854677472e-04 
-1.729248363348e-03 1.804686593249e-03 0.0 
1.804686593249e-03 5.771244996451e-03 0.0 
0.0 0.0 -9.108073647308e-04 
1.218753398279e-04 3.628872757319e-03 0.0 
3.628872757319e-03 2.104833384723e-03 0.0 
0.0 0.0 -9.543037390934e-04 
-1.106695794268e-03 1.517581520969e-03 0.0 
1.517581520969e-03 3.539684992285e-03 0.0 
0.0 0.0 -7.963586959451e-04 
-1.268797780777e-03 1.437345509075e-03 0.0 
1.437345509075e-03 3.867869279896e-03 0.0 
0.0 0.0 -7.758011671882e-04 
-1.764900971931e-03 -1.718354051601e-03 0.0 
-1.718354051601e-03 5.889801463908e-03 0.0 
0.0 0.0 -1.133400347077e-03 
2.569249843707e-04 -2.786570784076e-03 0.0 
-2.786570784076e-03 1.556740733674e-03 0.0 
0.0 0.0 -7.772853077335e-04 
1.174175751745e-03 -1.803885435246e-03 0.0 
-1.803885435246e-03 -1.174563587325e-05 0.0 
0.0 0.0 -4.981843353734e-04 
5.912929398665e-04 -9.060768193030e-04 0.0 
-9.060768193030e-04 1.727113514221e-03 0.0 
0.0 0.0 -9.936027660373e-04 
2.016096735556e-03 -6.850330429382e-04 0.0 
-6.850330429382e-04 -9.758089702167e-04 0.0 
0.0 0.0 -4.458376137168e-04 
3.081197548797e-03 7.466969370712e-04 0.0 
7.466969370712e-04 -1.300129295292e-03 0.0 
0.0 0.0 -7.633149657881e-04 
-1.128831614242e-03 1.542551351037e-03 0.0 
1.542551351037e-03 3.551129300523e-03 0.0 
0.0 0.0 -7.520787537531e-04 
-1.821423928511e-03 1.474632635918e-03 0.0 
1.474632635918e-03 5.487726439764e-03 0.0 
0.0 0.0 -8.442294783838e-04 
-1.409406014707e-03 4.528826506854e-05 0.0 
4.528826506854e-05 5.214877225355e-03 0.0 
0.0 0.0 -7.121995050294e-04 
4.077287179479e-04 3.674953038794e-04 0.0 
3.674953038794e-04 2.393170375530e-03 0.0 
0.0 0.0 -1.093598669875e-03 
1.997342351340e-03 2.504018622736e-03 0.0 
2.504018622736e-03 -5.807467309884e-04 0.0 
0.0 0.0 -6.071124087219e-04 
-4.482284720357e-04 1.652414080391e-03 0.0 
1.652414080391e-03 3.958656300163e-03 0.0 
0.0 0.0 -1.233571955743e-03 
-2.022662331208e-03 -4.627058437959e-04 0.0 
-4.627058437959e-04 6.332672682848e-03 0.0 
0.0 0.0 -1.121177773779e-03 
1.798099945912e-03 -8.661440026173e-04 0.0 
-8.661440026173e-04 -7.288088564904e-04 0.0 
0.0 0.0 -4.582676097521e-04 
-1.524985310237e-03 -1.822620195545e-03 0.0 
-1.822620195545e-03 6.245562815238e-03 0.0 
0.0 0.0 -1.241472629463e-03 
3.003131752772e-03 -8.623198735716e-04 0.0 
-8.623198735716e-04 -1.396381984480e-03 0.0 
0.0 0.0 -6.886070435535e-04 
-3.779034990216e-04 2.052169755275e-03 0.0 
2.052169755275e-03 3.788846745744e-03 0.0 
0.0 0.0 -1.204482468497e-03 
1.415534273829e-04 3.636591431357e-03 0.0 
3.636591431357e-03 2.169944347150e-03 0.0 
0.0 0.0 -8.910665706739e-04 
8.940143763446e-06 3.422262264522e-03 0.0 
3.422262264522e-03 2.416052284656e-03 0.0 
0.0 0.0 -9.848034212814e-04 
-1.370477965762e-04 -1.170123439274e-03 0.0 
-1.170123439274e-03 3.214973093205e-03 0.0 
0.0 0.0 -1.146785027167e-03 
3.884013163081e-04 -2.855323367017e-03 0.0 
-2.855323367017e-03 1.211719834243e-03 0.0 
0.0 0.0 -6.857662073788e-04 
-7.129927410741e-04 3.670079492291e-03 0.0 
3.670079492291e-03 3.538541594785e-03 0.0 
0.0 0.0 -9.649174008510e-04 
1.717035050200e-03 -1.344860437860e-03 0.0 
-1.344860437860e-03 -6.217055712217e-04 0.0 
0.0 0.0 -4.694269195620e-04 
-8.587679122771e-04 3.481313587749e-03 0.0 
3.481313587749e-03 3.794469535060e-03 0.0 
0.0 0.0 -9.065670216064e-04 
1.889810402813e-03 2.899509189946e-03 0.0 
2.899509189946e-03 -2.152817456685e-04 0.0 
0.0 0.0 -7.176551387762e-04 
1.428912843794e-04 3.126816861625e-03 0.0 
3.126816861625e-03 2.356543378173e-03 0.0 
0.0 0.0 -1.013229387512e-03 
1.943775632291e-03 -1.286497408609e-03 0.0 
-1.286497408609e-03 -8.334086717492e-04 0.0 
0.0 0.0 -4.758715545177e-04 
-1.000337791729e-03 -2.628959420428e-03 0.0 
-2.628959420428e-03 3.773462867951e-03 0.0 
0.0 0.0 -9.886579807222e-04 
-8.325357311160e-04 3.547635505547e-03 0.0 
3.547635505547e-03 3.716995785029e-03 0.0 
0.0 0.0 -9.612835620876e-04 
2.687167972919e-04 1.795311194676e-03 0.0 
1.795311194676e-03 1.563575924244e-04 0.0 
0.0 0.0 -1.821747384498e-04 
1.057813883420e-03 2.534506278338e-03 0.0 
2.534506278338e-03 3.175156107454e-04 0.0 
0.0 0.0 -5.894269260710e-04 
4.651919044669e-04 1.924261843739e-03 0.0 
1.924261843739e-03 5.725607713308e-04 0.0 
0.0 0.0 -4.447511467704e-04 
-3.371303889653e-04 -7.500919376923e-04 0.0 
-7.500919376923e-04 1.299829984783e-03 0.0 
0.0 0.0 -4.040777003935e-04 
-1.056371726126e-03 -2.468497531733e-03 0.0 
-2.468497531733e-03 3.865104933196e-03 0.0 
0.0 0.0 -1.010653628765e-03 
-9.607789536056e-04 3.048565223821e-03 0.0 
3.048565223821e-03 4.940644900743e-03 0.0 
0.0 0.0 -1.098354823938e-03 
-1.707850550320e-03 2.055402839425e-03 0.0 
2.055402839425e-03 5.786469608898e-03 0.0 
0.0 0.0 -9.387552692591e-04 
-7.756723233026e-04 1.730094175383e-03 0.0 
1.730094175383e-03 2.916527936956e-03 0.0 
0.0 0.0 -8.497951325312e-04 
-1.342322198460e-03 2.098270725376e-03 0.0 
2.098270725376e-03 8.248661573518e-03 0.0 
0.0 0.0 -1.342322198460e-03 
-7.132513670179e-05 1.120980382405e-03 0.0 
1.120980382405e-03 1.515473920436e-04 0.0 
0.0 0.0 -3.438096657507e-05 
-9.510393810217e-04 1.672687846132e-03 0.0 
1.672687846132e-03 3.246503304730e-03 0.0 
0.0 0.0 -8.134098498104e-04 
1.098475143763e-03 -2.031876221816e-03 0.0 
-2.031876221816e-03 1.166483383452e-04 0.0 
0.0 0.0 -5.207672066180e-04 
-1.089976521784e-03 -2.234801732660e-03 0.0 
-2.234801732660e-03 3.943897982090e-03 0.0 
0.0 0.0 -1.084767721667e-03 
-1.111038172895e-03 2.200189741588e-03 0.0 
2.200189741588e-03 3.768833115442e-03 0.0 
0.0 0.0 -8.610308207870e-04 
2.262464148868e-03 -1.945012542063e-03 0.0 
-1.945012542063e-03 -8.191237484730e-04 0.0 
0.0 0.0 -6.185744573122e-04 
5.761048584873e-04 -2.775225325336e-03 0.0 
-2.775225325336e-03 9.303736926873e-04 0.0 
0.0 0.0 -6.456336647891e-04 
-1.625181255020e-04 3.528619970826e-03 0.0 
3.528619970826e-03 2.809301514261e-03 0.0 
0.0 0.0 -9.266779469803e-04 
7.488835648315e-04 2.251240740231e-03 0.0 
2.251240740231e-03 1.162555029076e-03 0.0 
0.0 0.0 -8.191879688175e-04 
-1.329752805185e-03 3.181517598016e-03 0.0 
3.181517598016e-03 5.907007101231e-03 0.0 
0.0 0.0 -1.144302277022e-03 
1.946489244002e-03 2.821542424935e-03 0.0 
2.821542424935e-03 -8.035545710095e-04 0.0 
0.0 0.0 -4.898291455683e-04 
-8.586335344055e-04 -2.592060326530e-03 0.0 
-2.592060326530e-03 3.501562453949e-03 0.0 
0.0 0.0 -1.023226067289e-03 
-1.335563518602e-03 -1.880041070522e-03 0.0 
-1.880041070522e-03 4.351195601973e-03 0.0 
0.0 0.0 -1.033071644556e-03 
-2.022124363339e-05 -2.395587679301e-03 0.0 
-2.395587679301e-03 1.567846091858e-03 0.0 
0.0 0.0 -6.632677920962e-04 
-1.674900766220e-03 1.599025443535e-03 0.0 
1.599025443535e-03 4.804084785627e-03 0.0 
0.0 0.0 -7.663799295492e-04 
-1.769874274313e-03 1.858383186956e-03 0.0 
1.858383186956e-03 5.835930784600e-03 0.0 
0.0 0.0 -9.362314798257e-04 
-2.069835677089e-03 -4.002455476683e-04 0.0 
-4.002455476683e-04 5.909495734486e-03 0.0 
0.0 0.0 -1.073191215027e-03 
1.059197299257e-03 -5.440939611188e-04 0.0 
-5.440939611188e-04 5.670737881280e-04 0.0 
0.0 0.0 -3.365581251930e-04 
0.0 0.0 0.0 
0.0 0.0 0.0 
0.0 0.0 0.0 
-4.602170046064e-05 -1.936536183988e-03 0.0 
-1.936536183988e-03 1.323038368316e-03 0.0 
0.0 0.0 -5.472928576524e-04 
-1.313750205869e-03 -1.893362186714e-03 0.0 
-1.893362186714e-03 4.351424993746e-03 0.0 
0.0 0.0 -1.080662880999e-03 
2.816321063082e-03 -8.334388727588e-04 0.0 
-8.334388727588e-04 -1.272649618703e-03 0.0 
0.0 0.0 -6.615734761625e-04 
2.373065583622e-03 -2.080956134851e-03 0.0 
-2.080956134851e-03 -1.010649277428e-03 0.0 
0.0 0.0 -5.838927026542e-04 
2.954183213689e-03 -8.930251278497e-04 0.0 
-8.930251278497e-04 -1.356411275311e-03 0.0 
0.0 0.0 -6.847594021618e-04 
-1.301232695251e-03 -2.116378151629e-03 0.0 
-2.116378151629e-03 4.314126103213e-03 0.0 
0.0 0.0 -1.020860678390e-03 
-1.603005468093e-03 2.550878726920e-03 0.0 
2.550878726920e-03 5.754736739264e-03 0.0 
0.0 0.0 -9.956198530692e-04 
-1.518941795168e-03 -1.499106977263e-03 0.0 
-1.499106977263e-03 4.706029179031e-03 0.0 
0.0 0.0 -1.043188517862e-03 
2.974270505683e-03 -1.234815007946e-05 0.0 
-1.234815007946e-05 -1.384428534307e-03 0.0 
0.0 0.0 -6.813608448753e-04 
-8.631645989931e-04 3.291242542591e-03 0.0 
3.291242542591e-03 4.149472146392e-03 0.0 
0.0 0.0 -9.699423737970e-04 
-1.666656418554e-03 8.515973861887e-04 0.0 
8.515973861887e-04 5.656067677278e-03 0.0 
0.0 0.0 -8.236220363599e-04 
2.293852952879e-04 2.317534078424e-03 0.0 
2.317534078424e-03 2.464619361077e-03 0.0 
0.0 0.0 -1.076197569190e-03 
-1.503911657480e-03 -1.536228813635e-03 0.0 
-1.536228813635e-03 4.713514709764e-03 0.0 
0.0 0.0 -1.079735805607e-03 
-1.269594224654e-03 -2.151916428327e-03 0.0 
-2.151916428327e-03 4.311241093571e-03 0.0 
0.0 0.0 -1.081849276551e-03 
-4.912617181252e-04 1.776659374520e-03 0.0 
1.776659374520e-03 2.250419150674e-03 0.0 
0.0 0.0 -7.539246139495e-04 
2.432965561316e-03 -1.404722775878e-03 0.0 
-1.404722775878e-03 -1.097996306609e-03 0.0 
0.0 0.0 -5.721296805886e-04 
-1.672927313923e-03 -1.115371020166e-03 0.0 
-1.115371020166e-03 5.017856732658e-03 0.0 
0.0 0.0 -1.052805964859e-03 
-1.580075754320e-03 2.157353104837e-04 0.0 
2.157353104837e-04 6.692661968395e-03 0.0 
0.0 0.0 -9.615701295831e-04 
-1.562907036777e-03 2.120583330649e-04 0.0 
2.120583330649e-04 6.337987109484e-03 0.0 
0.0 0.0 -8.972249362023e-04 
-6.223529423683e-04 1.809817658288e-03 0.0 
1.809817658288e-03 2.623397927817e-03 0.0 
0.0 0.0 -8.575907080495e-04 
-1.509705893005e-03 -1.747591078712e-03 0.0 
-1.747591078712e-03 4.715855182949e-03 0.0 
0.0 0.0 -1.032785096058e-03 
1.569414128809e-03 -2.550888608895e-03 0.0 
-2.550888608895e-03 -3.370499251341e-04 0.0 
0.0 0.0 -5.281560872893e-04 
8.209882341614e-04 2.381580320664e-03 0.0 
2.381580320664e-03 4.553315452112e-04 0.0 
0.0 0.0 -5.469941911596e-04 
-2.931643961127e-04 1.527189756473e-03 0.0 
1.527189756473e-03 3.869126548266e-03 0.0 
0.0 0.0 -1.202908440308e-03 
1.382596818972e-04 -2.070148021774e-03 0.0 
-2.070148021774e-03 1.091658495820e-03 0.0 
0.0 0.0 -5.271077904503e-04 
1.398235426833e-03 -2.548773596058e-03 0.0 
-2.548773596058e-03 -7.584749764510e-05 0.0 
0.0 0.0 -5.667376839375e-04 
1.254646909069e-03 2.484629242297e-03 0.0 
2.484629242297e-03 3.513264158718e-04 0.0 
0.0 0.0 -6.882742821176e-04 
-8.245697505670e-04 1.707333830662e-03 0.0 
1.707333830662e-03 2.953610139157e-03 0.0 
0.0 0.0 -7.843752346429e-04 
-1.666758732331e-03 -1.174236117568e-03 0.0 
-1.174236117568e-03 5.037001804565e-03 0.0 
0.0 0.0 -1.079856008588e-03 
-9.244628747481e-04 -1.936309255703e-04 0.0 
-1.936309255703e-04 2.822852214519e-03 0.0 
0.0 0.0 -6.624393034254e-04 
-1.781970376818e-03 1.286452196401e-03 0.0 
1.286452196401e-03 5.020731578576e-03 0.0 
0.0 0.0 -7.824198048058e-04 
-1.484587749919e-03 -1.812874826371e-03 0.0 
-1.812874826371e-03 4.718401123365e-03 0.0 
0.0 0.0 -1.081372135754e-03 
1.084769609676e-03 -2.051097269290e-03 0.0 
-2.051097269290e-03 1.328211131767e-04 0.0 
0.0 0.0 -5.218245955084e-04 
-7.383188819978e-04 -2.755351396555e-03 0.0 
-2.755351396555e-03 3.375108004806e-03 0.0 
0.0 0.0 -1.093992571453e-03 
0.0 0.0 0.0 
0.0 0.0 0.0 
0.0 0.0 0.0 
-1.585395185030e-03 -8.733622601649e-05 0.0 
-8.733622601649e-05 7.915806537563e-03 0.0 
0.0 0.0 -1.152567315725e-03 
1.675271907871e-03 -2.177617042757e-03 0.0 
-2.177617042757e-03 -5.173898653476e-04 0.0 
0.0 0.0 -4.962351610816e-04 
3.706447397786e-05 2.070351060898e-04 0.0 
2.070351060898e-04 3.044600736775e-03 0.0 
0.0 0.0 -1.154039482800e-03 
2.069033457779e-04 2.961881208612e-03 0.0 
2.961881208612e-03 2.494592241471e-03 0.0 
0.0 0.0 -9.821191134873e-04 
-1.685773855788e-03 -1.377399783606e-03 0.0 
-1.377399783606e-03 5.070521373149e-03 0.0 
0.0 0.0 -1.044398856648e-03 
-1.669266621470e-03 -1.454184032041e-03 0.0 
-1.454184032041e-03 5.079788696568e-03 0.0 
0.0 0.0 -1.081576243284e-03 
2.914990553637e-03 -7.685843879532e-04 0.0 
-7.685843879532e-04 -1.358389786941e-03 0.0 
0.0 0.0 -6.671146142982e-04 
1.578300081431e-04 -1.839580637340e-03 0.0 
-1.839580637340e-03 9.146826550122e-04 0.0 
0.0 0.0 -4.596482842094e-04 
5.655633450819e-04 1.634462446329e-03 0.0 
1.634462446329e-03 -4.353216112412e-04 0.0 
0.0 0.0 -5.581788593170e-05 
-1.838374468884e-03 -1.008357892208e-03 0.0 
-1.008357892208e-03 5.389548205880e-03 0.0 
0.0 0.0 -1.053342186814e-03 
-7.735429255109e-05 -5.938829985412e-04 0.0 
-5.938829985412e-04 3.207515001155e-03 0.0 
0.0 0.0 -1.148056181429e-03 
8.407270435530e-04 -2.401906140793e-03 0.0 
-2.401906140793e-03 4.680800088294e-04 0.0 
0.0 0.0 -5.609173081639e-04 
-8.059519139880e-04 3.569609752867e-03 0.0 
3.569609752867e-03 3.937575205409e-03 0.0 
0.0 0.0 -1.000702849114e-03 
-1.423128099077e-04 2.434671484328e-03 0.0 
2.434671484328e-03 1.829214520191e-03 0.0 
0.0 0.0 -7.229578758357e-04 
-1.050409536978e-03 3.126628093613e-03 0.0 
3.126628093613e-03 4.667808075339e-03 0.0 
0.0 0.0 -1.005614027492e-03 
-9.737300203529e-04 -1.654439195094e-03 0.0 
-1.654439195094e-03 5.294537233988e-03 0.0 
0.0 0.0 -1.266534580134e-03 
0.0 0.0 0.0 
0.0 0.0 0.0 
0.0 0.0 0.0 
-1.341620833825e-03 1.946460220436e-04 0.0 
1.946460220436e-04 8.726655578502e-03 0.0 
0.0 0.0 -1.341620833825e-03 
-1.340051318819e-03 -5.222823624513e-04 0.0 
-5.222823624513e-04 7.102242080382e-03 0.0 
0.0 0.0 -1.340051318819e-03 
-1.487218295656e-03 -1.877140319118e-04 0.0 
-1.877140319118e-04 5.546795712007e-03 0.0 
0.0 0.0 -7.955197795907e-04 
9.332368058577e-04 -2.323240235713e-03 0.0 
-2.323240235713e-03 3.557999178189e-04 0.0 
0.0 0.0 -5.524443101471e-04 
4.489255113100e-05 3.284657334475e-03 0.0 
3.284657334475e-03 2.631811467132e-03 0.0 
0.0 0.0 -9.543595451430e-04 
3.058132153657e-03 -1.043711929510e-04 0.0 
-1.043711929510e-04 -1.411540431284e-03 0.0 
0.0 0.0 -7.056821667315e-04 
-3.299569164523e-05 -1.162968038586e-03 0.0 
-1.162968038586e-03 1.091173189700e-03 0.0 
0.0 0.0 -3.090400745732e-04 
3.802517324297e-05 8.954869131887e-04 0.0 
8.954869131887e-04 3.928857832287e-04 0.0 
0.0 0.0 -1.846761242021e-04 
-1.574977123889e-03 5.363765110094e-04 0.0 
5.363765110094e-04 8.165141429638e-03 0.0 
0.0 0.0 -1.209499414335e-03 
-1.716498366635e-03 2.104119454666e-03 0.0 
2.104119454666e-03 5.843034081691e-03 0.0 
0.0 0.0 -9.648175333861e-04 
-1.733356707705e-03 1.154742806149e-03 0.0 
1.154742806149e-03 4.860119042041e-03 0.0 
0.0 0.0 -7.487175554447e-04 
-1.114495707937e-03 3.137897512820e-03 0.0 
3.137897512820e-03 5.995042437661e-03 0.0 
0.0 0.0 -1.323661129950e-03 
-8.127251142362e-04 -1.412537566310e-04 0.0 
-1.412537566310e-04 2.411308652960e-03 0.0 
0.0 0.0 -5.128881373376e-04 
-1.119968701545e-03 2.850061398458e-03 0.0 
2.850061398458e-03 5.775097260118e-03 0.0 
0.0 0.0 -1.324908485340e-03 
-1.665581242751e-03 2.319761122546e-03 0.0 
2.319761122546e-03 5.793099015745e-03 0.0 
0.0 0.0 -9.670422101491e-04 
5.568715715285e-04 -2.770077582360e-03 0.0 
-2.770077582360e-03 9.496266440003e-04 0.0 
0.0 0.0 -6.456420923695e-04 
2.161043505782e-04 3.547732125549e-03 0.0 
3.547732125549e-03 1.898015910390e-03 0.0 
0.0 0.0 -9.060515404150e-04 
9.950905598312e-04 -2.671652170698e-03 0.0 
-2.671652170698e-03 4.709180402517e-04 0.0 
0.0 0.0 -6.282894000355e-04 
6.980021611784e-04 2.329704923171e-03 0.0 
2.329704923171e-03 5.591408928334e-04 0.0 
0.0 0.0 -5.387755945765e-04 
7.505691487916e-04 -2.806175756815e-03 0.0 
-2.806175756815e-03 7.604579484207e-04 0.0 
0.0 0.0 -6.475830416624e-04 
-1.523404584578e-03 2.773030803061e-03 0.0 
2.773030803061e-03 5.696563371559e-03 0.0 
0.0 0.0 -1.023749757194e-03 
-1.948666597127e-03 -9.778535476886e-04 0.0 
-9.778535476886e-04 6.429483775968e-03 0.0 
0.0 0.0 -1.155390781228e-03 
1.789573321784e-03 -2.334741346390e-03 0.0 
-2.334741346390e-03 -4.865776105569e-04 0.0 
0.0 0.0 -5.584267333832e-04 
-9.825735489597e-04 3.435129640079e-03 0.0 
3.435129640079e-03 4.478995622056e-03 0.0 
0.0 0.0 -1.036271578259e-03 
0.0 0.0 0.0 
0.0 0.0 0.0 
0.0 0.0 0.0 
2.596759179503e-03 -1.389222099922e-03 0.0 
-1.389222099922e-03 -1.085257982110e-03 0.0 
0.0 0.0 -6.477862274541e-04 
-1.710970656604e-03 2.103685284721e-03 0.0 
2.103685284721e-03 6.525687664567e-03 0.0 
0.0 0.0 -1.066385360782e-03 
2.404574348015e-04 -2.949261258943e-03 0.0 
-2.949261258943e-03 1.482737397066e-03 0.0 
0.0 0.0 -7.385120708004e-04 
6.388802882870e-04 -2.505035958296e-03 0.0 
-2.505035958296e-03 7.105369687538e-04 0.0 
0.0 0.0 -5.783216815889e-04 
3.613031293431e-04 3.302322730047e-03 0.0 
3.302322730047e-03 1.977511413847e-03 0.0 
0.0 0.0 -9.187611816440e-04 
1.834377336541e-03 -2.869898485884e-03 0.0 
-2.869898485884e-03 -1.676988345135e-04 0.0 
0.0 0.0 -7.142907865831e-04 
-2.603602936992e-04 1.802957872284e-03 0.0 
1.802957872284e-03 1.690888390106e-03 0.0 
0.0 0.0 -6.130834698885e-04 
-3.766094290651e-04 1.893748037744e-03 0.0 
1.893748037744e-03 2.022328291586e-03 0.0 
0.0 0.0 -7.053080839374e-04 
2.569187355972e-04 -2.744654995445e-03 0.0 
-2.744654995445e-03 1.329889881086e-03 0.0 
0.0 0.0 -6.800608357214e-04 
9.113223760588e-04 -2.364957113740e-03 0.0 
-2.364957113740e-03 3.924099138829e-04 0.0 
0.0 0.0 -5.587424099750e-04 
1.417197887517e-03 2.585133621544e-03 0.0 
2.585133621544e-03 -7.607709962934e-05 0.0 
0.0 0.0 -5.747660519518e-04 
-8.949493316928e-04 3.143090586373e-03 0.0 
3.143090586373e-03 4.528621917534e-03 0.0 
0.0 0.0 -1.033897369924e-03 
-1.400349245868e-03 3.030732209316e-03 0.0 
3.030732209316e-03 6.703483299750e-03 0.0 
0.0 0.0 -1.224260864640e-03 
-5.253406665386e-04 1.775908047208e-03 0.0 
1.775908047208e-03 2.340968666104e-03 0.0 
0.0 0.0 -7.781262855279e-04 
-1.583002963210e-03 -1.557788336479e-04 0.0 
-1.557788336479e-04 7.086569384723e-03 0.0 
0.0 0.0 -1.028620860735e-03 
-1.145284533028e-03 3.268026662313e-03 0.0 
3.268026662313e-03 5.700409497196e-03 0.0 
0.0 0.0 -1.228414553209e-03 
3.124385303303e-03 -1.108728093105e-05 0.0 
-1.108728093105e-05 -1.500119221682e-03 0.0 
0.0 0.0 -6.961140349804e-04 
5.697530012785e-04 2.144073309248e-03 0.0 
2.144073309248e-03 5.848519704173e-04 0.0 
0.0 0.0 -4.948307021553e-04 
-2.816210062748e-04 2.601627525948e-03 0.0 
2.601627525948e-03 2.228068929511e-03 0.0 
0.0 0.0 -8.341919671012e-04 
8.341721467740e-04 -2.510433576068e-03 0.0 
-2.510433576068e-03 5.276394565767e-04 0.0 
0.0 0.0 -5.836335442932e-04 
-1.247042165843e-03 3.250100918931e-03 0.0 
3.250100918931e-03 5.099970820779e-03 0.0 
0.0 0.0 -1.043024347135e-03 
1.027519968218e-03 -2.380813166548e-03 0.0 
-2.380813166548e-03 3.112209895361e-04 0.0 
0.0 0.0 -5.737461247516e-04 
1.268606586028e-03 2.037384257040e-03 0.0 
2.037384257040e-03 -4.121339973903e-04 0.0 
0.0 0.0 -3.670596808449e-04 
5.930292221715e-04 -2.622911752925e-03 0.0 
-2.622911752925e-03 8.838728538733e-04 0.0 
0.0 0.0 -6.329580325906e-04 
5.486710723125e-04 2.332384511628e-03 0.0 
2.332384511628e-03 7.102378801027e-04 0.0 
0.0 0.0 -5.395324081779e-04 
1.682768200706e-03 2.516609952748e-03 0.0 
2.516609952748e-03 -2.542264434373e-04 0.0 
0.0 0.0 -6.122321816867e-04 
7.358023053180e-04 -2.505051408807e-03 0.0 
-2.505051408807e-03 7.718123993888e-04 0.0 
0.0 0.0 -6.461205877315e-04 
2.812366509539e-04 3.418056531118e-03 0.0 
3.418056531118e-03 1.761992896829e-03 0.0 
0.0 0.0 -8.756698061928e-04 
-1.585509504414e-03 6.854986193214e-05 0.0 
6.854986193214e-05 6.515313053331e-03 0.0 
0.0 0.0 -9.494079867578e-04 
1.950119496099e-04 -2.582141659643e-03 0.0 
-2.582141659643e-03 1.322040652856e-03 0.0 
0.0 0.0 -6.501654010570e-04 
9.460441418101e-04 2.468386529063e-03 0.0 
2.468386529063e-03 3.152412733386e-04 0.0 
0.0 0.0 -5.405508922066e-04 
5.243693270813e-04 -2.069869324487e-03 0.0 
-2.069869324487e-03 1.498209352589e-03 0.0 
0.0 0.0 -8.668194341442e-04 
3.838921855015e-04 2.277447822888e-03 0.0 
2.277447822888e-03 8.700555358996e-04 0.0 
0.0 0.0 -5.374061663147e-04 
0.0 0.0 0.0 
0.0 0.0 0.0 
0.0 0.0 0.0 
-1.483198277618e-03 2.721071498371e-04 0.0 
2.721071498371e-04 8.165740664983e-03 0.0 
0.0 0.0 -1.223389224544e-03 
-1.535254932215e-03 2.717190120097e-04 0.0 
2.717190120097e-04 7.854733745092e-03 0.0 
0.0 0.0 -1.157435638217e-03 
1.714590457335e-06 -7.115369139069e-04 0.0 
-7.115369139069e-04 4.515715516867e-04 0.0 
0.0 0.0 -1.942654894903e-04 
3.878432463794e-04 -2.223127307783e-03 0.0 
-2.223127307783e-03 1.630928175518e-03 0.0 
0.0 0.0 -8.651877522419e-04 
-2.798740380973e-05 -2.159694096595e-03 0.0 
-2.159694096595e-03 1.431561792510e-03 0.0 
0.0 0.0 -6.015318808715e-04 
-1.829025907462e-04 -2.119639284792e-03 0.0 
-2.119639284792e-03 1.714857895665e-03 0.0 
0.0 0.0 -6.565522735366e-04 
-1.017733219917e-03 3.364025437069e-03 0.0 
3.364025437069e-03 4.897256146699e-03 0.0 
0.0 0.0 -1.100737838324e-03 
5.257552207879e-04 2.875144563505e-03 0.0 
2.875144563505e-03 1.853285664374e-03 0.0 
0.0 0.0 -9.467522836136e-04 
-8.497134643687e-04 3.433349612216e-03 0.0 
3.433349612216e-03 4.357788075562e-03 0.0 
0.0 0.0 -1.064854740548e-03 
2.203223739880e-03 -1.975974349915e-03 0.0 
-1.975974349915e-03 -9.232686555068e-04 0.0 
0.0 0.0 -5.485521790173e-04 
-1.446388010227e-03 1.342323327112e-04 0.0 
1.342323327112e-04 5.217166277606e-03 0.0 
0.0 0.0 -7.105917616147e-04 
-1.197543499266e-03 -1.810608894436e-03 0.0 
-1.810608894436e-03 5.325302062837e-03 0.0 
0.0 0.0 -1.281538364137e-03 
-1.726353625323e-04 -1.807145954026e-03 0.0 
-1.807145954026e-03 1.497715714659e-03 0.0 
0.0 0.0 -5.678915794828e-04 
2.222123337372e-04 -1.923483587620e-05 0.0 
-1.923483587620e-05 2.651456288210e-03 0.0 
0.0 0.0 -1.121221582973e-03 
1.156875498320e-03 3.056207622502e-03 0.0 
3.056207622502e-03 4.647886417546e-04 0.0 
0.0 0.0 -6.949989171746e-04 
-5.424671300971e-04 -2.887281693977e-04 0.0 
-2.887281693977e-04 1.675559050033e-03 0.0 
0.0 0.0 -3.973267919445e-04 
-1.360155763593e-03 3.097514486866e-03 0.0 
3.097514486866e-03 5.194571229381e-03 0.0 
0.0 0.0 -1.015166614560e-03 
2.718308302872e-03 -7.221702226311e-04 0.0 
-7.221702226311e-04 -1.243788694723e-03 0.0 
0.0 0.0 -6.319369749211e-04 
2.871950510200e-04 -2.057705951039e-03 0.0 
-2.057705951039e-03 8.654869691646e-04 0.0 
0.0 0.0 -4.940065800791e-04 
2.698077562336e-03 -1.426914000199e-03 0.0 
-1.426914000199e-03 -1.126048004927e-03 0.0 
0.0 0.0 -6.737269531753e-04 
-2.035172389928e-03 5.681521720379e-05 0.0 
5.681521720379e-05 5.818689376235e-03 0.0 
0.0 0.0 -1.069816800183e-03 
-1.547603731344e-03 2.557965682965e-03 0.0 
2.557965682965e-03 5.760856088478e-03 0.0 
0.0 0.0 -1.020980360542e-03 
3.535477644423e-04 -2.409077986448e-03 0.0 
-2.409077986448e-03 9.968391477695e-04 0.0 
0.0 0.0 -5.787372480908e-04 
-1.638049386592e-03 -5.261620418510e-04 0.0 
-5.261620418510e-04 4.881654597217e-03 0.0 
0.0 0.0 -1.045407985144e-03 
-1.131069213092e-03 3.339054972024e-03 0.0 
3.339054972024e-03 5.004170711216e-03 0.0 
0.0 0.0 -1.071782534217e-03 
7.849170986353e-05 2.002784816892e-03 0.0 
2.002784816892e-03 3.087471277383e-03 0.0 
0.0 0.0 -1.109893377180e-03 
5.081300325286e-04 -2.843687144981e-03 0.0 
-2.843687144981e-03 1.050709009186e-03 0.0 
0.0 0.0 -6.680738750205e-04 
-8.485846460072e-04 -2.429092323345e-04 0.0 
-2.429092323345e-04 2.701937249489e-03 0.0 
0.0 0.0 -7.163733244607e-04 
1.054276666128e-03 2.747625866901e-03 0.0 
2.747625866901e-03 4.044819373952e-04 0.0 
0.0 0.0 -6.251822586527e-04 
-1.556582639800e-03 -2.026954580916e-04 0.0 
-2.026954580916e-04 6.435079901625e-03 0.0 
0.0 0.0 -9.278975173457e-04 
6.306613738133e-04 -2.843431008643e-03 0.0 
-2.843431008643e-03 9.087558385051e-04 0.0 
0.0 0.0 -6.597502338507e-04 
-1.151665732863e-03 3.368799827368e-03 0.0 
3.368799827368e-03 6.118948746046e-03 0.0 
0.0 0.0 -1.269179263065e-03 
-1.428509069589e-03 2.793670889960e-03 0.0 
2.793670889960e-03 7.317810969107e-03 0.0 
0.0 0.0 -1.281197857596e-03 
-1.509195270466e-03 -1.457985023921e-04 0.0 
-1.457985023921e-04 5.771603983327e-03 0.0 
0.0 0.0 -8.387747867703e-04 
-1.581495188537e-03 1.397540288099e-03 0.0 
1.397540288099e-03 8.227342162666e-03 0.0 
0.0 0.0 -1.255037608383e-03 
-1.367281596907e-03 3.139996712098e-03 0.0 
3.139996712098e-03 6.951432883282e-03 0.0 
0.0 0.0 -1.285499913836e-03 
2.109542503114e-03 -1.930775448323e-03 0.0 
-1.930775448323e-03 -7.849211290522e-04 0.0 
0.0 0.0 -5.676948745980e-04 
1.380801218232e-03 -2.351235301793e-03 0.0 
-2.351235301793e-03 -1.698746639676e-04 0.0 
0.0 0.0 -5.189685232560e-04 
-5.757297583633e-04 4.366962327414e-04 0.0 
4.366962327414e-04 4.537400147680e-03 0.0 
0.0 0.0 -1.265535665854e-03 
0.0 0.0 0.0 
0.0 0.0 0.0 
0.0 0.0 0.0 
-8.394320087675e-04 -3.205840844428e-05 0.0 
-3.205840844428e-05 2.565992005118e-03 0.0 
0.0 0.0 -6.072167217314e-04 
-1.628413269992e-03 -1.673586948164e-04 0.0 
-1.673586948164e-04 4.868895534125e-03 0.0 
0.0 0.0 -1.067827858613e-03 
4.161330338528e-04 -2.673128765629e-03 0.0 
-2.673128765629e-03 1.065048131365e-03 0.0 
0.0 0.0 -6.347919279505e-04 
1.927385449734e-03 -2.370761864729e-03 0.0 
-2.370761864729e-03 -5.075034197406e-04 0.0 
0.0 0.0 -6.085208699972e-04 
-3.171269370445e-05 1.814506539183e-03 0.0 
1.814506539183e-03 1.218095740662e-03 0.0 
0.0 0.0 -5.084498772674e-04 
-1.067456340534e-04 1.927365287384e-03 0.0 
1.927365287384e-03 1.436121596143e-03 0.0 
0.0 0.0 -5.697325551813e-04 
-1.696184299969e-03 4.188758800933e-04 0.0 
4.188758800933e-04 5.835163577314e-03 0.0 
0.0 0.0 -8.290026594306e-04 
2.687649412673e-03 -1.534651648036e-03 0.0 
-1.534651648036e-03 -1.236375441606e-03 0.0 
0.0 0.0 -6.219745590288e-04 
-8.374689021838e-04 -7.956683833314e-04 0.0 
-7.956683833314e-04 2.821114433129e-03 0.0 
0.0 0.0 -8.100060677168e-04 
-5.763887782379e-05 2.884104717794e-03 0.0 
2.884104717794e-03 2.960925031656e-03 0.0 
0.0 0.0 -1.077832113627e-03 
-1.357626258592e-03 -2.064052997114e-03 0.0 
-2.064052997114e-03 6.484172296954e-03 0.0 
0.0 0.0 -1.324978758543e-03 
-1.316853930481e-03 -2.171233133158e-03 0.0 
-2.171233133158e-03 6.262828385778e-03 0.0 
0.0 0.0 -1.320624918399e-03 
1.210545566472e-03 -2.440771907645e-03 0.0 
-2.440771907645e-03 2.098806390541e-04 0.0 
0.0 0.0 -6.087540880828e-04 
-1.669792706879e-03 7.585625911679e-04 0.0 
7.585625911679e-04 5.225921064138e-03 0.0 
0.0 0.0 -7.877541558771e-04 
0.0 0.0 0.0 
0.0 0.0 0.0 
0.0 0.0 0.0 
1.526705898496e-04 1.832423170921e-03 0.0 
1.832423170921e-03 9.162592996274e-04 0.0 
0.0 0.0 -4.581128097759e-04 
1.694782762505e-03 -3.278967534484e-03 0.0 
-3.278967534484e-03 -3.718783773796e-04 0.0 
0.0 0.0 -5.669590221966e-04 
7.211551457005e-05 1.826082030850e-03 0.0 
1.826082030850e-03 1.040988995356e-03 0.0 
0.0 0.0 -4.770447899684e-04 
8.520859723696e-04 2.702963814911e-03 0.0 
2.702963814911e-03 1.160586394610e-03 0.0 
0.0 0.0 -8.625738715628e-04 
1.049602008115e-03 -2.610080274348e-03 0.0 
-2.610080274348e-03 3.535904184599e-04 0.0 
0.0 0.0 -6.013681828177e-04 
1.924226435236e-03 -2.386188926630e-03 0.0 
-2.386188926630e-03 -7.021276801158e-04 0.0 
0.0 0.0 -5.237566093371e-04 
8.906199206854e-04 -2.335912402002e-03 0.0 
-2.335912402002e-03 -6.441539282859e-04 0.0 
0.0 0.0 -1.056282824569e-04 
-1.518150307999e-03 2.180517986998e-04 0.0 
2.180517986998e-04 7.814279060755e-03 0.0 
0.0 0.0 -1.176327079312e-03 
1.081599261770e-03 -2.356565631716e-03 0.0 
-2.356565631716e-03 1.958644745057e-04 0.0 
0.0 0.0 -5.474844584040e-04 
-1.503838573524e-03 8.537407365334e-04 0.0 
8.537407365334e-04 8.091641180223e-03 0.0 
0.0 0.0 -1.212957849656e-03 
-1.563004608103e-03 1.345074243690e-04 0.0 
1.345074243690e-04 7.574721874408e-03 0.0 
0.0 0.0 -1.117460450001e-03 
-1.452677521913e-03 3.546154927313e-04 0.0 
3.546154927313e-04 8.989483437301e-03 0.0 
0.0 0.0 -1.319418651152e-03 
-1.573682658163e-03 -6.434523803718e-04 0.0 
-6.434523803718e-04 7.311749488072e-03 0.0 
0.0 0.0 -1.324849633189e-03 
-1.522640732825e-03 1.776300828802e-04 0.0 
1.776300828802e-04 5.910709247101e-03 0.0 
0.0 0.0 -8.315138651140e-04 
8.069897163257e-04 -2.530526196753e-03 0.0 
-2.530526196753e-03 5.619735093356e-04 0.0 
0.0 0.0 -5.866985252834e-04 
-2.779641202251e-04 1.703949019227e-03 0.0 
1.703949019227e-03 1.672572981451e-03 0.0 
0.0 0.0 -5.976895119538e-04 
7.490285409449e-04 -3.064892262470e-03 0.0 
-3.064892262470e-03 9.033898181147e-04 0.0 
0.0 0.0 -7.081792967398e-04 
-1.343328350294e-03 -1.797161006887e-03 0.0 
-1.797161006887e-03 6.496235434020e-03 0.0 
0.0 0.0 -1.343328350294e-03 
1.770851489837e-04 1.574613937019e-03 0.0 
1.574613937019e-03 7.197174740553e-04 0.0 
0.0 0.0 -3.843439813024e-04 
1.884365055557e-04 1.730723292298e-03 0.0 
1.730723292298e-03 7.999529513160e-04 0.0 
0.0 0.0 -4.235954815164e-04 
5.120454739847e-05 4.425631252095e-04 0.0 
4.425631252095e-04 3.081010907522e-03 0.0 
0.0 0.0 -1.156027955174e-03 
-1.600063486753e-03 4.454182285367e-04 0.0 
4.454182285367e-04 5.553533901810e-03 0.0 
0.0 0.0 -7.715229432315e-04 
-1.496300168116e-03 6.368230222668e-04 0.0 
6.368230222668e-04 8.172597464420e-03 0.0 
0.0 0.0 -1.219279742240e-03 
-1.079188820050e-03 3.032068943539e-03 0.0 
3.032068943539e-03 5.044159493797e-03 0.0 
0.0 0.0 -1.069611963270e-03 
-3.125996649260e-04 2.376006221788e-03 0.0 
2.376006221788e-03 3.643123644996e-03 0.0 
0.0 0.0 -1.175036385391e-03 
-1.440706362563e-03 2.765679407787e-03 0.0 
2.765679407787e-03 6.040073424197e-03 0.0 
0.0 0.0 -1.113576918908e-03 
-1.533426048517e-03 3.483355765343e-04 0.0 
3.483355765343e-04 5.830518730214e-03 0.0 
0.0 0.0 -8.542750875040e-04 
4.145616627609e-04 -2.510686493370e-03 0.0 
-2.510686493370e-03 9.700386978898e-04 0.0 
0.0 0.0 -5.934001545646e-04 
5.188237827814e-04 -2.738227656747e-03 0.0 
-2.738227656747e-03 9.760172721955e-04 0.0 
0.0 0.0 -6.406461664186e-04 
-1.559322814184e-03 2.985337068608e-04 0.0 
2.985337068608e-04 6.828450389527e-03 0.0 
0.0 0.0 -9.963059934037e-04 
-1.981024320875e-04 2.157190390334e-03 0.0 
2.157190390334e-03 3.614846179737e-03 0.0 
0.0 0.0 -1.142506377625e-03 
-1.686833987170e-03 9.535938984725e-04 0.0 
9.535938984725e-04 4.721621554871e-03 0.0 
0.0 0.0 -7.386355146563e-04 
-1.463703012742e-03 6.266658719779e-05 0.0 
6.266658719779e-05 5.604963867248e-03 0.0 
0.0 0.0 -7.676068998053e-04 
-1.515549186513e-03 3.697674288865e-05 0.0 
3.697674288865e-05 5.930448629907e-03 0.0 
0.0 0.0 -8.242303029217e-04 
-1.592254304502e-03 -3.437592554212e-05 0.0 
-3.437592554212e-05 6.006274404460e-03 0.0 
0.0 0.0 -8.467401457521e-04 
1.475757754276e-03 -1.289294546505e-03 0.0 
-1.289294546505e-03 -9.417009757612e-04 0.0 
0.0 0.0 -2.288814765064e-04 
2.490964718879e-04 -2.584180670905e-03 0.0 
-2.584180670905e-03 1.241456993708e-03 0.0 
0.0 0.0 -6.388086281126e-04 
-1.524289002589e-03 1.055576054381e-03 0.0 
1.055576054381e-03 8.572679794113e-03 0.0 
0.0 0.0 -1.269310366786e-03 
-1.609154575879e-03 5.927002029432e-05 0.0 
5.927002029432e-05 6.380922986421e-03 0.0 
0.0 0.0 -9.150577043801e-04 
-9.099437829954e-04 1.617518349232e-03 0.0 
1.617518349232e-03 4.661075676102e-03 0.0 
0.0 0.0 -1.295322057178e-03 
-1.481137119135e-03 2.911611220647e-03 0.0 
2.911611220647e-03 6.859531798370e-03 0.0 
0.0 0.0 -1.215577547940e-03 
-1.339321083005e-03 2.882096422564e-03 0.0 
2.882096422564e-03 5.250850385045e-03 0.0 
0.0 0.0 -1.012565562176e-03 
-1.640900346179e-03 1.517631824607e-03 0.0 
1.517631824607e-03 7.910833663920e-03 0.0 
0.0 0.0 -1.214907066889e-03 
-1.059540956040e-03 -1.334979029727e-03 0.0 
-1.334979029727e-03 3.594823103032e-03 0.0 
0.0 0.0 -9.974489174931e-04 
-1.013156646554e-03 -1.368118382081e-03 0.0 
-1.368118382081e-03 3.447232281497e-03 0.0 
0.0 0.0 -9.464646038184e-04 
-1.053605941392e-03 -1.657375267239e-03 0.0 
-1.657375267239e-03 4.938505543447e-03 0.0 
0.0 0.0 -1.226851238141e-03 
0.0 0.0 0.0 
0.0 0.0 0.0 
0.0 0.0 0.0 
-9.591830860426e-04 -2.723797524876e-04 0.0 
-2.723797524876e-04 2.822378765221e-03 0.0 
0.0 0.0 -5.777536677209e-04 
-1.342405754833e-03 2.832331701177e-03 0.0 
2.832331701177e-03 5.623065616304e-03 0.0 
0.0 0.0 -1.342405754833e-03 
-1.232108481340e-04 -4.438827698639e-05 0.0 
-4.438827698639e-05 1.111663342237e-03 0.0 
0.0 0.0 -2.724401835525e-04 
-1.475085458698e-03 8.547838585484e-05 0.0 
8.547838585484e-05 5.344445388578e-03 0.0 
0.0 0.0 -7.870118106326e-04 
-3.041907190684e-04 -2.929338759418e-04 0.0 
-2.929338759418e-04 3.995006628254e-03 0.0 
0.0 0.0 -1.213461936786e-03 
-7.635875139995e-06 -1.081722019394e-03 0.0 
-1.081722019394e-03 7.060070926500e-04 0.0 
0.0 0.0 -2.993019503614e-04 
1.505773719545e-03 -8.263394782763e-04 0.0 
-8.263394782763e-04 -6.336254798976e-05 0.0 
0.0 0.0 -2.382422751898e-04 
-1.473393185853e-03 1.353598964677e-03 0.0 
1.353598964677e-03 8.746165970417e-03 0.0 
0.0 0.0 -1.324389858384e-03 
-1.521392000938e-03 2.912474066464e-04 0.0 
2.912474066464e-04 4.940937614450e-03 0.0 
0.0 0.0 -7.294542769151e-04 
-1.503978704987e-03 1.473877310897e-03 0.0 
1.473877310897e-03 8.344062810088e-03 0.0 
0.0 0.0 -1.261418349269e-03 
-5.327298325037e-04 3.575837178235e-04 0.0 
3.575837178235e-04 3.642687559217e-03 0.0 
0.0 0.0 -1.231858344535e-03 
-1.518533849991e-03 1.071472041001e-04 0.0 
1.071472041001e-04 4.942575461076e-03 0.0 
0.0 0.0 -7.289279708929e-04 
0.0 0.0 0.0 
0.0 0.0 0.0 
0.0 0.0 0.0 
-1.422405127371e-03 1.531540875437e-04 0.0 
1.531540875437e-04 8.427070743481e-03 0.0 
0.0 0.0 -1.284140717545e-03 
-3.551011727049e-04 -7.009671051649e-04 0.0 
-7.009671051649e-04 1.319322733909e-03 0.0 
0.0 0.0 -3.479328688591e-04 
-1.509662464093e-03 1.187111297047e-03 0.0 
1.187111297047e-03 8.089981201651e-03 0.0 
0.0 0.0 -1.232184317627e-03 
-1.343095105526e-03 -1.540983607491e-03 0.0 
-1.540983607491e-03 6.702452530061e-03 0.0 
0.0 0.0 -1.343095105526e-03 
-1.554707611052e-03 2.562602135152e-03 0.0 
2.562602135152e-03 7.111310188225e-03 0.0 
0.0 0.0 -1.225700354592e-03 
2.173759747286e-03 -1.419935824116e-03 0.0 
-1.419935824116e-03 -1.114841162711e-03 0.0 
0.0 0.0 -4.538222505322e-04 
-1.741082427331e-03 1.054953553281e-03 0.0 
1.054953553281e-03 5.737463170789e-03 0.0 
0.0 0.0 -8.279144014868e-04 
-1.224194647146e-03 -9.467109309958e-04 0.0 
-9.467109309958e-04 3.877522353974e-03 0.0 
0.0 0.0 -9.630043323905e-04 
6.517046530341e-05 2.327281681424e-03 0.0 
2.327281681424e-03 2.984838930140e-03 0.0 
0.0 0.0 -1.077599360682e-03 
-1.012701747737e-03 1.623436123670e-03 0.0 
1.623436123670e-03 5.329514602195e-03 0.0 
0.0 0.0 -1.326997735404e-03 
-1.585109039191e-03 2.780588406276e-04 0.0 
2.780588406276e-04 7.347999637207e-03 0.0 
0.0 0.0 -1.061614915164e-03 
-1.008710860855e-03 1.312542642731e-03 0.0 
1.312542642731e-03 5.209194240256e-03 0.0 
0.0 0.0 -1.325870641008e-03 
3.673422327950e-04 -3.776124720398e-04 0.0 
-3.776124720398e-04 -3.673422327950e-04 0.0 
0.0 0.0 0.0 
-1.430003464036e-03 -1.969193470792e-03 0.0 
-1.969193470792e-03 6.388366935774e-03 0.0 
0.0 0.0 -1.277656510522e-03 
2.370305391374e-03 -2.562363361486e-03 0.0 
-2.562363361486e-03 -6.166549384612e-04 0.0 
0.0 0.0 -7.515644798196e-04 
-3.100324176095e-04 -2.408320728402e-04 0.0 
-2.408320728402e-04 1.151728361162e-03 0.0 
0.0 0.0 -2.782378078114e-04 
-7.322007537650e-04 -9.555468943118e-04 0.0 
-9.555468943118e-04 4.734669521016e-03 0.0 
0.0 0.0 -1.270335377537e-03 
-1.575122942683e-03 2.171152972729e-03 0.0 
2.171152972729e-03 8.127111917130e-03 0.0 
0.0 0.0 -1.270603359501e-03 
-1.496692965649e-03 1.319095711312e-03 0.0 
1.319095711312e-03 8.369617950368e-03 0.0 
0.0 0.0 -1.289850838753e-03 
-1.498527200318e-03 3.689228571039e-04 0.0 
3.689228571039e-04 5.398355138859e-03 0.0 
0.0 0.0 -7.762633204683e-04 
-1.744558354744e-03 1.631310676350e-03 0.0 
1.631310676350e-03 5.391746306119e-03 0.0 
0.0 0.0 -8.489529362435e-04 
7.301121496963e-04 2.437654514774e-03 0.0 
2.437654514774e-03 5.848010967936e-04 0.0 
0.0 0.0 -5.635342484957e-04 
-1.427601509624e-03 3.175353375607e-03 0.0 
3.175353375607e-03 7.125136039489e-03 0.0 
0.0 0.0 -1.273041473476e-03 
-1.038080719471e-03 -6.334570087308e-04 0.0 
-6.334570087308e-04 3.329140480764e-03 0.0 
0.0 0.0 -8.764843149172e-04 
1.193441318594e-03 2.328942464463e-03 0.0 
2.328942464463e-03 3.040131158427e-05 0.0 
0.0 0.0 -5.245039843621e-04 
-2.118585962265e-05 2.523859735457e-03 0.0 
2.523859735457e-03 3.050030047244e-03 0.0 
0.0 0.0 -1.110141529071e-03 
-1.425138137322e-03 6.470798395339e-05 0.0 
6.470798395339e-05 5.179988142805e-03 0.0 
0.0 0.0 -7.096328662732e-04 
-1.517585115342e-03 2.260614719474e-03 0.0 
2.260614719474e-03 7.684999531697e-03 0.0 
0.0 0.0 -1.237729719596e-03 
-1.422593477448e-03 -1.670334611249e-04 0.0 
-1.670334611249e-04 8.888807101193e-03 0.0 
0.0 0.0 -1.321509982054e-03 
-1.343732204276e-03 1.010834953933e-04 0.0 
1.010834953933e-04 8.744729451207e-03 0.0 
0.0 0.0 -1.343732204276e-03 
3.369232126492e-03 1.693280559230e-04 0.0 
1.693280559230e-04 -1.155841201236e-03 0.0 
0.0 0.0 -6.603666768414e-05 
2.499766675984e-03 -2.952033461878e-04 0.0 
-2.952033461878e-04 -9.796559826583e-04 0.0 
0.0 0.0 -1.532902690118e-04 
-1.416942128620e-03 -1.624029676109e-04 0.0 
-1.624029676109e-04 5.054688992973e-03 0.0 
0.0 0.0 -7.318233512793e-04 
-1.419792893404e-03 3.183177604522e-05 0.0 
3.183177604522e-05 5.196638347434e-03 0.0 
0.0 0.0 -7.096011290571e-04 
-1.343732204276e-03 -2.406936037715e-04 0.0 
-2.406936037715e-04 7.113693032305e-03 0.0 
0.0 0.0 -1.343732204276e-03 
-1.562203585825e-03 1.305016391806e-04 0.0 
1.305016391806e-04 7.294302504235e-03 0.0 
0.0 0.0 -1.321509982054e-03 
2.262811037578e-03 -4.868403071367e-05 0.0 
-4.868403071367e-05 -4.447467837794e-04 0.0 
0.0 0.0 -2.434615908245e-04 
0.0 0.0 0.0 
0.0 0.0 0.0 
0.0 0.0 0.0 
-1.642313907969e-03 -1.143113511814e-03 0.0 
-1.143113511814e-03 6.403076283141e-03 0.0 
0.0 0.0 -1.230181737024e-03 
-7.148794360532e-04 3.164508669310e-03 0.0 
3.164508669310e-03 4.742447412984e-03 0.0 
0.0 0.0 -1.209364118140e-03 
-5.258157990741e-04 -7.879783393280e-04 0.0 
-7.879783393280e-04 1.688623542397e-03 0.0 
0.0 0.0 -3.144533898553e-04 
-1.351136438279e-03 -1.975186179308e-03 0.0 
-1.975186179308e-03 5.772523348463e-03 0.0 
0.0 0.0 -1.240191881334e-03 
-1.731554632553e-03 -2.342398403810e-04 0.0 
-2.342398403810e-04 5.123990276158e-03 0.0 
0.0 0.0 -1.081029080859e-03 
-1.535845139517e-03 -3.312382585291e-04 0.0 
-3.312382585291e-04 4.629162629476e-03 0.0 
0.0 0.0 -1.039595904837e-03 
-1.612928706957e-03 3.113730006726e-04 0.0 
3.113730006726e-04 6.721792739589e-03 0.0 
0.0 0.0 -9.400782610458e-04 
1.101421061084e-03 -2.909512193680e-03 0.0 
-2.909512193680e-03 4.457906368086e-04 0.0 
0.0 0.0 -6.630907276683e-04 
3.131506035800e-04 2.556520147165e-03 0.0 
2.556520147165e-03 2.414585707981e-03 0.0 
0.0 0.0 -1.011657465016e-03 
-1.177300482134e-05 -1.092061392265e-03 0.0 
-1.092061392265e-03 1.284900459222e-03 0.0 
0.0 0.0 -3.097963217911e-04 
-1.220126007134e-03 -1.262020264430e-03 0.0 
-1.262020264430e-03 3.977099482089e-03 0.0 
0.0 0.0 -1.029451436826e-03 
-1.346849968967e-03 3.153673073291e-03 0.0 
3.153673073291e-03 6.593026306646e-03 0.0 
0.0 0.0 -1.240519096027e-03 
-1.527894889398e-03 -1.936018657920e-04 0.0 
-1.936018657920e-04 8.104261702945e-03 0.0 
0.0 0.0 -1.191726112421e-03 
-1.479396360357e-03 -2.989971596189e-04 0.0 
-2.989971596189e-04 4.503238817139e-03 0.0 
0.0 0.0 -1.046336039097e-03 
-1.560842421660e-03 -8.540456832086e-05 0.0 
-8.540456832086e-05 6.232717148515e-03 0.0 
0.0 0.0 -8.745659502648e-04 
-9.955423334814e-04 3.339003162247e-03 0.0 
3.339003162247e-03 5.559555520798e-03 0.0 
0.0 0.0 -1.217119345309e-03 
-1.351529115626e-03 2.876362203055e-03 0.0 
2.876362203055e-03 5.976398005188e-03 0.0 
0.0 0.0 -1.140944809983e-03 
-1.341013158963e-03 2.862888668155e-03 0.0 
2.862888668155e-03 5.603065071307e-03 0.0 
0.0 0.0 -1.076426999079e-03 
-1.492882998354e-03 1.325735461083e-04 0.0 
1.325735461083e-04 4.933841446090e-03 0.0 
0.0 0.0 -7.312123441678e-04 
6.172998628868e-04 2.362607397547e-03 0.0 
2.362607397547e-03 1.812787626421e-03 0.0 
0.0 0.0 -9.763781674015e-04 
-1.502422605285e-03 2.514513612527e-03 0.0 
2.514513612527e-03 7.380594194812e-03 0.0 
0.0 0.0 -1.231404929774e-03 
-8.003792871297e-04 -5.108965880218e-04 0.0 
-5.108965880218e-04 2.603757424793e-03 0.0 
0.0 0.0 -7.107894383394e-04 
1.779720377328e-04 -1.298870854502e-03 0.0 
-1.298870854502e-03 4.337348693579e-04 0.0 
0.0 0.0 -1.164291272224e-04 
-9.970216092610e-04 3.010797291644e-03 0.0 
3.010797291644e-03 5.249606407737e-03 0.0 
0.0 0.0 -1.185975225609e-03 
2.191734593223e-04 5.610847358595e-04 0.0 
5.610847358595e-04 2.599656196276e-03 0.0 
0.0 0.0 -1.123538223191e-03 
1.172927684885e-03 -2.889497196016e-03 0.0 
-2.889497196016e-03 3.300442381492e-04 0.0 
0.0 0.0 -6.441308241577e-04 
-1.607945126080e-03 -1.740082688204e-05 0.0 
-1.740082688204e-05 7.004832338719e-03 0.0 
0.0 0.0 -9.893338170986e-04 
-1.512467681835e-03 -1.269144618606e-03 0.0 
-1.269144618606e-03 6.614649124568e-03 0.0 
0.0 0.0 -1.282739585886e-03 
-7.843923001707e-04 3.075094105696e-03 0.0 
3.075094105696e-03 4.595487038338e-03 0.0 
0.0 0.0 -1.182073443778e-03 
-8.715817867822e-04 3.121670101447e-03 0.0 
3.121670101447e-03 5.293578095492e-03 0.0 
0.0 0.0 -1.215129606110e-03 
-1.899421587696e-03 -4.002758172017e-04 0.0 
-4.002758172017e-04 5.518204821451e-03 0.0 
0.0 0.0 -1.079026350805e-03 
0.0 0.0 0.0 
0.0 0.0 0.0 
0.0 0.0 0.0 
-4.777114925537e-05 1.704067356774e-03 0.0 
1.704067356774e-03 1.178107469511e-03 0.0 
0.0 0.0 -4.844298515380e-04 
4.263341666864e-04 2.474607686413e-03 0.0 
2.474607686413e-03 9.338852604604e-04 0.0 
0.0 0.0 -5.829511830629e-04 
-1.721178049984e-03 1.085378291777e-03 0.0 
1.085378291777e-03 5.473315709064e-03 0.0 
0.0 0.0 -8.471429939415e-04 
4.228609678746e-04 3.021260051708e-03 0.0 
3.021260051708e-03 1.732467119469e-03 0.0 
0.0 0.0 -9.237120374330e-04 
-1.533799557255e-03 6.728038073689e-04 0.0 
6.728038073689e-04 8.237501439824e-03 0.0 
0.0 0.0 -1.236541257690e-03 
-8.719226860915e-04 7.267313533335e-04 0.0 
7.267313533335e-04 4.230245890387e-03 0.0 
0.0 0.0 -1.282325209426e-03 
2.964520960670e-04 -1.978928276592e-03 0.0 
-1.978928276592e-03 8.042557840210e-04 0.0 
0.0 0.0 -4.717319486092e-04 
1.319048487483e-04 -1.576566321261e-03 0.0 
-1.576566321261e-03 7.886992305850e-04 0.0 
0.0 0.0 -3.945446054286e-04 
1.817673251283e-04 1.876543985894e-03 0.0 
1.876543985894e-03 9.002005847285e-04 0.0 
0.0 0.0 -4.637005327958e-04 
-1.570049742763e-03 5.369425789645e-04 0.0 
5.369425789645e-04 6.963270594615e-03 0.0 
0.0 0.0 -1.019242131223e-03 
-9.308723645065e-04 -1.101236884891e-03 0.0 
-1.101236884891e-03 3.096386949501e-03 0.0 
0.0 0.0 -8.257845680531e-04 
-1.587305306336e-03 1.706805244546e-03 0.0 
1.706805244546e-03 7.938189703079e-03 0.0 
0.0 0.0 -1.241298427557e-03 
-4.566804084497e-04 -4.114264182866e-04 0.0 
-4.114264182866e-04 1.625098335496e-03 0.0 
0.0 0.0 -2.728146851408e-04 
-4.193612778590e-04 8.066391699243e-04 0.0 
8.066391699243e-04 3.619638834416e-03 0.0 
0.0 0.0 -1.221152601860e-03 
-1.613149922033e-03 6.729604599103e-04 0.0 
6.729604599103e-04 5.730913827298e-03 0.0 
0.0 0.0 -8.343732341398e-04 
-9.805029045404e-04 2.320290812643e-03 0.0 
2.320290812643e-03 4.821535310315e-03 0.0 
0.0 0.0 -1.286815605725e-03 
-1.972178768770e-04 2.471490219589e-03 0.0 
2.471490219589e-03 3.599121568157e-03 0.0 
0.0 0.0 -1.111121968474e-03 
-1.760642934702e-03 1.153303269584e-03 0.0 
1.153303269584e-03 5.427908306702e-03 0.0 
0.0 0.0 -8.465141837044e-04 
-8.764965121591e-04 -1.556039561585e-03 0.0 
-1.556039561585e-03 5.086777567782e-03 0.0 
0.0 0.0 -1.269142588751e-03 
-1.551933899349e-03 2.142615053803e-03 0.0 
2.142615053803e-03 8.208999000424e-03 0.0 
0.0 0.0 -1.272727265576e-03 
-1.482418812719e-03 2.636741981307e-04 0.0 
2.636741981307e-04 8.672320582664e-03 0.0 
0.0 0.0 -1.271339345674e-03 
2.794840770511e-04 1.877110949586e-03 0.0 
1.877110949586e-03 7.644572491491e-04 0.0 
0.0 0.0 -4.474034255144e-04 
-1.548384254494e-03 1.778472603870e-03 0.0 
1.778472603870e-03 7.853183226647e-03 0.0 
0.0 0.0 -1.218309553141e-03 
-1.238984078820e-03 3.237221125149e-03 0.0 
3.237221125149e-03 5.979697278194e-03 0.0 
0.0 0.0 -1.286645293131e-03 
-2.338452424877e-04 4.838955254747e-04 0.0 
4.838955254747e-04 3.810277403162e-03 0.0 
0.0 0.0 -1.211735819529e-03 
-2.641749654371e-04 2.730651329854e-03 0.0 
2.730651329854e-03 3.539043083142e-03 0.0 
0.0 0.0 -1.143254064081e-03 
-1.342665167303e-03 -1.913201158816e-03 0.0 
-1.913201158816e-03 6.140194887135e-03 0.0 
0.0 0.0 -1.342665167303e-03 
-1.336562494305e-03 3.148621666370e-03 0.0 
3.148621666370e-03 5.546558025077e-03 0.0 
0.0 0.0 -1.079065255302e-03 
0.0 0.0 0.0 
0.0 0.0 0.0 
0.0 0.0 0.0 
1.128782554056e-03 2.722430850094e-03 0.0 
2.722430850094e-03 3.671628183846e-04 0.0 
0.0 0.0 -6.411194453319e-04 
-1.438782275937e-03 2.878593628370e-03 0.0 
2.878593628370e-03 6.406037302073e-03 0.0 
0.0 0.0 -1.176936364471e-03 
-1.717609899646e-03 1.241798828460e-03 0.0 
1.241798828460e-03 5.908300544731e-03 0.0 
0.0 0.0 -8.884613587993e-04 
-1.780913372705e-03 -9.535977727778e-04 0.0 
-9.535977727778e-04 6.697114639858e-03 0.0 
0.0 0.0 -1.221994126432e-03 
-4.533386727007e-04 2.366129578243e-03 0.0 
2.366129578243e-03 4.141621556580e-03 0.0 
0.0 0.0 -1.177009544428e-03 
-1.321487320261e-03 -1.869174225829e-03 0.0 
-1.869174225829e-03 5.949052928407e-03 0.0 
0.0 0.0 -1.292249833993e-03 
-1.557982079132e-03 5.560473992337e-04 0.0 
5.560473992337e-04 7.430714466144e-03 0.0 
0.0 0.0 -1.085521458831e-03 
-9.906508321286e-04 2.010874064209e-03 0.0 
2.010874064209e-03 4.656220140669e-03 0.0 
0.0 0.0 -1.288973456333e-03 
-8.669493969727e-04 -1.781456295850e-03 0.0 
-1.781456295850e-03 4.656567585957e-03 0.0 
0.0 0.0 -1.233322439334e-03 
-8.389834207113e-04 -1.353105162080e-03 0.0 
-1.353105162080e-03 4.612963758963e-03 0.0 
0.0 0.0 -1.235043566395e-03 
-1.060688043098e-03 -7.830630523890e-04 0.0 
-7.830630523890e-04 3.332470677800e-03 0.0 
0.0 0.0 -8.113697483009e-04 
-1.399514092732e-03 -1.981208132211e-03 0.0 
-1.981208132211e-03 6.677395424695e-03 0.0 
0.0 0.0 -1.325641941534e-03 
-1.659266455691e-03 6.538953700681e-04 0.0 
6.538953700681e-04 5.459969626810e-03 0.0 
0.0 0.0 -7.662153309038e-04 
-1.522339522893e-03 2.785636433653e-04 0.0 
2.785636433653e-04 8.220976080768e-03 0.0 
0.0 0.0 -1.217406395242e-03 
2.069000998586e-04 -1.834555044401e-03 0.0 
-1.834555044401e-03 8.418202147660e-04 0.0 
0.0 0.0 -4.494515634106e-04 
-1.554320641115e-03 9.540049576088e-05 0.0 
9.540049576088e-05 8.023345832809e-03 0.0 
0.0 0.0 -1.163202487293e-03 
-1.605625159736e-03 1.859754007895e-04 0.0 
1.859754007895e-04 7.063048343461e-03 0.0 
0.0 0.0 -9.926133712568e-04 
1.071864880333e-03 1.610051896133e-04 0.0 
1.610051896133e-04 5.200375252643e-04 0.0 
0.0 0.0 -3.474471837849e-04 
1.832184275694e-03 -1.682280732148e-03 0.0 
-1.682280732148e-03 -1.155510517394e-03 0.0 
0.0 0.0 -2.900030392716e-04 
-1.244256880666e-03 3.271621003319e-03 0.0 
3.271621003319e-03 5.486132487448e-03 0.0 
0.0 0.0 -1.107581195644e-03 
-1.451044372397e-03 1.126612148562e-03 0.0 
1.126612148562e-03 8.289352558878e-03 0.0 
0.0 0.0 -1.285368862661e-03 
-1.527299749628e-03 6.691441746447e-05 0.0 
6.691441746447e-05 8.328526928916e-03 0.0 
0.0 0.0 -1.223917301752e-03 
-6.542601835067e-04 2.123935983624e-03 0.0 
2.123935983624e-03 4.536265029875e-03 0.0 
0.0 0.0 -1.264779455601e-03 
-1.569067467187e-03 4.931081965661e-04 0.0 
4.931081965661e-04 6.107235089411e-03 0.0 
0.0 0.0 -8.807565902733e-04 
9.036251718301e-04 -7.928332989266e-04 0.0 
-7.928332989266e-04 8.196583140466e-05 0.0 
0.0 0.0 -1.521090440113e-04 
0.0 0.0 0.0 
0.0 0.0 0.0 
0.0 0.0 0.0 
1.535104090838e-04 -8.781412906566e-04 0.0 
-8.781412906566e-04 3.080308650687e-04 0.0 
0.0 0.0 -1.564070233212e-04 
2.353484151011e-04 -2.169776398881e-03 0.0 
-2.169776398881e-03 1.011611602068e-03 0.0 
0.0 0.0 -5.344114359296e-04 
2.041955105715e-05 9.703446404122e-04 0.0 
9.703446404122e-04 -2.041955105714e-05 0.0 
0.0 0.0 0.0 
-1.313634282752e-03 -1.068658817985e-03 0.0 
-1.068658817985e-03 4.125079470398e-03 0.0 
0.0 0.0 -9.906016899089e-04 
-1.765538454854e-03 -6.603659762189e-04 0.0 
-6.603659762189e-04 6.689629757519e-03 0.0 
0.0 0.0 -1.222305993939e-03 
-1.487013992754e-03 2.874720261212e-03 0.0 
2.874720261212e-03 7.173251573241e-03 0.0 
0.0 0.0 -1.222833113937e-03 
-1.810465878115e-03 1.368618358307e-03 0.0 
1.368618358307e-03 5.754603684206e-03 0.0 
0.0 0.0 -8.826313165011e-04 
-9.427899726930e-04 -1.641697169279e-03 0.0 
-1.641697169279e-03 3.388954329502e-03 0.0 
0.0 0.0 -9.886704355714e-04 
-1.052300381815e-03 -2.069501750766e-03 0.0 
-2.069501750766e-03 5.090082794775e-03 0.0 
0.0 0.0 -1.221067908166e-03 
-3.450149565899e-04 -4.408348736528e-04 0.0 
-4.408348736528e-04 3.924699322023e-03 0.0 
0.0 0.0 -1.208702654310e-03 
-8.170914780341e-04 2.664423274710e-03 0.0 
2.664423274710e-03 5.146096323449e-03 0.0 
0.0 0.0 -1.272252409145e-03 
-1.123992376730e-03 3.068252591852e-03 0.0 
3.068252591852e-03 5.507273388894e-03 0.0 
0.0 0.0 -1.237422270938e-03 
-1.253834785736e-03 3.291285599942e-03 0.0 
3.291285599942e-03 5.877546624236e-03 0.0 
0.0 0.0 -1.171232062679e-03 
5.704301253037e-05 -1.249012332624e-03 0.0 
-1.249012332624e-03 7.024151054082e-04 0.0 
0.0 0.0 -3.254820505451e-04 
0.0 0.0 0.0 
0.0 0.0 0.0 
0.0 0.0 0.0 
-1.712539485778e-03 -1.411450056388e-03 0.0 
-1.411450056388e-03 6.539673002672e-03 0.0 
0.0 0.0 -1.223662873675e-03 
4.574946163465e-04 -1.248756071680e-04 0.0 
-1.248756071680e-04 4.764925333501e-04 0.0 
0.0 0.0 -3.004112795925e-04 
4.253951230566e-04 3.287859358848e-05 0.0 
3.287859358848e-05 7.852927410903e-04 0.0 
0.0 0.0 -3.059539021820e-04 
3.569372191111e-04 1.397839525162e-03 0.0 
1.397839525162e-03 1.545362028711e-04 0.0 
0.0 0.0 -2.192028951352e-04 
1.631271963867e-04 -1.346040378322e-03 0.0 
-1.346040378322e-03 7.094587977712e-04 0.0 
0.0 0.0 -2.452105594499e-04 
-1.114394941751e-03 -1.506329218264e-03 0.0 
-1.506329218264e-03 4.944157592562e-03 0.0 
0.0 0.0 -1.288571152055e-03 
-1.352715823829e-03 3.152231925611e-03 0.0 
3.152231925611e-03 6.563761337094e-03 0.0 
0.0 0.0 -1.290113636706e-03 
-1.510579169811e-03 9.854603377599e-04 0.0 
9.854603377599e-04 8.241359475843e-03 0.0 
0.0 0.0 -1.236907757659e-03 
-1.086519748050e-03 2.592005204986e-03 0.0 
2.592005204986e-03 5.044458595201e-03 0.0 
0.0 0.0 -1.292605224168e-03 
-2.276922230483e-04 -7.087333384445e-04 0.0 
-7.087333384445e-04 3.411401019740e-03 0.0 
0.0 0.0 -1.176879138244e-03 
-1.566246162816e-03 5.074519573883e-04 0.0 
5.074519573883e-04 6.374166084480e-03 0.0 
0.0 0.0 -9.170130443517e-04 
-1.345069444888e-03 1.513726926191e-03 0.0 
1.513726926191e-03 8.492915807412e-03 0.0 
0.0 0.0 -1.345069444888e-03 
1.877003485193e-03 -3.080309129991e-03 0.0 
-3.080309129991e-03 -5.962554255729e-04 0.0 
0.0 0.0 -5.488920255517e-04 
-1.475350828104e-03 1.976985984706e-04 0.0 
1.976985984706e-04 5.152730599786e-03 0.0 
0.0 0.0 -7.083073883397e-04 
7.042658253586e-04 -2.920094682842e-03 0.0 
-2.920094682842e-03 7.774626018425e-04 0.0 
0.0 0.0 -6.350264688005e-04 
7.675081391674e-04 -5.290525383807e-04 0.0 
-5.290525383807e-04 -3.861513785839e-05 0.0 
0.0 0.0 -2.518608130650e-04 
-1.493015975364e-03 -1.542117778823e-03 0.0 
-1.542117778823e-03 7.001843856807e-03 0.0 
0.0 0.0 -1.323850096553e-03 
-1.762927026530e-03 1.105745086140e-03 0.0 
1.105745086140e-03 5.347670343178e-03 0.0 
0.0 0.0 -7.731261162940e-04 
3.059071642176e-04 -4.769524246547e-04 0.0 
-4.769524246547e-04 1.116375202047e-03 0.0 
0.0 0.0 -3.136165521777e-04 
-1.289952526759e-03 -6.554530809443e-04 0.0 
-6.554530809443e-04 4.022238421528e-03 0.0 
0.0 0.0 -9.854929843998e-04 
-1.353447502636e-03 3.372255620603e-03 0.0 
3.372255620603e-03 6.903608554072e-03 0.0 
0.0 0.0 -1.276804206569e-03 
-1.580153705301e-03 9.463034913401e-04 0.0 
9.463034913401e-04 8.179177676168e-03 0.0 
0.0 0.0 -1.228616961883e-03 
-1.459295938370e-03 2.235750315535e-03 0.0 
2.235750315535e-03 7.840317348904e-03 0.0 
0.0 0.0 -1.289666537713e-03 
-1.042366719392e-03 -4.130279661277e-04 0.0 
-4.130279661277e-04 3.166645294064e-03 0.0 
0.0 0.0 -7.209785830746e-04 
0.0 0.0 0.0 
0.0 0.0 0.0 
0.0 0.0 0.0 
-1.330660736049e-03 -2.112854558462e-03 0.0 
-2.112854558462e-03 6.026587435622e-03 0.0 
0.0 0.0 -1.273144391159e-03 
-1.420679226607e-03 1.845062484055e-04 0.0 
1.845062484055e-04 8.984274218415e-03 0.0 
0.0 0.0 -1.325353038101e-03 
-1.599270300318e-03 -4.031472723049e-04 0.0 
-4.031472723049e-04 7.370420628954e-03 0.0 
0.0 0.0 -1.323783523096e-03 
-1.454892267765e-03 1.410388417337e-04 0.0 
1.410388417337e-04 5.404570969644e-03 0.0 
0.0 0.0 -7.673431308700e-04 
-5.798667066363e-04 -4.017993081382e-04 0.0 
-4.017993081382e-04 3.786051546347e-03 0.0 
0.0 0.0 -1.231867668451e-03 
-2.703199839151e-04 -3.327091265360e-04 0.0 
-3.327091265360e-04 1.134795808800e-03 0.0 
0.0 0.0 -2.923189298614e-04 
-1.540435464510e-03 1.974801601423e-03 0.0 
1.974801601423e-03 7.945053936292e-03 0.0 
0.0 0.0 -1.241575510934e-03 
7.093719106213e-04 -6.473525039570e-04 0.0 
-6.473525039570e-04 -6.146240833120e-06 0.0 
0.0 0.0 -2.201278046225e-04 
-1.035309467581e-03 -9.652751717972e-04 0.0 
-9.652751717972e-04 4.607784315543e-03 0.0 
0.0 0.0 -1.290713494763e-03 
-1.546892534215e-03 2.536580836788e-03 0.0 
2.536580836788e-03 7.963102419275e-03 0.0 
0.0 0.0 -1.268585396830e-03 
0.0 0.0 0.0 
0.0 0.0 0.0 
0.0 0.0 0.0 
-7.125328406643e-04 2.854381537959e-03 0.0 
2.854381537959e-03 4.690081759982e-03 0.0 
0.0 0.0 -1.178018281593e-03 
-1.581615712652e-03 6.406846432010e-05 0.0 
6.406846432010e-05 7.204958832163e-03 0.0 
0.0 0.0 -1.053859681778e-03 
-1.422126824857e-03 8.354035890497e-04 0.0 
8.354035890497e-04 8.383690559568e-03 0.0 
0.0 0.0 -1.289687241943e-03 
-1.346242744377e-03 1.394088556631e-03 0.0 
1.394088556631e-03 5.074174046536e-03 0.0 
0.0 0.0 -1.346242744377e-03 
-1.579226085277e-03 -2.236352472968e-04 0.0 
-2.236352472968e-04 6.673772320033e-03 0.0 
0.0 0.0 -9.627310317561e-04 
-1.352695242601e-03 3.190608641684e-03 0.0 
3.190608641684e-03 6.804006829943e-03 0.0 
0.0 0.0 -1.292510612804e-03 
-1.606507542629e-03 2.038310361331e-03 0.0 
2.038310361331e-03 7.743565210436e-03 0.0 
0.0 0.0 -1.236507170568e-03 
-1.568883613753e-03 1.757297800362e-04 0.0 
1.757297800362e-04 6.816128580048e-03 0.0 
0.0 0.0 -1.009625451247e-03 
-1.338198193755e-03 3.094920805743e-03 0.0 
3.094920805743e-03 6.452958212167e-03 0.0 
0.0 0.0 -1.247605899893e-03 
-1.069270980668e-03 -8.397930297141e-04 0.0 
-8.397930297141e-04 3.454365731416e-03 0.0 
0.0 0.0 -9.078723690805e-04 
-1.462959848022e-03 3.355807606363e-05 0.0 
3.355807606363e-05 4.925884328863e-03 0.0 
0.0 0.0 -7.287847301676e-04 
-7.853622933110e-04 2.799478897718e-03 0.0 
2.799478897718e-03 4.730479437110e-03 0.0 
0.0 0.0 -1.239219007812e-03 
-1.427801408329e-03 2.279610176079e-04 0.0 
2.279610176079e-04 8.599854493521e-03 0.0 
0.0 0.0 -1.286506427510e-03 
2.364174244584e-03 -3.920966346370e-05 0.0 
-3.920966346370e-05 -9.416422440926e-04 0.0 
0.0 0.0 -1.658991634594e-04 
-1.429614866782e-03 7.018012440351e-05 0.0 
7.018012440351e-05 4.945453144079e-03 0.0 
0.0 0.0 -7.284590636140e-04 
-1.619941162379e-03 -3.710140945832e-04 0.0 
-3.710140945832e-04 7.072586371596e-03 0.0 
0.0 0.0 -1.288082484959e-03 
-4.257310582937e-04 -7.375837559217e-04 0.0 
-7.375837559217e-04 1.550072552707e-03 0.0 
0.0 0.0 -4.679105978332e-04 
-2.651775118790e-04 1.741696615314e-04 0.0 
1.741696615314e-04 3.934086569527e-03 0.0 
0.0 0.0 -1.213252366005e-03 
-1.592381110183e-03 2.367463417435e-03 0.0 
2.367463417435e-03 7.496929060090e-03 0.0 
0.0 0.0 -1.225943235494e-03 
-1.523630465134e-03 6.434168762766e-04 0.0 
6.434168762766e-04 8.597347826225e-03 0.0 
0.0 0.0 -1.269037835114e-03 
-5.242932188711e-04 -5.062352980044e-04 0.0 
-5.062352980044e-04 1.580681758625e-03 0.0 
0.0 0.0 -3.173190315717e-04 
9.435665947915e-04 2.759812172338e-03 0.0 
2.759812172338e-03 -2.448701844830e-04 0.0 
0.0 0.0 -2.994413187036e-04 
-1.588603004087e-03 1.309858719882e-04 0.0 
1.309858719882e-04 4.764403352260e-03 0.0 
0.0 0.0 -1.056762885644e-03 
-1.577119311605e-03 2.587547752196e-04 0.0 
2.587547752196e-04 7.701946830658e-03 0.0 
0.0 0.0 -1.120841203304e-03 
0.0 0.0 0.0 
0.0 0.0 0.0 
0.0 0.0 0.0 
-1.448426484907e-03 1.878765382125e-03 0.0 
1.878765382125e-03 8.065670326291e-03 0.0 
0.0 0.0 -1.292233508669e-03 
-1.560868544091e-03 1.573692905966e-04 0.0 
1.573692905966e-04 6.444251121821e-03 0.0 
0.0 0.0 -9.501928138396e-04 
9.548640501235e-04 -2.932790788742e-03 0.0 
-2.932790788742e-03 4.477362362625e-04 0.0 
0.0 0.0 -6.011144084512e-04 
-1.577095330701e-03 2.356135282763e-04 0.0 
2.356135282763e-04 6.152695530289e-03 0.0 
0.0 0.0 -9.030544305944e-04 
-9.123359041244e-04 2.767752077309e-03 0.0 
2.767752077309e-03 5.381455446983e-03 0.0 
0.0 0.0 -1.271643562581e-03 
-1.672772992247e-03 -3.658378199310e-04 0.0 
-3.658378199310e-04 4.968645958279e-03 0.0 
0.0 0.0 -1.058796759180e-03 
-2.435904163304e-04 2.103354776216e-03 0.0 
2.103354776216e-03 2.435904163304e-04 0.0 
0.0 0.0 0.0 
-9.352736057356e-04 -8.421943932676e-04 0.0 
-8.421943932676e-04 3.140704490616e-03 0.0 
0.0 0.0 -9.009998304000e-04 
-1.402484368002e-03 -1.042823096176e-03 0.0 
-1.042823096176e-03 4.352884265014e-03 0.0 
0.0 0.0 -1.017945853013e-03 
-1.735012846972e-03 1.716303062956e-04 0.0 
1.716303062956e-04 5.112807218002e-03 0.0 
0.0 0.0 -1.063010248388e-03 
-5.677318458841e-04 1.906245464939e-03 0.0 
1.906245464939e-03 4.337997414081e-03 0.0 
0.0 0.0 -1.232780192057e-03 
-1.357670205510e-03 -6.381368347671e-04 0.0 
-6.381368347671e-04 4.227863364473e-03 0.0 
0.0 0.0 -1.035743023508e-03 
-1.479273144233e-03 -6.656278634480e-04 0.0 
-6.656278634480e-04 4.508927527854e-03 0.0 
0.0 0.0 -1.032702936181e-03 
1.040523643933e-04 -1.090937755128e-03 0.0 
-1.090937755128e-03 5.650850241542e-04 0.0 
0.0 0.0 -2.287174616664e-04 
-1.350567245042e-03 -1.731169106789e-03 0.0 
-1.731169106789e-03 5.793216621325e-03 0.0 
0.0 0.0 -1.240629869904e-03 
-1.027503594671e-03 3.327843857872e-03 0.0 
3.327843857872e-03 5.261023074075e-03 0.0 
0.0 0.0 -1.186362110037e-03 
1.189612951575e-03 2.308398015229e-03 0.0 
2.308398015229e-03 -4.894900924091e-04 0.0 
0.0 0.0 -3.000526539282e-04 
-1.387676757457e-03 4.952672058335e-05 0.0 
4.952672058335e-05 8.504316401028e-03 0.0 
0.0 0.0 -1.290349483557e-03 
-1.582576424774e-03 -1.560547969950e-04 0.0 
-1.560547969950e-04 7.007946096611e-03 0.0 
0.0 0.0 -1.290356026000e-03 
-1.460183445125e-03 -1.247594329356e-04 0.0 
-1.247594329356e-04 5.521441348557e-03 0.0 
0.0 0.0 -7.639788432047e-04 
-1.578918019610e-03 1.294379469898e-04 0.0 
1.294379469898e-04 6.639288700401e-03 0.0 
0.0 0.0 -9.358343396975e-04 
-1.420511664925e-03 -7.103380260756e-04 0.0 
-7.103380260756e-04 4.349288440906e-03 0.0 
0.0 0.0 -1.005720210571e-03 
-1.359175063422e-03 -8.855188390870e-04 0.0 
-8.855188390870e-04 4.258136974865e-03 0.0 
0.0 0.0 -1.040482674164e-03 
-1.527056262754e-03 -5.709073839489e-04 0.0 
-5.709073839489e-04 4.609671028000e-03 0.0 
0.0 0.0 -1.028873814706e-03 
-1.501496450629e-04 5.539703397871e-04 0.0 
5.539703397871e-04 3.298271412421e-03 0.0 
0.0 0.0 -1.180929064624e-03 
7.927858436439e-04 -3.045537929079e-03 0.0 
-3.045537929079e-03 8.494276970912e-04 0.0 
0.0 0.0 -7.038058031722e-04 
-1.116381248406e-03 3.165697137737e-03 0.0 
3.165697137737e-03 5.872062490069e-03 0.0 
0.0 0.0 -1.217816617926e-03 
-1.516247589342e-03 1.508277039824e-04 0.0 
1.508277039824e-04 5.685216966324e-03 0.0 
0.0 0.0 -8.376728236383e-04 
-1.571303365585e-03 1.703335586913e-03 0.0 
1.703335586913e-03 8.300700874157e-03 0.0 
0.0 0.0 -1.272153791098e-03 
-1.928595014899e-04 9.704790717136e-05 0.0 
9.704790717136e-05 3.265405422004e-03 0.0 
0.0 0.0 -1.181257232468e-03 
-1.580055462922e-03 1.466056733213e-04 0.0 
1.466056733213e-04 6.354105997974e-03 0.0 
0.0 0.0 -8.902468719968e-04 
-1.338698042931e-03 3.178297097849e-03 0.0 
3.178297097849e-03 6.247787653213e-03 0.0 
0.0 0.0 -1.201032862555e-03 
-6.620052052400e-04 2.218466919512e-03 0.0 
2.218466919512e-03 4.229615591751e-03 0.0 
0.0 0.0 -1.236767197193e-03 
-7.541183664370e-04 2.280565164163e-03 0.0 
2.280565164163e-03 4.995952357256e-03 0.0 
0.0 0.0 -1.270271405117e-03 
1.293451072768e-04 1.010666469426e-03 0.0 
1.010666469426e-03 -1.293451072768e-04 0.0 
0.0 0.0 0.0 
-1.368734881355e-03 2.988428396573e-03 0.0 
2.988428396573e-03 6.291274088760e-03 0.0 
0.0 0.0 -1.198686027802e-03 
-1.300476394130e-03 3.433743793017e-03 0.0 
3.433743793017e-03 6.406654162985e-03 0.0 
0.0 0.0 -1.227078865044e-03 
7.248957313196e-04 -1.043101674158e-03 0.0 
-1.043101674158e-03 5.245352296454e-04 0.0 
0.0 0.0 -2.668574800815e-04 
-1.256459332456e-03 -8.842282026345e-04 0.0 
-8.842282026345e-04 4.000740750754e-03 0.0 
0.0 0.0 -1.019774149770e-03 
0.0 0.0 0.0 
0.0 0.0 0.0 
0.0 0.0 0.0 
-1.414281382184e-03 3.115423266543e-03 0.0 
3.115423266543e-03 6.751118296047e-03 0.0 
0.0 0.0 -1.230789928679e-03 
-5.854531141948e-04 -1.028240178105e-04 0.0 
-1.028240178105e-04 1.705811180048e-03 0.0 
0.0 0.0 -2.488888888889e-04 
-4.899837963276e-04 -2.679117115997e-05 0.0 
-2.679117115997e-05 1.468713173503e-03 0.0 
0.0 0.0 -3.252955040521e-04 
-5.757129213041e-04 -7.207485732686e-05 0.0 
-7.207485732686e-05 1.835508392071e-03 0.0 
0.0 0.0 -2.488888888889e-04 
-4.930773068220e-04 -1.194599082518e-04 0.0 
-1.194599082518e-04 1.476488390705e-03 0.0 
0.0 0.0 -3.235616945828e-04 
-5.709513186301e-04 -1.124006903092e-04 0.0 
-1.124006903092e-04 1.838392435074e-03 0.0 
0.0 0.0 -2.488888888889e-04 
-4.916375155464e-04 -1.612728365077e-04 0.0 
-1.612728365077e-04 1.475178069701e-03 0.0 
0.0 0.0 -3.236232921091e-04 
-5.664575569402e-04 -1.523840206518e-04 0.0 
-1.523840206518e-04 1.835847282095e-03 0.0 
0.0 0.0 -2.488888888889e-04 
-4.895942987583e-04 -1.980084726191e-04 0.0 
-1.980084726191e-04 1.473115941516e-03 0.0 
0.0 0.0 -3.240873914873e-04 
-5.606811941233e-04 -1.881420242139e-04 0.0 
-1.881420242139e-04 1.832694706595e-03 0.0 
0.0 0.0 -2.488888888889e-04 
-4.869588456447e-04 -2.318471853064e-04 0.0 
-2.318471853064e-04 1.470150714002e-03 0.0 
0.0 0.0 -3.247901165394e-04 
-5.530639228246e-04 -2.205718007095e-04 0.0 
-2.205718007095e-04 1.828479285499e-03 0.0 
0.0 0.0 -2.488888888889e-04 
-4.838657069898e-04 -2.632753223399e-04 0.0 
-2.632753223399e-04 1.466491058738e-03 0.0 
0.0 0.0 -3.256781934875e-04 
-5.435915030907e-04 -2.500168512017e-04 0.0 
-2.500168512017e-04 1.823271796012e-03 0.0 
0.0 0.0 -2.488888888889e-04 
-4.806215376242e-04 -2.921053431457e-04 0.0 
-2.921053431457e-04 1.462775766317e-03 0.0 
0.0 0.0 -3.267721350539e-04 
-5.331669997488e-04 -2.754290158070e-04 0.0 
-2.754290158070e-04 1.817537112737e-03 0.0 
0.0 0.0 -2.488888888889e-04 
-4.772990145405e-04 -3.170646085282e-04 0.0 
-3.170646085282e-04 1.459102966964e-03 0.0 
0.0 0.0 -3.282144425317e-04 
-5.225827684125e-04 -2.957735628658e-04 0.0 
-2.957735628658e-04 1.811455119852e-03 0.0 
0.0 0.0 -2.488888888889e-04 
-4.739266601893e-04 -3.367870423434e-04 0.0 
-3.367870423434e-04 1.455491126401e-03 0.0 
0.0 0.0 -3.302134774139e-04 
-5.122493452654e-04 -3.102279468335e-04 0.0 
-3.102279468335e-04 1.805244477979e-03 0.0 
0.0 0.0 -2.488888888889e-04 
-8.714988205991e-05 1.501320370054e-03 0.0 
1.501320370054e-03 1.126743170179e-03 0.0 
0.0 0.0 -4.455399806226e-04 
-4.708318830785e-04 -3.498644805087e-04 0.0 
-3.498644805087e-04 1.452665043960e-03 0.0 
0.0 0.0 -3.330176586107e-04 
-5.035712085099e-04 -3.156736909137e-04 0.0 
-3.156736909137e-04 1.799451876288e-03 0.0 
0.0 0.0 -2.488888888889e-04 
-4.677694379717e-04 -3.536528442975e-04 0.0 
-3.536528442975e-04 1.449984777290e-03 0.0 
0.0 0.0 -3.369654704346e-04 
-1.302990859497e-04 1.259599994593e-03 0.0 
1.259599994593e-03 1.065511692301e-03 0.0 
0.0 0.0 -4.008054027219e-04 
-4.971721533030e-04 -3.101151166350e-04 0.0 
-3.101151166350e-04 1.793779429412e-03 0.0 
0.0 0.0 -2.488888888889e-04 
-4.645399214775e-04 -3.460100851926e-04 0.0 
-3.460100851926e-04 1.447106865552e-03 0.0 
0.0 0.0 -3.424725560515e-04 
-4.951173540351e-04 -2.920204627786e-04 0.0 
-2.920204627786e-04 1.788428250083e-03 0.0 
0.0 0.0 -2.488888888889e-04 
-4.608145759185e-04 -3.248925793250e-04 0.0 
-3.248925793250e-04 1.443848954921e-03 0.0 
0.0 0.0 -3.502742887869e-04 
-4.996187403003e-04 -2.584245976988e-04 0.0 
-2.584245976988e-04 1.783729472052e-03 0.0 
0.0 0.0 -2.488888888889e-04 
-2.196325475023e-05 1.571194493179e-03 0.0 
1.571194493179e-03 1.044460798840e-03 0.0 
0.0 0.0 -4.382132331813e-04 
-4.561351195322e-04 -2.876892743448e-04 0.0 
-2.876892743448e-04 1.439869203326e-03 0.0 
0.0 0.0 -3.610859296079e-04 
-5.130916496060e-04 -2.050490687592e-04 0.0 
-2.050490687592e-04 1.779854259130e-03 0.0 
0.0 0.0 -2.488888888889e-04 
-4.492332174386e-04 -2.320910845934e-04 0.0 
-2.320910845934e-04 1.433890260924e-03 0.0 
0.0 0.0 -3.761804409589e-04 
-5.378802534838e-04 -1.258210070292e-04 0.0 
-1.258210070292e-04 1.776026591200e-03 0.0 
0.0 0.0 -2.488888888889e-04 
-4.389026762269e-04 -1.548007160911e-04 0.0 
-1.548007160911e-04 1.424629334549e-03 0.0 
0.0 0.0 -3.962441071082e-04 
-5.768132903928e-04 -1.377844552508e-05 0.0 
-1.377844552508e-05 1.771798335942e-03 0.0 
0.0 0.0 -2.488888888889e-04 
-4.220148160061e-04 -5.690016960840e-05 0.0 
-5.690016960840e-05 1.407747968935e-03 0.0 
0.0 0.0 -4.224570655411e-04 
-5.255358595561e-04 1.447311553121e-04 0.0 
1.447311553121e-04 1.731026933449e-03 0.0 
0.0 0.0 -2.807601367770e-04 
-4.102581462551e-04 6.647705641044e-05 0.0 
6.647705641044e-05 1.368975512052e-03 0.0 
0.0 0.0 -4.108788710558e-04 
-4.845445189703e-04 3.469764482908e-04 0.0 
3.469764482908e-04 1.681959622449e-03 0.0 
0.0 0.0 -3.157907836770e-04 
-3.877290163741e-04 2.051534791676e-04 0.0 
2.051534791676e-04 1.306865366921e-03 0.0 
0.0 0.0 -3.939155788059e-04 
-3.958277924855e-05 1.694030195389e-03 0.0 
1.694030195389e-03 1.156073774095e-03 0.0 
0.0 0.0 -4.784961406483e-04 
-3.562744250199e-04 3.989157177770e-04 0.0 
3.989157177770e-04 1.244690862262e-03 0.0 
0.0 0.0 -3.807499016752e-04 
-5.392028409591e-04 5.770659547124e-04 0.0 
5.770659547124e-04 1.636675704485e-03 0.0 
0.0 0.0 -3.283879058836e-04 
-3.082167471355e-04 5.954141438158e-04 0.0 
5.954141438158e-04 1.162656135356e-03 0.0 
0.0 0.0 -3.661883092374e-04 
-4.494772525837e-04 8.547826148384e-04 0.0 
8.547826148384e-04 1.548375175436e-03 0.0 
0.0 0.0 -3.828086040851e-04 
-2.325523962378e-04 9.433725567651e-04 0.0 
9.433725567651e-04 1.120895142144e-03 0.0 
0.0 0.0 -3.807183196739e-04 
-3.130412835871e-04 1.126625542557e-03 0.0 
1.126625542557e-03 1.419750706176e-03 0.0 
0.0 0.0 -4.666182411194e-04 
-1.863486912845e-04 1.460770853074e-03 0.0 
1.460770853074e-03 1.313829183170e-03 0.0 
0.0 0.0 -4.832059250939e-04 
-4.354881958764e-05 1.489945231401e-03 0.0 
1.489945231401e-03 1.036811881966e-03 0.0 
0.0 0.0 -4.256841695906e-04 
-6.088964229271e-04 -3.587486861913e-04 0.0 
-3.587486861913e-04 1.723284064356e-03 0.0 
0.0 0.0 -2.842384003790e-04 
-5.314980546204e-04 3.143317236518e-04 0.0 
3.143317236518e-04 1.529219314835e-03 0.0 
0.0 0.0 -2.731668790454e-04 
-5.897477499297e-04 -6.010425002954e-05 0.0 
-6.010425002954e-05 1.687514974829e-03 0.0 
0.0 0.0 -3.109082025560e-04 
-5.756824612892e-04 2.261106284316e-05 0.0 
2.261106284316e-05 1.581531907516e-03 0.0 
0.0 0.0 -2.381938332887e-04 
8.676028730539e-05 1.735937948459e-03 0.0 
1.735937948459e-03 9.594439154052e-04 0.0 
0.0 0.0 -4.483732297331e-04 
-7.812528022569e-04 -1.099017891405e-04 0.0 
-1.099017891405e-04 2.168689563076e-03 0.0 
0.0 0.0 -3.444020130729e-04 
-7.150319033539e-04 -3.121384854287e-05 0.0 
-3.121384854287e-05 2.349676786299e-03 0.0 
0.0 0.0 -3.155555555556e-04 
-7.017205842140e-04 -7.653557446682e-05 0.0 
-7.653557446682e-05 2.006215318206e-03 0.0 
0.0 0.0 -3.681463795304e-04 
-7.121485710088e-04 -1.328299566585e-04 0.0 
-1.328299566585e-04 2.336914160142e-03 0.0 
0.0 0.0 -3.155555555556e-04 
-6.954051672081e-04 -1.106721293081e-04 0.0 
-1.106721293081e-04 1.994566268542e-03 0.0 
0.0 0.0 -3.704370777208e-04 
-7.107419937415e-04 -1.772848363033e-04 0.0 
-1.772848363033e-04 2.334391666324e-03 0.0 
0.0 0.0 -3.155555555556e-04 
-6.928827801307e-04 -1.461650245261e-04 0.0 
-1.461650245261e-04 1.991555205390e-03 0.0 
0.0 0.0 -3.721778341564e-04 
-7.100466502334e-04 -2.164461730152e-04 0.0 
-2.164461730152e-04 2.332657187103e-03 0.0 
0.0 0.0 -3.155555555556e-04 
-6.902040069466e-04 -1.788167519200e-04 0.0 
-1.788167519200e-04 1.988917707943e-03 0.0 
0.0 0.0 -3.744677652069e-04 
-7.095257050295e-04 -2.527303290778e-04 0.0 
-2.527303290778e-04 2.330678190538e-03 0.0 
0.0 0.0 -3.155555555556e-04 
-6.870058437527e-04 -2.081039351838e-04 0.0 
-2.081039351838e-04 1.985786893802e-03 0.0 
0.0 0.0 -3.773804207472e-04 
-7.091377551114e-04 -2.861387702296e-04 0.0 
-2.861387702296e-04 2.328286632896e-03 0.0 
0.0 0.0 -3.155555555556e-04 
-6.832965265146e-04 -2.331316096487e-04 0.0 
-2.331316096487e-04 1.982124751540e-03 0.0 
0.0 0.0 -3.809821719086e-04 
-7.092630965154e-04 -3.155169689002e-04 0.0 
-3.155169689002e-04 2.325515363616e-03 0.0 
0.0 0.0 -3.155555555556e-04 
-6.791922861579e-04 -2.523146359644e-04 0.0 
-2.523146359644e-04 1.978098432982e-03 0.0 
0.0 0.0 -3.853484384570e-04 
-7.104619708388e-04 -3.388430522053e-04 0.0 
-3.388430522053e-04 2.322560743132e-03 0.0 
0.0 0.0 -3.155555555556e-04 
-6.746892318115e-04 -2.641363648019e-04 0.0 
-2.641363648019e-04 1.973751708825e-03 0.0 
0.0 0.0 -3.907175444907e-04 
-7.134716144215e-04 -3.542939816601e-04 0.0 
-3.542939816601e-04 2.319606865757e-03 0.0 
0.0 0.0 -3.155555555556e-04 
-2.948862268374e-04 1.425073130439e-03 0.0 
1.425073130439e-03 1.550246462717e-03 0.0 
0.0 0.0 -5.380115296628e-04 
-6.698127621974e-04 -2.667648384482e-04 0.0 
-2.667648384482e-04 1.969206946882e-03 0.0 
0.0 0.0 -3.973447215126e-04 
-7.194662793108e-04 -3.592340066351e-04 0.0 
-3.592340066351e-04 2.316875881201e-03 0.0 
0.0 0.0 -3.155555555556e-04 
-6.645376930034e-04 -2.580390662495e-04 0.0 
-2.580390662495e-04 1.964528322448e-03 0.0 
0.0 0.0 -4.055185506436e-04 
-2.384968950829e-04 1.467328751257e-03 0.0 
1.467328751257e-03 1.438259482937e-03 0.0 
0.0 0.0 -5.141839662233e-04 
-7.293624542203e-04 -3.502161551000e-04 0.0 
-3.502161551000e-04 2.314195425162e-03 0.0 
0.0 0.0 -3.155555555556e-04 
-3.197653810432e-04 1.193855222990e-03 0.0 
1.193855222990e-03 1.484896437785e-03 0.0 
0.0 0.0 -4.993418814610e-04 
-6.585397002155e-04 -2.357313641208e-04 0.0 
-2.357313641208e-04 1.959221082084e-03 0.0 
0.0 0.0 -4.155668053223e-04 
-7.443837045228e-04 -3.234883264296e-04 0.0 
-3.234883264296e-04 2.311228263619e-03 0.0 
0.0 0.0 -3.155555555556e-04 
-6.513804998095e-04 -1.967997917224e-04 0.0 
-1.967997917224e-04 1.952762412484e-03 0.0 
0.0 0.0 -4.279241322075e-04 
-7.666941138057e-04 -2.747555434067e-04 0.0 
-2.747555434067e-04 2.308627769116e-03 0.0 
0.0 0.0 -3.155555555556e-04 
-6.421728617253e-04 -1.400127384089e-04 0.0 
-1.400127384089e-04 1.944537570229e-03 0.0 
0.0 0.0 -4.436098837037e-04 
-7.982894982451e-04 -1.992556961930e-04 0.0 
-1.992556961930e-04 2.305297045070e-03 0.0 
0.0 0.0 -3.155555555556e-04 
-6.299853966539e-04 -6.145013816298e-05 0.0 
-6.145013816298e-05 1.933693850967e-03 0.0 
0.0 0.0 -4.632370193522e-04 
-8.421992035785e-04 -9.014150615938e-05 0.0 
-9.014150615938e-05 2.302275547257e-03 0.0 
0.0 0.0 -3.155555555556e-04 
-2.461574377786e-04 1.624144604727e-03 0.0 
1.624144604727e-03 1.550137584529e-03 0.0 
0.0 0.0 -5.588486343218e-04 
-6.126548316156e-04 3.654657999790e-05 0.0 
3.654657999790e-05 1.918163968956e-03 0.0 
0.0 0.0 -4.884601193253e-04 
-8.297370267805e-04 5.900833697116e-05 0.0 
5.900833697116e-05 2.272921973566e-03 0.0 
0.0 0.0 -3.364948589054e-04 
-5.887696182011e-04 1.643484722283e-04 0.0 
1.643484722283e-04 1.896631305277e-03 0.0 
0.0 0.0 -5.192169371186e-04 
-7.953164073812e-04 2.464578371630e-04 0.0 
2.464578371630e-04 2.232304461113e-03 0.0 
0.0 0.0 -3.698897388832e-04 
-7.365411047928e-04 4.685855720639e-04 0.0 
4.685855720639e-04 2.159694424858e-03 0.0 
0.0 0.0 -4.159907446451e-04 
-5.527872709303e-04 3.038795148593e-04 0.0 
3.038795148593e-04 1.863166271294e-03 0.0 
0.0 0.0 -5.606386107870e-04 
-6.584523321126e-04 7.236437627609e-04 0.0 
7.236437627609e-04 2.077339623358e-03 0.0 
0.0 0.0 -4.782258264602e-04 
-5.219852183216e-04 4.858276467253e-04 0.0 
4.858276467253e-04 1.798644652234e-03 0.0 
0.0 0.0 -5.471397573912e-04 
-5.290479376496e-04 9.986619340008e-04 0.0 
9.986619340008e-04 1.913578928546e-03 0.0 
0.0 0.0 -5.482902324912e-04 
-4.113616513683e-04 1.317081858533e-03 0.0 
1.317081858533e-03 1.794964894860e-03 0.0 
0.0 0.0 -5.929728186394e-04 
-4.745890538018e-04 6.435746553500e-04 0.0 
6.435746553500e-04 1.691163142403e-03 0.0 
0.0 0.0 -5.213888951147e-04 
-4.062586621164e-04 9.333507089429e-04 0.0 
9.333507089429e-04 1.595573055787e-03 0.0 
0.0 0.0 -5.097061687162e-04 
-2.283265547836e-04 1.373477192078e-03 0.0 
1.373477192078e-03 1.358306137847e-03 0.0 
0.0 0.0 -4.842769641699e-04 
-7.033473164944e-04 -3.760136049461e-04 0.0 
-3.760136049461e-04 2.136708279662e-03 0.0 
0.0 0.0 -3.266666666667e-04 
-8.166934876578e-04 3.224396756561e-04 0.0 
3.224396756561e-04 2.340292932936e-03 0.0 
0.0 0.0 -3.266666666667e-04 
-7.075682699953e-04 -6.297319518701e-05 0.0 
-6.297319518701e-05 2.166890176519e-03 0.0 
0.0 0.0 -3.044444444444e-04 
-8.144037118333e-04 2.182635171307e-05 0.0 
2.182635171307e-05 2.299802230387e-03 0.0 
0.0 0.0 -3.488888888889e-04 
-9.458669161434e-05 1.682224031544e-03 0.0 
1.682224031544e-03 1.256319996994e-03 0.0 
0.0 0.0 -4.978857023056e-04 
-8.477680808939e-04 -1.104727016907e-04 0.0 
-1.104727016907e-04 2.712288170416e-03 0.0 
0.0 0.0 -3.822222222222e-04 
-9.055925510058e-04 -3.092032376263e-05 0.0 
-3.092032376263e-05 2.525233824261e-03 0.0 
0.0 0.0 -4.120916506577e-04 
-8.473674362076e-04 -7.481330322279e-05 0.0 
-7.481330322279e-05 2.845770630963e-03 0.0 
0.0 0.0 -3.822222222222e-04 
-9.089090308611e-04 -1.259977891390e-04 0.0 
-1.259977891390e-04 2.534087815895e-03 0.0 
0.0 0.0 -4.117636123367e-04 
-8.486541312913e-04 -1.060356270188e-04 0.0 
-1.060356270188e-04 2.850864472627e-03 0.0 
0.0 0.0 -3.822222222222e-04 
-9.067527636706e-04 -1.634553189751e-04 0.0 
-1.634553189751e-04 2.532180853737e-03 0.0 
0.0 0.0 -4.138361446519e-04 
-8.518838397089e-04 -1.391673231664e-04 0.0 
-1.391673231664e-04 2.849897303172e-03 0.0 
0.0 0.0 -3.822222222222e-04 
-9.038033703738e-04 -1.960391794180e-04 0.0 
-1.960391794180e-04 2.529549366092e-03 0.0 
0.0 0.0 -4.169466925021e-04 
-8.567719304589e-04 -1.693969290221e-04 0.0 
-1.693969290221e-04 2.849102124234e-03 0.0 
0.0 0.0 -3.822222222222e-04 
-9.001783977425e-04 -2.254727016246e-04 0.0 
-2.254727016246e-04 2.526405000261e-03 0.0 
0.0 0.0 -4.210486354725e-04 
-8.632001890766e-04 -1.956147496017e-04 0.0 
-1.956147496017e-04 2.848340584109e-03 0.0 
0.0 0.0 -3.822222222222e-04 
-8.958258707308e-04 -2.506885608621e-04 0.0 
-2.506885608621e-04 2.522614663946e-03 0.0 
0.0 0.0 -4.262345017756e-04 
-8.713995955112e-04 -2.166532315458e-04 0.0 
-2.166532315458e-04 2.847429121701e-03 0.0 
0.0 0.0 -3.822222222222e-04 
-8.907881229033e-04 -2.700951512637e-04 0.0 
-2.700951512637e-04 2.518049837640e-03 0.0 
0.0 0.0 -4.324218244576e-04 
-8.817440870532e-04 -2.301760048267e-04 0.0 
-2.301760048267e-04 2.845924759909e-03 0.0 
0.0 0.0 -3.822222222222e-04 
-8.851922506948e-04 -2.806029007086e-04 0.0 
-2.806029007086e-04 2.512873500627e-03 0.0 
0.0 0.0 -4.397142335037e-04 
-8.950333328024e-04 -2.339954622603e-04 0.0 
-2.339954622603e-04 2.844152330925e-03 0.0 
0.0 0.0 -3.822222222222e-04 
-5.153963270574e-04 1.386957263231e-03 0.0 
1.386957263231e-03 2.118048286245e-03 0.0 
0.0 0.0 -6.868508396518e-04 
-8.789409301159e-04 -2.802453109947e-04 0.0 
-2.802453109947e-04 2.507031228923e-03 0.0 
0.0 0.0 -4.484506065581e-04 
-9.121593109776e-04 -2.255242270632e-04 0.0 
-2.255242270632e-04 2.842211436296e-03 0.0 
0.0 0.0 -3.822222222222e-04 
-5.250635173879e-04 1.212370847594e-03 0.0 
1.212370847594e-03 2.064879973941e-03 0.0 
0.0 0.0 -6.599213385227e-04 
-8.718884062418e-04 -2.665655449899e-04 0.0 
-2.665655449899e-04 2.500353226196e-03 0.0 
0.0 0.0 -4.589341481330e-04 
-9.340828443643e-04 -2.017720311588e-04 0.0 
-2.017720311588e-04 2.840105257953e-03 0.0 
0.0 0.0 -3.822222222222e-04 
-8.637232966567e-04 -2.371299809629e-04 0.0 
-2.371299809629e-04 2.492260010494e-03 0.0 
0.0 0.0 -4.713274934483e-04 
-9.616016624064e-04 -1.586137009988e-04 0.0 
-1.586137009988e-04 2.837108011281e-03 0.0 
0.0 0.0 -3.822222222222e-04 
-8.538485000622e-04 -1.885493409314e-04 0.0 
-1.885493409314e-04 2.481749201505e-03 0.0 
0.0 0.0 -4.858861960434e-04 
-4.559297430570e-04 1.444187656161e-03 0.0 
1.444187656161e-03 1.981448427249e-03 0.0 
0.0 0.0 -6.537937217965e-04 
-9.957574324210e-04 -9.024577915214e-05 0.0 
-9.024577915214e-05 2.832059975401e-03 0.0 
0.0 0.0 -3.822222222222e-04 
-8.420411067301e-04 -1.147262326721e-04 0.0 
-1.147262326721e-04 2.468867339442e-03 0.0 
0.0 0.0 -5.027800290162e-04 
-1.039055821930e-03 8.224520741657e-06 0.0 
8.224520741657e-06 2.826232556126e-03 0.0 
0.0 0.0 -3.822222222222e-04 
-8.257325877732e-04 -1.684371319749e-05 0.0 
-1.684371319749e-05 2.451050949731e-03 0.0 
0.0 0.0 -5.243127177637e-04 
-1.025570190768e-03 1.403256994831e-04 0.0 
1.403256994831e-04 2.797038362784e-03 0.0 
0.0 0.0 -4.023247379336e-04 
-8.050294719308e-04 1.124410670381e-04 0.0 
1.124410670381e-04 2.428661755662e-03 0.0 
0.0 0.0 -5.489567910448e-04 
-9.923239288200e-04 3.047136110578e-04 0.0 
3.047136110578e-04 2.756100007675e-03 0.0 
0.0 0.0 -4.324342652679e-04 
-7.731797138455e-04 2.625302848105e-04 0.0 
2.625302848105e-04 2.393418728170e-03 0.0 
0.0 0.0 -5.820900338912e-04 
-9.418682114520e-04 5.073920785542e-04 0.0 
5.073920785542e-04 2.692555105023e-03 0.0 
0.0 0.0 -4.713646722125e-04 
-7.342469081316e-04 4.657530843841e-04 0.0 
4.657530843841e-04 2.352483617576e-03 0.0 
0.0 0.0 -6.159470284615e-04 
-4.680647983613e-04 1.597006220995e-03 0.0 
1.597006220995e-03 2.093451131542e-03 0.0 
0.0 0.0 -6.965941427916e-04 
-6.693040365848e-04 6.579016910303e-04 0.0 
6.579016910303e-04 2.279268426426e-03 0.0 
0.0 0.0 -6.692217709364e-04 
-8.781023439948e-04 7.411318868586e-04 0.0 
7.411318868586e-04 2.622293177478e-03 0.0 
0.0 0.0 -5.216549963272e-04 
-6.008061203709e-04 9.652302155092e-04 0.0 
9.652302155092e-04 2.191809086520e-03 0.0 
0.0 0.0 -6.818584140638e-04 
-7.708778420605e-04 1.010625125185e-03 0.0 
1.010625125185e-03 2.489715384094e-03 0.0 
0.0 0.0 -5.889796576362e-04 
-6.578980111303e-04 1.296813025753e-03 0.0 
1.296813025753e-03 2.378601915831e-03 0.0 
0.0 0.0 -6.666224173880e-04 
-4.259182236764e-04 1.351986027582e-03 0.0 
1.351986027582e-03 1.852483873207e-03 0.0 
0.0 0.0 -6.113852783704e-04 
-9.474349750393e-04 -3.758791366539e-04 0.0 
-3.758791366539e-04 2.750895276144e-03 0.0 
0.0 0.0 -3.933333333333e-04 
-8.340817167273e-04 3.227874807035e-04 0.0 
3.227874807035e-04 2.547302196216e-03 0.0 
0.0 0.0 -3.933333333333e-04 
-9.429649573043e-04 -6.274108253705e-05 0.0 
-6.274108253705e-05 2.720570547882e-03 0.0 
0.0 0.0 -4.155555555556e-04 
-8.366259340555e-04 2.206832879955e-05 0.0 
2.206832879955e-05 2.587932870487e-03 0.0 
0.0 0.0 -3.711111111111e-04 
-3.311872650881e-04 1.664414027805e-03 0.0 
1.664414027805e-03 1.777880150707e-03 0.0 
0.0 0.0 -6.200112366940e-04 
-1.054441290555e-03 -1.060399512644e-04 0.0 
-1.060399512644e-04 3.174442276916e-03 0.0 
0.0 0.0 -4.711111111111e-04 
-9.755270099610e-04 -1.952460710779e-05 0.0 
-1.952460710779e-05 3.352199228394e-03 0.0 
0.0 0.0 -4.488888888889e-04 
-1.057199720646e-03 -6.628466702925e-05 0.0 
-6.628466702925e-05 3.038898740510e-03 0.0 
0.0 0.0 -4.711111111111e-04 
-9.777400934430e-04 -1.091555938379e-04 0.0 
-1.091555938379e-04 3.340691704280e-03 0.0 
0.0 0.0 -4.488888888889e-04 
-1.063155427674e-03 -8.985841896749e-05 0.0 
-8.985841896749e-05 3.031383342538e-03 0.0 
0.0 0.0 -4.711111111111e-04 
-9.824799286931e-04 -1.393428267415e-04 0.0 
-1.393428267415e-04 3.339683266468e-03 0.0 
0.0 0.0 -4.488888888889e-04 
-1.073307870603e-03 -1.145055690525e-04 0.0 
-1.145055690525e-04 3.031741938321e-03 0.0 
0.0 0.0 -4.711111111111e-04 
-9.898779257340e-04 -1.643666591562e-04 0.0 
-1.643666591562e-04 3.339619340617e-03 0.0 
0.0 0.0 -4.488888888889e-04 
-1.086323477342e-03 -1.363877390947e-04 0.0 
-1.363877390947e-04 3.033165334032e-03 0.0 
0.0 0.0 -4.711111111111e-04 
-9.998925141734e-04 -1.855881002644e-04 0.0 
-1.855881002644e-04 3.339705936799e-03 0.0 
0.0 0.0 -4.488888888889e-04 
-1.096406818734e-03 -1.532318205826e-04 0.0 
-1.532318205826e-04 3.033255551597e-03 0.0 
0.0 0.0 -4.730783955673e-04 
-1.012777399154e-03 -2.017536892965e-04 0.0 
-2.017536892965e-04 3.339844219624e-03 0.0 
0.0 0.0 -4.488888888889e-04 
-1.090664367884e-03 -1.644430523049e-04 0.0 
-1.644430523049e-04 3.027933117942e-03 0.0 
0.0 0.0 -4.808618943584e-04 
-1.028301113362e-03 -2.114471527184e-04 0.0 
-2.114471527184e-04 3.338551741007e-03 0.0 
0.0 0.0 -4.488888888889e-04 
-1.083736580133e-03 -1.666451993329e-04 0.0 
-1.666451993329e-04 3.020843768517e-03 0.0 
0.0 0.0 -4.898707554272e-04 
-1.046943436856e-03 -2.106797342195e-04 0.0 
-2.106797342195e-04 3.335962166517e-03 0.0 
0.0 0.0 -4.488888888889e-04 
-7.831296468648e-04 1.319072651067e-03 0.0 
1.319072651067e-03 2.747172324488e-03 0.0 
0.0 0.0 -7.609479695289e-04 
-1.075855056023e-03 -1.563532757849e-04 0.0 
-1.563532757849e-04 3.012345218943e-03 0.0 
0.0 0.0 -5.000242388326e-04 
-1.069747672987e-03 -1.955783713019e-04 0.0 
-1.955783713019e-04 3.333029570668e-03 0.0 
0.0 0.0 -4.488888888889e-04 
-7.248550649329e-04 1.406358254198e-03 0.0 
1.406358254198e-03 2.595476185353e-03 0.0 
0.0 0.0 -7.137751583000e-04 
-1.066434352541e-03 -1.316180070833e-04 0.0 
-1.316180070833e-04 3.002197182527e-03 0.0 
0.0 0.0 -5.124314741735e-04 
-1.097598068092e-03 -1.637972448482e-04 0.0 
-1.637972448482e-04 3.329403421166e-03 0.0 
0.0 0.0 -4.488888888889e-04 
-7.533669482919e-04 1.204166970056e-03 0.0 
1.204166970056e-03 2.642836543444e-03 0.0 
0.0 0.0 -7.468747930895e-04 
-1.055416203304e-03 -9.203251338284e-05 0.0 
-9.203251338284e-05 2.990073804986e-03 0.0 
0.0 0.0 -5.267381924031e-04 
-1.130750834273e-03 -1.116921931994e-04 0.0 
-1.116921931994e-04 3.323665525655e-03 0.0 
0.0 0.0 -4.488888888889e-04 
-1.042171778077e-03 -3.455033738422e-05 0.0 
-3.455033738422e-05 2.974699293394e-03 0.0 
0.0 0.0 -5.428660870381e-04 
-1.169484212689e-03 -3.358102239734e-05 0.0 
-3.358102239734e-05 3.314256616847e-03 0.0 
0.0 0.0 -4.488888888889e-04 
-1.025316934061e-03 4.498860631349e-05 0.0 
4.498860631349e-05 2.954024136839e-03 0.0 
0.0 0.0 -5.614484225926e-04 
-1.214143038317e-03 7.887627576123e-05 0.0 
7.887627576123e-05 3.298257734444e-03 0.0 
0.0 0.0 -4.488888888889e-04 
-7.199346667002e-04 1.548959497082e-03 0.0 
1.548959497082e-03 2.702620874801e-03 0.0 
0.0 0.0 -7.999777769487e-04 
-1.005056088549e-03 1.605680175197e-04 0.0 
1.605680175197e-04 2.928996212084e-03 0.0 
0.0 0.0 -5.816817243943e-04 
-1.194628629214e-03 2.284813269436e-04 0.0 
2.284813269436e-04 3.262807979926e-03 0.0 
0.0 0.0 -4.714398725188e-04 
-9.770701467258e-04 2.900797214075e-04 0.0 
2.900797214075e-04 2.895539247012e-03 0.0 
0.0 0.0 -6.084761808760e-04 
-1.150691492803e-03 4.112920914748e-04 0.0 
4.112920914748e-04 3.201011145854e-03 0.0 
0.0 0.0 -5.031356658855e-04 
-1.102080003132e-03 6.314047135334e-04 0.0 
6.314047135334e-04 3.144102696047e-03 0.0 
0.0 0.0 -5.414573098104e-04 
-9.427914102034e-04 4.734021578769e-04 0.0 
4.734021578769e-04 2.854814901825e-03 0.0 
0.0 0.0 -6.353729821390e-04 
-1.011724826405e-03 8.872743635075e-04 0.0 
8.872743635075e-04 3.016176770478e-03 0.0 
0.0 0.0 -5.911070349773e-04 
-8.910802690226e-04 6.354474711150e-04 0.0 
6.354474711150e-04 2.790560843145e-03 0.0 
0.0 0.0 -6.750826519681e-04 
-9.261251575016e-04 1.192686017243e-03 0.0 
1.192686017243e-03 2.932735209306e-03 0.0 
0.0 0.0 -6.517013890130e-04 
-8.336613140921e-04 9.428984709957e-04 0.0 
9.428984709957e-04 2.722476745029e-03 0.0 
0.0 0.0 -6.953468723645e-04 
-6.543021565792e-04 1.370902121002e-03 0.0 
1.370902121002e-03 2.495211230633e-03 0.0 
0.0 0.0 -7.782223337189e-04 
-9.573633010252e-04 -3.758595971567e-04 0.0 
-3.758595971567e-04 3.138492562280e-03 0.0 
0.0 0.0 -4.600000000000e-04 
-1.070084496450e-03 3.260967853827e-04 0.0 
3.260967853827e-04 3.340817972329e-03 0.0 
0.0 0.0 -4.600000000000e-04 
-9.651871795266e-04 -5.955810820259e-05 0.0 
-5.955810820259e-05 3.169772296161e-03 0.0 
0.0 0.0 -4.377777777778e-04 
-1.064380492171e-03 2.392363188093e-05 0.0 
2.392363188093e-05 3.297778316814e-03 0.0 
0.0 0.0 -4.822222222222e-04 
-5.704666912088e-04 1.617849901649e-03 0.0 
1.617849901649e-03 2.384447177274e-03 0.0 
0.0 0.0 -7.774202083136e-04 
-1.098885735000e-03 -9.932841691003e-05 0.0 
-9.932841691003e-05 3.711008544298e-03 0.0 
0.0 0.0 -5.155555555556e-04 
-1.168462067443e-03 -8.558937578339e-06 0.0 
-8.558937578339e-06 3.528865523027e-03 0.0 
0.0 0.0 -5.377777777778e-04 
-1.101644165090e-03 -4.995934151532e-05 0.0 
-4.995934151532e-05 3.841935165134e-03 0.0 
0.0 0.0 -5.155555555556e-04 
-1.170694924485e-03 -8.717992149991e-05 0.0 
-8.717992149991e-05 3.536462684656e-03 0.0 
0.0 0.0 -5.377777777778e-04 
-1.107599872119e-03 -6.223086959302e-05 0.0 
-6.223086959302e-05 3.845472707205e-03 0.0 
0.0 0.0 -5.155555555556e-04 
-1.181271355677e-03 -1.042178337503e-04 0.0 
-1.042178337503e-04 3.538247230035e-03 0.0 
0.0 0.0 -5.377777777778e-04 
-1.117752315047e-03 -7.784351567095e-05 0.0 
-7.784351567095e-05 3.846307941154e-03 0.0 
0.0 0.0 -5.155555555556e-04 
-1.192658306015e-03 -1.193867036393e-04 0.0 
-1.193867036393e-04 3.539182551016e-03 0.0 
0.0 0.0 -5.377777777778e-04 
-1.130767921787e-03 -8.794783012842e-05 0.0 
-8.794783012842e-05 3.845743987908e-03 0.0 
0.0 0.0 -5.155555555556e-04 
-1.210173940783e-03 -1.287275247693e-04 0.0 
-1.287275247693e-04 3.541285429521e-03 0.0 
0.0 0.0 -5.377777777778e-04 
-1.147405946802e-03 -9.309166024428e-05 0.0 
-9.309166024428e-05 3.846138881089e-03 0.0 
0.0 0.0 -5.155555555556e-04 
-1.230284092040e-03 -1.329076598989e-04 0.0 
-1.329076598989e-04 3.543463507866e-03 0.0 
0.0 0.0 -5.377777777778e-04 
-1.167594603574e-03 -9.130051004344e-05 0.0 
-9.130051004344e-05 3.846054057724e-03 0.0 
0.0 0.0 -5.155555555556e-04 
-1.257222365411e-03 -1.323215631345e-04 0.0 
-1.323215631345e-04 3.545265649495e-03 0.0 
0.0 0.0 -5.377777777778e-04 
-1.190679714427e-03 -8.065933747456e-05 0.0 
-8.065933747456e-05 3.844271498324e-03 0.0 
0.0 0.0 -5.155555555556e-04 
-1.072061725773e-03 1.181075520675e-03 0.0 
1.181075520675e-03 3.333527226650e-03 0.0 
0.0 0.0 -7.283378183804e-04 
-1.281962566836e-03 -1.205561474005e-04 0.0 
-1.205561474005e-04 3.543719900527e-03 0.0 
0.0 0.0 -5.377777777778e-04 
-1.019291723586e-03 1.089044048788e-03 0.0 
1.089044048788e-03 3.195052180348e-03 0.0 
0.0 0.0 -7.244127351333e-04 
-1.216630828162e-03 -5.217094280109e-05 0.0 
-5.217094280109e-05 3.837261921334e-03 0.0 
0.0 0.0 -5.155555555556e-04 
-1.278612193971e-03 -8.527996152039e-05 0.0 
-8.527996152039e-05 3.532526708308e-03 0.0 
0.0 0.0 -5.485944179258e-04 
-1.248566532597e-03 -8.063337581444e-06 0.0 
-8.063337581444e-06 3.832196745573e-03 0.0 
0.0 0.0 -5.155555555556e-04 
-1.265136211354e-03 -3.710354583219e-05 0.0 
-3.710354583219e-05 3.516310959499e-03 0.0 
0.0 0.0 -5.642304945314e-04 
-1.285253076073e-03 5.378705676948e-05 0.0 
5.378705676948e-05 3.825167274507e-03 0.0 
0.0 0.0 -5.155555555556e-04 
-1.249016317751e-03 2.783290865771e-05 0.0 
2.783290865771e-05 3.495315634217e-03 0.0 
0.0 0.0 -5.808897987891e-04 
-1.009506465037e-03 1.312718317251e-03 0.0 
1.312718317251e-03 3.173615454217e-03 0.0 
0.0 0.0 -6.840081157839e-04 
-1.325793724936e-03 1.409910150458e-04 0.0 
1.409910150458e-04 3.811895021444e-03 0.0 
0.0 0.0 -5.155555555556e-04 
-1.228491986619e-03 1.177167741922e-04 0.0 
1.177167741922e-04 3.467495695501e-03 0.0 
0.0 0.0 -6.000309252581e-04 
-1.370873242614e-03 2.586300978522e-04 0.0 
2.586300978522e-04 3.792690245387e-03 0.0 
0.0 0.0 -5.155555555556e-04 
-1.200813378474e-03 2.299684609271e-04 0.0 
2.299684609271e-04 3.428363493249e-03 0.0 
0.0 0.0 -6.226598288582e-04 
-1.373356089150e-03 4.171425679384e-04 0.0 
4.171425679384e-04 3.744750078480e-03 0.0 
0.0 0.0 -5.289384626357e-04 
-1.172212083606e-03 4.058181090915e-04 0.0 
4.058181090915e-04 3.389456744915e-03 0.0 
0.0 0.0 -6.422847164987e-04 
-1.331867317601e-03 6.009358889080e-04 0.0 
6.009358889080e-04 3.691337826045e-03 0.0 
0.0 0.0 -5.597688379707e-04 
-1.124375463142e-03 5.598543092856e-04 0.0 
5.598543092856e-04 3.325139889709e-03 0.0 
0.0 0.0 -6.782083763712e-04 
-1.081971884868e-03 8.414092324740e-04 0.0 
8.414092324740e-04 3.267902520726e-03 0.0 
0.0 0.0 -6.895475544463e-04 
-1.262668952542e-03 8.256947026051e-04 0.0 
8.256947026051e-04 3.589844959231e-03 0.0 
0.0 0.0 -5.971186907353e-04 
-1.015537556123e-03 1.423057567146e-03 0.0 
1.423057567146e-03 3.272421342693e-03 0.0 
0.0 0.0 -7.495201701545e-04 
-1.195815340391e-03 1.081747061634e-03 0.0 
1.081747061634e-03 3.513584158614e-03 0.0 
0.0 0.0 -6.415873553655e-04 
-9.227522449622e-04 1.272927656652e-03 0.0 
1.272927656652e-03 3.024546989958e-03 0.0 
0.0 0.0 -7.380105449967e-04 
-1.189132313752e-03 -3.719683768529e-04 0.0 
-3.719683768529e-04 3.742930454027e-03 0.0 
0.0 0.0 -5.266666666667e-04 
-1.078621173226e-03 3.329266509439e-04 0.0 
3.329266509439e-04 3.544627002251e-03 0.0 
0.0 0.0 -5.266666666667e-04 
-1.179143088157e-03 -5.341908987877e-05 0.0 
-5.341908987877e-05 3.711783890135e-03 0.0 
0.0 0.0 -5.488888888889e-04 
-1.086602714393e-03 2.829903387263e-05 0.0 
2.829903387263e-05 3.587438639290e-03 0.0 
0.0 0.0 -5.044444444444e-04 
-8.701615349701e-04 1.534050088586e-03 0.0 
1.534050088586e-03 2.982960737759e-03 0.0 
0.0 0.0 -7.564843357160e-04 
-1.281957485101e-03 -9.385206070326e-05 0.0 
-9.385206070326e-05 4.159171467776e-03 0.0 
0.0 0.0 -6.044444444444e-04 
-1.212906511887e-03 8.437755052735e-06 0.0 
8.437755052735e-06 4.332528287739e-03 0.0 
0.0 0.0 -5.822222222222e-04 
-1.270813931325e-03 -4.040562334661e-05 0.0 
-4.040562334661e-05 4.018667514915e-03 0.0 
0.0 0.0 -6.044444444444e-04 
-1.215139368930e-03 -5.723684032478e-05 0.0 
-5.723684032478e-05 4.317315307501e-03 0.0 
0.0 0.0 -5.822222222222e-04 
-1.281549970565e-03 -2.783058806924e-05 0.0 
-2.783058806924e-05 4.009142892880e-03 0.0 
0.0 0.0 -6.044444444444e-04 
-1.225715800122e-03 -5.846153113734e-05 0.0 
-5.846153113734e-05 4.321112834897e-03 0.0 
0.0 0.0 -5.822222222222e-04 
-1.299500121220e-03 -3.892246035712e-05 0.0 
-3.892246035712e-05 4.013014100261e-03 0.0 
0.0 0.0 -6.044444444444e-04 
-1.237102750459e-03 -6.373558927260e-05 0.0 
-6.373558927260e-05 4.316061582639e-03 0.0 
0.0 0.0 -5.822222222222e-04 
-1.310225087603e-03 -3.096991785550e-05 0.0 
-3.096991785550e-05 4.010869733645e-03 0.0 
0.0 0.0 -6.044444444444e-04 
-1.254618385227e-03 -5.449007521454e-05 0.0 
-5.449007521454e-05 4.318709008563e-03 0.0 
0.0 0.0 -5.822222222222e-04 
-1.336238080201e-03 -2.665442879324e-05 0.0 
-2.665442879324e-05 4.014359818630e-03 0.0 
0.0 0.0 -6.044444444444e-04 
-1.274728536484e-03 -4.422787035067e-05 0.0 
-4.422787035067e-05 4.314650827642e-03 0.0 
0.0 0.0 -5.822222222222e-04 
-1.357159993559e-03 -4.580559540248e-06 0.0 
-4.580559540248e-06 4.014254519705e-03 0.0 
0.0 0.0 -6.044444444444e-04 
-1.347537318405e-03 1.010824294751e-03 0.0 
1.010824294751e-03 3.920037731601e-03 0.0 
0.0 0.0 -7.117109445114e-04 
-1.301666809856e-03 -2.047408919469e-05 0.0 
-2.047408919469e-05 4.318063477050e-03 0.0 
0.0 0.0 -5.822222222222e-04 
-1.391706891411e-03 2.751450344882e-06 0.0 
2.751450344882e-06 4.016171820733e-03 0.0 
0.0 0.0 -6.044444444444e-04 
-1.286495538148e-03 1.141604132091e-03 0.0 
1.141604132091e-03 3.755942445139e-03 0.0 
0.0 0.0 -6.690433100420e-04 
-1.326407011280e-03 6.045508856538e-06 0.0 
6.045508856538e-06 4.301570573764e-03 0.0 
0.0 0.0 -5.822222222222e-04 
-1.418163902024e-03 5.346625199558e-05 0.0 
5.346625199558e-05 4.007884251177e-03 0.0 
0.0 0.0 -6.044444444444e-04 
-1.269919325548e-03 9.693842664938e-04 0.0 
9.693842664938e-04 3.741904716454e-03 0.0 
0.0 0.0 -7.168342214570e-04 
-1.359108424707e-03 6.264265058965e-05 0.0 
6.264265058965e-05 4.294165002256e-03 0.0 
0.0 0.0 -5.822222222222e-04 
-1.457002779349e-03 1.155195072583e-04 0.0 
1.155195072583e-04 4.005151940014e-03 0.0 
0.0 0.0 -6.044444444444e-04 
-1.397754652771e-03 1.342537055091e-04 0.0 
1.342537055091e-04 4.286646401950e-03 0.0 
0.0 0.0 -5.822222222222e-04 
-1.439433466702e-03 1.791245333921e-04 0.0 
1.791245333921e-04 3.981926727275e-03 0.0 
0.0 0.0 -6.212763874705e-04 
-1.437165891528e-03 2.256325768342e-04 0.0 
2.256325768342e-04 4.266187057435e-03 0.0 
0.0 0.0 -5.822222222222e-04 
-1.294521127295e-03 1.255121558487e-03 0.0 
1.255121558487e-03 3.846810996671e-03 0.0 
0.0 0.0 -7.256046805931e-04 
-1.416692839753e-03 2.731618170809e-04 0.0 
2.731618170809e-04 3.949147984694e-03 0.0 
0.0 0.0 -6.388990248527e-04 
-1.480404564063e-03 3.507234002411e-04 0.0 
3.507234002411e-04 4.240406141116e-03 0.0 
0.0 0.0 -5.822222222222e-04 
-1.527971474499e-03 5.064010242542e-04 0.0 
5.064010242542e-04 4.210902708310e-03 0.0 
0.0 0.0 -5.822222222222e-04 
-1.387518079071e-03 3.943188623073e-04 0.0 
3.943188623073e-04 3.907645916582e-03 0.0 
0.0 0.0 -6.603292536270e-04 
-1.489199031895e-03 7.040012771420e-04 0.0 
7.040012771420e-04 4.109006438777e-03 0.0 
0.0 0.0 -6.048139398938e-04 
-1.345551405801e-03 5.089205632429e-04 0.0 
5.089205632429e-04 3.844893580165e-03 0.0 
0.0 0.0 -6.886802823100e-04 
-1.449968692027e-03 9.453817318756e-04 0.0 
9.453817318756e-04 4.074908376766e-03 0.0 
0.0 0.0 -6.381145674715e-04 
-1.311416027678e-03 7.842300283395e-04 0.0 
7.842300283395e-04 3.792994805538e-03 0.0 
0.0 0.0 -6.930958846255e-04 
-1.191921020040e-03 1.114101255005e-03 0.0 
1.114101255005e-03 3.585331380848e-03 0.0 
0.0 0.0 -7.187225406772e-04 
-1.177806506474e-03 -3.598193330075e-04 0.0 
-3.598193330075e-04 4.111442480075e-03 0.0 
0.0 0.0 -5.933333333333e-04 
-1.298614317116e-03 3.518912234694e-04 0.0 
3.518912234694e-04 4.327861140627e-03 0.0 
0.0 0.0 -5.933333333333e-04 
-1.201365310379e-03 -4.039072614176e-05 0.0 
-4.039072614176e-05 4.155647570895e-03 0.0 
0.0 0.0 -5.711111111111e-04 
-1.277329052135e-03 4.889702624734e-05 0.0 
4.889702624734e-05 4.269846773222e-03 0.0 
0.0 0.0 -6.155555555556e-04 
-1.165172176686e-03 1.355369621706e-03 0.0 
1.355369621706e-03 3.569481016305e-03 0.0 
0.0 0.0 -7.239602392282e-04 
-1.326401929546e-03 -1.098251756258e-04 0.0 
-1.098251756258e-04 4.716210200324e-03 0.0 
0.0 0.0 -6.488888888889e-04 
-1.341042556431e-03 -1.497445551792e-05 0.0 
-1.497445551792e-05 4.487654478362e-03 0.0 
0.0 0.0 -6.711111111111e-04 
-1.315258375770e-03 -3.279398266088e-06 0.0 
-3.279398266088e-06 4.798065319814e-03 0.0 
0.0 0.0 -6.488888888889e-04 
-1.368317620788e-03 -1.903812859008e-05 0.0 
-1.903812859008e-05 4.498221230458e-03 0.0 
0.0 0.0 -6.711111111111e-04 
-1.325994415009e-03 1.380554954630e-05 0.0 
1.380554954630e-05 4.806277874424e-03 0.0 
0.0 0.0 -6.488888888889e-04 
-1.380848091197e-03 -1.506252807686e-07 0.0 
-1.506252807686e-07 4.508257602630e-03 0.0 
0.0 0.0 -6.711111111111e-04 
-1.343944565664e-03 7.917736370567e-06 0.0 
7.917736370567e-06 4.818216293294e-03 0.0 
0.0 0.0 -6.488888888889e-04 
-1.386616382160e-03 -2.067760603014e-05 0.0 
-2.067760603014e-05 4.497592293928e-03 0.0 
0.0 0.0 -6.711111111111e-04 
-1.354669532048e-03 3.875023501283e-05 0.0 
3.875023501283e-05 4.799753708961e-03 0.0 
0.0 0.0 -6.488888888889e-04 
-1.406907359723e-03 3.160898061574e-05 0.0 
3.160898061574e-05 4.503118169212e-03 0.0 
0.0 0.0 -6.711111111111e-04 
-1.380682524645e-03 5.561565498039e-05 0.0 
5.561565498039e-05 4.809868159536e-03 0.0 
0.0 0.0 -6.488888888889e-04 
-1.435189363615e-03 3.130270196416e-05 0.0 
3.130270196416e-05 4.499809120004e-03 0.0 
0.0 0.0 -6.711111111111e-04 
-1.611535782568e-03 8.671279044143e-04 0.0 
8.671279044143e-04 4.506015908724e-03 0.0 
0.0 0.0 -7.049993574243e-04 
-1.401604438003e-03 9.330713447470e-05 0.0 
9.330713447470e-05 4.797672975585e-03 0.0 
0.0 0.0 -6.488888888889e-04 
-1.512351284449e-03 8.656230693377e-04 0.0 
8.656230693377e-04 4.297202840087e-03 0.0 
0.0 0.0 -7.256265952625e-04 
-1.438154550875e-03 9.647646109404e-05 0.0 
9.647646109404e-05 4.497364060681e-03 0.0 
0.0 0.0 -6.711111111111e-04 
-1.436151335856e-03 1.358395788754e-04 0.0 
1.358395788754e-04 4.800332653133e-03 0.0 
0.0 0.0 -6.488888888889e-04 
-1.499230372271e-03 1.062721523167e-04 0.0 
1.062721523167e-04 4.489570327750e-03 0.0 
0.0 0.0 -6.711111111111e-04 
-1.462608346469e-03 2.027818769099e-04 0.0 
2.027818769099e-04 4.774125764298e-03 0.0 
0.0 0.0 -6.488888888889e-04 
-1.532724437083e-03 1.968943510655e-04 0.0 
1.968943510655e-04 4.482722825432e-03 0.0 
0.0 0.0 -6.711111111111e-04 
-1.501447223794e-03 2.766209172912e-04 0.0 
2.766209172912e-04 4.769601642763e-03 0.0 
0.0 0.0 -6.488888888889e-04 
-1.557872225570e-03 2.720774980370e-04 0.0 
2.720774980370e-04 4.471068660141e-03 0.0 
0.0 0.0 -6.711111111111e-04 
-1.549932705829e-03 1.034482702559e-03 0.0 
1.034482702559e-03 4.338594692453e-03 0.0 
0.0 0.0 -6.619668726724e-04 
-1.539964497909e-03 3.703806189017e-04 0.0 
3.703806189017e-04 4.750827424066e-03 0.0 
0.0 0.0 -6.488888888889e-04 
-1.593531228853e-03 3.628458802930e-04 0.0 
3.628458802930e-04 4.447964373288e-03 0.0 
0.0 0.0 -6.711111111111e-04 
-1.575889340432e-03 4.997462669703e-04 0.0 
4.997462669703e-04 4.711328261492e-03 0.0 
0.0 0.0 -6.488888888889e-04 
-1.590906187641e-03 5.071802277050e-04 0.0 
5.071802277050e-04 4.406658573059e-03 0.0 
0.0 0.0 -6.802731460288e-04 
-1.553155722451e-03 6.861757538348e-04 0.0 
6.861757538348e-04 4.351637703117e-03 0.0 
0.0 0.0 -7.011174395038e-04 
-1.617910879156e-03 6.689844391721e-04 0.0 
6.689844391721e-04 4.669016158580e-03 0.0 
0.0 0.0 -6.488888888889e-04 
-1.669910948397e-03 8.547088690357e-04 0.0 
8.547088690357e-04 4.635783510319e-03 0.0 
0.0 0.0 -6.488888888889e-04 
-1.565389776433e-03 1.113185015486e-03 0.0 
1.113185015486e-03 4.431052665958e-03 0.0 
0.0 0.0 -7.101757656324e-04 
-1.445746577220e-03 9.960480725557e-04 0.0 
9.960480725557e-04 4.140494100543e-03 0.0 
0.0 0.0 -7.083488828164e-04 
-1.382040473179e-03 -3.190058038896e-04 0.0 
-3.190058038896e-04 4.672355147485e-03 0.0 
0.0 0.0 -6.600000000000e-04 
-1.311697345882e-03 3.879464369525e-04 0.0 
3.879464369525e-04 4.545991971317e-03 0.0 
0.0 0.0 -6.600000000000e-04 
-1.392413986569e-03 1.825900643476e-05 0.0 
1.825900643476e-05 4.677427317752e-03 0.0 
0.0 0.0 -6.822222222222e-04 
-1.299551274357e-03 6.542939229750e-05 0.0 
6.542939229750e-05 4.553563985542e-03 0.0 
0.0 0.0 -6.377777777778e-04 
-1.453247710607e-03 1.192137069286e-03 0.0 
1.192137069286e-03 4.178885573169e-03 0.0 
0.0 0.0 -7.047837856643e-04 

SCALARS element_materi_plasti_kappa_shear float
LOOKUP_TABLE default
2.638449368411e-03
2.307880314974e-03
5.668059790692e-03
5.685840565928e-03
3.968724762264e-03
2.227775623383e-03
3.926609063437e-03
2.603981897009e-03
3.959861142706e-03
5.676159459017e-03
3.789460879762e-03
2.166184027025e-03
4.891618303360e-03
4.239593676265e-03
4.915486508882e-03
5.763080812267e-03
3.957109970888e-03
9.864085158711e-05
1.385502992053e-03
1.310811347843e-03
5.684919687706e-03
2.668003560693e-03
2.830444855211e-03
2.887992383095e-03
4.492952651090e-03
3.999825579596e-03
3.772973464484e-03
4.950933107395e-03
4.446798420902e-03
3.154878546998e-03
2.756846244609e-03
9.905717093618e-04
5.968283596401e-03
4.581378283715e-03
4.439297578914e-03
4.887177070447e-03
5.091662130986e-03
3.236750732307e-03
3.615750744496e-03
3.662711387174e-03
3.132788783305e-03
4.003574433579e-03
2.231218125306e-03
3.619781891395e-03
5.614862315127e-03
2.308537538977e-03
2.567928975722e-03
5.479464518158e-03
8.195853011298e-04
4.082692105509e-03
3.028705324844e-03
1.800022130003e-03
3.293726347817e-03
2.963783223813e-03
5.752538416863e-03
2.317662380795e-03
1.680471960424e-03
4.591779384906e-03
1.282089538117e-03
5.743217870912e-03
0.0
3.970806248155e-03
2.953445704213e-03
3.287038662097e-03
4.914099357777e-03
2.824966036789e-03
0.0
5.862902570517e-03
2.620748184046e-03
5.405750626230e-03
4.123083578977e-03
5.868967824668e-03
4.513723255217e-03
9.779064778028e-04
2.287061364591e-03
5.715984257660e-03
5.955190373470e-03
2.225229681788e-03
8.958780141002e-04
2.309523210765e-03
2.623606725785e-03
3.807044789785e-03
2.701030844542e-03
2.283651859930e-03
4.111166650998e-03
4.102179279090e-03
4.228241446566e-03
4.546798255785e-03
5.028716670228e-03
3.901152697752e-03
6.549433232100e-04
3.920650833441e-03
4.955587413478e-03
5.010029682247e-03
6.082587846612e-03
3.583046306489e-03
3.812238424463e-03
4.309414704673e-03
4.319293153851e-03
3.152072117772e-03
3.806820599516e-03
4.894923453038e-03
2.752080048091e-03
3.649256563451e-03
2.864912835823e-03
2.832888651383e-03
4.791522079347e-03
5.257296183678e-03
6.216847982975e-04
4.789762209254e-03
4.946970942302e-03
1.455853485302e-03
3.116660414769e-03
3.646713869330e-03
2.740266031466e-03
2.565730635348e-03
3.111248311779e-03
4.481696809263e-03
4.267994674223e-03
2.744319843462e-03
2.256121814009e-03
4.028535080126e-03
5.125478964429e-03
2.884095006377e-03
1.634010763882e-03
3.343960081378e-03
2.825136596843e-03
3.200895695618e-03
5.840634446843e-03
3.049581698772e-03
3.964814282569e-03
5.700506446746e-03
3.554006587530e-03
3.223480759992e-03
4.236959910874e-03
4.935732901856e-03
4.220142662913e-03
3.782725374417e-03
3.633905000164e-03
3.434454553281e-03
5.667308756995e-03
5.731127569311e-03
4.159105326719e-03
4.705255006089e-03
3.527054415499e-03
3.060528253236e-03
3.807578355912e-03
3.078773552032e-03
3.873095872756e-03
3.370616847933e-03
7.627933793163e-04
4.106841682748e-03
9.591787070335e-04
3.491582586837e-03
3.620903548599e-03
2.658320563693e-03
4.383820681644e-03
2.313821533157e-03
3.280595579104e-03
3.781797064791e-03
3.239934934191e-03
4.666843953081e-03
1.844128017672e-03
4.751176865938e-03
3.949884846235e-03
4.988018486650e-03
3.771577015596e-03
2.896598297230e-03
3.483459645253e-03
3.893786270809e-03
2.298745108616e-03
3.272701774280e-03
4.841674106423e-03
3.900979634001e-03
3.037833255544e-03
3.320787467051e-03
5.050201609921e-03
3.079663805871e-03
4.649906474496e-03
5.561012058297e-03
2.890227526471e-03
2.943961554453e-03
2.210045688094e-03
3.349611072643e-03
2.235768342795e-03
3.804052174663e-03
3.255583921612e-03
5.686869579948e-03
5.039238049397e-03
4.717478710770e-03
2.309621426061e-03
3.143595662693e-03
5.111000880600e-03
0.0
3.256985193650e-03
2.315875762829e-03
1.186781807755e-03
5.879212306885e-03
4.749545806609e-03
3.205712272384e-03
1.923895110586e-03
4.248611553850e-03
4.390119912627e-03
3.260852054243e-03
2.726046229142e-03
3.866905638561e-03
4.085059299403e-03
4.849847065370e-03
4.084848891733e-03
3.788784052669e-03
2.384045379571e-03
4.854751456170e-03
0.0
2.534886222220e-03
2.875294506275e-03
3.926615174907e-03
5.120800106263e-03
2.883704576323e-03
2.560806566150e-03
3.780927287153e-03
3.250336732161e-03
2.904934106925e-03
9.744138873205e-04
5.002746784696e-03
1.187677453753e-03
9.712234474307e-04
2.285555067131e-03
2.450408811608e-03
5.091607850684e-03
2.428262004319e-03
2.774880105580e-03
3.779138720656e-03
1.803156298713e-03
1.957999132830e-03
3.924614645831e-03
4.859013116494e-03
0.0
3.040676180201e-03
3.206874618957e-03
3.130650380996e-03
2.062644621155e-03
4.885442700903e-03
4.892149880117e-03
3.059373875750e-03
2.149562808967e-03
4.104130610049e-03
4.011618650566e-03
4.856263363195e-03
4.079661242982e-03
3.170623979729e-03
2.775910294640e-03
4.348640566437e-03
6.080884502444e-03
4.012120085899e-03
2.651654117440e-03
4.174160396721e-03
2.772644652466e-03
4.114504492513e-03
3.290795862291e-03
2.811701725688e-03
3.471873507376e-03
5.142731837040e-03
4.219310466071e-03
2.711805464269e-03
5.231202940207e-03
4.958047196859e-03
4.103438709337e-03
4.637764333399e-03
2.438306330947e-03
4.211956383520e-03
3.365372856234e-03
2.450675261700e-03
2.887962119562e-03
3.878533253387e-03
2.940597055344e-03
2.728683675051e-03
4.958207544710e-03
0.0
4.231308200600e-03
3.120397780434e-03
3.113605546756e-03
2.278736831083e-03
4.503373325418e-03
1.884659263120e-03
3.120901491325e-03
2.297614029118e-03
4.243041167150e-03
4.240307436026e-03
1.373936041198e-03
2.435310679187e-03
3.155120820171e-03
3.003223930663e-03
4.798301013803e-03
3.306297059748e-03
2.985321424422e-03
3.188763902837e-03
1.370686704752e-03
3.117506418936e-03
2.564683140303e-03
6.161779301333e-03
6.171298087031e-03
3.871585823704e-03
3.224089549692e-03
3.155590452933e-03
4.317766949050e-03
3.003359536048e-03
2.608662778043e-03
3.938150114373e-03
5.859163444552e-03
3.214653691530e-03
2.969191311487e-03
2.861811173678e-03
3.768586856653e-03
3.337633072254e-03
4.030230270756e-03
2.035757012657e-03
1.094219009940e-03
3.031075150381e-03
2.930652641428e-03
4.078338297131e-03
6.100030670434e-03
3.051206385844e-03
1.821620188347e-03
2.861790791984e-03
4.656042724998e-03
2.349687270255e-03
2.816498775574e-03
4.525435709533e-03
5.833892866330e-03
2.486522419677e-03
6.151276113808e-03
4.485990906698e-03
4.856089461195e-03
2.611916462935e-03
3.799226166888e-03
4.210806094155e-03
4.343507042611e-03
3.883342781648e-03
5.453648402860e-03
4.408884898377e-03
3.954238356753e-03
2.946932738359e-03
2.126147916000e-03
3.626304909236e-03
2.828752624356e-03
3.908082809323e-03
3.189022324685e-03
2.979438473071e-03
5.107150669262e-03
3.057133034874e-03
3.948493172095e-03
1.767047002602e-03
3.219295742043e-03
4.649421512783e-03
3.423567528206e-03
2.373751734207e-03
2.784414744251e-03
2.725624955031e-03
2.452240531365e-03
5.184269692729e-03
4.210892199139e-03
3.195156139090e-03
3.675464466287e-03
3.719198240263e-03
3.156300643646e-03
5.270722120896e-03
4.951030620452e-03
2.791959147438e-03
3.435291521076e-03
2.714045320190e-03
2.771808396209e-03
4.119259232477e-03
1.360400106286e-03
3.400766620885e-03
5.356429761657e-03
2.456112603846e-03
3.687823897699e-03
4.067889866897e-03
3.485977458347e-03
6.171877983723e-03
6.194847258957e-03
5.749913356992e-03
3.020677987419e-03
5.279204517925e-03
2.613300540084e-03
2.741755212613e-03
2.004260055719e-03
3.406978849626e-03
3.842950909138e-03
4.513278632072e-03
3.244307823644e-03
5.163355495152e-03
4.386423237292e-03
4.476099206042e-03
2.391474383936e-03
1.955161698588e-03
3.217570021580e-03
3.872368428503e-03
3.338770506916e-03
1.812371568338e-03
4.015486225801e-03
2.355558185554e-03
3.278219706871e-03
3.673414290175e-03
1.915648292058e-03
3.981389866811e-03
1.053059668761e-03
3.652003582868e-03
3.330842304649e-03
4.441446771420e-03
6.067281547840e-03
3.807583682193e-03
4.322942112553e-03
3.526145110671e-03
5.255189385440e-03
3.347041718801e-03
5.955073764805e-03
5.938883086238e-03
5.933478345373e-03
5.925413924026e-03
4.598269985990e-03
5.190485547386e-03
5.356291838170e-03
3.172127365247e-03
3.189545386338e-03
3.291257441844e-03
5.278332870253e-03
5.650465782490e-03
5.386391458906e-03
2.086314033400e-03
5.331196890249e-03
3.953887606243e-03
3.284431480345e-03
3.285128967487e-03
3.301125392640e-03
5.759722545495e-03
2.921518703947e-03
4.716770599090e-03
3.382244159206e-03
3.419989620685e-03
3.235774226863e-03
3.108654577361e-03
5.912838273886e-03
5.757913193712e-03
4.236288878953e-03
1.032336198831e-03
5.784372647958e-03
3.094301216638e-03
3.133163714027e-03
1.473651489525e-03
4.377992282328e-03
0.0
3.076087156915e-03
4.393331777553e-03
4.078214650418e-03
4.173061940919e-03
3.172673925433e-03
5.528089032988e-03
2.695300704482e-03
6.061028079687e-04
4.784301089445e-03
1.109397696731e-03
3.558631343330e-03
2.671343080510e-03
3.641731318210e-03
3.626491229388e-03
5.164773912347e-03
4.369311817321e-03
2.723039152115e-03
3.202065681838e-04
3.393270163090e-03
4.000013488580e-03
3.998607249003e-03
4.091967694103e-03
4.682585152391e-03
3.977798602140e-03
6.148717226547e-03
4.046693637694e-03
4.375476627736e-03
2.475463655856e-03
2.038113747758e-03
2.665603733635e-03
4.155084444683e-03
5.944456476497e-03
5.933805245862e-03
3.347496143322e-03
3.141954240646e-03
3.636565096111e-03
3.524861024850e-03
3.764870203374e-03
3.214228737877e-03
2.609429685079e-03
2.752166065871e-03
4.525635562498e-03
3.964553113648e-03
2.737089484301e-03
3.599211839311e-03
2.982464518279e-03
5.872767812274e-03
5.256518196814e-03
6.948896764315e-04
2.926992632798e-03
5.363068251323e-03
5.678180438031e-03
4.516604651069e-03
3.800290162266e-03
2.959233318371e-03
2.645089123398e-03
2.991327947613e-03
2.961565605678e-03
1.984606166548e-03
5.360282778703e-03
2.617597906633e-03
2.719354908298e-03
4.219904639673e-03
2.558238552366e-03
2.945805251787e-03
4.447306010212e-03
4.403301426083e-03
3.203880338452e-03
3.270240138624e-03
3.822758874253e-03
2.320351021533e-03
2.695647363228e-03
3.241179321446e-03
4.055854335950e-03
4.302137120783e-03
2.006945487216e-03
3.504931263533e-03
3.493889225164e-03
3.226663955409e-03
3.195012242961e-03
3.705694372684e-03
2.015330950654e-03
3.674094389629e-03
5.465741692551e-03
2.782005441388e-03
3.605540778520e-03
3.144508273297e-03
3.122849437202e-03
2.256333325417e-03
4.140151503650e-03
5.431033007288e-03
3.225301536712e-03
3.778146397866e-03
3.509424093333e-03
3.382045560242e-03
4.257156002915e-03
2.174643724136e-03
3.150567633663e-03
1.746587665763e-03
4.710220312248e-03
3.696882214136e-03
2.499260062840e-03
4.393497597306e-03
3.304371545067e-03
1.515148851358e-03
2.794723090240e-03
3.870525163770e-03
5.202539231559e-04
3.198860063348e-03
3.122843769625e-03
3.536839909767e-03
3.054969112373e-03
3.133169061378e-03
4.394974799046e-03
3.171453652514e-03
3.954441890249e-03
4.408365611267e-03
3.531054572272e-03
4.293331672903e-03
3.469160005882e-03
0.0
4.342827187450e-03
2.815733446127e-03
1.169868182888e-03
3.377528405656e-03
3.017950135559e-03
5.309388747160e-03
1.836141118027e-03
1.645439494872e-03
3.818624685672e-03
3.581263554169e-03
5.741565943865e-03
4.177684629919e-03
1.850928756814e-03
2.067405024286e-03
1.416744999512e-03
2.579714406710e-03
4.842819569639e-03
5.316030625827e-03
3.796388360631e-03
2.739477237490e-03
3.923275296672e-03
2.756654641123e-03
1.368956117904e-03
2.826459377296e-03
2.346887089609e-03
4.356557030682e-03
4.139689611657e-03
3.039564492647e-03
3.507425817395e-03
3.484969287982e-03
2.724837710706e-03
1.738579034053e-03
2.880004918018e-03
1.059860394561e-03
3.342988300000e-03
3.564932177344e-03
9.012381607526e-04
2.910014888118e-03
5.510045432400e-03
1.959702749170e-03
3.585704259986e-03
3.723526099815e-03
1.268716263999e-03
2.392889037010e-03
3.063515298584e-03
2.813209111348e-03
4.210048530920e-03
5.103573185464e-03
5.177892081959e-03
2.829945348819e-03
1.363451425510e-03
3.691969532227e-03
3.550626997966e-03
3.676511325993e-03
1.285478420515e-03
8.537344141222e-04
7.845181071081e-04
2.162938812804e-03
1.377340432524e-03
3.170219899797e-03
0.0
2.524870915773e-03
4.491269867148e-03
3.700282617022e-03
5.066161758073e-03
3.327949804502e-03
4.251884330892e-03
2.509212341416e-03
1.018037242248e-03
5.829475890603e-03
6.039028528119e-03
4.216434674855e-03
3.565489033798e-03
2.587498848121e-03
5.999263223227e-03
2.442752516004e-03
3.696609549568e-03
3.563907472710e-03
3.514699694935e-03
5.927065042664e-03
6.015277257663e-03
1.330400211541e-03
1.449907591737e-03
1.344592241943e-03
3.643608196866e-03
4.850396606121e-03
0.0
5.101358492196e-03
1.409139728971e-04
1.499124232117e-03
3.824208957472e-04
0.0
2.029814193675e-03
4.688865864911e-03
4.611649624508e-03
3.864254668426e-03
9.306078872588e-04
4.020589784949e-03
5.797624803762e-03
5.973591106953e-03
3.688007304244e-03
1.196237126604e-03
5.834612071299e-03
3.414725027011e-03
9.671159728271e-04
1.409744689688e-03
9.368666534769e-04
2.773625038877e-03
5.128733981852e-03
5.686078140094e-03
1.614169892137e-03
3.141780048589e-03
4.903795419048e-03
5.124707089311e-03
4.540751789241e-03
4.863760003676e-03
5.230664655895e-03
4.885659315087e-03
4.900079095049e-03
5.104618843216e-03
2.371313285604e-03
3.639130252575e-03
3.700407251155e-03
1.543007074285e-03
4.822691056273e-03
4.723797952646e-03
4.594502443142e-03
2.187658065542e-03
2.078158679153e-03
4.298928970353e-03
4.465695048772e-03
4.739825188448e-03
3.625004239622e-03
4.980074041723e-03
4.182381661481e-03
3.612530889479e-03
1.648586597975e-03
1.078919747717e-03
9.715320649564e-04
8.189522588763e-04
3.276017880373e-03
3.023112973762e-03
3.897742298982e-04
4.028126407989e-03
2.904706458492e-04
5.885086834910e-03
5.811364703112e-03
5.844706076157e-03
1.127270833140e-03
2.214903500655e-03
5.806505327903e-03
4.688671280238e-03
5.826774921974e-03
4.813055851057e-03
4.917144813202e-03
2.903322035183e-03
6.008349193016e-03
6.003877113261e-03
4.727827648335e-03
4.864305038441e-03
4.249335747199e-03
0.0
3.175859147544e-03
1.259325279811e-03
4.420798695160e-03
3.384638883793e-03
4.409067033902e-03
2.131043982543e-03
1.108023222196e-03
4.695482135487e-03
3.365831542969e-03
2.646631452456e-03
4.556588175848e-03
5.414895944389e-03
2.656831201839e-03
3.200576911771e-03
3.816886599349e-03
4.190899904542e-03
4.331300515814e-03
2.822232598008e-03
3.605666078604e-03
3.473782743791e-03
3.959311659394e-03
4.657481856823e-03
4.474738788930e-03
2.497721918515e-03
5.428170056435e-03
5.196932708230e-03
3.994972095663e-03
4.018877418988e-03
4.067532001752e-03
5.468828346424e-03
5.334434594670e-03
3.777218885507e-03
4.785229386991e-03
5.183640898652e-03
4.486085823949e-03
4.626918442455e-03
5.440760853048e-03
4.828731435924e-03
3.492214324912e-03
1.813629337524e-03
2.595415623828e-03
1.751915947168e-03
1.311389193297e-03
5.325791288567e-03
4.638904880307e-03
1.232072997821e-03
5.349220756651e-03
4.109200150890e-03
4.453473742339e-03
4.501290464753e-03
2.822661026846e-03
4.600361826760e-03
3.989940508894e-03
1.568365711787e-03
4.607579259789e-03
1.682217231393e-03
4.433060704539e-03
4.965853579252e-03
1.931234771425e-03
2.536905363929e-03
3.506959235330e-03
4.546823231474e-03
2.929878446617e-03
5.094658413771e-03
4.689487714454e-03
3.549548679273e-03
4.373859018118e-03
4.508144441649e-03
4.950601638813e-03
1.602271484754e-03
3.405781233643e-03
3.108775469077e-03
5.079843116042e-03
3.194307102305e-03
3.880531337843e-03
4.194530845224e-03
4.813687637528e-03
2.696113206384e-04
1.541456333067e-03
1.874707634932e-03
4.535680067079e-03
4.684102630711e-03
3.785681380179e-03
4.265606377495e-03
3.105476038775e-03
3.587079011170e-03
4.392674845493e-03
1.860767443432e-03
4.452816754116e-03
3.543702289538e-03
1.992785431315e-03
3.392397121739e-03
2.975423009005e-03
2.515877789845e-03
3.725661475431e-03
9.890849693237e-04
7.121019429699e-04
4.132428392348e-03
1.740140079302e-03
4.103577769620e-03
3.987009557526e-03
3.370047699069e-03
3.248806400505e-03
5.300420175180e-03
2.104285098992e-03
2.995450123017e-03
2.940527097191e-03
1.410651741479e-03
4.429529881649e-03
4.136718757980e-03
1.859816294009e-03
3.894261520894e-03
4.933477745413e-03
1.699722713993e-03
5.408694418047e-03
5.411197824938e-03
2.017061567542e-03
2.915404601559e-03
2.179306637539e-03
4.367605250964e-03
3.647788208579e-03
5.489535749250e-03
5.304729192866e-03
4.231498250214e-03
4.146491013704e-03
1.780674243216e-03
4.280532226645e-03
4.934868325194e-03
3.669316609231e-03
4.695546322833e-03
5.063717161736e-03
2.645489529404e-03
5.190164349716e-03
3.272404207533e-03
3.596661715040e-03
2.751844944681e-03
3.019000093276e-03
4.810385432176e-03
3.246422704326e-03
2.264566458407e-03
1.689403800147e-03
4.815225778648e-03
2.226110953632e-03
4.194754128453e-03
4.940895878954e-03
4.276223362944e-03
3.112253213804e-03
3.202020562987e-03
1.919623832173e-03
1.352217145348e-03
4.164633130640e-03
4.560658305418e-03
1.177128837243e-03
2.915068821861e-03
1.620327168500e-03
4.555465457416e-03
2.973416926450e-03
3.909810264466e-03
2.724408296497e-03
5.208767427969e-03
2.593619795372e-03
4.035142549939e-03
2.532928249258e-03
4.024142569854e-03
3.450900747862e-03
4.136123601672e-03
2.485244761370e-03
1.564757219021e-03
4.294495704809e-03
2.163488820880e-03
3.387401299419e-03
4.565662359773e-03
2.738581822716e-03
4.665942928302e-03
1.465348703278e-03
4.246327033609e-03
1.699623542301e-03
2.032350589391e-03
5.536974569683e-03
3.426908671018e-03
1.540384123315e-03
3.758577465195e-03
3.927524684088e-03
2.715033437352e-03
4.314845763778e-03
4.948351979472e-03
3.360890771607e-03
3.891846381777e-03
4.252820554628e-03
2.212724349773e-03
2.843833598180e-03
4.035789724436e-03
3.996131275531e-03
3.575096828484e-03
3.792627721388e-03
4.802343365754e-03
4.415034608388e-03
4.389129640424e-03
3.467263775260e-03
3.595494986515e-03
3.583279255749e-03
4.289394557029e-03
5.421975200704e-03
2.486182053314e-03
3.861488826342e-03
5.063142224082e-03
3.131891392016e-03
3.028041098227e-03
1.823938140991e-03
3.705908196928e-03
3.091369410019e-03
4.675935954995e-03
4.534875968551e-03
2.056161555857e-03
2.786655864968e-03
2.873165513745e-03
2.868546210609e-03
3.110365765296e-03
1.843618803568e-03
3.272992134604e-03
3.412916071715e-03
5.192089283469e-03
3.281566540745e-03
3.626240938450e-03
3.586985508785e-03
3.409305181201e-03
1.897398460282e-03
3.604818096321e-03
3.888630237913e-03
4.421922450971e-03
3.317485446496e-03
3.647674555787e-03
4.673336337086e-03
3.224252799485e-03
3.496064654626e-03
2.622358304585e-03
3.055333394029e-03
3.164663825952e-03
2.311141121049e-03
2.125313783725e-03
3.477924834306e-03
3.736945563828e-03
4.738585916755e-03
1.315321289851e-03
2.446620192041e-03
2.982448329977e-03
3.433203482513e-03
4.531582693643e-03
3.499304588405e-03
2.673974497719e-03
3.139905464341e-03
5.072747806473e-03
2.707809154280e-03
1.166214898562e-03
1.463299212712e-03
2.914504388254e-03
3.018723201689e-03
2.686713935682e-03
3.062407380188e-03
2.712109552951e-03
1.499659389839e-03
4.359635542217e-03
2.393958649680e-03
3.066798902882e-03
4.495652146628e-03
4.450791082476e-03
5.300178894970e-03
4.977951589195e-03
2.397146190700e-03
4.416844529747e-03
3.119400395624e-03
3.332129797491e-03
3.122426360325e-03
2.988793531740e-03
2.855846187293e-03
3.177000482072e-03
2.756193394154e-03
2.592075865469e-03
2.421633066575e-03
3.387402253471e-03
2.293172573691e-03
2.277057048855e-03
2.911114260278e-03
1.155684839829e-03
4.799837983891e-03
2.295247612437e-03
3.251041652365e-03
3.393599796704e-03
3.145369302234e-03
3.078086569887e-03
5.318104494318e-03
4.480500477960e-03
2.985180505105e-03
4.544225245269e-03
5.407567982517e-03
2.819844426375e-03
3.291868619470e-03
4.617460502529e-03
3.604719748764e-03
2.828319211558e-03
5.770682299556e-03
2.324148480044e-03
2.632797394299e-03
5.423157329672e-03
1.479799231385e-03
4.397525855562e-03
5.165585481732e-03
2.315901153844e-03
1.693562376470e-03
5.527898528543e-03
3.711930513200e-03
4.919552001560e-03
1.951673982838e-03
3.287761322063e-03
5.034502267977e-03
5.186304779390e-03
3.552693579741e-03
3.534005249318e-03
4.400555289825e-03
4.253543167516e-03
2.943285220908e-03
3.519756308427e-03
3.287722794547e-03
1.604761110599e-03
2.916005013921e-03
2.089170602373e-03
2.495795305071e-03
3.131259226377e-03
5.609482615871e-03
5.438909998859e-03
5.417054799902e-03
3.703317504642e-03
5.161557093516e-03
3.868518273720e-03
5.545650970965e-03
4.897334775276e-03
3.311771604762e-03
2.197730088428e-03
5.053606803532e-03
5.398699092692e-03
5.059342313408e-03
4.930251969398e-03
3.686756924755e-03
2.638215958256e-03
3.385656639266e-03
3.735595459470e-03
3.380928897864e-03
1.515738106098e-03
4.891642251277e-03
2.057605305164e-03
2.303129579541e-03
1.798145096306e-03
1.202338881616e-03
2.291547627481e-03
2.255519192117e-03
1.119365171026e-03
3.821601090175e-03
3.628201443265e-03
4.633003595104e-03
3.816334825167e-03
1.776186669795e-03
3.629386261877e-03
1.548469868943e-03
5.595449219484e-03
1.931840670526e-03
3.698695061029e-03
4.663243438870e-03
2.011134684472e-03
1.247841792706e-03
1.362382450494e-03
3.956724378172e-03
3.694573121702e-03
3.378959753737e-03
3.476784983087e-03
3.160808567775e-03
1.209468731440e-03
5.051259765074e-03
3.748618971867e-03
3.477272273897e-03
1.950538792296e-03
4.782003339930e-03
3.210604208947e-03
5.183136400848e-03
1.092245890419e-03
2.105066893939e-03
3.669072015162e-03
1.206486766565e-03
5.304264296023e-03
2.175618363556e-03
1.951041802013e-03
3.970362899570e-03
5.544534571255e-03
3.589900622387e-03
4.195224401096e-03
4.919263556773e-03
3.618574329088e-03
2.771490720799e-03
3.147261186436e-03
2.962169357453e-03
3.142630492045e-03
3.544072557654e-03
1.522290315328e-03
6.123405621243e-03
2.263220382989e-03
3.970342460405e-03
2.658927723359e-03
4.758938700212e-03
1.696532885482e-03
3.388847263524e-03
3.457624531915e-03
2.514428578240e-03
1.677345446119e-03
2.396212171814e-03
2.754267880200e-03
3.227262210638e-03
4.988779509347e-03
2.815825285194e-03
4.795644255112e-03
5.516289922385e-03
5.146103467286e-03
5.257081820144e-03
3.182071023712e-03
4.029201795451e-03
5.042361025696e-03
2.756595180964e-03
2.647290714061e-03
3.056301189697e-03
2.572569436643e-03
2.462008023465e-03
2.644345930535e-03
1.440401882729e-03
3.630426804566e-03
1.569273956402e-03
5.480811851792e-03
5.602378623592e-03
1.419199509514e-03
5.275547562051e-03
2.804242796236e-03
4.372719245337e-03
2.891727352859e-03
5.381895938702e-03
3.185020396507e-03
3.346610583280e-03
2.289654001474e-03
3.542499471540e-03
3.433320806315e-03
3.266208049096e-03
2.035076047681e-03
2.493404353718e-03
2.201070291381e-03
5.424319885087e-03
5.590129291020e-03
3.903582702292e-03
2.909258766392e-03
2.335058945798e-03
5.293513921390e-03
1.953817967391e-03
4.234737884749e-03
5.172652995614e-03
5.124227989435e-03
9.277188622566e-04
2.506898590902e-03
4.525242961084e-03
4.563239763712e-03
3.241690536946e-03
2.241320889606e-03
2.833288907621e-03
4.078547169666e-03
4.419169055791e-03
5.013620306272e-03
2.282293485652e-03
4.307804809555e-03
1.686847443505e-03
5.290274890223e-03
4.851002717086e-03
4.643175649224e-03
2.345179317856e-03
1.807172178817e-03
1.801948734361e-03
3.359707236442e-03
5.507142592636e-03
5.108003363980e-03
1.046447068849e-03
2.179901417413e-03
3.852336584430e-03
3.800392508022e-03
2.586138136504e-03
9.771895354137e-04
2.930181311238e-03
2.283701537404e-03
1.568412579387e-03
4.696631355627e-03
4.607881037575e-03
4.766072203043e-03
4.081754060291e-03
4.603369163212e-03
4.379957173958e-03
4.618906992019e-03
2.458376662123e-03
4.098638148539e-03
4.907202475208e-03
5.648784616652e-03
4.495095601971e-03
2.548434779706e-03
3.912793135380e-03
5.512760513766e-03
3.001262042829e-03
3.180884923332e-03
2.468543689254e-03
5.028337068141e-03
3.427253910037e-03
3.290153938343e-03
3.675470650321e-03
2.182285102727e-03
4.189801390205e-03
2.291578316535e-03
1.349449754861e-03
5.636015473331e-03
3.625895958899e-03
2.103450277768e-03
4.046287823861e-03
4.878000002137e-03
3.895798009600e-03
3.114017949884e-03
8.889497729122e-04
4.793301523209e-03
4.034143798685e-03
2.338495865229e-03
4.679004096828e-03
0.0
3.545292720195e-03
3.183419108901e-03
4.620052298240e-03
3.760015126243e-03
2.393922234819e-03
4.445933361572e-03
3.448409215898e-03
2.584776922099e-03
4.250432662385e-03
1.906468634271e-03
4.153126910283e-03
1.818802017300e-03
5.293743423829e-03
4.239353654533e-03
2.394815569185e-03
4.179465517636e-03
5.639919064862e-03
3.534684727708e-03
2.288195308190e-03
2.779857412875e-03
4.157293753941e-03
4.559059439739e-03
3.534808419225e-03
4.252606570727e-03
4.782120039690e-03
4.278791894662e-03
3.738223600894e-03
3.499074933205e-03
3.494139593801e-03
4.747419654542e-03
4.255099070675e-03
3.839964885527e-03
4.569340265878e-03
3.056246348132e-03
2.393304954355e-03
2.930480403413e-03
6.086851266750e-03
4.117844399000e-03
3.455995573439e-03
3.753400023371e-03
2.472071372363e-03
3.491628202087e-03
4.204348122106e-03
4.268597776756e-03
4.772004198945e-03
4.710233733702e-03
4.692963440339e-03
1.106720622824e-03
3.608330547153e-03
3.820362875112e-03
4.664326353529e-03
4.680096484355e-03
2.352584026882e-03
1.558884795758e-03
2.654480659437e-03
3.731003145245e-03
3.466490700851e-03
3.315280051285e-03
3.510786059953e-03
4.741445271794e-03
3.000739119005e-03
3.725942709322e-03
1.882186228005e-03
1.989209782105e-03
4.859365221654e-03
5.378791863780e-03
3.622412790060e-03
4.086298431898e-03
8.788451117360e-04
2.150327118180e-03
4.157073371539e-03
8.318441689136e-04
5.408814910997e-03
1.796994317519e-03
4.563827465076e-03
4.326693611244e-03
2.179157756358e-03
2.902957421488e-03
5.531946144864e-03
2.724274636976e-03
3.597238446451e-03
3.949741788311e-03
1.387126890400e-03
1.483538630366e-03
4.094562523505e-03
4.462003929120e-03
4.216899447097e-03
3.250175486718e-03
5.197689124532e-03
4.432557972304e-03
3.662154238880e-03
4.324815174578e-03
4.318493610634e-03
4.118093824424e-03
3.698739609380e-03
3.642170033284e-03
5.589231027012e-03
3.013506558343e-03
4.255186571382e-03
2.631728022376e-03
2.719221655027e-03
3.230635052549e-03
2.472264286779e-03
1.402294089302e-03
2.643957478186e-03
4.711133417206e-03
2.471516709082e-03
4.468472658716e-03
2.193648896864e-03
1.986292001410e-03
2.990854761195e-03
4.632153164590e-03
4.258818863725e-03
4.455822626565e-03
2.409857783535e-03
4.599243387348e-03
4.586353591898e-03
3.003262797050e-03
3.764237663719e-03
1.259809435264e-03
4.417137978971e-03
2.598861938414e-03
3.559924899756e-03
2.891071441809e-03
4.599295072822e-03
4.492928374407e-03
3.946747793921e-03
3.008453656814e-03
3.177730900320e-03
4.583213391973e-03
3.022048143241e-03
1.998492614778e-03
1.639620437187e-03
1.813972294795e-03
2.527763030566e-03
3.023198208948e-03
4.233192300425e-03
3.640278608643e-03
1.787168974819e-03
3.020737013717e-03
3.250114505745e-03
4.609207531696e-03
1.720484110792e-03
4.768807741004e-03
2.542365269620e-03
3.372604860332e-03
3.955992186008e-03
3.843149938690e-03
2.565660421796e-03
3.009689123218e-03
4.457896627465e-03
1.960918397589e-03
4.405903501378e-03
3.240600366134e-03
3.564971743916e-03
2.068612722327e-03
3.806478467456e-03
4.436879848710e-03
1.816133218611e-03
2.713220334332e-03
2.003794310319e-03
1.222241799405e-03
3.754040591865e-03
4.602132618812e-03
4.606753680845e-03
2.762317310720e-03
5.921576080326e-03
1.132731180774e-03
2.912859680010e-03
2.189495913324e-03
3.665001844436e-03
3.520328983887e-03
2.638881836419e-03
2.895778659108e-03
4.043104173156e-03
2.482129023893e-03
5.209900433282e-03
3.214049017557e-03
3.647482495706e-03
3.710983494359e-03
2.656638786889e-03
3.855170451250e-03
4.566671673770e-03
4.366198307929e-03
1.028648459849e-03
0.0
2.165054714133e-03
3.723014921691e-03
2.395137752120e-03
2.817631679997e-03
2.513976997857e-03
3.806732758052e-03
4.815158278389e-03
3.775227130307e-03
2.362468453277e-03
4.403407743042e-03
4.096150277746e-03
2.928708125507e-03
3.798202669823e-03
3.830814983830e-03
2.434166470534e-03
2.429201062824e-03
3.861528244714e-03
4.613156150105e-03
4.387204249011e-03
2.657070979426e-03
3.880643775732e-03
2.837716406776e-03
2.485420115051e-03
3.105685387870e-03
2.225639351650e-03
2.780093807568e-03
2.725707991279e-03
2.761000011738e-03
3.893879650775e-03
2.100922071665e-03
3.891918480221e-03
3.915697350990e-03
2.204461836540e-03
3.709703770702e-03
0.0
5.365652246451e-03
2.578069340872e-03
2.173697461019e-03
3.448943280228e-03
3.975644968851e-03
4.011347503912e-03
2.443864926480e-03
1.964861984032e-03
1.711666579155e-03
4.092079591951e-03
2.346058795579e-03
2.509223878502e-03
4.534649018568e-03
2.777991002642e-03
4.537667482143e-03
4.058891197805e-03
0.0
5.816180050420e-03
4.902062641942e-03
3.881412651745e-03
2.440978645024e-03
3.770170632493e-03
2.426839343308e-03
1.518214254580e-03
9.482256304274e-04
5.546974744787e-03
4.665874526858e-03
3.739497969649e-03
5.215858982210e-03
1.786753972791e-03
4.945218504881e-03
4.727704294311e-03
2.892091425302e-03
3.818142524302e-03
2.797163094051e-03
2.426438530921e-03
2.920765910813e-03
4.893505897122e-03
4.727405870860e-03
2.743689612102e-03
4.673515583297e-03
0.0
2.485522009972e-03
5.040677103797e-03
3.152365298128e-03
2.607652291814e-03
3.607194230213e-03
3.172614263735e-03
2.188759691854e-03
2.409032827129e-03
2.923122928886e-03
2.479690312005e-03
2.876821812237e-03
4.465612370866e-03
5.532694685970e-03
2.480976938953e-03
4.855765288150e-03
5.147151796070e-03
2.491148219769e-03
2.231684133508e-03
3.071159247528e-03
2.618928641937e-03
4.855263855775e-03
2.512300808846e-03
2.262013899534e-03
2.743671721340e-03
2.429414246353e-03
2.905151765398e-03
2.632275217683e-03
3.664855587076e-03
4.505149016415e-03
2.765225984554e-03
2.582205512883e-03
2.386883807025e-03
2.387003191431e-03
0.0
5.504082384171e-03
5.322543550804e-03
7.848135277644e-04
2.549500333694e-03
2.400638059405e-03
2.463285382783e-03
4.810923744731e-03
3.198165242386e-03
4.606096513073e-03
2.664651155853e-03
3.655834997024e-03
4.200689173686e-03
2.113752298900e-03
1.912300493824e-03
3.255578082472e-03
1.273953511854e-03
4.816843425833e-03
2.290848895150e-03
2.168710725122e-03
2.559244781557e-03
4.283416494899e-03
4.812195502839e-03
2.539570789041e-03
3.643462494389e-03
4.855540140174e-03
2.948190669232e-03
2.976334480875e-03
2.027418807040e-03
2.926129920543e-03
4.448255544290e-03
2.964508539853e-03
5.409142776678e-03
5.734258886474e-03
4.026664295728e-03
5.743896818908e-03
5.718569705540e-03
2.582070465025e-03
2.595631204153e-03
3.199953522585e-03
0.0
1.902903777885e-03
3.604210869196e-03
2.807391870645e-03
2.804874001204e-03
2.021751019950e-03
2.194943763957e-03
4.142001498770e-03
2.644769460266e-03
2.249798190126e-03
3.567736017229e-03
4.967219196927e-03
4.886134841971e-03
2.605300666506e-03
3.828525680062e-03
0.0
1.957535475967e-03
3.521502279004e-03
1.981252673420e-03
2.924275991023e-03
2.745952613107e-03
2.849229022871e-03
2.462891224688e-03
5.296655538006e-03
2.503533226713e-03
5.524289484905e-03
5.153625615526e-03
6.001172921191e-03
5.100455085510e-03
4.110540018138e-03
2.637651237191e-03
2.100855566225e-03
3.191285649529e-03
4.869911819268e-03
1.668585154639e-03
1.835666317314e-03
2.227285640186e-03
3.938213713365e-03
5.540832376998e-03
4.655361428653e-03
3.499491474384e-03
5.052024159388e-03
4.084593475503e-03
2.632811007746e-03
2.862235179152e-03
4.698107313135e-03
3.316215251475e-03
3.587892556505e-03
3.896233695222e-03
4.114095616366e-03
4.188562373750e-03
1.799506149793e-03
2.750045215379e-03
5.853261315327e-03
4.426727944562e-03
3.704988570506e-03
5.563415471233e-03
4.701176930839e-03
5.605287308872e-03
2.984653430048e-03
2.899269361477e-03
3.882189993689e-03
0.0
2.099672330588e-03
4.918810832529e-03
9.297763855901e-04
3.755397294441e-03
2.797405890751e-03
1.199320246670e-03
1.287155906031e-03
6.012085979982e-03
3.536739645719e-03
5.807206894269e-03
2.659927490576e-03
3.526193540084e-03
0.0
5.649183673557e-03
1.226889212049e-03
5.591486415216e-03
4.894034742833e-03
5.539486036353e-03
2.262943268428e-03
4.213950339262e-03
3.025007021002e-03
3.131326445098e-03
4.091554630855e-03
5.020955983920e-03
3.911662398283e-03
5.268125805587e-04
4.885085777727e-03
3.118765135349e-03
9.712620635747e-04
3.457233058136e-03
5.927711436663e-03
5.789822867449e-03
3.808569037443e-03
4.215889140078e-03
2.538577934307e-03
5.833806765854e-03
2.555830622428e-03
2.490656388983e-03
3.320251670345e-03
3.625198829927e-03
5.701509361268e-03
5.926679449314e-03
5.825453120953e-03
2.375146025770e-03
1.855020722498e-03
3.558870854792e-03
3.632521599668e-03
4.888825416704e-03
5.046946971520e-03
1.549964253441e-03
0.0
4.672705056340e-03
4.574124372469e-03
1.492817307624e-03
4.534041151919e-03
3.791507055834e-03
3.441092852532e-03
4.640515334488e-03
3.044493888229e-03
3.085586377938e-03
1.541679909506e-03
3.205964040354e-03
5.539122948349e-03
5.470096428524e-03
3.349468659420e-03
4.316012489498e-03
5.096328403816e-03
5.066889044332e-03
4.866255092984e-03
3.513811278074e-03
2.745903881908e-03
5.643353601341e-03
2.006177374357e-03
1.336548591570e-03
4.740994586223e-03
1.967258917603e-03
3.030928276529e-03
4.804010908766e-03
4.798192704978e-03
4.457553134226e-03
4.812474116929e-03
4.086135366692e-03
0.0
1.909648872290e-03
2.592269180864e-03
4.073105943506e-03
3.300295154597e-03
5.598216389854e-03
3.155889343856e-03
2.080876808324e-03
1.684831239890e-03
1.996726710914e-03
4.805748266782e-03
2.545899529970e-03
5.665640345273e-03
1.260613380941e-03
2.717034335032e-03
4.089865816188e-03
4.150741350700e-03
3.513862819322e-03
4.079622705219e-03
3.886731369533e-03
5.955413447924e-03
5.808855366257e-03
1.973720843828e-03
5.623880488313e-03
5.288178170346e-03
2.706065533822e-03
3.694588255657e-03
4.724906017287e-03
5.013738577708e-03
0.0
2.864341795003e-03
5.304542939534e-03
4.364446428508e-03
4.836626331640e-03
3.730875922936e-03
4.587318565965e-03
5.089225402943e-03
3.906899070662e-03
3.750017617315e-03
3.537069004234e-03
2.588839608145e-03
5.047138554196e-03
3.933020823055e-03
5.546377694027e-03
1.946527573604e-03
5.421130664064e-03
4.841192871563e-03
9.322091538505e-04
2.293274876912e-03
5.049998438284e-03
5.689077263393e-03
5.605137768792e-03
3.830427027326e-03
4.275713481985e-03
1.034452648196e-03
0.0
9.165803274728e-04
2.306330849804e-03
9.705617311114e-04
3.232809435929e-03
4.778427176324e-03
5.703044928894e-03
4.347082166528e-03
3.002796748421e-03
4.148995897399e-03
2.783709893463e-03
4.463871432644e-03
4.932249577077e-03
5.252682971647e-03
1.354054557860e-03
0.0
4.840119537013e-03
7.233031137748e-04
8.681517225348e-04
1.435436843906e-03
1.472272678795e-03
3.855676984439e-03
5.537407312308e-03
5.639733232520e-03
4.436603250530e-03
2.523558595448e-03
4.438054910322e-03
5.878210086007e-03
3.406643456978e-03
3.631025882734e-03
3.027978513677e-03
7.658097359086e-04
5.095377053932e-03
4.007087122991e-03
1.117452099742e-03
3.054154399225e-03
5.821463871987e-03
5.616162225123e-03
5.771476761292e-03
2.378943900085e-03
0.0
4.729401298327e-03
5.982820025955e-03
5.116893597155e-03
3.780141864939e-03
2.757852932878e-03
1.016540728646e-03
5.742488357776e-03
8.130160899770e-04
3.471132188594e-03
5.976997195660e-03
0.0
4.334445045259e-03
4.928068088589e-03
5.685262055675e-03
3.960311455775e-03
4.602685966077e-03
5.674047741207e-03
5.673486810091e-03
4.691284669015e-03
5.438753250395e-03
2.700307817537e-03
3.496149835990e-03
4.345309502369e-03
5.753633298066e-03
1.736380299792e-03
3.496568385412e-03
4.939582600280e-03
1.368820282863e-03
2.744988563961e-03
5.663738979535e-03
5.807014388648e-03
1.265820552801e-03
2.857699370651e-03
3.526860356291e-03
5.236929301907e-03
0.0
5.763265201970e-03
4.458722862593e-03
3.044071100787e-03
4.287981028573e-03
4.654162068594e-03
3.688235848984e-03
2.117502676047e-03
2.490177180056e-03
3.382376733098e-03
3.778484931935e-03
3.590372836895e-03
3.200278276933e-03
3.401617339723e-03
1.200485253478e-03
4.444142389629e-03
4.959617724818e-03
2.494216693804e-03
5.683473093287e-03
4.880068419397e-03
3.847676400356e-03
4.572298701193e-03
3.295609289569e-03
3.277091984412e-03
3.455826167072e-03
2.410347476307e-03
3.171270214627e-03
5.151777217512e-03
3.979240728433e-03
5.867901631608e-03
2.336872728529e-03
4.397657744471e-03
5.380026001316e-03
3.734283041451e-03
4.159349955921e-03
1.018917914231e-03
5.297615537063e-03
5.603907969465e-03
1.200386500765e-03
3.098141903975e-03
0.0
5.607338238193e-03
1.241467986912e-03
1.086768128404e-03
1.310005273874e-03
1.098007961969e-03
1.312834614401e-03
1.102144291194e-03
1.313860002669e-03
1.106406192376e-03
1.314714001623e-03
1.110623534650e-03
1.314764906232e-03
1.114799593633e-03
1.313886852486e-03
1.119143839422e-03
1.312244079523e-03
1.123206879264e-03
1.309742381847e-03
1.126395466191e-03
1.306206244155e-03
1.712592149956e-03
1.128563011930e-03
1.301433669595e-03
1.128310248528e-03
1.481709361190e-03
1.294837564183e-03
1.124738951981e-03
1.286955439009e-03
1.117450346623e-03
1.278591774483e-03
1.747415205584e-03
1.106337564751e-03
1.271185373539e-03
1.091714577932e-03
1.267079920595e-03
1.075014028548e-03
1.271994950096e-03
1.058072799069e-03
1.373977207367e-03
1.029568648787e-03
1.400786084040e-03
1.001405006552e-03
1.893519129201e-03
1.013290767454e-03
1.331565248789e-03
1.051292941268e-03
1.420636578844e-03
1.254878948603e-03
1.538411109220e-03
1.749814369381e-03
1.674345182544e-03
1.313190695872e-03
1.165812567833e-03
1.243586703310e-03
1.160599108200e-03
1.875756606251e-03
1.595885243391e-03
1.666399810320e-03
1.478565083579e-03
1.663105926442e-03
1.472428907928e-03
1.665323346302e-03
1.473345293829e-03
1.668721779825e-03
1.475060790659e-03
1.672515119995e-03
1.476713251565e-03
1.676405268876e-03
1.477962616502e-03
1.680151147762e-03
1.478478685457e-03
1.683435136354e-03
1.477847663574e-03
1.685977886182e-03
1.826172981962e-03
1.475703873381e-03
1.687528137387e-03
1.471717033979e-03
1.808216096976e-03
1.687502052684e-03
1.621624466811e-03
1.465420332610e-03
1.685651184651e-03
1.456682442406e-03
1.683271242531e-03
1.446338352429e-03
1.681882221415e-03
1.435745486961e-03
1.686558014631e-03
1.983235935084e-03
1.427137084354e-03
1.668318955175e-03
1.424806453412e-03
1.657474958136e-03
1.655421471966e-03
1.429789018552e-03
1.692626940467e-03
1.432063270095e-03
1.732606417606e-03
1.871333468443e-03
1.418519729700e-03
1.509806472248e-03
1.697874356569e-03
1.587678473644e-03
1.729314272462e-03
1.557578715406e-03
1.679950678048e-03
1.916772580957e-03
1.938210228367e-03
1.855070982470e-03
2.012839987660e-03
1.865237882432e-03
2.017602022539e-03
1.866750885935e-03
2.020171921487e-03
1.868036742157e-03
2.023706536869e-03
1.869204362041e-03
2.027847855192e-03
1.869894456575e-03
2.032291853640e-03
1.869637544109e-03
2.036494374470e-03
1.867953593694e-03
2.040526920442e-03
2.096576136937e-03
1.864413530055e-03
2.044434416743e-03
1.956595450656e-03
1.858595784876e-03
2.048442989312e-03
1.850082569554e-03
2.052677629743e-03
1.838558006539e-03
2.059066600854e-03
2.057874607925e-03
1.825142622328e-03
2.068271119575e-03
1.811199211737e-03
2.055676819201e-03
1.801129383856e-03
2.044831352514e-03
1.794948757603e-03
2.040648389966e-03
1.809928005653e-03
2.224878849609e-03
1.825042548851e-03
2.063972402928e-03
1.899703936827e-03
2.092490428407e-03
2.182664400219e-03
1.926281506436e-03
2.029719175036e-03
1.866391534843e-03
1.981521245243e-03
1.857559797512e-03
2.117510806444e-03
2.294241220172e-03
2.361395076424e-03
2.216154836749e-03
2.357998710852e-03
2.214786627200e-03
2.360635211121e-03
2.219711824722e-03
2.364744831697e-03
2.226366150586e-03
2.369804074944e-03
2.231513212677e-03
2.375640653335e-03
2.228923351831e-03
2.381109275559e-03
2.224559756434e-03
2.386033807545e-03
2.422469400763e-03
2.218422108439e-03
2.391036236924e-03
2.374971160047e-03
2.210476424915e-03
2.396373502810e-03
2.299438040081e-03
2.200919367465e-03
2.401866583409e-03
2.189558096147e-03
2.408015076602e-03
2.176427520762e-03
2.416119866827e-03
2.529299764460e-03
2.165470136003e-03
2.403108141081e-03
2.157002805424e-03
2.383705627598e-03
2.391643415084e-03
2.161881467416e-03
2.385265248373e-03
2.161580518042e-03
2.461344384578e-03
2.224151981452e-03
2.306743514097e-03
2.266428057819e-03
2.412209071277e-03
2.251360739942e-03
2.368514859645e-03
2.397094801283e-03
2.626734283379e-03
2.549531866633e-03
2.701394005823e-03
2.556134915907e-03
2.705711491278e-03
2.561480290484e-03
2.710065989537e-03
2.566655120162e-03
2.714513451666e-03
2.574446997273e-03
2.720634103997e-03
2.582981102361e-03
2.727498271816e-03
2.593510788275e-03
2.734155989720e-03
2.720163723611e-03
2.600860379507e-03
2.592487705640e-03
2.738512044037e-03
2.594197665573e-03
2.746355183321e-03
2.582395027498e-03
2.755844196279e-03
2.568241209878e-03
2.671612935326e-03
2.765816059205e-03
2.551965904305e-03
2.779576565079e-03
2.532839083947e-03
2.775383251297e-03
2.527604753952e-03
2.770901703469e-03
2.513452816674e-03
2.549007397530e-03
2.757146576703e-03
2.792368389522e-03
2.792016082909e-03
2.565612625474e-03
2.702582909373e-03
2.546878826374e-03
2.661103818204e-03
2.547347738664e-03
2.675904247711e-03
2.966754512287e-03
3.036028368872e-03
2.881134676313e-03
3.028579513069e-03
2.879228433618e-03
3.034375088800e-03
2.887788164751e-03
3.035458784700e-03
2.890186158662e-03
3.042779342889e-03
2.901207661542e-03
3.047179815419e-03
2.908355221936e-03
3.047821965847e-03
3.058166228224e-03
2.921616972915e-03
2.977904379741e-03
3.057220798405e-03
2.926740671622e-03
2.913842577925e-03
3.065010864165e-03
2.940817269049e-03
3.076565577618e-03
2.928097216781e-03
3.084144842026e-03
3.085339738652e-03
2.912475768239e-03
3.096508582135e-03
3.118274552756e-03
2.897323094266e-03
3.090734832649e-03
2.871686253460e-03
3.129388617912e-03
2.894029482055e-03
2.858270663078e-03
2.922028373713e-03
3.085335394846e-03
2.928220263468e-03
3.030143154684e-03
2.945827770339e-03
3.312321515307e-03
3.189480759148e-03
3.353757832105e-03
3.204854301679e-03
3.362122923095e-03
3.214839365167e-03
3.375029482880e-03
3.210761067781e-03
3.368277685235e-03
3.220984354806e-03
3.383169786334e-03
3.228836678226e-03
3.413512167486e-03
3.384151656869e-03
3.268396400584e-03
3.229750214111e-03
3.398976425987e-03
3.246842334506e-03
3.396439375541e-03
3.258900424221e-03
3.412527509879e-03
3.266513004898e-03
3.338906532064e-03
3.424132635284e-03
3.274787641877e-03
3.430715204795e-03
3.271602579017e-03
3.264657004864e-03
3.450357719823e-03
3.490825941533e-03
3.429189117639e-03
3.194103659451e-03
3.322189248393e-03
3.233743975656e-03
3.318513455877e-03
3.206052030725e-03
3.282745160465e-03

SCALARS element_materi_plasti_phimob float
LOOKUP_TABLE default
8.257373180342e+00
8.279851650965e+00
1.986740321626e+01
1.954536538954e+01
1.536867559240e+01
2.539021689321e+01
1.542621947046e+01
9.733638305346e+00
1.542451592318e+01
1.952091372027e+01
1.922662944623e+01
5.073261676486e+00
2.060246942979e+01
1.609926148122e+01
2.059209259423e+01
1.972027294321e+01
1.507644096982e+01
2.774653006438e+01
1.439489331664e+01
9.796783506119e+00
1.950167586729e+01
9.093710377966e+00
1.129149782244e+01
2.134665853248e+01
1.683468860183e+01
1.945363969843e+01
1.403394857338e+01
2.066024266423e+01
1.682675676092e+01
2.130720003416e+01
1.861727301028e+01
-2.312785545400e+01
1.982277404583e+01
2.039167545600e+01
2.090309655899e+01
2.075677747991e+01
2.070701788373e+01
2.104210976215e+01
1.436740306868e+01
1.444669421011e+01
1.259185066046e+01
2.082493663814e+01
7.859756427327e+00
1.405305588322e+01
1.932682684141e+01
1.182985993104e+01
2.109164699606e+01
1.940053380164e+01
1.807817801688e+01
1.563329184134e+01
1.252993608951e+01
1.323188568350e+01
2.013682915937e+01
1.142374013029e+01
1.977703258466e+01
1.515238464532e+01
1.251477419353e+01
2.045702415702e+01
7.135942316308e+00
1.970620365973e+01
1.147830783966e+01
2.086948636063e+01
1.444779681707e+01
1.997086175785e+01
2.062770384344e+01
1.052081087239e+01
1.688406697741e+01
1.983497493183e+01
9.302219228183e+00
2.017848517399e+01
1.962308625370e+01
2.006858540637e+01
2.044822030142e+01
-1.319141567435e+01
1.541839188193e+01
1.956798690083e+01
1.973396601715e+01
1.910296668247e+01
6.031125564755e+00
1.606054573081e+01
1.022662556331e+01
1.505799302712e+01
1.036899190805e+01
6.838690414739e+00
1.590238301113e+01
1.593869111759e+01
1.972068662304e+01
2.033007340593e+01
1.882612564785e+01
1.528614793650e+01
-1.936198022215e+01
1.510444348962e+01
1.834453752694e+01
1.820391684806e+01
1.993331461997e+01
2.084568358414e+01
1.498243278852e+01
2.115290116729e+01
1.682532250831e+01
1.383931238853e+01
1.482579086643e+01
2.063437680879e+01
2.136747588730e+01
2.086116743509e+01
1.716800080741e+01
1.617431829864e+01
2.054027939658e+01
1.867467800664e+01
2.303627504531e+01
2.057215715933e+01
1.862460461697e+01
-2.661220111446e+01
1.836271036582e+01
1.420283104578e+01
1.703832256801e+01
1.255926489261e+01
1.496276777840e+01
2.083164936443e+01
1.654943561058e+01
1.472646255652e+01
6.515095404037e+00
1.506789258523e+01
1.873541247171e+01
1.511271389146e+01
2.505477879358e+01
1.334803096458e+01
1.698090684056e+01
1.253471508911e+01
1.975913199234e+01
2.326145883841e+01
1.944895880761e+01
1.956287546125e+01
1.556074997002e+01
1.295061157203e+01
2.102642822734e+01
2.059453680773e+01
1.973998766734e+01
1.587077852858e+01
2.124571189198e+01
1.474213960415e+01
1.966451508742e+01
2.008260640196e+01
1.605120960112e+01
1.761471083232e+01
1.501481194470e+01
1.203629380258e+01
1.663284212356e+01
1.775649977086e+01
1.505963248651e+01
1.926072149736e+01
-2.078320230029e+01
1.591073615732e+01
9.164423599143e+00
1.380271369311e+01
2.087078760730e+01
1.613332175454e+01
1.989278113922e+01
9.049471219433e+00
2.119874468670e+01
1.525296020983e+01
1.943825972225e+01
2.048088276749e+01
6.096629110427e+00
2.055505155084e+01
1.547611230489e+01
2.076386538326e+01
1.521322387842e+01
1.767833871554e+01
1.357875179795e+01
1.927263633149e+01
7.002767435962e+00
2.012990499620e+01
1.793035793755e+01
1.516345350473e+01
1.791630227250e+01
1.307026496329e+01
1.945246165946e+01
1.767438435150e+01
2.057807227181e+01
2.017827636481e+01
1.198657175589e+01
1.754741776272e+01
2.159566468865e+01
1.385001907024e+01
9.833421319087e+00
1.483112917973e+01
1.813140172145e+01
1.967472443954e+01
1.851657630266e+01
2.051692265956e+01
1.479928328283e+01
2.094940206702e+01
1.880640734725e+01
1.128748180114e+01
1.350478941834e+01
2.187563070909e+01
-3.223459938711e+00
1.969882173591e+01
1.757567352988e+01
1.770386071011e+01
2.207274884243e+01
1.584866737119e+01
1.648288921122e+01
2.115006225457e+01
1.569884351435e+01
1.727472360544e+01
1.609139372241e+01
1.786327013393e+01
1.583012037271e+01
1.487362338800e+01
2.233598591715e+01
1.922519847446e+01
1.239908649174e+01
1.083021797367e+01
1.292233560932e+01
1.666832011845e+01
1.873102682436e+01
2.459861721359e+01
2.194085426327e+01
1.505174267639e+01
2.052535091972e+01
2.191242077265e+01
-1.687011620154e+01
1.817101981787e+01
-2.328078189671e+01
-1.545072059194e+00
1.242653103912e+01
1.415461839955e+01
1.841173451875e+01
1.347036387033e+01
1.851518868465e+01
1.655262790059e+01
7.861889965014e+00
2.186773427782e+01
1.552854317294e+01
2.067114306302e+01
1.046704145504e+01
1.890110510756e+01
2.063714948056e+01
1.300112701322e+01
2.220515224480e+01
2.077549850950e+01
1.822291949240e+01
2.150622454467e+01
2.174656153598e+01
1.958195494198e+01
1.658152752610e+01
1.789299978827e+01
2.067423915011e+01
2.097372286776e+01
1.799293164830e+01
1.664756635507e+01
1.994360429579e+01
1.734505738928e+01
2.203638202007e+01
1.606001208445e+01
1.044387781048e+01
1.578541851153e+01
2.158796727213e+01
2.385450566775e+01
2.121403926869e+01
1.843222811608e+01
1.637635322240e+01
1.675326008202e+01
1.865457895362e+01
1.852537467072e+01
1.662112804930e+01
2.064082289027e+01
2.263268606779e+01
1.673132878026e+01
1.843090735705e+01
2.222710767458e+01
2.329402125725e+01
1.504253352509e+01
2.164976727632e+01
2.153617751459e+01
1.821701947889e+01
7.850730484335e+00
1.615384038769e+01
2.229711194299e+01
1.954012392878e+01
2.279572736768e+01
1.706572038918e+01
-3.630634240150e+00
1.338841200599e+01
2.270611750831e+01
1.632769999565e+01
1.589912666333e+01
2.646612216502e+01
2.250350639450e+01
2.042892895156e+01
1.230439306504e+01
1.789939772863e+01
1.417630727345e+01
2.206686067724e+01
2.138260333373e+01
2.425193025095e+01
1.883721461640e+01
1.974143692113e+01
2.000300749199e+01
2.007237437872e+01
1.770685796718e+01
2.242252514685e+01
2.066074393205e+01
1.723458942334e+01
2.164542627699e+01
2.175074085899e+01
1.652118682146e+01
1.963409461495e+01
2.149291786058e+01
2.180939382946e+01
2.008067468196e+01
2.101787897810e+01
2.162690609121e+01
1.723116729283e+01
2.480601059096e+01
2.305542193338e+01
2.154504027118e+01
2.069991960664e+01
1.615762159080e+01
2.024637270157e+01
2.211263461116e+01
2.282170203552e+01
2.063782379623e+01
1.730344172226e+01
2.223866676461e+01
1.579916965966e+01
1.697119405486e+01
2.051710826570e+01
2.196227758452e+01
2.015120628878e+01
1.688262672205e+01
1.865577383049e+01
1.480150380680e+01
1.528652920663e+01
1.668036375940e+01
1.688788938362e+01
1.732862511765e+01
2.068887552362e+01
1.651639289576e+01
1.526346148467e+01
2.167648630538e+01
1.177652322772e+01
1.453636898216e+01
1.736194758311e+01
1.521205440811e+01
1.968266382821e+01
2.159471577970e+01
1.845770344995e+01
1.834589767843e+01
1.589686573561e+01
2.286478263285e+01
2.065124815629e+01
2.083952948314e+01
1.401577182925e+01
2.308292424830e+01
1.729205479887e+01
1.185558231826e+01
1.537547979616e+01
1.899827594588e+01
1.719483523863e+01
1.351621608379e+01
1.493688175791e+01
2.101189052373e+01
2.113964645961e+01
1.899107785878e+01
1.816073226671e+01
2.037496224600e+01
1.525443866189e+01
2.232082588930e+01
2.210000764092e+01
1.720935275126e+01
2.311289659417e+01
1.826906795176e+01
1.894581355507e+01
2.210465221413e+01
1.702673132438e+01
1.655543418756e+01
1.615480406621e+01
2.008948539894e+01
2.004622632448e+01
1.969015596762e+01
2.074598839769e+01
1.867925993938e+01
1.711539596389e+01
2.210965266234e+01
2.316893116406e+01
1.463475440324e+01
1.499938573548e+01
1.691844237245e+01
2.128459387585e+01
1.907831426851e+01
1.659890622714e+01
1.733896281575e+01
2.386396859852e+01
1.646756831011e+00
1.966053090693e+01
1.778708877889e+01
1.973633640976e+01
2.343506819935e+01
1.606253360047e+01
1.097842716986e+01
2.043146796332e+01
2.063292094411e+01
2.233040797916e+01
1.524183006894e+01
8.110636006258e+00
1.683163358912e+01
2.036599766995e+01
1.712360876500e+01
2.035197264489e+01
1.519104652052e+01
1.726203977995e+01
1.865090451299e+01
1.869158683439e+01
2.154090416482e+01
2.038777939123e+01
2.038462632619e+01
2.020520817027e+01
2.027579300933e+01
1.751038687035e+01
1.867521191854e+01
1.925338461948e+01
1.564452780311e+01
1.461824935330e+01
1.804742637229e+01
1.893274482665e+01
2.060938265059e+01
1.891324496124e+01
2.264692602120e+01
1.889407852400e+01
2.008402299331e+01
1.715283969821e+01
1.405699088797e+01
2.186344012772e+01
1.972910937888e+01
1.573415672829e+01
2.024968571630e+01
1.835278379252e+01
1.801913692394e+01
2.090880104964e+01
1.921380527669e+01
2.043543737688e+01
1.981473502023e+01
1.774894854342e+01
-1.451718295496e+01
2.051934153370e+01
2.087967134882e+01
1.924468427859e+01
2.289888276131e+01
2.091872371244e+01
-4.932522309689e+01
1.648435857215e+01
1.775052532060e+01
1.785753342592e+01
1.718712583016e+01
2.038913478469e+01
2.059172803172e+01
2.211864743674e+01
2.590970785065e+01
2.090144758835e+01
-1.908738468691e+01
1.475981739879e+01
1.829938663945e+01
1.441846788897e+01
2.101063501019e+01
2.063956070474e+01
1.685138397519e+01
1.419950153888e+01
2.776841824476e+01
1.519739892107e+01
2.117953438663e+01
1.499193897091e+01
1.563306134962e+01
2.066336479737e+01
1.503041847130e+01
2.000724310351e+01
2.022620907035e+01
1.657804466605e+01
1.327650911643e+01
2.264219885263e+01
2.295547705968e+01
2.066408601692e+01
2.032695277726e+01
2.024490345182e+01
2.043924734513e+01
1.780099832455e+01
1.754241916826e+01
2.153521731391e+01
2.065338126913e+01
2.066743690349e+01
2.181347176420e+01
2.119177073347e+01
1.700158604299e+01
2.100955225234e+01
1.274160687581e+01
2.063780046153e+01
2.004542089041e+01
2.048500339647e+01
1.925407140889e+01
-4.948142717638e+01
1.798540917227e+01
1.889029045721e+01
2.056210405643e+01
1.758177719327e+01
2.062786313123e+01
2.193976684395e+01
2.113070882288e+01
1.946154171477e+01
2.035967449147e+01
1.453193422110e+01
2.061798944496e+01
2.255569277541e+01
2.172499539698e+01
1.612759004675e+01
1.587569287904e+01
2.090579413078e+01
1.737754939166e+01
2.066826339454e+01
1.815926589643e+01
2.178148202248e+01
1.807867098791e+01
2.257913669963e+01
2.168820170648e+01
2.137671904986e+01
1.791443985465e+01
1.918844329984e+01
2.207141505497e+01
1.777933915860e+01
1.830210122255e+01
1.970169215778e+01
1.799139586571e+01
2.054780881230e+01
2.304323790780e+01
2.101992639084e+01
1.909896713561e+01
1.518609561613e+01
2.064449452491e+01
2.124930246340e+01
2.001148427725e+01
3.472810529092e+00
2.098524922470e+01
1.912207323007e+01
1.840940952103e+01
2.062423782643e+01
2.123107424281e+01
1.498215203444e+01
1.611857762546e+01
2.257565007326e+01
1.980572566203e+01
2.263531865865e+01
1.756717872607e+01
1.573162556275e+01
2.165779016556e+01
1.671786120586e+01
1.785159018303e+01
2.259359419401e+01
1.859529119442e+01
1.966782572797e+01
-4.336786251938e+01
1.874124694933e+01
1.909866004355e+01
1.887850311326e+01
1.961328867774e+01
2.194402001131e+01
1.663813156110e+01
1.735271843770e+01
2.061735449064e+01
1.774991801588e+01
1.884479166374e+01
1.771486527736e+01
1.872313018578e+01
-3.735475037469e+01
1.653254188469e+01
1.712927478449e+01
-5.770951367685e+01
1.852393110645e+01
2.189742591483e+01
1.888312839731e+01
2.309731872952e+01
2.296015628133e+01
1.465028239235e+01
1.393050312299e+01
1.974610414565e+01
1.775332002579e+01
-4.658021850895e+01
8.412349673762e+00
-7.258521947695e+00
1.501360105643e+01
1.948411244018e+01
1.886494102244e+01
2.126436515605e+01
1.597899406349e+01
1.961334806631e+01
2.167793088960e+01
2.401090861402e+01
1.706323891278e+01
1.561250098006e+01
2.097763224826e+01
2.060954649019e+01
1.771500217691e+01
1.882861069253e+01
2.053824061845e+01
2.157848217831e+01
9.491234992058e+00
2.174850019021e+01
-2.265746565842e+00
1.851805290444e+01
1.891861761086e+01
-1.915667889156e+01
1.735775926329e+01
1.913277264561e+01
-4.741548689930e+01
1.390839750953e+01
1.395496967974e+01
2.258779607954e+01
1.557291079293e+01
1.786341917294e+01
1.927587557224e+01
2.100860898724e+01
2.041431591476e+01
1.853910072260e+01
1.404624329628e+01
2.254141444741e-01
1.508221687851e+01
1.404656155839e+01
1.408550945011e+01
-5.680680787712e+01
-1.935213710641e+01
-1.066758097347e+00
1.371927298385e+01
-1.939662280427e+01
1.802562431284e+01
3.460495842209e+00
1.543157740117e+01
1.733873370470e+01
1.393418107662e+01
1.954785457184e+01
2.171380757787e+01
1.673024923085e+01
1.607667500410e+01
-1.756971571654e+00
2.001405518577e+01
1.991428270810e+01
1.615630941638e+01
1.400316623055e+01
1.625548439460e+01
1.990294879539e+01
1.474826925998e+01
1.391394565576e+01
1.390852193072e+01
1.404902397180e+01
2.017615574625e+01
1.988322106930e+01
-1.975909102485e+01
-5.654476602392e+01
3.890126091892e+00
1.914044360912e+01
2.057900199149e+01
1.108210088772e+01
1.852949308009e+01
2.311929018413e+00
2.274940058615e+01
-2.017276288140e+01
1.856190858543e+01
2.271287438515e+01
2.063943078190e+01
1.726790712251e+01
1.586322563441e+01
-1.932152887268e+01
1.966400256337e+01
1.995882562511e+01
1.989737746637e+01
1.397178758229e+01
2.259346039363e+01
2.000132848239e+01
2.086829271655e+01
-2.365447717810e+00
-1.970873456227e+01
-2.047184315793e+01
1.695470628290e+01
2.069937818699e+01
1.955405189848e+01
-5.669699717956e+01
1.798546622613e+01
2.057922758917e+01
2.073828989166e+01
2.094192906300e+01
1.803683492657e+01
1.875859078750e+01
2.056592707422e+01
2.057407989799e+01
1.852734147721e+01
-4.660981693944e+01
1.409506295370e+01
1.404085049606e+01
-5.671747859341e+01
2.058620577039e+01
2.094256788549e+01
2.058250762207e+01
-4.723739431342e+01
-4.757648014824e+01
2.059941410006e+01
2.059282796387e+01
1.776867717980e+01
1.416147137865e+01
1.828413300119e+01
1.639572449901e+01
1.417837684148e+01
-4.569997543098e+01
-4.542609238581e+01
-4.660883962358e+01
-4.866203209277e+01
1.826875683645e+01
1.766990140854e+01
-5.649396693411e+01
1.944914057805e+01
-5.541557051139e+01
2.010013033287e+01
1.998358272602e+01
2.002865871543e+01
1.259858665218e+01
1.492234314684e+01
1.996919079875e+01
2.047242024810e+01
1.998682977504e+01
2.055544383940e+01
2.059927675708e+01
1.733624101960e+01
1.989191787389e+01
1.990767648087e+01
2.050249857475e+01
2.057306002022e+01
1.978917741183e+01
-2.153726658134e+01
1.809187445442e+01
-2.064385754758e+01
2.090897005934e+01
1.855300038775e+01
2.066732639621e+01
1.297114492664e+01
-3.548306784939e+00
2.063735871623e+01
1.847612042224e+01
1.662172581620e+01
2.058955002231e+01
1.914814064465e+01
1.655796548410e+01
2.170605268214e+01
2.055763979312e+01
1.996609462095e+01
2.015609932747e+01
2.248188559103e+01
1.497154065573e+01
1.882707966044e+01
1.973763355738e+01
2.056331868190e+01
2.041137859317e+01
1.364615799234e+01
1.910691639829e+01
1.868774690672e+01
1.567057866529e+01
2.053292384401e+01
1.983416394562e+01
1.915367462237e+01
1.892406150481e+01
1.976468532628e+01
2.059621420272e+01
1.856781043867e+01
2.022169776498e+01
2.081286156662e+01
1.910944449354e+01
1.786389114852e+01
2.157462593296e+01
1.330762124837e+01
1.331026915237e+01
5.776201551866e-01
1.236859925639e+00
1.891266033888e+01
2.057023430221e+01
-1.144139507890e+01
1.915845909906e+01
1.604934649536e+01
2.060674309734e+01
2.053398571536e+01
1.748619678422e+01
2.045516181640e+01
1.563492389952e+01
2.222841695573e+01
2.075786911234e+01
1.228861660482e+01
2.097446105577e+01
1.817591061149e+01
1.379371548184e+01
1.475580843471e+01
1.877407316234e+01
1.718908527589e+01
1.709728625623e+01
1.846110553528e+01
1.759496455013e+01
1.887496740163e+01
1.987333007567e+01
2.040811051718e+01
1.819927549594e+01
1.130856171031e+01
1.856885469076e+01
2.118343127052e+01
1.839600271846e+01
1.813689616302e+01
1.976610001665e+01
2.107511198352e+01
1.787793575302e+01
2.663548159077e+01
-9.991704094643e-01
2.302551706424e+01
2.061976735929e+01
1.755415177942e+01
1.912040020543e+01
1.644781457768e+01
2.154711757998e+01
1.894548276334e+01
2.057618041733e+01
1.306653465607e+01
2.090647295333e+01
1.885174019433e+01
1.367322813288e+01
1.853628497556e+01
1.755315443908e+01
1.546576320898e+01
1.914404863381e+01
-5.572749304925e+01
-5.470409807424e+01
1.972558651662e+01
1.234544734953e+01
1.983584765364e+01
1.979367596072e+01
1.798912166939e+01
1.686053479226e+01
1.880463456828e+01
2.496967264152e+01
1.768302803689e+01
2.145965798937e+01
1.028773882233e+01
1.686148426079e+01
1.603738963865e+01
1.009505648496e+01
2.122580785645e+01
1.802454552868e+01
1.231254945679e+01
1.898930588149e+01
1.902159811967e+01
1.414554670286e+01
1.368337701603e+01
1.399629172350e+01
2.014313198604e+01
1.904185354557e+01
1.914630678369e+01
1.883089458358e+01
1.989990835993e+01
2.054987478879e+01
1.113724972180e+01
2.058731128384e+01
1.805430909797e+01
1.901516743015e+01
1.752881964378e+01
1.832512418777e+01
2.237285878198e+01
1.862983391556e+01
1.825243069401e+01
1.892170916595e+01
1.708377147976e+01
1.691671890887e+01
1.781137318952e+01
1.882411413594e+01
1.490570731909e+01
4.818272482626e+00
1.778175119259e+01
1.453245302216e+01
2.099949335758e+01
1.812437422141e+01
2.077037531434e+01
2.090399328325e+01
1.808636168445e+01
1.339885981775e+01
6.489997492428e+00
2.043690089403e+01
1.727761362887e+01
-6.796987024414e-01
1.705408186291e+01
1.199689023402e+01
1.715600424996e+01
1.753939178016e+01
2.053928436626e+01
1.687727203596e+01
1.867136156309e+01
1.599318917168e+01
2.103430795327e+01
1.306792911496e+01
2.034173197217e+01
1.863931472385e+01
2.089211658600e+01
2.240177640273e+01
1.150392880949e+01
1.652307939091e+01
2.237945685216e+01
1.655399902828e+01
1.724988415290e+01
1.467717688880e+01
1.738429275404e+01
1.165847225292e+01
2.104249679237e+01
2.236795895962e+01
2.182028420243e+01
1.924119807263e+01
1.948169119971e+01
1.074067420218e+01
2.026357098804e+01
2.117972402563e+01
1.716823134054e+01
2.054990296797e+01
1.810121746198e+01
1.747954840829e+01
2.028013670410e+01
1.629426567521e+01
1.485208654730e+01
1.653868727020e+01
1.838004007946e+01
2.100643849826e+01
1.559188415816e+01
1.814428508741e+01
1.773231832261e+01
1.688585188772e+01
1.668009168715e+01
1.866863980333e+01
2.138658863482e+01
2.030294457420e+01
1.642733709914e+01
1.941356640837e+01
2.145631252378e+01
2.112034455987e+01
1.835257386428e+01
1.720245662164e+01
1.689320751960e+01
1.179378420750e+01
2.114571474031e+01
1.732787387452e+01
1.743205699707e+01
1.705290290045e+01
2.284915974814e+01
1.615898931907e+01
2.265975097611e+01
1.664115468843e+01
1.717427444133e+01
1.241857107967e+01
2.156551208121e+01
1.827207963804e+01
1.860503942897e+01
1.916052127225e+01
2.141660671412e+01
1.958763472253e+01
1.992487792363e+01
1.315429051785e+01
2.136503350241e+01
2.124726819893e+01
1.908676254516e+01
1.764422482370e+01
2.054756019550e+01
1.746451401249e+01
1.759999099504e+01
1.694691753548e+01
1.614445835582e+01
1.588430337250e+01
1.751107553869e+01
1.522502269135e+01
1.453129875519e+01
1.886412498691e+01
2.127086305352e+01
1.968318384645e+01
-4.663642458648e+01
2.144868269050e+01
1.961116345583e+01
1.801637442183e+01
1.708608339132e+01
1.881644334879e+01
1.655203356797e+01
1.781125543748e+01
1.842224728604e+01
1.674467406902e+01
3.224695275760e+00
9.100044924444e+00
1.633073187426e+01
1.680993772792e+01
2.059770026595e+01
1.831720254693e+01
1.293726899317e+01
9.843323200191e+00
1.653631856712e+01
1.573082585042e+01
2.174479191478e+01
1.979068712646e+01
1.696228257769e+01
1.873220324138e+01
1.967312274861e+01
2.249618038773e+01
1.947022474880e+01
1.516353235272e+01
1.809543458339e+01
2.076234391460e+01
2.036106090032e+01
1.352448511866e+01
1.758896716031e+01
1.907322118047e+01
2.015932059251e+01
1.589207235071e+01
1.975822058467e+01
2.108702247906e+01
2.209951275153e+01
1.646491785637e+01
2.239892607000e+01
1.770175528666e+01
2.239773736459e+01
2.154729227068e+01
1.655728158858e+01
2.142910192479e+01
2.011557828138e+01
1.976789967285e+01
1.786341210296e+01
1.550300468884e+01
1.737819969066e+01
1.891757773910e+01
2.101229617862e+01
1.904431556160e+01
1.777756517023e+01
1.734020813411e+01
1.342768678185e+01
1.956907694319e+01
1.031982669806e+01
2.126576021741e+01
1.907317893126e+01
2.223214579674e+01
1.677177400804e+01
1.848515392489e+01
2.154368806833e+01
2.298034262864e+01
1.916294556426e+01
2.131199194991e+01
1.795586377587e+01
2.248864256110e+01
1.619031556165e+01
1.819768989794e+01
2.045001956688e+01
2.131497560623e+01
1.853506781974e+01
1.673737571151e+01
1.633136303707e+01
1.938635101837e+01
2.150427205916e+01
2.165563327876e+01
7.581992475155e+00
2.295242900972e+01
2.282833371921e+01
2.184358549703e+01
1.841727839826e+01
1.934654757343e+01
1.918212276532e+01
1.904682839210e+01
1.606055911451e+01
1.843544180048e+01
2.107817436366e+01
1.921198690249e+01
1.789137496692e+01
1.832458261397e+01
2.284543397138e+01
1.823239345761e+01
1.895075787596e+01
1.828892044428e+01
1.798894048445e+01
2.134150722335e+01
2.124421209141e+01
2.152956559399e+01
2.056422110610e+01
1.369512022209e+01
2.201781267861e+01
1.787981844777e+01
1.436787819761e+01
2.238457328893e+01
2.262062374084e+01
2.313138140572e+01
2.274843809207e+01
2.253650699617e+01
2.261404151383e+01
1.575829004881e+01
1.905984830078e+01
1.726414858079e+01
1.487993664734e+01
2.323160963248e+01
1.945113520931e+01
2.219734069821e+01
1.935054215366e+01
2.311472325058e+01
1.955177265774e+01
1.735179058653e+01
1.817671033564e+01
2.233442912972e+01
2.317236226109e+01
1.597889620613e+01
2.139048577650e+01
1.888852842993e+01
2.150962203554e+01
2.151214341406e+01
2.246736117072e+01
1.825986823362e+01
2.056769521028e+01
2.137045618982e+01
-2.180070068085e+00
1.762512838481e+01
2.101377261346e+01
1.851632251508e+01
2.307495309886e+01
2.279570519582e+01
1.914025376925e+01
2.597778428952e+01
1.877765650151e+01
1.511657518027e+01
-2.769705375043e-01
2.022100879249e+01
1.925738784974e+01
1.702455394237e+01
1.822132456280e+01
1.792548851184e+01
1.909400133806e+01
2.134664702154e+01
1.938993854914e+01
1.398612964176e+01
1.832160672751e+01
1.719022982998e+01
2.316776261508e+01
1.996045903859e+01
4.887577624356e+00
2.116309448685e+01
2.256660893729e+01
1.756933514054e+01
2.446108880448e+01
2.132088884165e+01
1.586234952384e+01
1.628992728254e+01
2.207544979279e+01
2.112633294164e+01
2.122577289298e+01
1.619547025916e+01
1.814284895698e+01
2.122555901790e+01
1.766207350982e+01
1.934897702841e+01
1.843212235011e+01
1.866429516678e+01
2.271296484660e+01
2.109769365242e+01
1.818386769204e+01
2.200760250429e+01
9.040667547365e+00
2.103044845074e+01
2.334709030036e+01
1.592389554420e+01
2.141445078592e+01
1.269983156934e+01
1.933403810361e+01
2.203526500221e+01
1.910910508512e+01
1.932154251046e+01
2.212188461144e+01
1.870207399127e+01
2.216803775474e+01
1.952492512062e+01
1.073760917965e+01
1.947738303767e+01
1.221579674712e+01
1.279839943222e+01
2.289899283812e+01
1.347361805025e+01
2.115543881492e+01
2.067322823883e+01
2.292797958471e+01
2.188160718450e+01
2.294505681926e+01
1.898104297885e+01
1.943016759785e+01
2.113571718403e+01
2.122583624419e+01
2.169291849152e+01
1.869190021987e+01
2.306621284225e+01
2.094830292244e+01
1.846512278469e+01
1.840913464199e+01
2.282321111841e+01
2.261793308859e+01
1.981029984547e+01
1.779245976844e+01
2.023173102199e+01
2.255472574683e+01
1.733012408956e+01
1.839257539047e+01
2.083669768576e+01
1.815556687168e+01
2.259199788564e+01
1.872116441321e+01
2.196514579224e+01
1.875016446424e+01
1.973363315070e+01
1.725813875778e+01
2.186644166190e+01
2.311175160546e+01
2.190732442122e+01
1.892982358140e+01
1.914287466457e+01
1.977838198394e+01
2.315307519498e+01
2.347197348812e+01
2.067913647012e+01
2.016060750689e+01
2.220696133662e+01
2.295035431967e+01
2.175237624336e+01
2.221995963405e+01
2.312617783633e+01
1.773648354503e+01
2.075475316188e+01
1.810837985135e+01
2.037623827863e+01
1.734826445651e+01
1.653737839215e+01
1.820450074354e+01
2.145541729509e+01
2.108260905217e+01
1.788961326829e+01
1.933906198757e+01
1.694544309387e+01
2.233727067463e+01
2.059879759032e+01
1.918207375578e+01
2.058930379314e+01
2.015821294861e+01
2.233719135774e+01
1.816451212325e+01
1.584543690256e+01
2.133716217229e+01
1.639039885351e+01
2.171673104962e+01
2.059702009617e+01
2.251329445135e+01
2.416025776292e+01
1.934538706109e+01
1.621901545628e+01
2.219935386710e+01
2.069199694455e+01
1.786358418237e+01
2.122685044359e+01
2.126765070424e+01
2.659820861296e+01
2.074745575198e+01
1.879949849159e+01
2.178439086756e+01
2.007351267977e+01
2.180386845062e+01
2.144733690053e+01
2.080524973184e+01
1.722331800566e+01
1.958846060683e+01
2.278062535595e+01
2.084172287826e+01
2.056472392721e+01
2.264382921042e+01
1.894563264872e+01
2.342616562737e+01
1.975841942604e+01
2.180817366640e+01
1.983702478653e+01
1.997992438169e+01
2.242757703352e+01
2.094478711096e+01
1.937682761667e+01
2.088553539294e+01
2.150252922682e+01
2.196373185954e+01
1.949737688963e+01
2.070815720530e+01
1.876192220789e+01
1.997040799018e+01
1.759979423324e+01
2.095200600013e+01
2.133497972116e+01
1.420557347269e+01
1.421328979504e+01
1.799580494418e+01
1.971118113516e+01
1.958368753802e+01
1.840059353122e+01
2.106610499640e+01
2.153114301194e+01
2.164749128824e+01
1.996565105451e+01
1.562437423698e+01
2.042657747436e+01
1.958129954086e+01
2.249960646056e+01
1.867294094374e+01
1.914909877102e+01
1.825433938958e+01
1.757602665590e+01
1.868779494407e+01
1.884698218160e+01
7.802448403969e+00
1.887922338548e+01
1.675748838477e+01
1.793058163406e+01
1.816418280893e+01
2.144666320311e+01
1.122544047098e+01
2.144941640134e+01
1.840144882934e+01
1.847444240157e+01
1.296330203406e+01
1.351785437818e+01
1.755318523934e+01
2.166714182324e+01
1.934101953965e+01
2.206725816994e+01
2.335749218705e+01
2.051490115623e+01
1.890466750779e+01
1.912759101391e+01
2.098590348868e+01
-1.176503940417e+00
2.215525814368e+01
1.903499037179e+01
-1.658410168178e+00
1.893445137316e+01
2.297075194758e+01
1.800946941889e+01
1.817287740873e+01
2.229588458008e+01
2.213862989171e+01
1.913886755907e+01
2.216424349228e+01
1.959339060096e+01
1.905673773239e+01
2.676510522559e+01
2.453652088291e+01
2.034200171669e+01
1.689225257750e+01
2.052531239913e+01
2.055272586024e+01
1.873529808714e+01
2.017859713534e+01
1.410652034807e+01
2.018445484300e+01
2.084565769712e+01
2.002702429301e+01
1.935236463295e+01
1.927329376230e+01
1.933243744026e+01
2.151152230455e+01
1.867877154683e+01
2.225221582661e+01
2.197678555833e+01
2.081547027552e+01
2.281973654526e+01
2.300525944248e+01
2.274246559295e+01
1.832313394169e+01
2.233567469352e+01
1.831249547915e+01
2.151220668888e+01
2.173230152468e+01
2.112790479660e+01
1.724384814941e+01
2.086135848776e+01
2.075282903728e+01
2.194058042494e+01
1.860404894449e+01
2.074233397302e+01
1.209462643063e+01
1.937332658013e+01
3.104209312734e+01
2.076158893442e+01
2.307969113487e+01
1.886562290121e+01
2.153672426688e+01
1.722593868930e+01
1.687416130825e+01
1.928307911425e+01
1.174717826257e+01
1.235170745698e+01
2.068992896353e+01
2.201447332833e+01
2.279548824396e+01
2.239369321673e+01
2.285847506385e+01
2.239001668050e+01
1.141252541220e+01
1.608842058733e+01
1.421262826746e+01
2.177346448815e+01
2.142451229898e+01
2.106317762631e+01
2.050452533206e+01
2.318352880337e+01
2.072686535616e+01
2.209739207538e+01
2.107607140270e+01
2.006176948308e+01
2.055496247538e+01
2.161818326194e+01
1.729943839854e+01
1.859944799080e+01
2.291975788690e+01
1.821998949452e+01
1.996567505122e+01
2.094507460831e+01
2.251895565016e+01
1.962548828334e+01
1.820544101818e+01
2.818349677340e+01
2.224839050694e+01
2.184424989270e+01
6.830913085093e+00
1.937085201362e+01
1.942382584446e+01
1.725062205033e+01
1.059558640355e+01
2.013737481450e+01
3.499586537224e+01
1.112033887135e+01
2.234754950811e+01
1.913111107413e+01
1.425039815039e+01
2.157368670263e+01
2.165683202247e+01
1.977897399708e+01
2.201689493809e+01
1.933413670488e+01
2.309037260169e+01
1.911311199510e+01
1.920138502948e+01
1.545375146250e+01
1.459357055172e+01
1.726198790027e+01
1.983370935354e+01
-2.081688102244e+00
1.486977678706e+01
1.189631007950e+01
1.918054291753e+01
2.233506014697e+01
2.126630685659e+01
2.213856107195e+01
1.942653808953e+01
1.796883981609e+01
1.928153794292e+01
2.269104791496e+01
1.871282143268e+01
1.568921811993e+01
2.131855003406e+01
1.925740771529e+01
1.940981752955e+01
7.948169004198e+00
2.222225762931e+01
1.936816585590e+01
1.746360755198e+01
1.683832605953e+01
9.802270588797e+00
1.949534771964e+01
1.991223966236e+01
1.886348577099e+01
2.104630405632e+01
1.093433297320e+01
2.011853769825e+01
2.205166595150e+01
9.787867637997e+00
1.935086272099e+01
1.429503156623e+01
1.495365741251e+01
1.947240843456e+01
2.200820601679e+01
1.937919892058e+01
2.657920616882e+01
1.897077304017e+01
2.123891411001e+01
2.168433120220e+01
2.093707481322e+01
1.956953139544e+01
1.954625391102e+01
2.244756433946e+01
5.398994366018e+00
2.827008113219e+01
1.964444249280e+01
2.176490022185e+01
1.828546681684e+01
1.896084818919e+01
1.099006548476e+01
1.876856577127e+01
2.118749353132e+01
8.616346327862e+00
1.997161073450e+01
2.057333038021e+01
1.546336176752e+01
2.000422385668e+01
2.048029026501e+01
2.236957564418e+01
3.343829916898e+00
3.499586537224e+01
1.928261416426e+01
1.764015371491e+01
1.416403932647e+01
2.072629700648e+01
1.256068556716e+01
2.083774102768e+01
1.761996814872e+01
1.784952374222e+01
2.023109956023e+01
1.931798031427e+01
1.675810598479e+01
1.808903569923e+01
1.830280859587e+01
2.053690233474e+01
2.094313617002e+01
1.901851816536e+01
8.422329927008e+00
2.209238798914e+01
1.845385425577e+01
1.730418334963e+01
1.661862627975e+01
2.081422211159e+01
1.731721259372e+01
4.191217585142e+00
6.711715639064e+00
1.648643882186e+01
2.208831298487e+01
2.151395557473e+01
1.909170643913e+01
1.964816090059e+01
7.300003101336e+00
1.803483709059e+01
2.004397186262e+01
2.264570076939e+01
1.986273016244e+01
1.276387627485e+01
2.129172702784e+01
1.879401158784e+01
2.178482368323e+01
2.377014525227e+01
2.226332667966e+01
1.408984135373e+01
2.158839332229e+01
2.221135317689e+01
2.095482480806e+01
1.725368929083e+01
1.608424417608e+01
2.105117695407e+01
2.243942071539e+01
1.127241995576e+01
1.725738504476e+01
1.934462951384e+01
1.896288728942e+01
-1.831972276802e+01
2.213241775462e+01
1.403443827783e+01
1.478202315574e+01
1.937587483571e+01
2.138836737084e+01
1.931595371810e+01
2.159094955733e+01
1.412459102299e+01
2.081773593227e+01
1.274297378102e+01
2.168563095396e+01
2.125380673988e+01
9.529121740408e+00
1.845882954140e+01
2.256086411943e+01
3.037019546228e+00
2.199387196059e+01
1.973234829188e+01
1.834012696758e+01
1.021989366421e+01
1.883624434834e+01
1.910028931127e+01
2.115483828237e+01
1.706578254630e+01
1.433033856604e+01
2.177923932105e+01
1.710388249543e+01
8.549464112486e+00
2.035422576636e+01
1.987762685341e+01
1.601739336552e+01
1.954128893216e+01
1.996764229843e+01
2.171113927668e+01
2.043954701454e+01
2.123110372665e+01
8.638473293992e+00
1.340965666042e+01
1.897664844361e+01
1.666998507132e+01
2.068231992818e+01
2.720174714234e+00
4.699673048914e+00
1.581752813261e+01
2.182050544697e+01
1.530654447692e+01
2.091941920279e+01
2.079767633873e+01
2.088579227516e+01
2.061902353756e+01
1.496902730297e+01
7.765140415360e+00
1.653626467290e+01
1.725021849507e+01
6.313606338193e+00
2.185244297848e+01
1.909929337375e+01
2.077865987203e+01
2.099937242360e+01
1.906766587427e+01
1.963515134878e+01
1.929228516577e+01
1.866987604731e+01
1.989510815346e+01
2.067672827245e+01
1.605096622338e+01
1.867809170092e+01
1.828687363775e+00
1.855868919464e+01
2.058592267803e+01
2.787851779640e+01
2.531162776702e+01
2.150676311311e+01
1.506279615420e+01
1.933664543932e+01
1.915074773721e+01
2.100346692220e+01
1.909564646959e+01
1.616457405418e+01
1.585041074058e+01
1.627314213319e+01
1.772673609994e+01
2.091792763858e+01
1.396095524753e+01
1.519095368999e+01
1.595652321899e+01
1.620243949121e+01
2.320512632780e+01
1.539250381315e+01
1.964277032608e+01
1.693594179024e+01
2.091761836334e+01
1.963049913394e+01
1.851721158587e+01
1.931979334099e+01
1.766700059735e+01
1.727445507912e+01
2.109764399003e+01
2.236740927015e+01
1.404007155807e+01
2.065714360933e+01
8.656995798583e+00
1.520029524764e+01
2.150554212113e+01
-5.597363602703e+00
-2.281384840433e+01
1.992130620875e+01
1.403070678638e+01
1.957750981232e+01
2.114256467549e+01
1.403138011081e+01
8.476199900344e+00
1.967729588691e+01
7.943346292570e+00
1.941962666648e+01
2.058041255503e+01
1.956076254360e+01
2.248623630837e+01
1.585776924425e+01
1.759484840953e+01
2.102063961236e+01
2.089055248126e+01
1.832222012827e+01
2.097638127060e+01
2.662604572004e+01
2.076040172969e+01
1.973131297759e+01
8.467854098022e+00
2.122730264368e+01
1.969557156103e+01
1.974000869843e+01
1.507873621097e+01
1.605031464726e+01
1.701671357322e+01
1.993411775433e+01
1.632943515682e+01
2.286985965001e+01
2.108551075241e+01
1.409639978429e+01
1.951827741888e+01
1.987637714545e+01
1.997555295412e+01
-4.538136205718e+01
-5.202790180434e+01
1.433747385684e+01
1.420170404628e+01
2.057609249855e+01
2.062730338386e+01
-2.343518685793e+01
8.989953242812e+00
2.065623217284e+01
2.060902416830e+01
1.216976742022e+01
2.080860050643e+01
1.923808066618e+01
1.856474230796e+01
1.731062531992e+01
1.495701957890e+01
2.121252406279e+01
6.559470029493e+00
1.817440524216e+01
1.977874116727e+01
1.918186301369e+01
1.848930990783e+01
1.658412854970e+01
2.028485231665e+01
1.933363099679e+01
1.895583625661e+01
1.411073971962e+01
2.169417078541e+01
1.953427219378e+01
1.411645983348e+01
-2.434310613318e+01
2.002953443894e+01
2.170850429445e+01
1.461219829043e+01
1.774790374122e+01
2.061094235310e+01
2.037048993764e+01
2.046421015163e+01
1.956518373514e+01
2.591184281929e+01
-3.855298645059e+00
1.243960723017e+01
1.585395028193e+01
2.130830877093e+01
1.943482995816e+01
2.090433405201e+01
6.860618100144e+00
-2.736506574083e+00
2.167673294201e+00
1.792065719461e+01
1.614566513096e+01
1.948917485301e+01
1.304707661569e+01
2.117119428814e+01
1.583662710649e+01
2.067479301915e+01
2.079948868930e+01
1.586006037594e+01
2.118843458267e+01
1.970807360530e+01
1.962697515037e+01
2.092122915136e+01
1.934857868326e+01
2.032312457172e+01
2.136065920018e+01
2.086758597519e+01
2.058730514707e+01
1.892515881160e+01
9.250076563017e+00
2.185887763800e+01
1.947695790163e+01
1.651647966804e+01
2.056247990002e+01
2.073277520007e+01
2.069414365325e+01
1.845148020627e+01
2.073506510305e+01
2.112250178692e+01
2.120542692458e+01
1.617932708393e+01
2.074722424070e+01
1.491055501141e+01
1.931300867767e+01
-3.523964122360e-01
1.899532717356e+01
1.777969805074e+01
-2.124795095295e+00
2.213017859414e+01
1.920213199405e+01
1.970075311754e+01
1.938111203205e+01
2.098958908491e+01
1.654572051070e+01
-2.529877298212e+01
2.561704157978e+01
-1.692227676566e+01
4.776335193588e+00
3.499586537224e+01
1.801889381758e+01
2.058926593593e+01
1.956088006696e+01
1.648805080256e+01
1.758120861556e+01
2.106531229047e+01
2.150321987193e+01
2.087856080766e+01
2.017858574403e+01
1.955140083036e+01
-2.631709647900e+00
2.315156942642e+01
2.066883171574e+01
-1.450814707851e+00
3.784965087533e+00
2.699154202490e+01
-6.748076782320e+00
2.086780916698e+01
2.012802637309e+01
1.945939408149e+01
2.069226250813e+01
2.150036696255e+01
1.696240314104e+01
2.006796833506e+01
1.824001251244e+01
1.396432856680e+01
1.344398998004e+01
-2.102717802503e+01
2.069563791078e+01
1.505825578773e+01
6.332711163754e+00
1.775540280836e+01
2.002124914836e+01
1.939160940821e+01
1.980813680977e+01
1.530897952732e+01
2.130733670574e+01
2.092160223458e+01
1.988976568510e+01
2.068673996039e+01
1.504728817703e+01
2.115541717025e+01
7.785203308675e+00
1.952092131842e+01
-2.314045134598e+01
2.090910003250e+01
1.973339106256e+01
1.864815230451e+01
2.047245789868e+01
1.818942291254e+01
1.971624646059e+01
2.067548584239e+01
1.745738509521e+01
2.007593833840e+01
1.950706001935e+01
1.782813682656e+01
1.985014605253e+01
1.676589815426e+01
1.414215600054e+01
2.076600962609e+01
1.970423216920e+01
-5.827843085784e+01
1.420579377063e+01
2.058764211637e+01
9.288344853737e+00
2.150825923104e+01
1.948262898721e+01
1.963428869488e+01
1.112781703394e+01
2.539545518039e+01
1.877836073775e+01
1.875599334234e+01
1.011779651279e+01
1.978836899549e+01
1.728074337248e+01
1.421083222541e+01
1.678557339388e+01
2.074638157238e+01
1.897276464667e+01
3.499586537224e+01
1.625668508017e+01
1.839970635642e+01
1.911382223971e+01
2.092431284642e+01
1.820740188069e+01
1.849839372310e+01
-7.346054615442e+00
2.091763229639e+01
2.002825724323e+01
2.391613588101e+01
1.969870057254e+01
2.058073626017e+01
1.510156230717e+01
1.725392142415e+01
1.820115226822e+01
1.835963734118e+01
1.854308443520e+01
2.144238190638e+01
1.166946532172e+01
2.006941038121e+01
1.595882906689e+01
1.967829862399e+01
2.136168032561e+01
1.673845845139e+01
1.964596593322e+01
2.092576824465e+01
2.097524183507e+01
3.171237216742e+01
1.964406792050e+01
1.983721764386e+01
-7.153368121263e+00
1.795123192021e+01
2.920965043965e+01
1.978071890085e+01
-4.806098163559e+01
-3.975497569792e+01
-4.856925079122e+01
-4.031641801618e+01
-4.889190849315e+01
-4.069809819059e+01
-4.955718379485e+01
-4.109011657319e+01
-5.054974214416e+01
-4.156992592369e+01
-5.186264108472e+01
-4.216552972141e+01
-5.350441927555e+01
-4.288658749399e+01
-5.541328877555e+01
-4.372103701675e+01
-5.629576721071e+01
-4.463033554265e+01
-5.646057577974e+01
-1.866154012356e+01
-4.555974907164e+01
-5.657900628910e+01
-4.643648352303e+01
-1.943620464660e+01
-5.666996471467e+01
-4.719011269172e+01
-5.670789581845e+01
-4.779488634969e+01
-5.662954188569e+01
-4.285028247417e+01
-4.825483022196e+01
-5.640577842073e+01
-4.836439135297e+01
-5.600338555554e+01
-4.911674493425e+01
8.798231897342e+01
-5.013543037362e+01
8.614139096584e+01
-5.100472619790e+01
8.614143110859e+01
-4.908220571073e+01
-9.703376585145e-01
-4.452522428390e+01
8.805375868432e+01
-3.832227099785e+01
-5.504480257883e+01
-3.207078311568e+01
-5.476075796121e+01
-4.522563511958e+01
-6.900559234624e+00
-4.220727696304e+01
-4.188587039876e+01
-3.726844560345e+01
-5.108401181531e+01
7.410176028816e+00
-1.648328145024e+01
-1.830901910982e+01
-1.834995714552e+01
-1.844915068710e+01
-1.838986093093e+01
-1.843342245774e+01
-1.833317191499e+01
-1.839373361447e+01
-1.826461227295e+01
-1.834023303489e+01
-1.818435059692e+01
-1.827773420648e+01
-1.809066425586e+01
-1.819885642458e+01
-1.797818451922e+01
-1.810000269782e+01
-1.784690020885e+01
-1.798725506866e+01
-5.959879296411e+00
-1.769874083040e+01
-1.785471404217e+01
-1.753167459007e+01
-1.288238424320e+01
-1.769162243814e+01
-8.179718617269e+00
-1.734486414531e+01
-1.748497806909e+01
-1.714154733007e+01
-1.721837068167e+01
-1.694780678201e+01
-1.694686138295e+01
-1.680121185022e+01
-1.653696109073e+01
-2.478089019386e+00
-1.661917488595e+01
-1.606965092344e+01
-1.615509420558e+01
-1.543308641352e+01
-1.490218644624e+01
-1.553025533597e+01
-1.373576609457e+01
-1.497933075521e+01
-1.294038174853e+01
-1.047350175435e+01
-1.363260487366e+01
-1.175525332212e+01
-9.137971984298e+00
-1.860666311454e+01
-1.618724478857e+01
-2.418511253051e+01
-1.279426868281e+01
-5.110196051751e+00
-4.334648649870e+00
-3.423266121587e+00
-3.429065547081e+00
-3.358231981338e+00
-3.378147014351e+00
-3.344414648943e+00
-3.364800930335e+00
-3.327096480726e+00
-3.346821969579e+00
-3.305764430267e+00
-3.323748908434e+00
-3.282212550355e+00
-3.297159019410e+00
-3.251738280920e+00
-3.259915378809e+00
-3.213397056254e+00
-3.209968083635e+00
2.677732331059e+00
-3.172201691769e+00
-3.153191933200e+00
7.780482014028e-01
-3.124674177827e+00
-3.080876117429e+00
-3.068272464384e+00
-2.985332166791e+00
-3.000528103658e+00
-2.766114405640e-01
-2.856455544785e+00
-2.916826216309e+00
-2.673538377340e+00
-2.763343047877e+00
-2.393657138669e+00
-2.498251888406e+00
-1.973880365082e+00
-2.137649842312e+00
-1.503041417189e+00
-1.631585740382e+00
3.174569550497e+00
-8.251327890987e-01
-7.921712490833e-01
9.432755277432e-03
1.915165379143e-02
1.534493015338e+00
-1.146645095211e+00
-2.997688709906e+00
-4.254884849206e+00
-1.272498213369e+00
-6.554032058549e+00
9.665653145244e-01
4.395397056058e+00
3.918258702414e+00
3.892954628802e+00
3.870379946448e+00
3.854764897312e+00
3.864499080134e+00
3.842999489972e+00
3.857797679248e+00
3.825492861197e+00
3.850545288248e+00
3.805052889039e+00
3.850805591911e+00
3.790965361481e+00
3.851536145333e+00
3.772084357918e+00
3.858825372116e+00
7.429515357245e+00
3.753383284058e+00
3.873371195179e+00
5.663590448412e+00
3.740636187632e+00
3.895148498369e+00
6.055059699378e+00
3.729933489461e+00
3.929580886888e+00
3.725355549279e+00
3.981374789918e+00
3.736870599567e+00
4.068990902788e+00
7.582003386002e+00
3.828758891181e+00
4.293398623879e+00
4.040660407247e+00
4.544279402901e+00
4.974952563363e+00
4.327893077400e+00
5.344739288059e+00
4.762068399412e+00
6.160700334757e+00
5.256264496583e+00
5.492150858213e+00
3.750516049891e+00
4.497274233097e+00
2.589312943034e+00
5.360379015123e+00
6.538232523621e+00
7.886812923153e+00
8.152861041354e+00
8.162159236172e+00
8.146376018250e+00
8.154435432879e+00
8.130606715106e+00
8.141475359815e+00
8.102884447006e+00
8.117695625559e+00
8.070345598486e+00
8.091402836402e+00
8.034872169500e+00
8.071966165909e+00
7.992977518101e+00
8.044860731537e+00
9.692061992280e+00
7.931500194478e+00
8.834998013015e+00
8.010622424873e+00
7.898741067334e+00
8.005655513719e+00
7.875055548815e+00
8.004369735786e+00
7.850271221346e+00
8.565594401353e+00
8.011875403985e+00
7.839398224245e+00
8.041076679573e+00
7.867371585029e+00
8.121677137519e+00
7.975195028579e+00
8.361003381159e+00
8.230673852035e+00
8.477163272268e+00
8.607285129981e+00
9.626336993293e+00
9.062587106623e+00
8.258260698482e+00
8.378321554149e+00
7.840710595176e+00
8.932048932826e+00
7.178996187955e+00
9.030080538400e+00
1.116606009472e+01
1.093707236960e+01
1.091450388150e+01
1.089240507373e+01
1.087485728527e+01
1.088391762975e+01
1.085922346216e+01
1.085381159616e+01
1.081731783310e+01
1.082818809808e+01
1.078427389080e+01
1.079299384508e+01
1.073481489961e+01
1.145324466958e+01
1.076451278263e+01
1.068734362285e+01
1.064356580329e+01
1.069349979175e+01
1.061363483315e+01
1.087252049882e+01
1.066731533147e+01
1.056310043202e+01
1.066248512785e+01
1.054250736084e+01
1.064960075361e+01
1.132784467740e+01
1.051502093775e+01
1.065486879036e+01
1.069781970904e+01
1.052498241469e+01
1.075045129472e+01
1.058359291621e+01
1.108740641612e+01
1.067711522386e+01
1.035072344192e+01
1.081130157082e+01
1.124302825675e+01
1.040396326899e+01
1.155602709904e+01
1.081386813770e+01
1.278734215889e+01
1.285251389356e+01
1.285045196274e+01
1.286353849385e+01
1.284029259927e+01
1.285333898510e+01
1.283957166240e+01
1.280032948616e+01
1.278684567116e+01
1.278164710653e+01
1.277162022157e+01
1.274325033457e+01
1.290979703090e+01
1.272633356770e+01
1.259726226137e+01
1.267320918036e+01
1.269514813242e+01
1.265559418848e+01
1.262874201308e+01
1.260407310070e+01
1.260024749924e+01
1.255553931776e+01
1.229526164164e+01
1.259194316359e+01
1.250928347716e+01
1.256092634551e+01
1.248609512416e+01
1.251704765174e+01
1.257894182109e+01
1.266054556836e+01
1.277152607558e+01
1.203600900577e+01
1.295898383509e+01
1.275334321282e+01
1.329165506420e+01
1.238276052736e+01
1.232865260322e+01


