# vtk DataFile Version 2.0
Calculation C:\Users\NickSteudtner\Documents\GitHub\TOCHNOG\standsicherheit_phiC at time 7.000000000000e+00 
ASCII
DATASET UNSTRUCTURED_GRID
Field FieldData 1
Time 1 1 double
7.000000000000e+00

POINTS 1112 float
0.0 0.0 0.0 
5.000000000000e+01 -1.000000000000e+01 0.0 
0.0 -2.000000000000e+01 0.0 
5.000000000000e+01 -2.000000000000e+01 0.0 
0.0 -9.999999999991e-01 0.0 
0.0 -1.999999999998e+00 0.0 
0.0 -2.999999999997e+00 0.0 
0.0 -3.999999999994e+00 0.0 
0.0 -4.999999999991e+00 0.0 
0.0 -5.999999999988e+00 0.0 
0.0 -6.999999999985e+00 0.0 
0.0 -7.999999999982e+00 0.0 
0.0 -8.999999999983e+00 0.0 
0.0 -9.999999999985e+00 0.0 
0.0 -1.099999999999e+01 0.0 
0.0 -1.199999999999e+01 0.0 
0.0 -1.299999999999e+01 0.0 
0.0 -1.399999999999e+01 0.0 
0.0 -1.499999999999e+01 0.0 
0.0 -1.599999999999e+01 0.0 
0.0 -1.700000000000e+01 0.0 
0.0 -1.800000000000e+01 0.0 
0.0 -1.900000000000e+01 0.0 
4.900000000001e+01 -2.000000000000e+01 0.0 
4.800000000001e+01 -2.000000000000e+01 0.0 
4.700000000002e+01 -2.000000000000e+01 0.0 
4.600000000003e+01 -2.000000000000e+01 0.0 
4.500000000004e+01 -2.000000000000e+01 0.0 
4.400000000004e+01 -2.000000000000e+01 0.0 
4.300000000005e+01 -2.000000000000e+01 0.0 
4.200000000006e+01 -2.000000000000e+01 0.0 
4.100000000006e+01 -2.000000000000e+01 0.0 
4.000000000007e+01 -2.000000000000e+01 0.0 
3.900000000008e+01 -2.000000000000e+01 0.0 
3.800000000009e+01 -2.000000000000e+01 0.0 
3.700000000009e+01 -2.000000000000e+01 0.0 
3.600000000010e+01 -2.000000000000e+01 0.0 
3.500000000011e+01 -2.000000000000e+01 0.0 
3.400000000011e+01 -2.000000000000e+01 0.0 
3.300000000012e+01 -2.000000000000e+01 0.0 
3.200000000013e+01 -2.000000000000e+01 0.0 
3.100000000013e+01 -2.000000000000e+01 0.0 
3.000000000013e+01 -2.000000000000e+01 0.0 
2.900000000013e+01 -2.000000000000e+01 0.0 
2.800000000013e+01 -2.000000000000e+01 0.0 
2.700000000013e+01 -2.000000000000e+01 0.0 
2.600000000013e+01 -2.000000000000e+01 0.0 
2.500000000013e+01 -2.000000000000e+01 0.0 
2.400000000013e+01 -2.000000000000e+01 0.0 
2.300000000013e+01 -2.000000000000e+01 0.0 
2.200000000013e+01 -2.000000000000e+01 0.0 
2.100000000013e+01 -2.000000000000e+01 0.0 
2.000000000013e+01 -2.000000000000e+01 0.0 
1.900000000013e+01 -2.000000000000e+01 0.0 
1.800000000013e+01 -2.000000000000e+01 0.0 
1.700000000012e+01 -2.000000000000e+01 0.0 
1.600000000011e+01 -2.000000000000e+01 0.0 
1.500000000011e+01 -2.000000000000e+01 0.0 
1.400000000010e+01 -2.000000000000e+01 0.0 
1.300000000009e+01 -2.000000000000e+01 0.0 
1.200000000009e+01 -2.000000000000e+01 0.0 
1.100000000008e+01 -2.000000000000e+01 0.0 
1.000000000007e+01 -2.000000000000e+01 0.0 
9.000000000064e+00 -2.000000000000e+01 0.0 
8.000000000057e+00 -2.000000000000e+01 0.0 
7.000000000050e+00 -2.000000000000e+01 0.0 
6.000000000043e+00 -2.000000000000e+01 0.0 
5.000000000036e+00 -2.000000000000e+01 0.0 
4.000000000028e+00 -2.000000000000e+01 0.0 
3.000000000021e+00 -2.000000000000e+01 0.0 
2.000000000014e+00 -2.000000000000e+01 0.0 
1.000000000007e+00 -2.000000000000e+01 0.0 
5.000000000000e+01 -1.100000000000e+01 0.0 
5.000000000000e+01 -1.200000000000e+01 0.0 
5.000000000000e+01 -1.300000000000e+01 0.0 
5.000000000000e+01 -1.400000000000e+01 0.0 
5.000000000000e+01 -1.500000000000e+01 0.0 
5.000000000000e+01 -1.600000000000e+01 0.0 
5.000000000000e+01 -1.700000000000e+01 0.0 
5.000000000000e+01 -1.800000000000e+01 0.0 
5.000000000000e+01 -1.900000000000e+01 0.0 
2.000000000000e+01 0.0 0.0 
3.500000000000e+01 -1.000000000000e+01 0.0 
2.150000000000e+01 -1.000000000000e+00 0.0 
2.300000000000e+01 -2.000000000000e+00 0.0 
2.450000000000e+01 -3.000000000000e+00 0.0 
2.600000000000e+01 -4.000000000000e+00 0.0 
2.750000000000e+01 -5.000000000000e+00 0.0 
2.900000000000e+01 -6.000000000000e+00 0.0 
3.050000000000e+01 -7.000000000000e+00 0.0 
3.200000000000e+01 -8.000000000000e+00 0.0 
3.350000000000e+01 -9.000000000000e+00 0.0 
5.000000000000e+01 -6.000000000000e+00 0.0 
5.000000000000e+01 -7.000000000000e+00 0.0 
5.000000000000e+01 -8.000000000000e+00 0.0 
5.000000000000e+01 -9.000000000000e+00 0.0 
4.900000000000e+01 -1.000000000000e+01 0.0 
4.800000000000e+01 -1.000000000000e+01 0.0 
4.700000000000e+01 -1.000000000000e+01 0.0 
4.600000000000e+01 -1.000000000000e+01 0.0 
4.500000000000e+01 -1.000000000000e+01 0.0 
4.400000000000e+01 -1.000000000000e+01 0.0 
4.300000000000e+01 -1.000000000000e+01 0.0 
4.200000000000e+01 -1.000000000000e+01 0.0 
4.100000000000e+01 -1.000000000000e+01 0.0 
4.000000000000e+01 -1.000000000000e+01 0.0 
3.900000000000e+01 -1.000000000000e+01 0.0 
3.800000000000e+01 -1.000000000000e+01 0.0 
3.700000000000e+01 -1.000000000000e+01 0.0 
3.600000000000e+01 -1.000000000000e+01 0.0 
1.900000000000e+01 0.0 0.0 
1.800000000000e+01 0.0 0.0 
1.700000000000e+01 0.0 0.0 
1.600000000000e+01 0.0 0.0 
1.500000000000e+01 0.0 0.0 
1.400000000000e+01 0.0 0.0 
1.300000000000e+01 0.0 0.0 
1.200000000000e+01 0.0 0.0 
1.100000000000e+01 0.0 0.0 
1.000000000000e+01 0.0 0.0 
9.000000000000e+00 0.0 0.0 
8.000000000000e+00 0.0 0.0 
7.000000000000e+00 0.0 0.0 
6.000000000000e+00 0.0 0.0 
5.000000000000e+00 0.0 0.0 
4.000000000000e+00 0.0 0.0 
3.000000000000e+00 0.0 0.0 
2.000000000000e+00 0.0 0.0 
1.000000000000e+00 0.0 0.0 
4.900000000001e+01 -6.000000000000e+00 0.0 
4.800000000003e+01 -6.000000000000e+00 0.0 
4.700000000004e+01 -6.000000000000e+00 0.0 
4.600000000006e+01 -6.000000000000e+00 0.0 
4.500000000007e+01 -6.000000000000e+00 0.0 
4.400000000009e+01 -6.000000000000e+00 0.0 
4.300000000010e+01 -6.000000000000e+00 0.0 
4.200000000012e+01 -6.000000000000e+00 0.0 
4.100000000013e+01 -6.000000000000e+00 0.0 
4.000000000014e+01 -6.000000000000e+00 0.0 
3.900000000014e+01 -6.000000000000e+00 0.0 
3.800000000012e+01 -6.000000000000e+00 0.0 
3.700000000010e+01 -6.000000000000e+00 0.0 
3.600000000008e+01 -6.000000000000e+00 0.0 
3.500000000006e+01 -6.000000000000e+00 0.0 
3.400000000005e+01 -6.000000000000e+00 0.0 
3.300000000003e+01 -6.000000000000e+00 0.0 
3.200000000001e+01 -6.000000000000e+00 0.0 
3.100000000000e+01 -6.000000000000e+00 0.0 
3.000000000000e+01 -6.000000000000e+00 0.0 
3.147499999998e+01 -7.000000000000e+00 0.0 
3.244999999998e+01 -7.000000000000e+00 0.0 
3.342499999998e+01 -7.000000000000e+00 0.0 
3.439999999998e+01 -7.000000000000e+00 0.0 
3.537499999998e+01 -7.000000000000e+00 0.0 
3.634999999998e+01 -7.000000000000e+00 0.0 
3.732499999998e+01 -7.000000000000e+00 0.0 
3.829999999998e+01 -7.000000000000e+00 0.0 
3.927499999999e+01 -7.000000000000e+00 0.0 
4.024999999999e+01 -7.000000000000e+00 0.0 
4.122499999999e+01 -7.000000000000e+00 0.0 
4.219999999999e+01 -7.000000000000e+00 0.0 
4.317499999999e+01 -7.000000000000e+00 0.0 
4.414999999999e+01 -7.000000000000e+00 0.0 
4.512499999999e+01 -7.000000000000e+00 0.0 
4.609999999999e+01 -7.000000000000e+00 0.0 
4.707500000000e+01 -7.000000000000e+00 0.0 
4.805000000000e+01 -7.000000000000e+00 0.0 
4.902500000000e+01 -7.000000000000e+00 0.0 
4.900000000000e+01 -8.000000000000e+00 0.0 
4.800000000000e+01 -8.000000000000e+00 0.0 
4.700000000000e+01 -8.000000000000e+00 0.0 
4.600000000000e+01 -8.000000000000e+00 0.0 
4.500000000000e+01 -8.000000000000e+00 0.0 
4.400000000000e+01 -8.000000000000e+00 0.0 
4.300000000000e+01 -8.000000000000e+00 0.0 
4.200000000000e+01 -8.000000000000e+00 0.0 
4.100000000000e+01 -8.000000000000e+00 0.0 
4.000000000000e+01 -8.000000000000e+00 0.0 
3.900000000000e+01 -8.000000000000e+00 0.0 
3.800000000000e+01 -8.000000000000e+00 0.0 
3.700000000000e+01 -8.000000000000e+00 0.0 
3.600000000000e+01 -8.000000000000e+00 0.0 
3.500000000000e+01 -8.000000000000e+00 0.0 
3.400000000000e+01 -8.000000000000e+00 0.0 
3.300000000000e+01 -8.000000000000e+00 0.0 
3.447058823527e+01 -9.000000000000e+00 0.0 
3.544117647055e+01 -9.000000000000e+00 0.0 
3.641176470582e+01 -9.000000000000e+00 0.0 
3.738235294109e+01 -9.000000000000e+00 0.0 
3.835294117637e+01 -9.000000000000e+00 0.0 
3.932352941164e+01 -9.000000000000e+00 0.0 
4.029411764691e+01 -9.000000000000e+00 0.0 
4.126470588219e+01 -9.000000000000e+00 0.0 
4.223529411748e+01 -9.000000000000e+00 0.0 
4.320588235279e+01 -9.000000000000e+00 0.0 
4.417647058811e+01 -9.000000000000e+00 0.0 
4.514705882342e+01 -9.000000000000e+00 0.0 
4.611764705874e+01 -9.000000000000e+00 0.0 
4.708823529405e+01 -9.000000000000e+00 0.0 
4.805882352937e+01 -9.000000000000e+00 0.0 
4.902941176468e+01 -9.000000000000e+00 0.0 
2.075000000000e+01 -5.000000000006e-01 0.0 
2.225000000000e+01 -1.500000000000e+00 0.0 
2.375000000000e+01 -2.500000000000e+00 0.0 
2.525000000000e+01 -3.500000000000e+00 0.0 
2.675000000000e+01 -4.500000000000e+00 0.0 
2.825000000000e+01 -5.500000000000e+00 0.0 
2.975000000000e+01 -6.500000000000e+00 0.0 
3.125000000000e+01 -7.500000000000e+00 0.0 
3.275000000000e+01 -8.500000000000e+00 0.0 
3.425000000000e+01 -9.500000000000e+00 0.0 
2.226951693683e+01 -2.403913980114e+00 0.0 
1.650149491944e+01 -1.913490915758e+01 0.0 
1.050042386896e+01 -8.504605092970e-01 0.0 
1.553146524712e+01 -8.281255032105e-01 0.0 
1.150000000008e+01 -1.913397459621e+01 0.0 
2.530060260647e+01 -4.428336431260e+00 0.0 
8.651114563942e-01 -1.052096295641e+01 0.0 
2.050000000013e+01 -1.913397459622e+01 0.0 
2.819198729811e+01 -6.399519052838e+00 0.0 
2.445670302931e+01 -1.915649188023e+01 0.0 
3.117591465718e+01 -8.394293040695e+00 0.0 
7.465053044742e+00 -1.920411160581e+01 0.0 
6.398295709691e+00 -8.230098819370e-01 0.0 
2.849659607461e+01 -1.914296187762e+01 0.0 
3.418732642882e+01 -1.040265792588e+01 0.0 
8.386450935063e-01 -6.533605142809e+00 0.0 
9.178661865596e-01 -1.329769195597e+01 0.0 
3.149448624493e+01 -1.910466733764e+01 0.0 
3.552916747426e+01 -1.914628590759e+01 0.0 
4.449210346537e+01 -1.914359085008e+01 0.0 
4.140975975145e+01 -1.906941860733e+01 0.0 
3.847475958753e+01 -1.916622382724e+01 0.0 
3.653774794640e+01 -1.088712800241e+01 0.0 
4.047886341787e+01 -1.090139014048e+01 0.0 
4.348006339825e+01 -1.092792621489e+01 0.0 
4.919519968029e+01 -1.451526755068e+01 0.0 
4.500000000032e+00 -1.913397459621e+01 0.0 
1.856136921614e+01 -8.212235170404e-01 0.0 
3.499895312306e+00 -8.661165539723e-01 0.0 
9.076088696565e-01 -1.642306201891e+01 0.0 
4.655174095477e+01 -1.086183387525e+01 0.0 
9.430688970604e-01 -3.496112672958e+00 0.0 
3.353992337063e+01 -1.901202090820e+01 0.0 
2.249746016977e+01 -1.921262287282e+01 0.0 
2.650122741777e+01 -1.916123026018e+01 0.0 
1.863571384842e+01 -1.908325534840e+01 0.0 
1.450089971693e+01 -1.917691901860e+01 0.0 
1.350044695317e+01 -8.659695299584e-01 0.0 
3.849987469880e+01 -1.084154983397e+01 0.0 
9.454419857884e+00 -1.900818879936e+01 0.0 
4.917398660523e+01 -1.645692866081e+01 0.0 
8.500000000000e+00 -8.660254037844e-01 0.0 
8.660319230785e-01 -8.500111697188e+00 0.0 
4.649022621545e+01 -1.930506220113e+01 0.0 
2.667688107845e+01 -5.420288124331e+00 0.0 
2.379251615665e+01 -3.412225477429e+00 0.0 
2.966631491830e+01 -7.389030232731e+00 0.0 
3.267915035995e+01 -9.396934932445e+00 0.0 
2.074836922338e+01 -1.320054020319e+00 0.0 
4.915985743621e+01 -1.261973384855e+01 0.0 
2.527129768623e+00 -1.931592414663e+01 0.0 
1.538676247410e+00 -8.436956619311e-01 0.0 
4.908096641539e+01 -1.842484004551e+01 0.0 
3.478612492673e+01 -1.090889364140e+01 0.0 
3.409757055860e+01 -1.131991530427e+01 0.0 
3.501895309466e+01 -1.177687842717e+01 0.0 
3.407758073088e+01 -1.224293381580e+01 0.0 
3.484541875390e+01 -1.277051428430e+01 0.0 
3.400322025842e+01 -1.319022775640e+01 0.0 
3.321672625034e+01 -1.266779191233e+01 0.0 
3.315244139236e+01 -1.360984106532e+01 0.0 
3.236335186892e+01 -1.308463225210e+01 0.0 
3.478337442841e+01 -1.372341158982e+01 0.0 
3.230105923633e+01 -1.403023731610e+01 0.0 
3.150954055289e+01 -1.350301767700e+01 0.0 
3.144604792090e+01 -1.444931742516e+01 0.0 
3.065653897123e+01 -1.392357262981e+01 0.0 
3.071897610812e+01 -1.297447031198e+01 0.0 
2.986790411740e+01 -1.339226181535e+01 0.0 
2.993181466745e+01 -1.244703272398e+01 0.0 
2.908023061869e+01 -1.286254537734e+01 0.0 
2.901619051372e+01 -1.380881655279e+01 0.0 
2.822986160390e+01 -1.327695262116e+01 0.0 
2.829453476870e+01 -1.233265343811e+01 0.0 
2.744542905518e+01 -1.274510491105e+01 0.0 
2.751120089246e+01 -1.180368086886e+01 0.0 
2.666218649885e+01 -1.221619339205e+01 0.0 
2.672371209234e+01 -1.127125228527e+01 0.0 
2.587763216302e+01 -1.168539979114e+01 0.0 
2.581165585299e+01 -1.262994410089e+01 0.0 
2.502890882577e+01 -1.209827323619e+01 0.0 
2.509631327757e+01 -1.115492410304e+01 0.0 
2.424662989877e+01 -1.156630981079e+01 0.0 
2.431704046904e+01 -1.062389179334e+01 0.0 
2.346445438728e+01 -1.103427680694e+01 0.0 
2.339382552877e+01 -1.197964871788e+01 0.0 
2.260936050780e+01 -1.144513277642e+01 0.0 
2.268075012022e+01 -1.049911928216e+01 0.0 
2.182525737661e+01 -1.090920811464e+01 0.0 
2.189682319817e+01 -9.961716944568e+00 0.0 
2.104174127792e+01 -1.037266986667e+01 0.0 
2.111304367575e+01 -9.424179358711e+00 0.0 
2.025306185381e+01 -9.832727364719e+00 0.0 
2.018141124247e+01 -1.079140628871e+01 0.0 
1.938594498257e+01 -1.025147354112e+01 0.0 
1.946106490453e+01 -9.288010758448e+00 0.0 
1.858929958352e+01 -9.706319802516e+00 0.0 
1.851540991219e+01 -1.067205988724e+01 0.0 
1.771485303178e+01 -1.012504443115e+01 0.0 
1.764134552256e+01 -1.109360378538e+01 0.0 
1.683745148095e+01 -1.054496365337e+01 0.0 
1.691852964353e+01 -9.582555261178e+00 0.0 
1.603603813062e+01 -1.000160132379e+01 0.0 
1.595824239350e+01 -1.096750698862e+01 0.0 
1.515080624291e+01 -1.041639501931e+01 0.0 
1.523171602559e+01 -9.451711491453e+00 0.0 
1.434621060709e+01 -9.871956467464e+00 0.0 
1.426777178765e+01 -1.083749501371e+01 0.0 
1.345775282374e+01 -1.028803175500e+01 0.0 
1.354103873368e+01 -9.324918457162e+00 0.0 
1.265072018622e+01 -9.742612837270e+00 0.0 
1.257285762070e+01 -1.071557782384e+01 0.0 
1.175874815690e+01 -1.015972324288e+01 0.0 
1.184203019714e+01 -9.193604071377e+00 0.0 
1.094927709905e+01 -9.612103238656e+00 0.0 
1.086938022910e+01 -1.058685085646e+01 0.0 
1.005424098961e+01 -1.002939116380e+01 0.0 
9.977974613295e+00 -1.101324897989e+01 0.0 
1.012915646404e+01 -9.051815821181e+00 0.0 
9.237127782494e+00 -9.471239055559e+00 0.0 
9.308426593771e+00 -8.483376461131e+00 0.0 
8.418806073345e+00 -8.910712374517e+00 0.0 
2.253688464062e+01 -1.239459402279e+01 0.0 
8.495126726666e+00 -7.921646665254e+00 0.0 
9.389727383206e+00 -7.512103628377e+00 0.0 
7.601560812974e+00 -8.349460349344e+00 0.0 
7.525680547759e+00 -9.339736686940e+00 0.0 
7.677888324502e+00 -7.359727833346e+00 0.0 
6.782001206724e+00 -7.788454494773e+00 0.0 
6.858778622885e+00 -6.797338062822e+00 0.0 
2.196596590865e+01 -8.979025665442e+00 0.0 
2.816540108272e+01 -1.422634142353e+01 0.0 
5.961601194403e+00 -7.226824010712e+00 0.0 
6.038171749656e+00 -6.234825887079e+00 0.0 
6.936257279557e+00 -5.805287640737e+00 0.0 
6.115068918323e+00 -5.242109758768e+00 0.0 
3.564391741903e+01 -1.329240553876e+01 0.0 
3.558115605778e+01 -1.425902892003e+01 0.0 
3.645445282201e+01 -1.381970786460e+01 0.0 
3.639744204358e+01 -1.479198128612e+01 0.0 
3.727266909778e+01 -1.435399586226e+01 0.0 
5.216667013081e+00 -5.671788584287e+00 0.0 
3.220697293295e+01 -1.499594545107e+01 0.0 
3.551112158269e+01 -1.523479869250e+01 0.0 
2.836056961467e+01 -1.139032434851e+01 0.0 
2.516730388602e+01 -1.021382726837e+01 0.0 
1.844436907403e+01 -1.164097215196e+01 0.0 
5.885434318740e+00 -8.218694781467e+00 0.0 
5.064071066867e+00 -7.656614643901e+00 0.0 
4.988089103470e+00 -8.649722082718e+00 0.0 
1.079421050408e+01 -1.157014985435e+01 0.0 
9.902420005256e+00 -1.199903342656e+01 0.0 
1.071994252214e+01 -1.255727909771e+01 0.0 
9.826974788171e+00 -1.298659581767e+01 0.0 
1.064607883789e+01 -1.354595476388e+01 0.0 
9.751541265343e+00 -1.397556905071e+01 0.0 
8.932296185869e+00 -1.341553353988e+01 0.0 
8.856399248106e+00 -1.440570715508e+01 0.0 
8.036186803543e+00 -1.384470558472e+01 0.0 
1.057112875118e+01 -1.453516759081e+01 0.0 
1.146582585687e+01 -1.410539926903e+01 0.0 
7.959894480382e+00 -1.483563350928e+01 0.0 
7.138792279156e+00 -1.427465094140e+01 0.0 
7.062506792418e+00 -1.526615385482e+01 0.0 
6.240693558277e+00 -1.470508863040e+01 0.0 
6.316957575451e+00 -1.371212581281e+01 0.0 
5.418183007107e+00 -1.414253605022e+01 0.0 
5.494748364428e+00 -1.314886770603e+01 0.0 
1.756825565873e+01 -1.206433872514e+01 0.0 
1.837565773345e+01 -1.261356468266e+01 0.0 
1.749574831391e+01 -1.303769280014e+01 0.0 
1.830539187332e+01 -1.358828364284e+01 0.0 
1.742278925170e+01 -1.401367746928e+01 0.0 
1.823303007798e+01 -1.456432294258e+01 0.0 
1.734941694138e+01 -1.499213734361e+01 0.0 
1.653760041637e+01 -1.443920312098e+01 0.0 
3.056237977307e+01 -1.487132260174e+01 0.0 
1.866469084762e+01 -8.742953000418e+00 0.0 
1.953669694916e+01 -8.326038909849e+00 0.0 
1.874194303780e+01 -7.780688158966e+00 0.0 
1.961032016741e+01 -7.366854697285e+00 0.0 
1.881715755159e+01 -6.821102209649e+00 0.0 
1.968369797150e+01 -6.407747217358e+00 0.0 
1.889237123259e+01 -5.858375520026e+00 0.0 
1.802038875366e+01 -6.276202618170e+00 0.0 
1.809793837984e+01 -5.307629520489e+00 0.0 
1.721985207997e+01 -5.728242054488e+00 0.0 
1.729850893523e+01 -4.756990819347e+00 0.0 
1.641745664240e+01 -5.174636548624e+00 0.0 
2.495978509456e+01 -1.304406404294e+01 0.0 
1.911567814831e+01 -1.413854250293e+01 0.0 
1.904387332608e+01 -1.511463127723e+01 0.0 
1.992115934240e+01 -1.468788025898e+01 0.0 
7.013706899628e+00 -4.812582868662e+00 0.0 
5.342091874585e+00 -1.513658157269e+01 0.0 
1.139098043784e+01 -1.509488509480e+01 0.0 
1.228151810610e+01 -1.465617481983e+01 0.0 
1.646373110164e+01 -1.541993323337e+01 0.0 
5.293328636712e+00 -4.678385108584e+00 0.0 
1.975965862987e+01 -5.448124345648e+00 0.0 
2.054318374236e+01 -5.992561293251e+00 0.0 
3.721453439063e+01 -1.533216152738e+01 0.0 
3.809302733893e+01 -1.489235527381e+01 0.0 
1.220852788900e+01 -1.565304565230e+01 0.0 
4.394120899730e+00 -5.108397613210e+00 0.0 
8.779354620288e+00 -1.539524721159e+01 0.0 
1.817791047702e+01 -4.338570146253e+00 0.0 
4.518860013839e+00 -1.457343189307e+01 0.0 
4.442712140414e+00 -1.556841391069e+01 0.0 
8.115343466391e+00 -1.285760324283e+01 0.0 
1.985334703171e+01 -1.566478400426e+01 0.0 
2.071953850276e+01 -1.522074243119e+01 0.0 
1.634012953883e+01 -6.154777738301e+00 0.0 
1.553479994708e+01 -5.593730508879e+00 0.0 
1.561265946942e+01 -4.617761762647e+00 0.0 
1.470674212978e+01 -5.064576488228e+00 0.0 
1.464498299883e+01 -6.026514471420e+00 0.0 
1.383271561817e+01 -5.467796261169e+00 0.0 
1.389241253067e+01 -4.504338666645e+00 0.0 
1.301868735463e+01 -4.907185188626e+00 0.0 
1.294514184846e+01 -5.888160903592e+00 0.0 
1.212955968622e+01 -5.328262335277e+00 0.0 
1.220721122383e+01 -4.341264976687e+00 0.0 
1.131324345897e+01 -4.766773516508e+00 0.0 
5.266597955397e+00 -1.613148974258e+01 0.0 
1.737805990867e+01 -3.786677807525e+00 0.0 
3.078438094513e+01 -1.203225297748e+01 0.0 
1.131569882285e+01 -1.608511932110e+01 0.0 
1.728478341782e+01 -1.596017432313e+01 0.0 
3.803465906019e+01 -1.587509751228e+01 0.0 
3.891681276677e+01 -1.543395196905e+01 0.0 
3.897340985302e+01 -1.444710288980e+01 0.0 
3.980095968193e+01 -1.499059496613e+01 0.0 
3.974334598189e+01 -1.597921884150e+01 0.0 
4.062964983717e+01 -1.553518690417e+01 0.0 
4.068729602479e+01 -1.454434445295e+01 0.0 
4.151772679790e+01 -1.508974196007e+01 0.0 
4.157505195739e+01 -1.409694289912e+01 0.0 
4.240699932656e+01 -1.464347955968e+01 0.0 
4.234898051011e+01 -1.563721375790e+01 0.0 
4.323934606035e+01 -1.519082036405e+01 0.0 
4.329740528208e+01 -1.419587509788e+01 0.0 
4.413056841369e+01 -1.474359631875e+01 0.0 
4.418850110108e+01 -1.374786684042e+01 0.0 
4.502219770667e+01 -1.429605103525e+01 0.0 
4.496411937907e+01 -1.529215882720e+01 0.0 
4.490027319897e+00 -4.154167794594e+00 0.0 
1.565080385988e+01 -1.486411982419e+01 0.0 
1.557610691279e+01 -1.584855627870e+01 0.0 
4.195350646612e+00 -8.089117689096e+00 0.0 
4.124027797830e+00 -9.082831955007e+00 0.0 
4.917944318925e+00 -9.643530901533e+00 0.0 
4.020105689502e+00 -1.007439673661e+01 0.0 
4.587185899277e+01 -1.484039992728e+01 0.0 
4.580078661551e+01 -1.584043391042e+01 0.0 
2.061956522375e+01 -5.046701343981e+00 0.0 
2.139572955529e+01 -5.579553449826e+00 0.0 
3.715344357292e+01 -1.631485124583e+01 0.0 
3.618886196443e+00 -1.500471207167e+01 0.0 
3.695606940204e+00 -1.400939692294e+01 0.0 
2.438890661143e+01 -9.686110599723e+00 0.0 
2.523267572778e+01 -9.276766000622e+00 0.0 
2.446094171539e+01 -8.751904591412e+00 0.0 
2.529089822738e+01 -8.321495612547e+00 0.0 
2.606882688827e+01 -8.864724051119e+00 0.0 
2.452116646430e+01 -7.792756462004e+00 0.0 
1.235543269617e+01 -1.365845617339e+01 0.0 
4.318116874181e+01 -1.618567469992e+01 0.0 
7.835066111909e+00 -5.376366223896e+00 0.0 
7.905687335704e+00 -4.382539065697e+00 0.0 
3.542640009567e+00 -1.600035116542e+01 0.0 
1.572431503071e+01 -1.388358386695e+01 0.0 
2.574684696680e+01 -1.357896141127e+01 0.0 
2.488842657651e+01 -1.399674354505e+01 0.0 
2.568301775611e+01 -1.453552048595e+01 0.0 
2.481535572009e+01 -1.495542756508e+01 0.0 
2.561729699688e+01 -1.549784648532e+01 0.0 
2.474623061296e+01 -1.592058894178e+01 0.0 
2.394234041695e+01 -1.537572575827e+01 0.0 
2.065825452567e+01 -1.621899055217e+01 0.0 
2.387180528935e+01 -1.634552264687e+01 0.0 
4.585364400844e+01 -1.383912334080e+01 0.0 
1.998744432052e+01 -1.370317155541e+01 0.0 
1.205356951443e+01 -6.313580285498e+00 0.0 
5.396543905849e+00 -3.731818611283e+00 0.0 
1.139652573295e+01 -3.745819399350e+00 0.0 
3.574124306703e+00 -4.551456826011e+00 0.0 
3.494140761930e+00 -5.539787055649e+00 0.0 
1.213651452413e+01 -1.664505033022e+01 0.0 
2.555045568519e+01 -1.646529356744e+01 0.0 
2.641671114986e+01 -1.603899382371e+01 0.0 
2.612920721894e+01 -7.906435260873e+00 0.0 
2.690339829698e+01 -8.456969591431e+00 0.0 
1.978024383368e+01 -1.664410216353e+01 0.0 
3.732829979082e+01 -1.336926601859e+01 0.0 
4.074336584605e+01 -1.355133328401e+01 0.0 
4.163204691081e+01 -1.310280943992e+01 0.0 
3.773826114429e+00 -3.493444309145e+00 0.0 
1.228783001032e+01 -3.374822835872e+00 0.0 
4.057110462520e+01 -1.652588478000e+01 0.0 
2.132535497898e+01 -6.523623360525e+00 0.0 
2.216932532211e+01 -6.110044769206e+00 0.0 
1.825781152128e+01 -3.370146817147e+00 0.0 
1.745679445888e+01 -2.812942552063e+00 0.0 
4.666517057280e+01 -1.539981381543e+01 0.0 
4.660575894464e+01 -1.639014410186e+01 0.0 
4.838230979954e+00 -1.063643436446e+01 0.0 
3.938942630206e+00 -1.106778981745e+01 0.0 
1.302967218620e+01 -1.621373452436e+01 0.0 
1.049548003190e+01 -4.204825123240e+00 0.0 
4.573571907195e+01 -1.683820511148e+01 0.0 
1.483686335807e+01 -1.430849689310e+01 0.0 
1.490982658890e+01 -1.332679386284e+01 0.0 
3.190805600162e+00 -9.510968358545e+00 0.0 
2.146625721848e+01 -4.642437303115e+00 0.0 
2.069866208266e+01 -4.111852942193e+00 0.0 
1.286859345584e+01 -6.873252723348e+00 0.0 
1.041794493184e+01 -5.194814260291e+00 0.0 
2.671081808965e+00 -4.976806516331e+00 0.0 
1.295786792925e+01 -1.720506531799e+01 0.0 
3.968438206511e+01 -1.696869067241e+01 0.0 
2.308550456051e+01 -1.579963151273e+01 0.0 
2.315593682844e+01 -1.482967445235e+01 0.0 
2.299471449450e+01 -1.677069968132e+01 0.0 
1.057344714696e+01 -3.214252277840e+00 0.0 
1.124057603753e+01 -1.707713739755e+01 0.0 
2.718402535754e+00 -1.543629882103e+01 0.0 
2.638549692805e+01 -1.696744916809e+01 0.0 
2.723416349007e+01 -1.658104204545e+01 0.0 
2.210193351704e+01 -7.046769643417e+00 0.0 
2.295180925161e+01 -6.657397605239e+00 0.0 
2.301355235833e+01 -5.709111896800e+00 0.0 
2.379052718281e+01 -6.254965406962e+00 0.0 
3.243528601237e+01 -1.214181853533e+01 0.0 
2.287977995457e+01 -7.583722368300e+00 0.0 
2.999876029544e+01 -1.150837653096e+01 0.0 
3.084435366963e+01 -1.109693775882e+01 0.0 
3.006650579669e+01 -1.057778994262e+01 0.0 
2.683802665066e+01 -9.386863216633e+00 0.0 
2.768641973621e+01 -8.988883915666e+00 0.0 
2.040296980397e+01 -7.903629133404e+00 0.0 
1.925235024054e+01 -1.218872783130e+01 0.0 
5.735667000424e+00 -1.020577277283e+01 0.0 
6.396559909872e+00 -1.272326295703e+01 0.0 
1.161199420714e+01 -1.212812778229e+01 0.0 
4.229046132615e+01 -1.663084237572e+01 0.0 
4.312275399692e+01 -1.718087491556e+01 0.0 
4.335502068163e+01 -1.320039231514e+01 0.0 
4.424630298089e+01 -1.275160688731e+01 0.0 
7.090116643816e+00 -3.818998061530e+00 0.0 
7.989472176569e+00 -3.389238711200e+00 0.0 
9.085824861778e+00 -1.144036167408e+01 0.0 
1.041972423731e+01 -1.651614080893e+01 0.0 
3.797525112640e+01 -1.686052038746e+01 0.0 
3.709114253394e+01 -1.730125999865e+01 0.0 
3.626966748340e+01 -1.675477052919e+01 0.0 
1.385164591440e+01 -1.677597757552e+01 0.0 
1.787152588784e+01 -8.198993896093e+00 0.0 
1.668849729812e+01 -1.248560611628e+01 0.0 
1.659546177905e+01 -3.232482605530e+00 0.0 
2.332214717345e+01 -1.292598167641e+01 0.0 
7.168238450786e+00 -2.824711686516e+00 0.0 
2.894878403906e+01 -1.475427524446e+01 0.0 
2.646763248247e+00 -1.643270107952e+01 0.0 
3.467431944285e+00 -1.699648837348e+01 0.0 
2.059475877282e+01 -1.719473628526e+01 0.0 
3.333868355437e+01 -1.080596971682e+01 0.0 
2.246451062637e+01 -1.334557761546e+01 0.0 
2.167821896388e+01 -1.280847834858e+01 0.0 
3.089653185767e+01 -1.017198487212e+01 0.0 
3.012604365669e+01 -9.657298805968e+00 0.0 
2.929627299435e+01 -1.006100135274e+01 0.0 
2.936201435219e+01 -9.136748899251e+00 0.0 
1.198219052702e+01 -7.291887238230e+00 0.0 
1.116702076035e+01 -6.731976101053e+00 0.0 
2.551388807505e+01 -1.746927036981e+01 0.0 
2.378639090370e+01 -1.728678807149e+01 0.0 
2.718543627188e+01 -1.748668016909e+01 0.0 
2.804681050301e+01 -1.712626668293e+01 0.0 
1.970737034667e+01 -1.762317646822e+01 0.0 
1.889535776135e+01 -1.707158098231e+01 0.0 
2.593777711283e+00 -5.971157087874e+00 0.0 
2.773468281110e+01 -8.067164273938e+00 0.0 
4.051205884347e+01 -1.751819982458e+01 0.0 
3.166903145421e+01 -1.068032992414e+01 0.0 
1.033042452886e+01 -1.748285844336e+01 0.0 
9.519274604626e+00 -1.694349240233e+01 0.0 
1.668308673328e+01 -2.255861778986e+00 0.0 
1.570531902832e+01 -2.676795860126e+00 0.0 
4.655826903379e+01 -1.736656245706e+01 0.0 
2.384148070773e+01 -5.328744256413e+00 0.0 
2.460255123641e+01 -5.852182672816e+00 0.0 
2.306638135119e+01 -4.798935440613e+00 0.0 
8.467720450578e-01 -1.849576263072e+01 0.0 
4.849657322345e+01 -1.084860705506e+01 0.0 
2.565860899507e+00 -1.742859793981e+01 0.0 
2.764418872564e+01 -9.927142821799e+00 0.0 
4.565165880064e+01 -1.785336695404e+01 0.0 
2.162231831329e+01 -1.376528337468e+01 0.0 
2.360646352969e+01 -9.136041963102e+00 0.0 
1.392738739903e+01 -1.578285505772e+01 0.0 
4.756405947478e+01 -1.683706841809e+01 0.0 
4.740895034054e+01 -1.793766756892e+01 0.0 
4.080779328826e+01 -1.257387192544e+01 0.0 
4.168907939671e+01 -1.210739129181e+01 0.0 
3.991197722154e+01 -1.300815793917e+01 0.0 
1.905536506762e+01 -3.940076697685e+00 0.0 
1.923879596617e+01 -2.875000734166e+00 0.0 
4.401386745746e+01 -1.673483229438e+01 0.0 
4.247233362525e+00 -7.094581653070e+00 0.0 
3.286051630211e+00 -7.635300020553e+00 0.0 
9.609533347623e+00 -4.594311677967e+00 0.0 
9.523554636369e+00 -5.595597029530e+00 0.0 
5.660336628893e+00 -1.119290329628e+01 0.0 
6.558070063295e+00 -1.076385809362e+01 0.0 
2.809866407414e+01 -1.518037766799e+01 0.0 
2.888868674504e+01 -1.570360690070e+01 0.0 
2.654431550819e+01 -1.411217777162e+01 0.0 
1.402158265969e+01 -1.375404617952e+01 0.0 
1.409592494026e+01 -1.277071998942e+01 0.0 
1.499355196178e+01 -1.235270737023e+01 0.0 
4.221535326155e+01 -1.759335617494e+01 0.0 
4.305583287033e+01 -1.822663146802e+01 0.0 
1.280748808359e+01 -7.834332838285e+00 0.0 
1.368988389326e+01 -7.420529606172e+00 0.0 
1.110091796060e+01 -7.683966794328e+00 0.0 
3.963446145980e+01 -1.794331310122e+01 0.0 
3.423932362213e+00 -1.796415590455e+01 0.0 
4.280814572302e+00 -1.752272834860e+01 0.0 
8.050136380041e+00 -2.421582378631e+00 0.0 
8.888674091650e+00 -2.984264211327e+00 0.0 
2.152839430898e+01 -3.732609965436e+00 0.0 
2.077799585292e+01 -3.183896021866e+00 0.0 
3.618719395821e+01 -1.770276572576e+01 0.0 
3.538165138340e+01 -1.718709995539e+01 0.0 
3.702925326420e+01 -1.828844288807e+01 0.0 
1.756739438711e+00 -5.353284859169e+00 0.0 
2.233710191104e+01 -1.527265621324e+01 0.0 
1.389483555057e+01 -1.771797164730e+01 0.0 
1.475634224300e+01 -1.728357428390e+01 0.0 
1.298797563052e+01 -1.825968924755e+01 0.0 
2.145331271866e+01 -1.673705379077e+01 0.0 
2.133282821169e+01 -1.769400773673e+01 0.0 
2.292139194136e+01 -1.774915400288e+01 0.0 
1.750750053243e+01 -1.861475593469e+00 0.0 
4.830478841772e+01 -1.752611802221e+01 0.0 
4.341203507805e+01 -1.220326745522e+01 0.0 
1.685254151866e+01 -1.443085301632e+00 0.0 
4.431538535165e+01 -1.171841387375e+01 0.0 
4.511308610496e+01 -1.229557320599e+01 0.0 
4.510133242889e+01 -1.123680627466e+01 0.0 
1.846818030617e+00 -4.410877617069e+00 0.0 
3.995468694584e+01 -1.186571542989e+01 0.0 
3.901387459804e+01 -1.242507616755e+01 0.0 
8.966735877533e+00 -1.837818700423e+00 0.0 
4.049310011091e+01 -1.848269508791e+01 0.0 
7.278862053803e+00 -1.918523922691e+00 0.0 
6.429715522129e+00 -2.316676521184e+00 0.0 
9.443505505022e+00 -1.792198868094e+01 0.0 
8.620386951051e+00 -1.737590365556e+01 0.0 
8.571868171503e+00 -1.834436667826e+01 0.0 
7.758629848526e+00 -1.775677907213e+01 0.0 
7.806648388584e+00 -1.680761266021e+01 0.0 
6.908555145436e+00 -1.723746463044e+01 0.0 
4.251709122090e+01 -1.156937480156e+01 0.0 
6.931136405615e+00 -1.832465719263e+01 0.0 
6.015545461353e+00 -1.768865355295e+01 0.0 
5.960535926343e+00 -1.872011001764e+01 0.0 
3.023253444786e+01 -8.761960642196e+00 0.0 
2.454622702599e+01 -6.749421992767e+00 0.0 
2.537499741604e+01 -6.347634963783e+00 0.0 
2.544077378460e+01 -5.431358513649e+00 0.0 
2.801367161747e+01 -1.820907270221e+01 0.0 
2.884507806914e+01 -1.762032095326e+01 0.0 
1.821474531936e+00 -1.588901260460e+01 0.0 
1.821006262604e+00 -1.489370287756e+01 0.0 
4.599962488908e+01 -1.176478780598e+01 0.0 
4.705457470007e+01 -1.172182804229e+01 0.0 
4.667668314802e+01 -1.263464558483e+01 0.0 
4.759648056504e+01 -1.252380987933e+01 0.0 
4.728041618103e+01 -1.341928568376e+01 0.0 
4.825209352360e+01 -1.330491640804e+01 0.0 
4.778118233428e+01 -1.420151961695e+01 0.0 
2.388192727579e+01 -1.826934810142e+01 0.0 
2.381714684947e+01 -4.385917965223e+00 0.0 
3.172733219247e+01 -9.758744265248e+00 0.0 
1.882012070658e+01 -1.805540597212e+01 0.0 
1.805667505243e+01 -1.742221226236e+01 0.0 
2.852599958080e+01 -8.597196079481e+00 0.0 
2.856486123437e+01 -7.661382718527e+00 0.0 
1.111792842875e+01 -1.818223852980e+01 0.0 
2.203322722466e+01 -7.986646678802e+00 0.0 
3.955703676900e+01 -1.903246763601e+01 0.0 
1.944842206513e+01 -8.038750575182e-01 0.0 
1.909882767783e+01 -1.746322740933e+00 0.0 
2.281147422941e+01 -8.525912918334e+00 0.0 
2.850633001468e+01 -9.533271335986e+00 0.0 
2.532883344309e+01 -7.308951659710e+00 0.0 
2.620475466461e+01 -6.979208585400e+00 0.0 
1.396278270396e+01 -1.475095389807e+01 0.0 
9.791001166724e+00 -2.554159793552e+00 0.0 
2.229293380421e+01 -4.269762271052e+00 0.0 
4.677238984118e+01 -1.430071795514e+01 0.0 
2.228658385918e+01 -3.344747535984e+00 0.0 
8.940223674553e-01 -1.543595733415e+01 0.0 
2.118566862474e+01 -8.435876987696e+00 0.0 
2.678325936437e+01 -1.032621195706e+01 0.0 
2.223400220487e+01 -5.179046761770e+00 0.0 
2.375370625384e+01 -7.251580562134e+00 0.0 
3.156971327386e+01 -1.255534750737e+01 0.0 
3.328226391312e+01 -1.172914813316e+01 0.0 
3.250948774219e+01 -1.120157009348e+01 0.0 
2.032993445717e+01 -8.867880112202e+00 0.0 
2.697226974856e+01 -7.536633082045e+00 0.0 
2.707377810386e+01 -6.590835263295e+00 0.0 
2.914099246827e+01 -1.191678458549e+01 0.0 
3.544824072239e+01 -1.621126558525e+01 0.0 
3.456511855436e+01 -1.665054783843e+01 0.0 
3.448395810225e+01 -1.759117813016e+01 0.0 
3.368378673938e+01 -1.708037781328e+01 0.0 
3.375560452567e+01 -1.610973066913e+01 0.0 
3.288001547988e+01 -1.654324255651e+01 0.0 
3.282475929147e+01 -1.749725654692e+01 0.0 
3.199880906313e+01 -1.697294088625e+01 0.0 
3.197001272932e+01 -1.811667776864e+01 0.0 
3.111884713021e+01 -1.742166785755e+01 0.0 
3.120418962865e+01 -1.642155709385e+01 0.0 
3.034666704371e+01 -1.683123833816e+01 0.0 
3.026224379976e+01 -1.772592851714e+01 0.0 
3.046632362943e+01 -1.582232843075e+01 0.0 
1.961344017324e+01 -1.857459447985e+01 0.0 
2.274975894774e+01 -9.532738811922e+00 0.0 
1.833923246887e+01 -2.396746883672e+00 0.0 
1.988859500848e+01 -2.249244376594e+00 0.0 
2.758045562861e+01 -1.086434261689e+01 0.0 
3.247300178163e+01 -1.909930104252e+01 0.0 
3.461947482503e+01 -1.911879848019e+01 0.0 
2.047161538662e+01 -6.941478180358e+00 0.0 
2.750230940214e+01 -1.915490590764e+01 0.0 
3.165081350803e+01 -1.161860780120e+01 0.0 
1.897456727641e+01 -4.889634688522e+00 0.0 
2.549338539756e+01 -1.914858252089e+01 0.0 
3.462873135081e+01 -1.567482276144e+01 0.0 
3.384432415243e+01 -1.512280684518e+01 0.0 
3.471433767690e+01 -1.469086942990e+01 0.0 
3.651470373046e+01 -1.918207952149e+01 0.0 
3.901742690249e+01 -1.345028556517e+01 0.0 
2.153224102692e+01 -1.920169709333e+01 0.0 
1.918382939341e+01 -1.316226275662e+01 0.0 
2.005389162382e+01 -1.271962165174e+01 0.0 
2.011472087878e+01 -1.175029352900e+01 0.0 
3.210679478412e+01 -1.598038618242e+01 0.0 
1.752175226543e+01 -1.914713022656e+01 0.0 
1.696897240059e+01 -1.832772588765e+01 0.0 
1.599682523337e+01 -1.832599992024e+01 0.0 
1.644507199462e+01 -1.743697981535e+01 0.0 
1.549987712903e+01 -1.915192375101e+01 0.0 
3.050250861901e+01 -1.918943550234e+01 0.0 
2.949944061527e+01 -1.922950455235e+01 0.0 
1.375892575273e+01 -6.447160534926e+00 0.0 
1.457223670180e+01 -7.006709243857e+00 0.0 
1.450818793236e+01 -7.965943451779e+00 0.0 
1.538804712402e+01 -7.553409623699e+00 0.0 
1.545817644768e+01 -6.580929593419e+00 0.0 
1.626506893751e+01 -7.129032608911e+00 0.0 
1.619833811522e+01 -8.086588580887e+00 0.0 
1.714448609609e+01 -6.697429609777e+00 0.0 
2.887616543568e+01 -1.668015232137e+01 0.0 
1.349814589130e+01 -1.918225301544e+01 0.0 
1.153887772210e+01 -1.311384581217e+01 0.0 
1.242708159886e+01 -1.267046795531e+01 0.0 
1.249799674267e+01 -1.169005616014e+01 0.0 
6.631723893693e+00 -9.774184881867e+00 0.0 
7.451471631867e+00 -1.033148796006e+01 0.0 
7.377795355458e+00 -1.132196345268e+01 0.0 
5.810931797536e+00 -9.211654212252e+00 0.0 
2.402683899133e+01 -1.441378562320e+01 0.0 
1.249768692036e+01 -1.917388426624e+01 0.0 
1.580373499437e+01 -1.290751860664e+01 0.0 
8.344650507834e+00 -9.898403995170e+00 0.0 
3.750622115305e+01 -1.086526401533e+01 0.0 
3.699391251667e+01 -1.171695900794e+01 0.0 
3.606517829518e+01 -1.173717504500e+01 0.0 
3.650257641795e+01 -1.270047380221e+01 0.0 
3.808951488918e+01 -1.183518714175e+01 0.0 
4.760380962420e+00 -1.162484888315e+01 0.0 
3.861210370848e+00 -1.205657631736e+01 0.0 
3.038284309476e+00 -1.149851280664e+01 0.0 
2.961598794889e+00 -1.248856794980e+01 0.0 
2.138953225512e+00 -1.193212674534e+01 0.0 
2.227383593457e+00 -1.096258903918e+01 0.0 
2.043265419276e+00 -1.292158472959e+01 0.0 
1.252449446028e+00 -1.225502002753e+01 0.0 
3.949985210740e+01 -1.086594001795e+01 0.0 
1.453499444792e+01 -8.768805922472e-01 0.0 
1.403518950933e+01 -1.749965556633e+00 0.0 
1.300715031023e+01 -1.714737233040e+00 0.0 
1.350929389899e+01 -2.527443911291e+00 0.0 
1.449600910711e+01 -2.595486162864e+00 0.0 
1.395693872901e+01 -3.484211041558e+00 0.0 
1.495105865208e+01 -3.364609636216e+00 0.0 
1.508822528740e+01 -1.766586020494e+00 0.0 
1.250223858430e+01 -8.634590186802e-01 0.0 
1.200279523409e+01 -1.709044504992e+00 0.0 
1.150086239419e+01 -8.592789190668e-01 0.0 
1.101482754194e+01 -1.677730591922e+00 0.0 
1.148018564526e+01 -2.659323866909e+00 0.0 
8.800552119754e+00 -3.989875954728e+00 0.0 
3.452790439430e+00 -1.901136170646e+01 0.0 
8.658451825200e-01 -9.503462241795e+00 0.0 
1.694787786797e+00 -9.000589234502e+00 0.0 
1.703436717094e+00 -8.038819004041e+00 0.0 
2.594197971110e+00 -8.563955242845e+00 0.0 
1.630513735412e+00 -9.907244747511e+00 0.0 
8.566859292791e-01 -7.512203837972e+00 0.0 
1.685461277022e+00 -7.164280248030e+00 0.0 
2.506394468801e+00 -8.623386730818e-01 0.0 
2.007475081581e+00 -1.727729545205e+00 0.0 
9.211534699767e-01 -1.628791366312e+00 0.0 
1.500000000020e+00 -2.598063549486e+00 0.0 
2.482078929963e+00 -2.553580088725e+00 0.0 
2.999795253092e+00 -1.732169015019e+00 0.0 
3.999712607169e+00 -1.728832897453e+00 0.0 
4.499752199340e+00 -8.656478679175e-01 0.0 
4.964377774841e+00 -1.730129617941e+00 0.0 
4.425017908337e+00 -2.597541756243e+00 0.0 
5.446573195014e+00 -8.410144840023e-01 0.0 
4.915722346614e+01 -1.550640962770e+01 0.0 
4.826794919243e+01 -1.600000000000e+01 0.0 
1.053139533193e+01 -1.911782884365e+01 0.0 
4.156049861949e+01 -1.095160998589e+01 0.0 
9.494526624416e+00 -8.650570090219e-01 0.0 
4.555762166964e+01 -1.897098103585e+01 0.0 
4.250656411371e+01 -1.914387356218e+01 0.0 
4.350906466345e+01 -1.917234727395e+01 0.0 
8.759665722424e-01 -1.746422130609e+01 0.0 
1.698936011838e+00 -1.795012186674e+01 0.0 
4.742476811029e+01 -1.900090177972e+01 0.0 
7.749196752349e+00 -6.368049313489e+00 0.0 
3.361572113416e+01 -1.798765193915e+01 0.0 
4.484660149212e+01 -1.728661231383e+01 0.0 
1.984038172228e+01 -4.502575320116e+00 0.0 
1.035080352627e+01 -6.166639575753e+00 0.0 
2.753558010652e+00 -1.444909521181e+01 0.0 
7.217069543032e+00 -1.328635391078e+01 0.0 
4.364336727739e+00 -1.655585677381e+01 0.0 
4.595208426108e+00 -1.357919665443e+01 0.0 
6.164967006980e+00 -1.569873454630e+01 0.0 
1.487855768353e+01 -1.826523774028e+01 0.0 
2.791876456372e+00 -4.019632415181e+00 0.0 
4.246464893515e+01 -1.364898659620e+01 0.0 
4.503855590351e+01 -1.329552780944e+01 0.0 
4.407239109604e+01 -1.573900004093e+01 0.0 
5.141054449252e+00 -6.664290382472e+00 0.0 
3.141083947149e+00 -1.055790764912e+01 0.0 
6.196463198741e+00 -4.256497932609e+00 0.0 
2.599618716181e+01 -1.836893455464e+01 0.0 
2.923057372337e+01 -1.098461757645e+01 0.0 
1.168343877486e+01 -1.114079645041e+01 0.0 
6.706222096238e+00 -8.780364234441e+00 0.0 
8.567858614669e+00 -6.943121440850e+00 0.0 
1.123755132901e+01 -5.753525820030e+00 0.0 
2.353456234423e+01 -1.008536320953e+01 0.0 
9.162073319168e+00 -1.045593739109e+01 0.0 
9.676343469685e+00 -1.496493008366e+01 0.0 
4.490637882905e+01 -1.628778970202e+01 0.0 
7.398129387772e+00 -9.639977982323e-01 0.0 
1.049641705805e+01 -1.552503975272e+01 0.0 
9.010356286268e+00 -1.242805042052e+01 0.0 
3.985573925497e+01 -1.399863651620e+01 0.0 
1.816196318262e+01 -1.554066497931e+01 0.0 
1.306332244168e+01 -3.963646550326e+00 0.0 
4.145850903932e+01 -1.608094559275e+01 0.0 
3.794664933633e+01 -1.779020121986e+01 0.0 
3.819614412903e+01 -1.290749321016e+01 0.0 
6.270014188119e+00 -3.255093186826e+00 0.0 
4.251165370388e+01 -1.263870364997e+01 0.0 
1.207347709171e+01 -1.763942826023e+01 0.0 
3.633240829927e+01 -1.577330481104e+01 0.0 
4.319052668832e+00 -6.101812561904e+00 0.0 
1.676492415806e+01 -1.151547901392e+01 0.0 
2.594059220037e+01 -1.074225223009e+01 0.0 
3.340750911501e+01 -9.898764354137e+00 0.0 
4.397619591281e+01 -1.769773736461e+01 0.0 
2.175611595028e+01 -1.185718747128e+01 0.0 
1.641818733106e+01 -1.640685203215e+01 0.0 
1.661211421753e+01 -1.346121366338e+01 0.0 
3.428853504935e+00 -6.551993389271e+00 0.0 
8.700728832502e+00 -1.638460872825e+01 0.0 
1.931369795309e+01 -1.121629383702e+01 0.0 
4.139798872363e+01 -1.706922153459e+01 0.0 
2.647837478700e+01 -1.507353829290e+01 0.0 
1.779469616424e+01 -9.161615782908e+00 0.0 
3.885879219319e+01 -1.642026488918e+01 0.0 
1.338194936770e+01 -1.125916521471e+01 0.0 
1.897071181111e+01 -1.609204322578e+01 0.0 
2.844308548793e+01 -1.046221003096e+01 0.0 
2.659854702194e+01 -1.316109415760e+01 0.0 
2.979604503271e+01 -1.433296157755e+01 0.0 
2.417694041347e+01 -1.251231397779e+01 0.0 
1.807401327411e+00 -1.388891148480e+01 0.0 
9.599810618782e+00 -1.595439365034e+01 0.0 
1.652144692160e+01 -4.205392788472e+00 0.0 
2.367839450246e+01 -8.188385218643e+00 0.0 
3.814894930468e+01 -1.390748338767e+01 0.0 
2.466448215774e+01 -1.685878545680e+01 0.0 
4.134044524611e+01 -1.806610045954e+01 0.0 
2.600511411958e+01 -9.801774120648e+00 0.0 
7.882158050716e+00 -1.582364037353e+01 0.0 
3.881607873422e+01 -1.737970515013e+01 0.0 
8.270182347708e+00 -1.088622154920e+01 0.0 
8.672520392520e-01 -4.532984309881e+00 0.0 
1.993447205337e+01 -3.579061902667e+00 0.0 
1.794616079549e+01 -7.238038888498e+00 0.0 
2.097277068165e+01 -1.132450168636e+01 0.0 
8.194803300681e+00 -1.187214224265e+01 0.0 
3.522279404911e+01 -1.823342818178e+01 0.0 
6.984481050295e+00 -1.625271465557e+01 0.0 
1.309433007797e+01 -1.521718594215e+01 0.0 
2.150246167611e+01 -1.885399038185e+00 0.0 
3.250689370209e+01 -1.028789870535e+01 0.0 
6.085886272238e+00 -1.668342132851e+01 0.0 
1.588455661727e+01 -1.193498985921e+01 0.0 
1.809323400821e+01 -1.651110084195e+01 0.0 
1.348885082381e+00 -1.136065576512e+01 0.0 
2.497670221995e+01 -1.834631276173e+01 0.0 
2.937062818424e+01 -8.233711194470e+00 0.0 
5.185823744469e+00 -1.711566910207e+01 0.0 
1.477497877209e+01 -1.530177014512e+01 0.0 
2.125346158933e+01 -7.473003997367e+00 0.0 
4.751561118290e+01 -1.084897772632e+01 0.0 
5.056026576843e+00 -1.825750475525e+01 0.0 
1.473948554523e+01 -1.634577436309e+01 0.0 
2.410566630936e+01 -1.345970002612e+01 0.0 
1.507337507513e+01 -1.138527895328e+01 0.0 
3.189857338687e+01 -8.887781229006e+00 0.0 
7.298712468334e+00 -1.230231046246e+01 0.0 
2.738235495295e+01 -1.368931690364e+01 0.0 
3.750141041969e+01 -1.920449893070e+01 0.0 
1.557271965640e+01 -1.683317951731e+01 0.0 
3.393731848929e+01 -1.413034777044e+01 0.0 
6.482156824153e+00 -1.174575135362e+01 0.0 
2.077971718439e+01 -1.421279621836e+01 0.0 
3.455084320178e+00 -2.562590040585e+00 0.0 
3.099056096250e+01 -9.270280416035e+00 0.0 
5.580176125418e+00 -1.217387969259e+01 0.0 
1.707247630389e+01 -7.660651981710e+00 0.0 
1.418658814174e+01 -1.180390575393e+01 0.0 
2.049103025389e+01 -1.811296706038e+01 0.0 
4.680386172316e+00 -1.260396879301e+01 0.0 
1.699679896554e+01 -8.624561788199e+00 0.0 
3.779470168555e+00 -1.303424899720e+01 0.0 
3.036589870126e+01 -7.879832518349e+00 0.0 
3.306993001774e+01 -1.457671062095e+01 0.0 
2.840150110165e+00 -1.346530088269e+01 0.0 
2.732011135052e+01 -1.464591214560e+01 0.0 
5.423639259568e+00 -2.659711955016e+00 0.0 
2.324455961696e+01 -1.387269388211e+01 0.0 
1.752768355571e+00 -1.693128613594e+01 0.0 
1.020244783051e+01 -8.076834012808e+00 0.0 
1.330873875224e+01 -1.222417528206e+01 0.0 
3.297727364880e+01 -1.555480372087e+01 0.0 
2.890929955439e+01 -6.868664170731e+00 0.0 
1.323294664622e+01 -1.320754260334e+01 0.0 
2.726532861246e+01 -1.560593120806e+01 0.0 
2.240020643398e+01 -1.429299177247e+01 0.0 
2.090445823633e+01 -1.228128621332e+01 0.0 
1.315809881502e+01 -1.420739326938e+01 0.0 
2.781328038068e+01 -7.181956082300e+00 0.0 
8.614200829057e+00 -5.936933226306e+00 0.0 
8.714765730069e+00 -4.979270529687e+00 0.0 
1.611881701099e+01 -9.041973294003e+00 0.0 
2.806830314340e+01 -1.614622947108e+01 0.0 
2.084435391396e+00 -3.385085422913e+00 0.0 
3.133211811152e+01 -1.542347619750e+01 0.0 
9.693114650768e+00 -3.590281506442e+00 0.0 
1.531883592202e+01 -8.504584946143e+00 0.0 
2.151589117094e+01 -1.578915763018e+01 0.0 
4.918943882696e+01 -1.355538828056e+01 0.0 
1.443236615188e+01 -8.918701794549e+00 0.0 
8.276250966452e-01 -5.537685192197e+00 0.0 
1.362790867918e+01 -8.374718262212e+00 0.0 
2.083767477370e+01 -1.324843956035e+01 0.0 
1.273834678703e+01 -8.790890389337e+00 0.0 
1.192275845670e+01 -8.242261327467e+00 0.0 
4.477236023583e+01 -1.824312396664e+01 0.0 
1.102989384254e+01 -8.649855800911e+00 0.0 
4.849096516045e+01 -1.917293752213e+01 0.0 
1.588996752238e+00 -1.910230934687e+01 0.0 
4.904245197583e+01 -1.159839008158e+01 0.0 
2.753852929608e+01 -5.782128488093e+00 0.0 
1.756133602833e+01 -8.306130313187e-01 0.0 
2.615423700951e+01 -6.153865090092e+00 0.0 
1.028818761294e+01 -7.122020845892e+00 0.0 
2.970818901196e+01 -1.527821347593e+01 0.0 
4.801461623449e+01 -1.164472570985e+01 0.0 
9.455722100419e+00 -6.546069291118e+00 0.0 
3.089099236677e+01 -1.835339328261e+01 0.0 
2.350000000013e+01 -1.920825896750e+01 0.0 
4.830620531887e+01 -1.506626155470e+01 0.0 
1.725381944701e+01 -1.688794487850e+01 0.0 
2.156246225273e+01 -1.475893794002e+01 0.0 
4.919319648787e+01 -1.742767505896e+01 0.0 
4.437935623576e+01 -1.077662927266e+01 0.0 
1.001520521978e+01 -1.652692675208e+00 0.0 
9.067160240050e-01 -1.441937727541e+01 0.0 
2.603365149390e+01 -4.755996613848e+00 0.0 
2.458344439002e+01 -4.873645517696e+00 0.0 
2.304312390142e+01 -3.836552768096e+00 0.0 
2.546923202198e+00 -6.902480355749e+00 0.0 
1.251534969393e+01 -2.490989965776e+00 0.0 
2.454061833377e+01 -3.933354231935e+00 0.0 
1.788186558740e+01 -1.827424884923e+01 0.0 
4.090785243552e+01 -1.166553231904e+01 0.0 
2.230128851568e+01 -1.623015738726e+01 0.0 
2.302362347568e+01 -2.916239960270e+00 0.0 
3.878119254461e+01 -1.830091164002e+01 0.0 
2.210081359958e+01 -1.829238229150e+01 0.0 
8.443704882233e+00 -1.921993252862e+01 0.0 
2.218405824691e+01 -1.724557581508e+01 0.0 
2.151157503963e+01 -2.790636689331e+00 0.0 
3.741658958955e+01 -1.250400191722e+01 0.0 
2.697247663737e+01 -1.838290202309e+01 0.0 
4.743362342862e+01 -1.585850773010e+01 0.0 
6.671345075358e+00 -1.924977576322e+01 0.0 
3.900825404537e+01 -1.157220003875e+01 0.0 
4.649692961375e+01 -1.836335837481e+01 0.0 
1.578831424832e+01 -3.678284023361e+00 0.0 
4.814208768888e+01 -1.841249298770e+01 0.0 
2.964123298315e+01 -1.625739458193e+01 0.0 
4.580760351902e+01 -1.284294554687e+01 0.0 
3.561520879615e+01 -1.245548941949e+01 0.0 
2.555418095658e+00 -1.841101588290e+01 0.0 
3.288468366144e+01 -1.834258164109e+01 0.0 
2.065894391445e+01 -2.240688571739e+00 0.0 
4.739171429915e+01 -1.496536413446e+01 0.0 
3.478086729185e+00 -8.576434653209e+00 0.0 
1.606010630246e+01 -1.588421807951e+00 0.0 
1.018329200594e+01 -1.834320874317e+01 0.0 
2.957213339430e+01 -1.720496954591e+01 0.0 
4.142712790164e+00 -1.837794506222e+01 0.0 
6.698721532573e-01 -2.499999999997e+00 0.0 
8.037039123140e+00 -1.571229354954e+00 0.0 
1.203541361428e+01 -1.847784298001e+01 0.0 
2.899968332038e+01 -1.848264722179e+01 0.0 
1.469229460948e+01 -4.219485753730e+00 0.0 
4.049590781957e+01 -1.932812501995e+01 0.0 
1.996211678340e+01 -1.506329754720e+00 0.0 
4.250588298353e+01 -1.067383247529e+01 0.0 
5.831497011152e+00 -1.635396227234e+00 0.0 
5.317606125670e+00 -1.923927974868e+01 0.0 
4.208546426993e+01 -1.842830665025e+01 0.0 
2.327553405011e+00 -9.459409929662e+00 0.0 
3.568351902251e+01 -1.096637218582e+01 0.0 
1.682104374890e+00 -6.231413350963e+00 0.0 
2.451812238018e+01 -1.766524914339e+01 0.0 
1.058003429638e+01 -2.391839617098e+00 0.0 
4.399988753123e+01 -1.851998776342e+01 0.0 
1.400000000010e+01 -1.852293523028e+01 0.0 
3.604719565984e+01 -1.850662876800e+01 0.0 
1.951297136734e+01 -1.938092349694e+01 0.0 
1.821365318472e+01 -1.531276353287e+00 0.0 
2.298031859732e+01 -1.854635324722e+01 0.0 
1.552168066204e+01 -1.764280741977e+01 0.0 
4.572957713638e+01 -1.073347898229e+01 0.0 
3.429637429624e+01 -1.838861552790e+01 0.0 
2.427434426052e+00 -7.705577451869e+00 0.0 
4.662792031485e+00 -3.359424455416e+00 0.0 
4.926794919243e+01 -1.926794919243e+01 0.0 
7.320508075690e-01 -7.320508075688e-01 0.0 
4.926794919243e+01 -1.073205080757e+01 0.0 
7.320508075705e-01 -1.926794919243e+01 0.0 
2.917460242467e+00 -3.202866455310e+00 0.0 
4.838200575963e+01 -1.232674147454e+01 0.0 
2.998445708009e+01 -1.854403752148e+01 0.0 
5.949940090766e-01 -1.152762038165e+01 0.0 
4.844763495759e+01 -1.678092548787e+01 0.0 
1.301685480160e+01 -3.170056592566e+00 0.0 
1.650046335855e+01 -6.731535384067e-01 0.0 
4.854881540991e+01 -1.405224059779e+01 0.0 
2.119545114693e+01 -1.846813384545e+01 0.0 
3.797852849897e+01 -1.857978513215e+01 0.0 
4.649823708745e+01 -1.338351810816e+01 0.0 
2.012685900976e+01 -2.889659035009e+00 0.0 
2.953271913273e+01 -1.791558075192e+01 0.0 
2.408509097292e+00 -1.021949208421e+01 0.0 
2.642589566221e+01 -1.773216561448e+01 0.0 
1.730010270775e+01 -1.763165076721e+01 0.0 
2.017406551304e+01 -8.513536440582e-01 0.0 
5.254761581934e-01 -1.249999999999e+01 0.0 
6.640448215642e+00 -1.545337834885e+00 0.0 
7.843361506349e+00 -1.852719839527e+01 0.0 
1.588442191088e+00 -1.066158564320e+01 0.0 
3.031250000000e+01 -6.420918367347e+00 0.0 
4.951250000000e+01 -6.500000000000e+00 0.0 
3.180701530612e+01 -7.414795918363e+00 0.0 
4.951250000000e+01 -7.500000000000e+00 0.0 
3.331250000000e+01 -8.420918367347e+00 0.0 
4.951470588234e+01 -8.500000000000e+00 0.0 
3.480610198624e+01 -9.413633635267e+00 0.0 
4.951470588234e+01 -9.500000000000e+00 0.0 

CELLS 2085 8340 
3 255 725 1001 
3 725 255 1003 
3 735 228 746 
3 848 613 1037 
3 615 675 841 
3 705 618 744 
3 235 657 659 
3 255 682 1003 
3 657 235 675 
3 608 843 1037 
3 227 802 803 
3 682 255 1017 
3 847 999 1043 
3 664 795 885 
3 999 261 1043 
3 254 848 1037 
3 663 234 804 
3 618 705 743 
3 242 662 984 
3 662 242 922 
3 843 608 996 
3 973 219 979 
3 700 973 979 
3 650 649 859 
3 349 505 794 
3 802 227 911 
3 109 82 1064 
3 694 220 936 
3 347 349 794 
3 859 649 1069 
3 599 809 811 
3 252 665 842 
3 735 746 1044 
3 19 240 715 
3 250 669 671 
3 678 66 1035 
3 66 678 1061 
3 697 246 741 
3 661 100 1014 
3 100 661 1075 
3 937 679 963 
3 215 701 840 
3 1018 216 1022 
3 82 264 1064 
3 656 263 1013 
3 695 1018 1022 
3 809 599 812 
3 263 656 1039 
3 805 806 812 
3 795 664 1036 
3 257 700 937 
3 647 662 922 
3 425 1038 1056 
3 257 937 963 
3 747 229 927 
3 1020 592 1065 
3 647 922 991 
3 240 685 715 
3 508 836 954 
3 843 254 1037 
3 214 1048 1089 
3 1028 654 1030 
3 474 502 708 
3 1038 811 1056 
3 819 638 1043 
3 700 257 973 
3 1048 658 1089 
3 228 735 1008 
3 535 496 817 
3 224 683 749 
3 911 854 965 
3 33 32 703 
3 694 936 1066 
3 4 5 829 
3 826 1020 1065 
3 666 231 917 
3 747 927 1076 
3 714 1019 1026 
3 836 508 1078 
3 1019 256 1026 
3 496 509 817 
3 234 663 1024 
3 219 725 979 
3 725 219 1001 
3 675 615 887 
3 657 675 887 
3 686 911 1016 
3 18 19 715 
3 740 737 985 
3 615 841 1024 
3 842 665 1015 
3 266 793 1064 
3 839 1010 1034 
3 1034 1010 1046 
3 232 33 703 
3 741 246 1071 
3 663 804 1036 
3 840 701 1049 
3 260 692 989 
3 708 502 709 
3 841 675 1059 
3 261 819 1043 
3 422 988 1012 
3 653 1028 1030 
3 543 541 719 
3 806 809 812 
3 846 847 969 
3 612 839 1034 
3 214 805 812 
3 942 237 1061 
3 387 740 985 
3 4 829 1080 
3 610 706 742 
3 577 893 931 
3 621 823 1047 
3 681 708 709 
3 476 474 708 
3 250 671 1029 
3 692 260 1084 
3 680 476 708 
3 711 641 986 
3 264 266 1064 
3 839 612 1087 
3 476 680 719 
3 1031 930 1045 
3 696 946 955 
3 823 621 1077 
3 946 221 955 
3 231 666 1057 
3 643 1031 1045 
3 802 911 965 
3 613 848 1039 
3 550 607 707 
3 221 679 955 
3 669 250 1049 
3 847 604 999 
3 686 854 911 
3 707 607 907 
3 651 779 1069 
3 583 699 707 
3 633 844 845 
3 683 224 1055 
3 885 795 1032 
3 492 464 713 
3 699 550 707 
3 679 221 963 
3 607 745 907 
3 719 545 914 
3 235 659 1014 
3 706 341 742 
3 665 252 1053 
3 1000 1006 1084 
3 830 242 984 
3 258 696 931 
3 779 651 788 
3 680 543 719 
3 715 686 1016 
3 682 216 1018 
3 988 648 1012 
3 241 687 688 
3 702 341 706 
3 685 240 969 
3 535 711 986 
3 847 606 969 
3 722 595 750 
3 237 942 1051 
3 1000 605 1006 
3 541 545 719 
3 893 258 931 
3 227 803 1100 
3 216 682 1017 
3 341 702 716 
3 464 515 713 
3 687 241 1075 
3 545 706 914 
3 696 258 946 
3 589 778 983 
3 823 524 1047 
3 220 694 1009 
3 749 683 1033 
3 681 709 1003 
3 524 823 1063 
3 766 896 950 
3 699 583 937 
3 682 681 1003 
3 722 577 931 
3 706 610 914 
3 230 843 996 
3 353 762 972 
3 240 846 969 
3 695 256 1019 
3 551 716 940 
3 737 762 985 
3 81 110 704 
3 583 679 937 
3 939 611 943 
3 835 967 1060 
3 850 243 1076 
3 348 273 755 
3 970 329 997 
3 459 939 943 
3 793 266 1042 
3 794 505 1032 
3 649 651 1069 
3 980 871 1007 
3 717 288 745 
3 547 437 750 
3 354 348 755 
3 544 722 750 
3 595 722 931 
3 493 953 993 
3 778 627 983 
3 704 238 705 
3 709 725 1003 
3 709 502 724 
3 607 717 745 
3 762 732 972 
3 618 617 923 
3 611 710 929 
3 661 687 1075 
3 716 702 940 
3 407 929 978 
3 667 877 1101 
3 753 354 755 
3 877 223 1101 
3 835 836 967 
3 256 695 1022 
3 980 623 981 
3 727 354 753 
3 623 622 981 
3 603 712 718 
3 429 810 882 
3 641 818 986 
3 896 459 950 
3 595 547 750 
3 638 819 1051 
3 110 238 704 
3 512 542 718 
3 302 341 716 
3 700 699 937 
3 710 611 939 
3 678 942 1061 
3 964 353 972 
3 411 393 748 
3 459 943 950 
3 911 227 1016 
3 745 355 907 
3 754 755 951 
3 654 1028 1073 
3 302 716 723 
3 542 603 718 
3 272 544 720 
3 703 32 1057 
3 288 717 892 
3 761 304 900 
3 688 687 689 
3 817 509 1021 
3 544 721 722 
3 511 411 748 
3 617 751 852 
3 599 811 1038 
3 354 727 889 
3 437 720 750 
3 476 719 914 
3 727 566 889 
3 762 353 985 
3 355 726 868 
3 222 676 1035 
3 552 761 900 
3 280 546 726 
3 610 742 873 
3 552 760 761 
3 394 410 751 
3 792 233 793 
3 306 303 723 
3 423 774 775 
3 754 964 972 
3 110 111 238 
3 544 270 721 
3 393 391 748 
3 467 512 718 
3 396 394 751 
3 275 272 720 
3 665 711 1015 
3 503 593 724 
3 552 759 760 
3 720 544 750 
3 792 793 794 
3 513 618 743 
3 423 775 777 
3 424 427 774 
3 709 724 725 
3 754 951 964 
3 502 503 724 
3 389 306 723 
3 716 551 723 
3 513 617 618 
3 742 298 873 
3 642 712 714 
3 37 229 747 
3 39 243 746 
3 289 288 892 
3 410 393 411 
3 466 467 525 
3 281 280 726 
3 410 411 466 
3 423 424 774 
3 355 868 907 
3 844 633 1062 
3 748 551 940 
3 953 609 993 
3 642 525 712 
3 247 57 767 
3 466 411 467 
3 286 355 745 
3 513 417 617 
3 789 482 897 
3 303 302 723 
3 427 771 774 
3 546 437 547 
3 42 768 769 
3 391 389 551 
3 552 380 759 
3 526 525 642 
3 757 442 880 
3 929 710 978 
3 542 543 601 
3 616 757 880 
3 245 45 749 
3 519 611 929 
3 41 228 768 
3 885 505 915 
3 740 387 1005 
3 603 601 695 
3 548 547 580 
3 280 437 546 
3 280 278 437 
3 356 892 918 
3 220 47 752 
3 347 794 1042 
3 721 577 722 
3 551 389 723 
3 622 818 981 
3 580 595 696 
3 542 541 543 
3 241 688 941 
3 427 770 771 
3 391 551 748 
3 731 753 754 
3 512 541 542 
3 546 547 548 
3 380 382 759 
3 555 782 869 
3 50 244 758 
3 583 581 679 
3 395 397 777 
3 636 970 997 
3 602 681 682 
3 601 543 602 
3 737 734 762 
3 286 284 355 
3 593 699 700 
3 548 580 581 
3 54 246 763 
3 246 697 1023 
3 734 732 762 
3 754 753 755 
3 782 322 869 
3 474 475 502 
3 394 393 410 
3 392 391 393 
3 288 286 745 
3 569 789 897 
3 337 783 784 
3 730 728 731 
3 397 423 777 
3 471 356 472 
3 726 546 868 
3 473 472 474 
3 228 40 746 
3 243 38 747 
3 243 850 1044 
3 555 781 782 
3 566 468 889 
3 542 601 603 
3 390 389 391 
3 617 417 751 
3 503 550 593 
3 791 792 795 
3 757 885 915 
3 767 765 859 
3 738 737 740 
3 272 270 544 
3 279 278 280 
3 417 396 751 
3 814 816 817 
3 341 300 742 
3 294 292 356 
3 300 298 742 
3 211 930 1031 
3 688 689 690 
3 818 622 986 
3 467 511 512 
3 57 56 767 
3 401 403 493 
3 265 577 721 
3 242 830 1052 
3 892 717 918 
3 302 300 341 
3 278 275 720 
3 224 43 769 
3 580 547 595 
3 284 281 726 
3 337 784 790 
3 728 727 753 
3 555 780 781 
3 44 224 749 
3 41 40 228 
3 37 36 229 
3 39 38 243 
3 277 275 278 
3 731 728 753 
3 736 734 737 
3 474 472 475 
3 502 475 503 
3 786 783 870 
3 730 731 732 
3 46 245 752 
3 645 566 727 
3 759 493 760 
3 645 727 728 
3 486 484 787 
3 294 356 471 
3 593 550 699 
3 466 525 526 
3 232 703 1027 
3 473 474 476 
3 867 586 936 
3 783 337 870 
3 428 431 770 
3 247 767 859 
3 512 540 541 
3 42 41 768 
3 243 747 1076 
3 285 284 286 
3 814 815 816 
3 44 43 224 
3 212 763 764 
3 427 428 770 
3 382 401 759 
3 218 51 758 
3 118 213 815 
3 471 472 473 
3 283 281 284 
3 287 286 288 
3 355 284 726 
3 525 467 718 
3 46 45 245 
3 388 306 389 
3 514 513 743 
3 676 222 1102 
3 815 213 816 
3 582 581 583 
3 809 810 811 
3 696 595 931 
3 212 55 763 
3 48 47 220 
3 437 278 720 
3 806 808 809 
3 655 514 743 
3 809 808 810 
3 899 597 912 
3 791 233 792 
3 267 265 721 
3 50 49 244 
3 249 791 795 
3 229 36 756 
3 489 486 787 
3 616 664 757 
3 602 680 681 
3 401 493 759 
3 617 852 923 
3 52 51 218 
3 40 39 746 
3 38 37 747 
3 555 363 780 
3 358 360 786 
3 294 471 873 
3 363 365 780 
3 54 53 246 
3 467 411 511 
3 774 773 775 
3 771 772 773 
3 506 616 880 
3 58 247 779 
3 806 807 808 
3 56 55 212 
3 770 635 771 
3 43 42 769 
3 736 737 738 
3 117 118 815 
3 471 610 873 
3 565 468 566 
3 45 44 749 
3 277 278 279 
3 532 489 533 
3 526 642 643 
3 765 764 766 
3 527 634 635 
3 771 635 772 
3 805 248 806 
3 47 46 752 
3 751 410 852 
3 519 567 611 
3 616 663 664 
3 853 585 872 
3 771 773 774 
3 279 280 281 
3 51 50 758 
3 360 462 786 
3 371 407 477 
3 291 289 292 
3 630 523 631 
3 775 773 776 
3 780 477 781 
3 292 289 892 
3 628 485 902 
3 401 402 403 
3 293 292 294 
3 330 332 790 
3 512 511 540 
3 358 786 870 
3 533 489 787 
3 357 380 552 
3 56 212 767 
3 644 566 645 
3 528 853 872 
3 55 54 763 
3 212 764 765 
3 299 298 300 
3 806 248 807 
3 59 779 788 
3 729 728 730 
3 431 527 770 
3 58 57 247 
3 365 371 780 
3 503 549 550 
3 270 267 721 
3 357 552 900 
3 361 555 869 
3 523 482 789 
3 755 273 951 
3 582 707 907 
3 403 421 422 
3 690 689 691 
3 332 337 790 
3 382 384 401 
3 527 584 634 
3 554 376 855 
3 116 117 813 
3 541 540 545 
3 527 635 770 
3 783 625 784 
3 297 295 298 
3 371 477 780 
3 506 614 616 
3 431 494 527 
3 59 58 779 
3 283 284 285 
3 553 624 625 
3 285 286 287 
3 553 625 783 
3 813 117 815 
3 269 267 270 
3 822 821 823 
3 223 123 837 
3 462 517 553 
3 371 406 407 
3 851 521 876 
3 631 789 933 
3 631 523 789 
3 265 225 577 
3 249 107 791 
3 646 756 949 
3 287 288 289 
3 123 124 837 
3 641 561 818 
3 807 813 814 
3 623 980 1007 
3 539 589 983 
3 619 851 876 
3 416 899 912 
3 340 338 849 
3 378 376 554 
3 519 530 567 
3 436 417 513 
3 253 821 822 
3 226 825 826 
3 215 60 788 
3 60 59 788 
3 821 820 824 
3 553 517 624 
3 361 363 555 
3 567 649 650 
3 561 480 818 
3 414 499 519 
3 835 833 836 
3 462 553 786 
3 784 625 785 
3 239 832 833 
3 253 820 821 
3 565 566 644 
3 124 125 834 
3 108 233 791 
3 108 109 233 
3 482 386 897 
3 226 10 825 
3 527 494 584 
3 712 525 718 
3 672 670 673 
3 752 245 867 
3 556 450 883 
3 602 543 680 
3 665 641 711 
3 548 581 582 
3 104 234 841 
3 103 104 841 
3 124 834 837 
3 834 833 835 
3 828 830 831 
3 404 345 479 
3 239 827 832 
3 820 217 824 
3 214 114 805 
3 345 340 849 
3 693 691 713 
3 106 107 249 
3 589 684 778 
3 365 370 371 
3 690 691 692 
3 10 11 825 
3 828 831 832 
3 30 29 844 
3 231 30 844 
3 616 614 663 
3 234 105 804 
3 825 822 826 
3 28 230 845 
3 479 345 849 
3 107 108 791 
3 106 249 804 
3 580 696 955 
3 36 35 756 
3 844 29 845 
3 239 833 834 
3 125 239 834 
3 640 561 641 
3 784 785 921 
3 846 604 847 
3 113 114 214 
3 251 838 839 
3 115 248 805 
3 522 482 523 
3 115 116 248 
3 114 115 805 
3 629 523 630 
3 575 638 639 
3 692 691 693 
3 868 582 907 
3 827 828 832 
3 377 378 857 
3 25 24 848 
3 254 25 848 
3 105 106 804 
3 458 386 482 
3 29 28 845 
3 532 533 648 
3 828 829 830 
3 827 262 828 
3 828 262 829 
3 11 12 253 
3 261 69 819 
3 80 79 263 
3 127 262 827 
3 13 217 820 
3 70 69 261 
3 68 237 819 
3 61 215 840 
3 76 236 838 
3 78 77 251 
3 69 68 819 
3 68 67 237 
3 251 77 838 
3 127 128 262 
3 101 102 235 
3 104 105 234 
3 239 126 827 
3 65 64 222 
3 250 62 840 
3 63 62 250 
3 126 127 827 
3 125 126 239 
3 61 60 215 
3 62 61 840 
3 76 75 236 
3 98 99 241 
3 77 76 838 
3 74 73 260 
3 96 97 605 
3 122 123 223 
3 120 121 252 
3 119 120 842 
3 118 119 213 
3 13 14 217 
3 12 13 820 
3 120 252 842 
3 16 17 227 
3 213 119 842 
3 34 33 232 
3 28 27 230 
3 31 30 231 
3 6 7 242 
3 9 10 226 
3 27 26 843 
3 19 20 240 
3 26 25 254 
3 20 21 846 
3 21 22 604 
3 253 12 820 
3 230 27 843 
3 26 254 843 
3 240 20 846 
3 21 604 846 
3 469 470 854 
3 248 116 813 
3 360 461 462 
3 834 835 837 
3 672 673 674 
3 553 783 786 
3 435 419 856 
3 404 479 480 
3 967 668 1060 
3 575 639 856 
3 462 463 517 
3 253 822 825 
3 419 481 856 
3 612 613 656 
3 11 253 825 
3 407 406 414 
3 369 367 420 
3 469 418 470 
3 537 469 854 
3 388 389 390 
3 582 583 707 
3 298 295 873 
3 377 376 378 
3 481 574 575 
3 685 537 686 
3 528 622 623 
3 600 521 608 
3 516 465 521 
3 661 660 687 
3 375 373 376 
3 418 377 857 
3 612 600 613 
3 516 600 612 
3 420 367 879 
3 575 606 638 
3 478 450 556 
3 685 686 715 
3 676 674 677 
3 608 521 851 
3 455 453 456 
3 371 370 406 
3 415 497 498 
3 434 520 528 
3 640 641 665 
3 807 248 813 
3 516 521 600 
3 575 574 606 
3 814 813 815 
3 733 732 734 
3 659 559 660 
3 405 419 435 
3 481 537 574 
3 584 585 636 
3 574 537 685 
3 659 660 661 
3 401 384 402 
3 676 677 678 
3 647 529 662 
3 671 670 672 
3 464 456 465 
3 498 529 592 
3 528 623 853 
3 800 798 801 
3 452 454 558 
3 339 343 358 
3 515 465 516 
3 455 464 492 
3 624 517 796 
3 686 537 854 
3 481 469 537 
3 464 465 515 
3 457 409 495 
3 517 463 518 
3 490 576 652 
3 456 863 876 
3 462 461 463 
3 369 420 855 
3 669 597 670 
3 455 456 464 
3 598 514 655 
3 572 667 668 
3 398 396 417 
3 481 575 856 
3 454 453 455 
3 802 800 803 
3 558 559 657 
3 519 499 530 
3 796 518 797 
3 419 469 481 
3 498 497 529 
3 672 674 676 
3 517 518 796 
3 592 529 647 
3 518 463 865 
3 358 359 360 
3 344 340 345 
3 799 800 802 
3 122 223 877 
3 252 121 877 
3 470 418 857 
3 415 457 497 
3 375 376 377 
3 376 373 855 
3 332 336 337 
3 431 432 494 
3 478 556 557 
3 744 618 1094 
3 360 460 461 
3 567 530 649 
3 497 457 508 
3 558 454 559 
3 657 559 659 
3 560 480 561 
3 596 563 597 
3 449 447 450 
3 415 409 457 
3 632 556 901 
3 557 556 632 
3 352 409 415 
3 681 680 708 
3 346 345 404 
3 419 418 469 
3 797 798 799 
3 645 728 729 
3 478 557 619 
3 405 377 418 
3 375 377 405 
3 404 480 560 
3 405 418 419 
3 449 450 451 
3 799 798 800 
3 452 453 454 
3 451 450 478 
3 304 305 900 
3 863 619 876 
3 463 524 865 
3 797 518 798 
3 460 359 620 
3 334 331 335 
3 452 451 453 
3 326 328 361 
3 344 346 352 
3 572 561 640 
3 449 451 452 
3 344 345 346 
3 669 670 671 
3 456 453 863 
3 405 435 858 
3 212 765 767 
3 463 461 524 
3 352 346 409 
3 560 561 572 
3 374 373 375 
3 455 492 862 
3 572 640 667 
3 358 343 359 
3 662 529 860 
3 452 558 861 
3 360 359 460 
3 373 369 855 
3 460 620 621 
3 521 465 876 
3 343 340 344 
3 368 372 416 
3 528 520 622 
3 372 369 373 
3 801 798 865 
3 374 375 858 
3 775 776 957 
3 529 497 860 
3 660 559 862 
3 522 523 629 
3 472 356 918 
3 454 455 862 
3 434 528 872 
3 446 448 506 
3 497 508 860 
3 673 670 899 
3 458 482 522 
3 403 402 421 
3 557 632 633 
3 361 362 363 
3 495 409 866 
3 366 364 367 
3 596 597 669 
3 584 494 585 
3 375 405 858 
3 453 451 863 
3 428 430 431 
3 368 367 369 
3 614 507 615 
3 498 592 898 
3 339 340 343 
3 291 292 293 
3 372 373 374 
3 503 475 549 
3 293 294 295 
3 448 447 449 
3 559 454 862 
3 506 507 614 
3 798 518 865 
3 536 438 563 
3 363 364 365 
3 558 657 887 
3 735 734 736 
3 422 421 490 
3 368 369 372 
3 451 478 863 
3 332 334 336 
3 336 338 339 
3 404 560 866 
3 365 366 370 
3 339 358 870 
3 448 449 861 
3 506 448 507 
3 308 310 357 
3 849 338 871 
3 390 391 392 
3 339 338 340 
3 336 334 338 
3 346 404 866 
3 414 438 499 
3 327 325 329 
3 478 619 863 
3 323 325 326 
3 365 364 366 
3 361 328 362 
3 297 298 299 
3 409 346 866 
3 536 563 596 
3 536 596 701 
3 483 485 628 
3 332 331 334 
3 363 362 364 
3 449 452 861 
3 337 336 870 
3 471 473 610 
3 343 344 864 
3 494 432 872 
3 330 331 332 
3 344 352 864 
3 415 498 890 
3 362 328 562 
3 366 367 368 
3 501 538 539 
3 121 122 877 
3 319 317 320 
3 323 321 324 
3 330 329 331 
3 507 448 861 
3 326 327 328 
3 359 343 864 
3 327 329 330 
3 465 456 876 
3 620 359 864 
3 572 668 886 
3 866 560 886 
3 585 494 872 
3 334 335 871 
3 319 321 322 
3 326 325 327 
3 434 496 520 
3 495 866 886 
3 757 664 885 
3 864 352 890 
3 414 406 438 
3 487 500 501 
3 271 270 272 
3 510 444 531 
3 539 588 589 
3 305 308 900 
3 485 487 902 
3 432 433 434 
3 330 790 874 
3 301 300 302 
3 424 426 427 
3 496 433 509 
3 336 339 870 
3 323 324 325 
3 322 321 323 
3 620 864 890 
3 326 361 869 
3 319 320 321 
3 315 317 318 
3 338 334 871 
3 385 383 386 
3 446 447 448 
3 315 313 316 
3 499 438 536 
3 431 430 432 
3 649 530 651 
3 322 323 869 
3 589 683 684 
3 282 281 283 
3 432 434 872 
3 274 272 275 
3 564 468 565 
3 322 782 905 
3 545 702 706 
3 276 275 277 
3 356 292 892 
3 434 433 496 
3 666 637 703 
3 520 496 535 
3 697 591 698 
3 851 619 894 
3 408 386 458 
3 861 558 887 
3 445 444 510 
3 318 317 319 
3 357 379 380 
3 594 531 637 
3 368 416 875 
3 443 445 446 
3 522 629 710 
3 432 430 433 
3 443 441 444 
3 752 867 936 
3 536 701 888 
3 327 330 874 
3 507 861 887 
3 615 507 887 
3 323 326 869 
3 370 366 875 
3 406 370 878 
3 560 572 886 
3 392 393 394 
3 311 313 314 
3 315 316 317 
3 295 294 873 
3 594 637 666 
3 730 732 733 
3 619 557 894 
3 550 549 607 
3 440 412 468 
3 366 368 875 
3 632 901 917 
3 413 441 442 
3 328 327 874 
3 311 309 312 
3 443 444 445 
3 510 531 594 
3 450 447 883 
3 446 445 447 
3 597 563 912 
3 590 504 591 
3 563 438 878 
3 367 364 879 
3 679 581 955 
3 385 408 439 
3 350 348 354 
3 352 415 890 
3 314 313 315 
3 631 933 945 
3 380 381 382 
3 397 399 423 
3 311 312 313 
3 382 383 384 
3 548 582 868 
3 562 328 874 
3 442 757 915 
3 675 235 1059 
3 84 202 211 
3 364 362 879 
3 408 458 459 
3 729 730 850 
3 357 310 379 
3 362 562 879 
3 446 506 880 
3 85 203 256 
3 385 386 408 
3 381 379 569 
3 546 548 868 
3 370 875 878 
3 427 426 428 
3 438 406 878 
3 530 499 888 
3 384 383 385 
3 447 445 883 
3 491 489 532 
3 499 536 888 
3 86 204 216 
3 442 443 880 
3 652 576 653 
3 445 510 883 
3 382 381 383 
3 310 309 311 
3 952 624 956 
3 436 513 514 
3 556 883 901 
3 890 498 898 
3 87 205 255 
3 488 486 489 
3 557 633 894 
3 428 429 430 
3 290 289 291 
3 442 441 443 
3 921 785 926 
3 423 399 424 
3 545 540 702 
3 509 433 882 
3 428 426 429 
3 430 429 882 
3 380 379 381 
3 756 35 949 
3 88 206 219 
3 670 597 899 
3 307 306 388 
3 351 413 915 
3 398 417 436 
3 651 530 888 
3 433 430 882 
3 621 620 898 
3 402 384 881 
3 319 322 905 
3 490 504 576 
3 473 476 914 
3 350 354 889 
3 590 591 697 
3 443 446 880 
3 730 733 850 
3 441 440 904 
3 440 468 564 
3 410 466 852 
3 673 899 919 
3 413 440 441 
3 304 761 925 
3 89 207 257 
3 590 697 741 
3 395 394 396 
3 620 890 898 
3 490 421 504 
3 242 7 922 
3 296 295 297 
3 385 439 881 
3 564 565 884 
3 565 644 646 
3 384 385 881 
3 531 444 904 
3 305 303 306 
3 487 501 902 
3 90 208 221 
3 736 738 739 
3 91 209 258 
3 210 91 893 
3 308 357 900 
3 82 210 225 
3 578 333 579 
3 299 300 301 
3 311 314 891 
3 424 399 425 
3 308 309 310 
3 510 594 901 
3 733 734 735 
3 416 372 919 
3 576 504 590 
3 318 319 905 
3 440 564 904 
3 310 311 891 
3 674 673 928 
3 444 441 904 
3 468 412 889 
3 386 383 897 
3 305 307 308 
3 501 500 538 
3 279 281 282 
3 424 425 426 
3 395 396 397 
3 610 473 914 
3 287 289 290 
3 677 674 932 
3 413 412 440 
3 308 307 309 
3 483 628 908 
3 439 408 896 
3 883 510 901 
3 539 538 588 
3 505 351 915 
3 611 567 943 
3 379 310 891 
3 408 459 896 
3 293 295 296 
3 637 531 920 
3 589 588 683 
3 381 569 897 
3 397 396 398 
3 491 532 534 
3 296 333 571 
3 305 306 307 
3 383 381 897 
3 414 519 929 
3 397 398 399 
3 569 379 891 
3 274 275 276 
3 677 932 938 
3 276 277 387 
3 488 489 491 
3 271 272 274 
3 268 267 269 
3 282 283 342 
3 591 504 906 
3 899 416 919 
3 351 412 413 
3 565 646 884 
3 269 270 271 
3 388 390 568 
3 491 534 587 
3 901 594 917 
3 297 299 895 
3 296 297 333 
3 307 388 903 
3 412 350 889 
3 549 475 918 
3 578 579 609 
3 475 472 918 
3 421 402 906 
3 587 654 694 
3 312 309 903 
3 436 514 570 
3 644 645 927 
3 607 549 717 
3 945 318 958 
3 587 534 654 
3 351 350 412 
3 875 416 912 
3 301 302 303 
3 570 514 598 
3 938 639 942 
3 290 291 400 
3 403 422 953 
3 538 500 586 
3 598 655 658 
3 878 875 912 
3 511 748 940 
3 349 351 505 
3 420 926 947 
3 309 307 903 
3 674 928 932 
3 571 333 578 
3 388 568 903 
3 290 400 483 
3 570 598 599 
3 485 486 487 
3 402 881 906 
3 684 683 1055 
3 487 488 500 
3 395 777 924 
3 372 374 919 
3 594 666 917 
3 741 218 959 
3 504 421 906 
3 304 303 305 
3 483 484 485 
3 856 639 938 
3 800 801 935 
3 487 486 488 
3 413 442 915 
3 673 919 928 
3 563 878 912 
3 98 241 941 
3 605 97 941 
3 274 276 353 
3 485 484 486 
3 554 855 947 
3 282 342 573 
3 579 333 895 
3 766 950 1074 
3 301 303 304 
3 34 232 949 
3 266 265 267 
3 333 297 895 
3 420 879 926 
3 392 394 395 
3 562 874 921 
3 483 400 484 
3 285 287 908 
3 349 350 351 
3 573 342 626 
3 573 626 627 
3 831 830 984 
3 874 790 921 
3 717 549 918 
3 277 279 909 
3 387 277 909 
3 698 591 934 
3 7 8 922 
3 425 399 913 
3 291 293 910 
3 790 784 921 
3 91 258 893 
3 225 210 893 
3 349 348 350 
3 466 526 852 
3 926 785 947 
3 459 458 939 
3 399 398 913 
3 220 752 936 
3 904 564 920 
3 625 624 952 
3 919 374 928 
3 836 833 954 
3 522 710 939 
3 400 291 910 
3 832 831 954 
3 531 904 920 
3 398 436 913 
3 279 282 909 
3 287 290 908 
3 315 318 945 
3 781 477 974 
3 564 884 920 
3 477 407 978 
3 296 571 910 
3 293 296 910 
3 202 83 930 
3 436 570 913 
3 488 491 916 
3 268 269 273 
3 491 587 916 
3 540 511 940 
3 732 731 972 
3 586 500 916 
3 577 225 893 
3 500 488 916 
3 374 858 928 
3 787 484 944 
3 562 921 926 
3 879 562 926 
3 645 729 927 
3 782 781 971 
3 290 483 908 
3 761 760 977 
3 407 414 929 
3 895 299 925 
3 924 777 957 
3 789 569 933 
3 568 390 924 
3 282 573 909 
3 568 924 957 
3 342 283 948 
3 591 906 934 
3 906 881 934 
3 299 301 925 
3 347 348 349 
3 928 858 932 
3 858 435 932 
3 526 643 923 
3 342 948 966 
3 677 938 942 
3 593 700 979 
3 554 952 956 
3 211 202 930 
3 932 435 938 
3 392 395 924 
3 803 800 935 
3 953 422 1012 
3 347 273 348 
3 268 273 347 
3 400 910 944 
3 90 221 946 
3 258 209 946 
3 435 856 938 
3 974 477 978 
3 631 945 958 
3 458 522 939 
3 891 314 933 
3 390 392 924 
3 209 90 946 
3 266 267 268 
3 97 98 941 
3 881 439 934 
3 301 304 925 
3 590 741 959 
3 574 685 969 
3 569 891 933 
3 678 677 942 
3 957 776 961 
3 653 576 959 
3 910 571 944 
3 533 787 968 
3 567 650 943 
3 331 329 970 
3 908 628 948 
3 933 314 945 
3 285 908 948 
3 702 540 940 
3 648 533 976 
3 314 315 945 
3 855 420 947 
3 283 285 948 
3 1045 259 1058 
3 760 493 993 
3 714 211 1031 
3 495 886 967 
3 554 947 952 
3 501 539 975 
3 273 269 951 
3 89 257 963 
3 35 34 949 
3 83 201 259 
3 221 208 963 
3 630 631 958 
3 624 796 956 
3 581 580 955 
3 987 772 990 
3 971 781 974 
3 484 400 944 
3 493 403 953 
3 738 1040 1050 
3 852 526 923 
3 785 625 952 
3 956 796 960 
3 849 871 980 
3 264 225 265 
3 269 271 951 
3 18 715 1016 
3 833 832 954 
3 658 655 1002 
3 818 480 981 
3 796 797 960 
3 312 961 982 
3 773 772 987 
3 777 775 957 
3 378 554 956 
3 274 353 964 
3 960 797 962 
3 312 903 961 
3 948 628 966 
3 664 663 1036 
3 422 490 988 
3 797 799 962 
3 378 956 960 
3 88 219 973 
3 316 313 982 
3 962 799 965 
3 236 75 989 
3 74 260 989 
3 257 207 973 
3 857 378 960 
3 635 634 992 
3 714 712 1019 
3 576 590 959 
3 622 520 986 
3 992 634 994 
3 977 760 993 
3 208 89 963 
3 799 802 965 
3 9 226 991 
3 264 265 266 
3 857 960 962 
3 318 905 958 
3 947 785 952 
3 705 744 1058 
3 1013 251 1087 
3 320 317 990 
3 896 766 1011 
3 533 968 976 
3 470 857 962 
3 470 962 965 
3 961 776 982 
3 535 817 1067 
3 744 1045 1058 
3 854 470 965 
3 943 650 950 
3 584 636 995 
3 628 902 966 
3 725 724 979 
3 626 342 966 
3 701 215 1054 
3 111 112 1002 
3 24 23 998 
3 71 70 999 
3 73 72 1000 
3 324 321 994 
3 787 944 968 
3 903 568 961 
3 886 668 967 
3 83 259 930 
3 851 894 996 
3 271 274 964 
3 82 225 264 
3 48 220 1009 
3 922 8 991 
3 244 49 1009 
3 951 271 964 
3 329 325 997 
3 944 571 968 
3 324 994 995 
3 603 695 1019 
3 995 636 997 
3 353 276 985 
3 606 574 969 
3 320 990 992 
3 626 966 975 
3 1002 112 1089 
3 316 982 987 
3 731 754 972 
3 335 331 970 
3 636 585 1004 
3 571 578 968 
3 810 429 1056 
3 87 255 1001 
3 219 206 1001 
3 335 1004 1007 
3 630 958 971 
3 895 925 977 
3 966 902 975 
3 735 736 1008 
3 207 88 973 
3 838 236 1010 
3 683 588 1033 
3 568 957 961 
3 211 714 1026 
3 724 593 979 
3 905 782 971 
3 573 627 1005 
3 958 905 971 
3 618 923 1094 
3 629 630 974 
3 695 601 1018 
3 925 761 977 
3 630 971 974 
3 968 578 976 
3 492 713 1093 
3 871 335 1007 
3 642 714 1031 
3 629 974 978 
3 602 682 1018 
3 1002 655 1072 
3 263 79 1013 
3 78 251 1013 
3 816 213 1015 
3 710 629 978 
3 479 980 981 
3 479 849 980 
3 975 539 983 
3 578 609 976 
3 902 501 975 
3 316 987 990 
3 100 101 1014 
3 250 840 1049 
3 480 479 981 
3 439 896 1011 
3 579 895 977 
3 662 860 984 
3 387 909 1005 
3 313 312 982 
3 814 817 1021 
3 776 773 987 
3 17 18 1016 
3 276 387 985 
3 520 535 986 
3 803 935 1086 
3 627 626 983 
3 490 652 988 
3 970 636 1004 
3 991 226 1065 
3 579 977 993 
3 75 74 989 
3 808 807 1021 
3 867 245 1033 
3 746 243 1044 
3 260 1000 1084 
3 703 637 1027 
3 768 228 1008 
3 317 316 990 
3 320 992 994 
3 764 763 1023 
3 238 111 1002 
3 8 9 991 
3 803 1086 1100 
3 335 970 1004 
3 772 635 992 
3 86 216 1017 
3 255 205 1017 
3 663 614 1024 
3 982 776 987 
3 898 592 1020 
3 532 648 1025 
3 222 64 1029 
3 63 250 1029 
3 321 320 994 
3 249 795 1036 
3 658 1002 1089 
3 85 256 1022 
3 811 810 1056 
3 216 204 1022 
3 609 579 993 
3 634 584 995 
3 990 772 992 
3 812 599 1048 
3 656 1013 1087 
3 994 634 995 
3 608 851 996 
3 516 612 1034 
3 848 24 998 
3 70 261 999 
3 260 73 1000 
3 324 995 997 
3 206 87 1001 
3 325 324 997 
3 66 65 1035 
3 84 211 1026 
3 256 203 1026 
3 698 934 1011 
3 841 234 1024 
3 613 600 1037 
3 626 975 983 
3 652 653 1030 
3 738 740 1040 
3 689 687 1041 
3 1004 853 1007 
3 585 853 1004 
3 1010 236 1090 
3 1025 652 1030 
3 233 109 1064 
3 605 941 1006 
3 688 690 1006 
3 687 660 1041 
3 570 599 1038 
3 853 623 1007 
3 633 845 1068 
3 862 492 1041 
3 218 741 1071 
3 736 739 1008 
3 909 573 1005 
3 920 884 1027 
3 524 461 1047 
3 460 621 1047 
3 701 596 1049 
3 214 812 1048 
3 647 991 1065 
3 49 48 1009 
3 6 242 1052 
3 941 688 1006 
3 765 766 1074 
3 640 665 1053 
3 223 837 1060 
3 31 231 1057 
3 103 841 1059 
3 917 231 1062 
3 764 1023 1098 
3 235 102 1059 
3 238 1002 1072 
3 848 998 1039 
3 495 967 1078 
3 633 632 1062 
3 67 66 1061 
3 733 735 1044 
3 425 913 1038 
3 795 792 1032 
3 823 821 1063 
3 648 988 1025 
3 52 218 1071 
3 839 838 1010 
3 246 53 1071 
3 599 598 1048 
3 676 678 1035 
3 426 425 1056 
3 831 984 1083 
3 247 859 1069 
3 756 646 1070 
3 666 703 1057 
3 659 661 1014 
3 266 268 1042 
3 712 603 1019 
3 768 1008 1085 
3 826 822 1077 
3 643 1045 1094 
3 988 652 1025 
3 99 100 1075 
3 646 644 1070 
3 3 80 1079 
3 23 3 1079 
3 128 0 1080 
3 0 4 1080 
3 72 1 1081 
3 1 96 1081 
3 2 71 1082 
3 22 2 1082 
3 829 262 1080 
3 113 214 1089 
3 942 639 1051 
3 587 694 1066 
3 508 457 1078 
3 672 676 1102 
3 16 227 1100 
3 217 14 1086 
3 713 691 1093 
3 882 810 1088 
3 648 976 1012 
3 967 836 1078 
3 865 524 1096 
3 1008 739 1085 
3 79 78 1013 
3 935 217 1086 
3 690 692 1084 
3 586 867 1097 
3 1040 778 1050 
3 1005 627 1040 
3 101 235 1014 
3 609 953 1012 
3 927 729 1076 
3 592 647 1065 
3 213 842 1015 
3 538 586 1097 
3 934 439 1011 
3 810 808 1088 
3 693 1010 1090 
3 819 237 1051 
3 586 916 1066 
3 936 586 1066 
3 227 17 1016 
3 704 705 1058 
3 205 86 1017 
3 601 602 1018 
3 792 794 1032 
3 976 609 1012 
3 894 633 1068 
3 763 246 1023 
3 807 814 1021 
3 816 1015 1067 
3 204 85 1022 
3 713 515 1046 
3 621 898 1020 
3 884 646 1092 
3 984 860 1083 
3 697 698 1023 
3 614 615 1024 
3 758 244 1028 
3 534 532 1025 
3 794 793 1042 
3 788 651 1054 
3 646 949 1092 
3 998 263 1039 
3 203 84 1026 
3 637 920 1027 
3 245 749 1033 
3 1023 698 1098 
3 534 1025 1030 
3 64 63 1029 
3 740 1005 1040 
3 81 704 1099 
3 643 642 1031 
3 739 738 1050 
3 505 885 1032 
3 606 847 1043 
3 654 534 1030 
3 222 1029 1102 
3 515 516 1034 
3 218 758 1091 
3 888 701 1054 
3 651 888 1054 
3 1020 826 1077 
3 65 222 1035 
3 804 249 1036 
3 600 608 1037 
3 817 816 1067 
3 612 656 1087 
3 693 713 1046 
3 829 5 1052 
3 913 570 1038 
3 627 778 1040 
3 231 844 1062 
3 656 613 1039 
3 959 218 1091 
3 660 862 1041 
3 252 877 1053 
3 743 705 1072 
3 877 667 1053 
3 711 535 1067 
3 201 81 1099 
3 524 1063 1096 
3 638 606 1043 
3 850 733 1044 
3 268 347 1042 
3 461 460 1047 
3 596 669 1049 
3 650 859 1074 
3 1028 244 1073 
3 867 1033 1097 
3 778 684 1050 
3 1015 711 1067 
3 598 658 1048 
3 639 638 1051 
3 830 829 1052 
3 5 6 1052 
3 930 259 1045 
3 667 640 1053 
3 215 788 1054 
3 224 769 1055 
3 996 894 1068 
3 244 1009 1073 
3 950 650 1074 
3 1041 492 1093 
3 32 31 1057 
3 429 426 1056 
3 102 103 1059 
3 808 1021 1088 
3 837 835 1060 
3 237 67 1061 
3 793 233 1064 
3 954 831 1083 
3 821 824 1063 
3 1055 769 1085 
3 632 917 1062 
3 229 756 1070 
3 226 826 1065 
3 655 743 1072 
3 1029 671 1102 
3 998 23 1079 
3 71 999 1082 
3 1000 72 1081 
3 859 765 1074 
3 508 954 1083 
3 1027 884 1092 
3 223 1060 1101 
3 779 247 1069 
3 927 229 1070 
3 705 238 1072 
3 916 587 1066 
3 515 1034 1046 
3 845 230 1068 
3 53 52 1071 
3 236 989 1090 
3 769 768 1085 
3 644 927 1070 
3 1010 693 1046 
3 1055 1085 1095 
3 822 823 1077 
3 241 99 1075 
3 694 654 1073 
3 80 263 1079 
3 262 128 1080 
3 96 605 1081 
3 604 22 1082 
3 457 495 1078 
3 766 764 1098 
3 729 850 1076 
3 230 996 1068 
3 860 508 1083 
3 1045 744 1094 
3 14 15 1086 
3 251 839 1087 
3 112 113 1089 
3 949 232 1092 
3 692 693 1090 
3 509 882 1088 
3 691 689 1093 
3 1009 694 1073 
3 1086 15 1100 
3 259 201 1099 
3 621 1020 1077 
3 801 865 1096 
3 15 16 1100 
3 653 959 1091 
3 824 217 1103 
3 935 801 1103 
3 668 667 1101 
3 671 672 1102 
3 588 538 1097 
3 923 643 1094 
3 263 998 1079 
3 999 604 1082 
3 605 1000 1081 
3 989 692 1090 
3 1096 824 1103 
3 801 1096 1103 
3 217 935 1103 
3 698 1011 1098 
3 1021 509 1088 
3 1033 588 1097 
3 1006 690 1084 
3 232 1027 1092 
3 1011 766 1098 
3 689 1041 1093 
3 739 1050 1095 
3 1028 653 1091 
3 758 1028 1091 
3 1058 259 1099 
3 1050 684 1095 
3 684 1055 1095 
3 1060 668 1101 
3 1063 824 1096 
3 704 1058 1099 
3 1085 739 1095 
3 166 167 129 
3 130 166 129 
3 165 166 130 
3 131 165 130 
3 164 165 131 
3 132 164 131 
3 163 164 132 
3 133 163 132 
3 162 163 133 
3 162 133 134 
3 161 162 134 
3 135 161 134 
3 160 161 135 
3 136 160 135 
3 159 160 136 
3 137 159 136 
3 89 147 1104 
3 158 159 137 
3 158 137 138 
3 147 148 1104 
3 158 138 157 
3 157 138 139 
3 147 89 149 
3 156 157 139 
3 156 139 140 
3 155 156 140 
3 155 140 141 
3 154 155 141 
3 142 154 141 
3 207 89 1104 
3 153 154 142 
3 153 142 143 
3 152 153 143 
3 152 143 144 
3 151 144 145 
3 151 152 144 
3 145 146 150 
3 151 145 150 
3 146 147 149 
3 146 149 150 
3 148 207 1104 
3 93 92 1105 
3 129 167 1105 
3 92 129 1105 
3 167 93 1105 
3 148 88 207 
3 166 167 168 
3 169 166 168 
3 165 166 169 
3 170 165 169 
3 164 165 170 
3 171 164 170 
3 163 164 171 
3 172 163 171 
3 162 163 172 
3 173 162 172 
3 161 162 173 
3 174 161 173 
3 160 161 174 
3 160 174 175 
3 159 160 175 
3 150 90 1106 
3 176 159 175 
3 90 150 184 
3 159 176 158 
3 176 177 158 
3 158 177 157 
3 177 178 157 
3 178 156 157 
3 156 178 179 
3 149 150 1106 
3 156 179 155 
3 179 180 155 
3 180 154 155 
3 180 181 154 
3 181 153 154 
3 182 153 181 
3 153 182 152 
3 152 182 183 
3 151 183 184 
3 151 152 183 
3 90 208 1106 
3 150 151 184 
3 208 149 1106 
3 93 94 1107 
3 168 167 1107 
3 94 168 1107 
3 167 93 1107 
3 89 149 208 
3 199 200 168 
3 169 199 168 
3 198 199 169 
3 170 198 169 
3 197 198 170 
3 171 197 170 
3 196 197 171 
3 172 196 171 
3 195 196 172 
3 173 195 172 
3 194 195 173 
3 174 194 173 
3 193 194 174 
3 91 183 1108 
3 193 174 175 
3 192 193 175 
3 183 184 1108 
3 176 192 175 
3 192 176 191 
3 183 91 185 
3 176 177 191 
3 177 190 191 
3 177 178 190 
3 178 189 190 
3 178 179 189 
3 209 91 1108 
3 179 188 189 
3 179 180 188 
3 180 181 187 
3 180 187 188 
3 181 182 186 
3 181 186 187 
3 182 183 185 
3 182 185 186 
3 184 209 1108 
3 95 94 1109 
3 168 200 1109 
3 94 168 1109 
3 200 95 1109 
3 90 209 184 
3 199 200 96 
3 199 96 97 
3 198 199 97 
3 198 97 98 
3 197 198 98 
3 197 98 99 
3 196 197 99 
3 196 99 100 
3 195 196 100 
3 195 100 101 
3 194 195 101 
3 194 101 102 
3 186 82 1110 
3 193 194 102 
3 109 82 186 
3 193 102 103 
3 192 193 103 
3 104 192 103 
3 191 192 104 
3 105 191 104 
3 190 191 105 
3 190 105 106 
3 185 186 1110 
3 190 106 189 
3 106 107 189 
3 107 188 189 
3 107 108 188 
3 108 109 187 
3 188 108 187 
3 187 109 186 
3 82 210 1110 
3 210 185 1110 
3 95 1 1111 
3 96 200 1111 
3 1 96 1111 
3 200 95 1111 
3 210 91 185 

CELL_TYPES 2085
5
5
5
5
5
5
5
5
5
5
5
5
5
5
5
5
5
5
5
5
5
5
5
5
5
5
5
5
5
5
5
5
5
5
5
5
5
5
5
5
5
5
5
5
5
5
5
5
5
5
5
5
5
5
5
5
5
5
5
5
5
5
5
5
5
5
5
5
5
5
5
5
5
5
5
5
5
5
5
5
5
5
5
5
5
5
5
5
5
5
5
5
5
5
5
5
5
5
5
5
5
5
5
5
5
5
5
5
5
5
5
5
5
5
5
5
5
5
5
5
5
5
5
5
5
5
5
5
5
5
5
5
5
5
5
5
5
5
5
5
5
5
5
5
5
5
5
5
5
5
5
5
5
5
5
5
5
5
5
5
5
5
5
5
5
5
5
5
5
5
5
5
5
5
5
5
5
5
5
5
5
5
5
5
5
5
5
5
5
5
5
5
5
5
5
5
5
5
5
5
5
5
5
5
5
5
5
5
5
5
5
5
5
5
5
5
5
5
5
5
5
5
5
5
5
5
5
5
5
5
5
5
5
5
5
5
5
5
5
5
5
5
5
5
5
5
5
5
5
5
5
5
5
5
5
5
5
5
5
5
5
5
5
5
5
5
5
5
5
5
5
5
5
5
5
5
5
5
5
5
5
5
5
5
5
5
5
5
5
5
5
5
5
5
5
5
5
5
5
5
5
5
5
5
5
5
5
5
5
5
5
5
5
5
5
5
5
5
5
5
5
5
5
5
5
5
5
5
5
5
5
5
5
5
5
5
5
5
5
5
5
5
5
5
5
5
5
5
5
5
5
5
5
5
5
5
5
5
5
5
5
5
5
5
5
5
5
5
5
5
5
5
5
5
5
5
5
5
5
5
5
5
5
5
5
5
5
5
5
5
5
5
5
5
5
5
5
5
5
5
5
5
5
5
5
5
5
5
5
5
5
5
5
5
5
5
5
5
5
5
5
5
5
5
5
5
5
5
5
5
5
5
5
5
5
5
5
5
5
5
5
5
5
5
5
5
5
5
5
5
5
5
5
5
5
5
5
5
5
5
5
5
5
5
5
5
5
5
5
5
5
5
5
5
5
5
5
5
5
5
5
5
5
5
5
5
5
5
5
5
5
5
5
5
5
5
5
5
5
5
5
5
5
5
5
5
5
5
5
5
5
5
5
5
5
5
5
5
5
5
5
5
5
5
5
5
5
5
5
5
5
5
5
5
5
5
5
5
5
5
5
5
5
5
5
5
5
5
5
5
5
5
5
5
5
5
5
5
5
5
5
5
5
5
5
5
5
5
5
5
5
5
5
5
5
5
5
5
5
5
5
5
5
5
5
5
5
5
5
5
5
5
5
5
5
5
5
5
5
5
5
5
5
5
5
5
5
5
5
5
5
5
5
5
5
5
5
5
5
5
5
5
5
5
5
5
5
5
5
5
5
5
5
5
5
5
5
5
5
5
5
5
5
5
5
5
5
5
5
5
5
5
5
5
5
5
5
5
5
5
5
5
5
5
5
5
5
5
5
5
5
5
5
5
5
5
5
5
5
5
5
5
5
5
5
5
5
5
5
5
5
5
5
5
5
5
5
5
5
5
5
5
5
5
5
5
5
5
5
5
5
5
5
5
5
5
5
5
5
5
5
5
5
5
5
5
5
5
5
5
5
5
5
5
5
5
5
5
5
5
5
5
5
5
5
5
5
5
5
5
5
5
5
5
5
5
5
5
5
5
5
5
5
5
5
5
5
5
5
5
5
5
5
5
5
5
5
5
5
5
5
5
5
5
5
5
5
5
5
5
5
5
5
5
5
5
5
5
5
5
5
5
5
5
5
5
5
5
5
5
5
5
5
5
5
5
5
5
5
5
5
5
5
5
5
5
5
5
5
5
5
5
5
5
5
5
5
5
5
5
5
5
5
5
5
5
5
5
5
5
5
5
5
5
5
5
5
5
5
5
5
5
5
5
5
5
5
5
5
5
5
5
5
5
5
5
5
5
5
5
5
5
5
5
5
5
5
5
5
5
5
5
5
5
5
5
5
5
5
5
5
5
5
5
5
5
5
5
5
5
5
5
5
5
5
5
5
5
5
5
5
5
5
5
5
5
5
5
5
5
5
5
5
5
5
5
5
5
5
5
5
5
5
5
5
5
5
5
5
5
5
5
5
5
5
5
5
5
5
5
5
5
5
5
5
5
5
5
5
5
5
5
5
5
5
5
5
5
5
5
5
5
5
5
5
5
5
5
5
5
5
5
5
5
5
5
5
5
5
5
5
5
5
5
5
5
5
5
5
5
5
5
5
5
5
5
5
5
5
5
5
5
5
5
5
5
5
5
5
5
5
5
5
5
5
5
5
5
5
5
5
5
5
5
5
5
5
5
5
5
5
5
5
5
5
5
5
5
5
5
5
5
5
5
5
5
5
5
5
5
5
5
5
5
5
5
5
5
5
5
5
5
5
5
5
5
5
5
5
5
5
5
5
5
5
5
5
5
5
5
5
5
5
5
5
5
5
5
5
5
5
5
5
5
5
5
5
5
5
5
5
5
5
5
5
5
5
5
5
5
5
5
5
5
5
5
5
5
5
5
5
5
5
5
5
5
5
5
5
5
5
5
5
5
5
5
5
5
5
5
5
5
5
5
5
5
5
5
5
5
5
5
5
5
5
5
5
5
5
5
5
5
5
5
5
5
5
5
5
5
5
5
5
5
5
5
5
5
5
5
5
5
5
5
5
5
5
5
5
5
5
5
5
5
5
5
5
5
5
5
5
5
5
5
5
5
5
5
5
5
5
5
5
5
5
5
5
5
5
5
5
5
5
5
5
5
5
5
5
5
5
5
5
5
5
5
5
5
5
5
5
5
5
5
5
5
5
5
5
5
5
5
5
5
5
5
5
5
5
5
5
5
5
5
5
5
5
5
5
5
5
5
5
5
5
5
5
5
5
5
5
5
5
5
5
5
5
5
5
5
5
5
5
5
5
5
5
5
5
5
5
5
5
5
5
5
5
5
5
5
5
5
5
5
5
5
5
5
5
5
5
5
5
5
5
5
5
5
5
5
5
5
5
5
5
5
5
5
5
5
5
5
5
5
5
5
5
5
5
5
5
5
5
5
5
5
5
5
5
5
5
5
5
5
5
5
5
5
5
5
5
5
5
5
5
5
5
5
5
5
5
5
5
5
5
5
5
5
5
5
5
5
5
5
5
5
5
5
5
5
5
5
5
5
5
5
5
5
5
5
5
5
5
5
5
5
5
5
5
5
5
5
5
5
5
5
5
5
5
5
5
5
5
5
5
5
5
5
5
5
5
5
5
5
5
5
5
5
5
5
5
5
5
5
5
5
5
5
5
5
5
5
5
5
5
5
5
5
5
5
5
5
5
5
5
5
5
5
5
5
5
5
5
5
5
5
5
5
5
5
5
5
5
5
5
5
5
5
5
5
5
5
5
5
5
5
5
5
5
5
5
5
5
5
5
5
5
5
5
5
5
5
5
5
5
5
5
5
5
5
5
5
5
5
5
5
5
5
5
5
5
5
5
5
5
5
5
5
5
5
5
5
5
5
5
5
5
5
5
5
5
5
5
5
5
5
5
5
5
5
5
5
5
5
5
5
5
5
5
5
5
5
5
5
5
5
5
5
5
5
5
5
5
5
5
5
5
5
5
5
5
5
5
5
5
5
5
5
5
5
5
5
5
5
5
5
5
5
5
5
5
5
5
5
5
5
5
5
5
5
5
5
5
5
5
5
5
5
5
5
5
5
5
5
5
5
5
5
5
5
5
5
5
5
5
5
5
5
5
5
5
5
5
5
5
5
5
5
5
5
5
5
5
5
5
5
5
5
5
5
5
5
5
5
5
5
5
5
5
5
5
5
5
5
5
5
5
5
5
5
5
5
5
5
5
5
5
5
5
5
5
5
5
5
5
5
5
5
5
5
5
5
5
5
5
5
5
5
5
5
5
5
5
5
5
5
5
5
5
5
5
5
5
5
5
5
5
5
5
5
5
5
5
5
5
5
5
5
5
5
5
5
5
5
5
5
5
5
5
5
5
5
5
5
5
5
5
5
5
5
5
5
5
5
5
5
5
5
5
5
5
5
5
5
5
5
5
5
5
5
5
5
5
5
5
5
5
5
5
5
5
5
5
5
5
5
5
5
5
5
5
5
5
5
5
5
5
5
5
5
5
5
5
5
5
5
5
5
5
5
5
5
5
5
5
5
5
5
5
5
5
5
5
5
5
5
5
5
5
5
5
5
5
5
5
5
5
5
5
5
5
5
5
5
5
5
5
5
5
5
5
5
5
5
5
5
5
5
5
5
5
5
5
5
5
5
5
5
5
5
5
5
5
5
5
5
5
5
5
5
5
5
5
5
5
5
5
5
5
5
5
5
5
5
5
5
5
5
5
5
5
5
5
5
5
5
5
5
5
5
5
5
5
5
5
5
5
5
5
5
5
5
5
5
5
5
5
5
5
5
5
5
5
5
5
5
5
5
5
5
5
5
5
5
5
5
5
5
5
5
5
5
5
5
5
5
5
5
5
5
5
5
5
5
5
5
5
5
5
5
5
5
5
5
5
5
5
5
5
5
5
5
5
5
5
5
5
5
5
5
5
5
5
5
5
5
5
5
5
5
5
5
5
5
5
5
5
5
5
5
5
5
5
5
5
5
5
5
5
5
5
5
5
5
5
5
5
5
5
5
5
5
5
5
5

POINT_DATA 1112

VECTORS coord float
0.0 0.0 0.0 
5.000000000000e+01 -1.000000000000e+01 0.0 
0.0 -2.000000000000e+01 0.0 
5.000000000000e+01 -2.000000000000e+01 0.0 
0.0 -9.999999999991e-01 0.0 
0.0 -1.999999999998e+00 0.0 
0.0 -2.999999999997e+00 0.0 
0.0 -3.999999999994e+00 0.0 
0.0 -4.999999999991e+00 0.0 
0.0 -5.999999999988e+00 0.0 
0.0 -6.999999999985e+00 0.0 
0.0 -7.999999999982e+00 0.0 
0.0 -8.999999999983e+00 0.0 
0.0 -9.999999999985e+00 0.0 
0.0 -1.099999999999e+01 0.0 
0.0 -1.199999999999e+01 0.0 
0.0 -1.299999999999e+01 0.0 
0.0 -1.399999999999e+01 0.0 
0.0 -1.499999999999e+01 0.0 
0.0 -1.599999999999e+01 0.0 
0.0 -1.700000000000e+01 0.0 
0.0 -1.800000000000e+01 0.0 
0.0 -1.900000000000e+01 0.0 
4.900000000001e+01 -2.000000000000e+01 0.0 
4.800000000001e+01 -2.000000000000e+01 0.0 
4.700000000002e+01 -2.000000000000e+01 0.0 
4.600000000003e+01 -2.000000000000e+01 0.0 
4.500000000004e+01 -2.000000000000e+01 0.0 
4.400000000004e+01 -2.000000000000e+01 0.0 
4.300000000005e+01 -2.000000000000e+01 0.0 
4.200000000006e+01 -2.000000000000e+01 0.0 
4.100000000006e+01 -2.000000000000e+01 0.0 
4.000000000007e+01 -2.000000000000e+01 0.0 
3.900000000008e+01 -2.000000000000e+01 0.0 
3.800000000009e+01 -2.000000000000e+01 0.0 
3.700000000009e+01 -2.000000000000e+01 0.0 
3.600000000010e+01 -2.000000000000e+01 0.0 
3.500000000011e+01 -2.000000000000e+01 0.0 
3.400000000011e+01 -2.000000000000e+01 0.0 
3.300000000012e+01 -2.000000000000e+01 0.0 
3.200000000013e+01 -2.000000000000e+01 0.0 
3.100000000013e+01 -2.000000000000e+01 0.0 
3.000000000013e+01 -2.000000000000e+01 0.0 
2.900000000013e+01 -2.000000000000e+01 0.0 
2.800000000013e+01 -2.000000000000e+01 0.0 
2.700000000013e+01 -2.000000000000e+01 0.0 
2.600000000013e+01 -2.000000000000e+01 0.0 
2.500000000013e+01 -2.000000000000e+01 0.0 
2.400000000013e+01 -2.000000000000e+01 0.0 
2.300000000013e+01 -2.000000000000e+01 0.0 
2.200000000013e+01 -2.000000000000e+01 0.0 
2.100000000013e+01 -2.000000000000e+01 0.0 
2.000000000013e+01 -2.000000000000e+01 0.0 
1.900000000013e+01 -2.000000000000e+01 0.0 
1.800000000013e+01 -2.000000000000e+01 0.0 
1.700000000012e+01 -2.000000000000e+01 0.0 
1.600000000011e+01 -2.000000000000e+01 0.0 
1.500000000011e+01 -2.000000000000e+01 0.0 
1.400000000010e+01 -2.000000000000e+01 0.0 
1.300000000009e+01 -2.000000000000e+01 0.0 
1.200000000009e+01 -2.000000000000e+01 0.0 
1.100000000008e+01 -2.000000000000e+01 0.0 
1.000000000007e+01 -2.000000000000e+01 0.0 
9.000000000064e+00 -2.000000000000e+01 0.0 
8.000000000057e+00 -2.000000000000e+01 0.0 
7.000000000050e+00 -2.000000000000e+01 0.0 
6.000000000043e+00 -2.000000000000e+01 0.0 
5.000000000036e+00 -2.000000000000e+01 0.0 
4.000000000028e+00 -2.000000000000e+01 0.0 
3.000000000021e+00 -2.000000000000e+01 0.0 
2.000000000014e+00 -2.000000000000e+01 0.0 
1.000000000007e+00 -2.000000000000e+01 0.0 
5.000000000000e+01 -1.100000000000e+01 0.0 
5.000000000000e+01 -1.200000000000e+01 0.0 
5.000000000000e+01 -1.300000000000e+01 0.0 
5.000000000000e+01 -1.400000000000e+01 0.0 
5.000000000000e+01 -1.500000000000e+01 0.0 
5.000000000000e+01 -1.600000000000e+01 0.0 
5.000000000000e+01 -1.700000000000e+01 0.0 
5.000000000000e+01 -1.800000000000e+01 0.0 
5.000000000000e+01 -1.900000000000e+01 0.0 
2.000000000000e+01 0.0 0.0 
3.500000000000e+01 -1.000000000000e+01 0.0 
2.150000000000e+01 -1.000000000000e+00 0.0 
2.300000000000e+01 -2.000000000000e+00 0.0 
2.450000000000e+01 -3.000000000000e+00 0.0 
2.600000000000e+01 -4.000000000000e+00 0.0 
2.750000000000e+01 -5.000000000000e+00 0.0 
2.900000000000e+01 -6.000000000000e+00 0.0 
3.050000000000e+01 -7.000000000000e+00 0.0 
3.200000000000e+01 -8.000000000000e+00 0.0 
3.350000000000e+01 -9.000000000000e+00 0.0 
5.000000000000e+01 -6.000000000000e+00 0.0 
5.000000000000e+01 -7.000000000000e+00 0.0 
5.000000000000e+01 -8.000000000000e+00 0.0 
5.000000000000e+01 -9.000000000000e+00 0.0 
4.900000000000e+01 -1.000000000000e+01 0.0 
4.800000000000e+01 -1.000000000000e+01 0.0 
4.700000000000e+01 -1.000000000000e+01 0.0 
4.600000000000e+01 -1.000000000000e+01 0.0 
4.500000000000e+01 -1.000000000000e+01 0.0 
4.400000000000e+01 -1.000000000000e+01 0.0 
4.300000000000e+01 -1.000000000000e+01 0.0 
4.200000000000e+01 -1.000000000000e+01 0.0 
4.100000000000e+01 -1.000000000000e+01 0.0 
4.000000000000e+01 -1.000000000000e+01 0.0 
3.900000000000e+01 -1.000000000000e+01 0.0 
3.800000000000e+01 -1.000000000000e+01 0.0 
3.700000000000e+01 -1.000000000000e+01 0.0 
3.600000000000e+01 -1.000000000000e+01 0.0 
1.900000000000e+01 0.0 0.0 
1.800000000000e+01 0.0 0.0 
1.700000000000e+01 0.0 0.0 
1.600000000000e+01 0.0 0.0 
1.500000000000e+01 0.0 0.0 
1.400000000000e+01 0.0 0.0 
1.300000000000e+01 0.0 0.0 
1.200000000000e+01 0.0 0.0 
1.100000000000e+01 0.0 0.0 
1.000000000000e+01 0.0 0.0 
9.000000000000e+00 0.0 0.0 
8.000000000000e+00 0.0 0.0 
7.000000000000e+00 0.0 0.0 
6.000000000000e+00 0.0 0.0 
5.000000000000e+00 0.0 0.0 
4.000000000000e+00 0.0 0.0 
3.000000000000e+00 0.0 0.0 
2.000000000000e+00 0.0 0.0 
1.000000000000e+00 0.0 0.0 
4.900000000001e+01 -6.000000000000e+00 0.0 
4.800000000003e+01 -6.000000000000e+00 0.0 
4.700000000004e+01 -6.000000000000e+00 0.0 
4.600000000006e+01 -6.000000000000e+00 0.0 
4.500000000007e+01 -6.000000000000e+00 0.0 
4.400000000009e+01 -6.000000000000e+00 0.0 
4.300000000010e+01 -6.000000000000e+00 0.0 
4.200000000012e+01 -6.000000000000e+00 0.0 
4.100000000013e+01 -6.000000000000e+00 0.0 
4.000000000014e+01 -6.000000000000e+00 0.0 
3.900000000014e+01 -6.000000000000e+00 0.0 
3.800000000012e+01 -6.000000000000e+00 0.0 
3.700000000010e+01 -6.000000000000e+00 0.0 
3.600000000008e+01 -6.000000000000e+00 0.0 
3.500000000006e+01 -6.000000000000e+00 0.0 
3.400000000005e+01 -6.000000000000e+00 0.0 
3.300000000003e+01 -6.000000000000e+00 0.0 
3.200000000001e+01 -6.000000000000e+00 0.0 
3.100000000000e+01 -6.000000000000e+00 0.0 
3.000000000000e+01 -6.000000000000e+00 0.0 
3.147499999998e+01 -7.000000000000e+00 0.0 
3.244999999998e+01 -7.000000000000e+00 0.0 
3.342499999998e+01 -7.000000000000e+00 0.0 
3.439999999998e+01 -7.000000000000e+00 0.0 
3.537499999998e+01 -7.000000000000e+00 0.0 
3.634999999998e+01 -7.000000000000e+00 0.0 
3.732499999998e+01 -7.000000000000e+00 0.0 
3.829999999998e+01 -7.000000000000e+00 0.0 
3.927499999999e+01 -7.000000000000e+00 0.0 
4.024999999999e+01 -7.000000000000e+00 0.0 
4.122499999999e+01 -7.000000000000e+00 0.0 
4.219999999999e+01 -7.000000000000e+00 0.0 
4.317499999999e+01 -7.000000000000e+00 0.0 
4.414999999999e+01 -7.000000000000e+00 0.0 
4.512499999999e+01 -7.000000000000e+00 0.0 
4.609999999999e+01 -7.000000000000e+00 0.0 
4.707500000000e+01 -7.000000000000e+00 0.0 
4.805000000000e+01 -7.000000000000e+00 0.0 
4.902500000000e+01 -7.000000000000e+00 0.0 
4.900000000000e+01 -8.000000000000e+00 0.0 
4.800000000000e+01 -8.000000000000e+00 0.0 
4.700000000000e+01 -8.000000000000e+00 0.0 
4.600000000000e+01 -8.000000000000e+00 0.0 
4.500000000000e+01 -8.000000000000e+00 0.0 
4.400000000000e+01 -8.000000000000e+00 0.0 
4.300000000000e+01 -8.000000000000e+00 0.0 
4.200000000000e+01 -8.000000000000e+00 0.0 
4.100000000000e+01 -8.000000000000e+00 0.0 
4.000000000000e+01 -8.000000000000e+00 0.0 
3.900000000000e+01 -8.000000000000e+00 0.0 
3.800000000000e+01 -8.000000000000e+00 0.0 
3.700000000000e+01 -8.000000000000e+00 0.0 
3.600000000000e+01 -8.000000000000e+00 0.0 
3.500000000000e+01 -8.000000000000e+00 0.0 
3.400000000000e+01 -8.000000000000e+00 0.0 
3.300000000000e+01 -8.000000000000e+00 0.0 
3.447058823527e+01 -9.000000000000e+00 0.0 
3.544117647055e+01 -9.000000000000e+00 0.0 
3.641176470582e+01 -9.000000000000e+00 0.0 
3.738235294109e+01 -9.000000000000e+00 0.0 
3.835294117637e+01 -9.000000000000e+00 0.0 
3.932352941164e+01 -9.000000000000e+00 0.0 
4.029411764691e+01 -9.000000000000e+00 0.0 
4.126470588219e+01 -9.000000000000e+00 0.0 
4.223529411748e+01 -9.000000000000e+00 0.0 
4.320588235279e+01 -9.000000000000e+00 0.0 
4.417647058811e+01 -9.000000000000e+00 0.0 
4.514705882342e+01 -9.000000000000e+00 0.0 
4.611764705874e+01 -9.000000000000e+00 0.0 
4.708823529405e+01 -9.000000000000e+00 0.0 
4.805882352937e+01 -9.000000000000e+00 0.0 
4.902941176468e+01 -9.000000000000e+00 0.0 
2.075000000000e+01 -5.000000000006e-01 0.0 
2.225000000000e+01 -1.500000000000e+00 0.0 
2.375000000000e+01 -2.500000000000e+00 0.0 
2.525000000000e+01 -3.500000000000e+00 0.0 
2.675000000000e+01 -4.500000000000e+00 0.0 
2.825000000000e+01 -5.500000000000e+00 0.0 
2.975000000000e+01 -6.500000000000e+00 0.0 
3.125000000000e+01 -7.500000000000e+00 0.0 
3.275000000000e+01 -8.500000000000e+00 0.0 
3.425000000000e+01 -9.500000000000e+00 0.0 
2.226951693683e+01 -2.403913980114e+00 0.0 
1.650149491944e+01 -1.913490915758e+01 0.0 
1.050042386896e+01 -8.504605092970e-01 0.0 
1.553146524712e+01 -8.281255032105e-01 0.0 
1.150000000008e+01 -1.913397459621e+01 0.0 
2.530060260647e+01 -4.428336431260e+00 0.0 
8.651114563942e-01 -1.052096295641e+01 0.0 
2.050000000013e+01 -1.913397459622e+01 0.0 
2.819198729811e+01 -6.399519052838e+00 0.0 
2.445670302931e+01 -1.915649188023e+01 0.0 
3.117591465718e+01 -8.394293040695e+00 0.0 
7.465053044742e+00 -1.920411160581e+01 0.0 
6.398295709691e+00 -8.230098819370e-01 0.0 
2.849659607461e+01 -1.914296187762e+01 0.0 
3.418732642882e+01 -1.040265792588e+01 0.0 
8.386450935063e-01 -6.533605142809e+00 0.0 
9.178661865596e-01 -1.329769195597e+01 0.0 
3.149448624493e+01 -1.910466733764e+01 0.0 
3.552916747426e+01 -1.914628590759e+01 0.0 
4.449210346537e+01 -1.914359085008e+01 0.0 
4.140975975145e+01 -1.906941860733e+01 0.0 
3.847475958753e+01 -1.916622382724e+01 0.0 
3.653774794640e+01 -1.088712800241e+01 0.0 
4.047886341787e+01 -1.090139014048e+01 0.0 
4.348006339825e+01 -1.092792621489e+01 0.0 
4.919519968029e+01 -1.451526755068e+01 0.0 
4.500000000032e+00 -1.913397459621e+01 0.0 
1.856136921614e+01 -8.212235170404e-01 0.0 
3.499895312306e+00 -8.661165539723e-01 0.0 
9.076088696565e-01 -1.642306201891e+01 0.0 
4.655174095477e+01 -1.086183387525e+01 0.0 
9.430688970604e-01 -3.496112672958e+00 0.0 
3.353992337063e+01 -1.901202090820e+01 0.0 
2.249746016977e+01 -1.921262287282e+01 0.0 
2.650122741777e+01 -1.916123026018e+01 0.0 
1.863571384842e+01 -1.908325534840e+01 0.0 
1.450089971693e+01 -1.917691901860e+01 0.0 
1.350044695317e+01 -8.659695299584e-01 0.0 
3.849987469880e+01 -1.084154983397e+01 0.0 
9.454419857884e+00 -1.900818879936e+01 0.0 
4.917398660523e+01 -1.645692866081e+01 0.0 
8.500000000000e+00 -8.660254037844e-01 0.0 
8.660319230785e-01 -8.500111697188e+00 0.0 
4.649022621545e+01 -1.930506220113e+01 0.0 
2.667688107845e+01 -5.420288124331e+00 0.0 
2.379251615665e+01 -3.412225477429e+00 0.0 
2.966631491830e+01 -7.389030232731e+00 0.0 
3.267915035995e+01 -9.396934932445e+00 0.0 
2.074836922338e+01 -1.320054020319e+00 0.0 
4.915985743621e+01 -1.261973384855e+01 0.0 
2.527129768623e+00 -1.931592414663e+01 0.0 
1.538676247410e+00 -8.436956619311e-01 0.0 
4.908096641539e+01 -1.842484004551e+01 0.0 
3.478612492673e+01 -1.090889364140e+01 0.0 
3.409757055860e+01 -1.131991530427e+01 0.0 
3.501895309466e+01 -1.177687842717e+01 0.0 
3.407758073088e+01 -1.224293381580e+01 0.0 
3.484541875390e+01 -1.277051428430e+01 0.0 
3.400322025842e+01 -1.319022775640e+01 0.0 
3.321672625034e+01 -1.266779191233e+01 0.0 
3.315244139236e+01 -1.360984106532e+01 0.0 
3.236335186892e+01 -1.308463225210e+01 0.0 
3.478337442841e+01 -1.372341158982e+01 0.0 
3.230105923633e+01 -1.403023731610e+01 0.0 
3.150954055289e+01 -1.350301767700e+01 0.0 
3.144604792090e+01 -1.444931742516e+01 0.0 
3.065653897123e+01 -1.392357262981e+01 0.0 
3.071897610812e+01 -1.297447031198e+01 0.0 
2.986790411740e+01 -1.339226181535e+01 0.0 
2.993181466745e+01 -1.244703272398e+01 0.0 
2.908023061869e+01 -1.286254537734e+01 0.0 
2.901619051372e+01 -1.380881655279e+01 0.0 
2.822986160390e+01 -1.327695262116e+01 0.0 
2.829453476870e+01 -1.233265343811e+01 0.0 
2.744542905518e+01 -1.274510491105e+01 0.0 
2.751120089246e+01 -1.180368086886e+01 0.0 
2.666218649885e+01 -1.221619339205e+01 0.0 
2.672371209234e+01 -1.127125228527e+01 0.0 
2.587763216302e+01 -1.168539979114e+01 0.0 
2.581165585299e+01 -1.262994410089e+01 0.0 
2.502890882577e+01 -1.209827323619e+01 0.0 
2.509631327757e+01 -1.115492410304e+01 0.0 
2.424662989877e+01 -1.156630981079e+01 0.0 
2.431704046904e+01 -1.062389179334e+01 0.0 
2.346445438728e+01 -1.103427680694e+01 0.0 
2.339382552877e+01 -1.197964871788e+01 0.0 
2.260936050780e+01 -1.144513277642e+01 0.0 
2.268075012022e+01 -1.049911928216e+01 0.0 
2.182525737661e+01 -1.090920811464e+01 0.0 
2.189682319817e+01 -9.961716944568e+00 0.0 
2.104174127792e+01 -1.037266986667e+01 0.0 
2.111304367575e+01 -9.424179358711e+00 0.0 
2.025306185381e+01 -9.832727364719e+00 0.0 
2.018141124247e+01 -1.079140628871e+01 0.0 
1.938594498257e+01 -1.025147354112e+01 0.0 
1.946106490453e+01 -9.288010758448e+00 0.0 
1.858929958352e+01 -9.706319802516e+00 0.0 
1.851540991219e+01 -1.067205988724e+01 0.0 
1.771485303178e+01 -1.012504443115e+01 0.0 
1.764134552256e+01 -1.109360378538e+01 0.0 
1.683745148095e+01 -1.054496365337e+01 0.0 
1.691852964353e+01 -9.582555261178e+00 0.0 
1.603603813062e+01 -1.000160132379e+01 0.0 
1.595824239350e+01 -1.096750698862e+01 0.0 
1.515080624291e+01 -1.041639501931e+01 0.0 
1.523171602559e+01 -9.451711491453e+00 0.0 
1.434621060709e+01 -9.871956467464e+00 0.0 
1.426777178765e+01 -1.083749501371e+01 0.0 
1.345775282374e+01 -1.028803175500e+01 0.0 
1.354103873368e+01 -9.324918457162e+00 0.0 
1.265072018622e+01 -9.742612837270e+00 0.0 
1.257285762070e+01 -1.071557782384e+01 0.0 
1.175874815690e+01 -1.015972324288e+01 0.0 
1.184203019714e+01 -9.193604071377e+00 0.0 
1.094927709905e+01 -9.612103238656e+00 0.0 
1.086938022910e+01 -1.058685085646e+01 0.0 
1.005424098961e+01 -1.002939116380e+01 0.0 
9.977974613295e+00 -1.101324897989e+01 0.0 
1.012915646404e+01 -9.051815821181e+00 0.0 
9.237127782494e+00 -9.471239055559e+00 0.0 
9.308426593771e+00 -8.483376461131e+00 0.0 
8.418806073345e+00 -8.910712374517e+00 0.0 
2.253688464062e+01 -1.239459402279e+01 0.0 
8.495126726666e+00 -7.921646665254e+00 0.0 
9.389727383206e+00 -7.512103628377e+00 0.0 
7.601560812974e+00 -8.349460349344e+00 0.0 
7.525680547759e+00 -9.339736686940e+00 0.0 
7.677888324502e+00 -7.359727833346e+00 0.0 
6.782001206724e+00 -7.788454494773e+00 0.0 
6.858778622885e+00 -6.797338062822e+00 0.0 
2.196596590865e+01 -8.979025665442e+00 0.0 
2.816540108272e+01 -1.422634142353e+01 0.0 
5.961601194403e+00 -7.226824010712e+00 0.0 
6.038171749656e+00 -6.234825887079e+00 0.0 
6.936257279557e+00 -5.805287640737e+00 0.0 
6.115068918323e+00 -5.242109758768e+00 0.0 
3.564391741903e+01 -1.329240553876e+01 0.0 
3.558115605778e+01 -1.425902892003e+01 0.0 
3.645445282201e+01 -1.381970786460e+01 0.0 
3.639744204358e+01 -1.479198128612e+01 0.0 
3.727266909778e+01 -1.435399586226e+01 0.0 
5.216667013081e+00 -5.671788584287e+00 0.0 
3.220697293295e+01 -1.499594545107e+01 0.0 
3.551112158269e+01 -1.523479869250e+01 0.0 
2.836056961467e+01 -1.139032434851e+01 0.0 
2.516730388602e+01 -1.021382726837e+01 0.0 
1.844436907403e+01 -1.164097215196e+01 0.0 
5.885434318740e+00 -8.218694781467e+00 0.0 
5.064071066867e+00 -7.656614643901e+00 0.0 
4.988089103470e+00 -8.649722082718e+00 0.0 
1.079421050408e+01 -1.157014985435e+01 0.0 
9.902420005256e+00 -1.199903342656e+01 0.0 
1.071994252214e+01 -1.255727909771e+01 0.0 
9.826974788171e+00 -1.298659581767e+01 0.0 
1.064607883789e+01 -1.354595476388e+01 0.0 
9.751541265343e+00 -1.397556905071e+01 0.0 
8.932296185869e+00 -1.341553353988e+01 0.0 
8.856399248106e+00 -1.440570715508e+01 0.0 
8.036186803543e+00 -1.384470558472e+01 0.0 
1.057112875118e+01 -1.453516759081e+01 0.0 
1.146582585687e+01 -1.410539926903e+01 0.0 
7.959894480382e+00 -1.483563350928e+01 0.0 
7.138792279156e+00 -1.427465094140e+01 0.0 
7.062506792418e+00 -1.526615385482e+01 0.0 
6.240693558277e+00 -1.470508863040e+01 0.0 
6.316957575451e+00 -1.371212581281e+01 0.0 
5.418183007107e+00 -1.414253605022e+01 0.0 
5.494748364428e+00 -1.314886770603e+01 0.0 
1.756825565873e+01 -1.206433872514e+01 0.0 
1.837565773345e+01 -1.261356468266e+01 0.0 
1.749574831391e+01 -1.303769280014e+01 0.0 
1.830539187332e+01 -1.358828364284e+01 0.0 
1.742278925170e+01 -1.401367746928e+01 0.0 
1.823303007798e+01 -1.456432294258e+01 0.0 
1.734941694138e+01 -1.499213734361e+01 0.0 
1.653760041637e+01 -1.443920312098e+01 0.0 
3.056237977307e+01 -1.487132260174e+01 0.0 
1.866469084762e+01 -8.742953000418e+00 0.0 
1.953669694916e+01 -8.326038909849e+00 0.0 
1.874194303780e+01 -7.780688158966e+00 0.0 
1.961032016741e+01 -7.366854697285e+00 0.0 
1.881715755159e+01 -6.821102209649e+00 0.0 
1.968369797150e+01 -6.407747217358e+00 0.0 
1.889237123259e+01 -5.858375520026e+00 0.0 
1.802038875366e+01 -6.276202618170e+00 0.0 
1.809793837984e+01 -5.307629520489e+00 0.0 
1.721985207997e+01 -5.728242054488e+00 0.0 
1.729850893523e+01 -4.756990819347e+00 0.0 
1.641745664240e+01 -5.174636548624e+00 0.0 
2.495978509456e+01 -1.304406404294e+01 0.0 
1.911567814831e+01 -1.413854250293e+01 0.0 
1.904387332608e+01 -1.511463127723e+01 0.0 
1.992115934240e+01 -1.468788025898e+01 0.0 
7.013706899628e+00 -4.812582868662e+00 0.0 
5.342091874585e+00 -1.513658157269e+01 0.0 
1.139098043784e+01 -1.509488509480e+01 0.0 
1.228151810610e+01 -1.465617481983e+01 0.0 
1.646373110164e+01 -1.541993323337e+01 0.0 
5.293328636712e+00 -4.678385108584e+00 0.0 
1.975965862987e+01 -5.448124345648e+00 0.0 
2.054318374236e+01 -5.992561293251e+00 0.0 
3.721453439063e+01 -1.533216152738e+01 0.0 
3.809302733893e+01 -1.489235527381e+01 0.0 
1.220852788900e+01 -1.565304565230e+01 0.0 
4.394120899730e+00 -5.108397613210e+00 0.0 
8.779354620288e+00 -1.539524721159e+01 0.0 
1.817791047702e+01 -4.338570146253e+00 0.0 
4.518860013839e+00 -1.457343189307e+01 0.0 
4.442712140414e+00 -1.556841391069e+01 0.0 
8.115343466391e+00 -1.285760324283e+01 0.0 
1.985334703171e+01 -1.566478400426e+01 0.0 
2.071953850276e+01 -1.522074243119e+01 0.0 
1.634012953883e+01 -6.154777738301e+00 0.0 
1.553479994708e+01 -5.593730508879e+00 0.0 
1.561265946942e+01 -4.617761762647e+00 0.0 
1.470674212978e+01 -5.064576488228e+00 0.0 
1.464498299883e+01 -6.026514471420e+00 0.0 
1.383271561817e+01 -5.467796261169e+00 0.0 
1.389241253067e+01 -4.504338666645e+00 0.0 
1.301868735463e+01 -4.907185188626e+00 0.0 
1.294514184846e+01 -5.888160903592e+00 0.0 
1.212955968622e+01 -5.328262335277e+00 0.0 
1.220721122383e+01 -4.341264976687e+00 0.0 
1.131324345897e+01 -4.766773516508e+00 0.0 
5.266597955397e+00 -1.613148974258e+01 0.0 
1.737805990867e+01 -3.786677807525e+00 0.0 
3.078438094513e+01 -1.203225297748e+01 0.0 
1.131569882285e+01 -1.608511932110e+01 0.0 
1.728478341782e+01 -1.596017432313e+01 0.0 
3.803465906019e+01 -1.587509751228e+01 0.0 
3.891681276677e+01 -1.543395196905e+01 0.0 
3.897340985302e+01 -1.444710288980e+01 0.0 
3.980095968193e+01 -1.499059496613e+01 0.0 
3.974334598189e+01 -1.597921884150e+01 0.0 
4.062964983717e+01 -1.553518690417e+01 0.0 
4.068729602479e+01 -1.454434445295e+01 0.0 
4.151772679790e+01 -1.508974196007e+01 0.0 
4.157505195739e+01 -1.409694289912e+01 0.0 
4.240699932656e+01 -1.464347955968e+01 0.0 
4.234898051011e+01 -1.563721375790e+01 0.0 
4.323934606035e+01 -1.519082036405e+01 0.0 
4.329740528208e+01 -1.419587509788e+01 0.0 
4.413056841369e+01 -1.474359631875e+01 0.0 
4.418850110108e+01 -1.374786684042e+01 0.0 
4.502219770667e+01 -1.429605103525e+01 0.0 
4.496411937907e+01 -1.529215882720e+01 0.0 
4.490027319897e+00 -4.154167794594e+00 0.0 
1.565080385988e+01 -1.486411982419e+01 0.0 
1.557610691279e+01 -1.584855627870e+01 0.0 
4.195350646612e+00 -8.089117689096e+00 0.0 
4.124027797830e+00 -9.082831955007e+00 0.0 
4.917944318925e+00 -9.643530901533e+00 0.0 
4.020105689502e+00 -1.007439673661e+01 0.0 
4.587185899277e+01 -1.484039992728e+01 0.0 
4.580078661551e+01 -1.584043391042e+01 0.0 
2.061956522375e+01 -5.046701343981e+00 0.0 
2.139572955529e+01 -5.579553449826e+00 0.0 
3.715344357292e+01 -1.631485124583e+01 0.0 
3.618886196443e+00 -1.500471207167e+01 0.0 
3.695606940204e+00 -1.400939692294e+01 0.0 
2.438890661143e+01 -9.686110599723e+00 0.0 
2.523267572778e+01 -9.276766000622e+00 0.0 
2.446094171539e+01 -8.751904591412e+00 0.0 
2.529089822738e+01 -8.321495612547e+00 0.0 
2.606882688827e+01 -8.864724051119e+00 0.0 
2.452116646430e+01 -7.792756462004e+00 0.0 
1.235543269617e+01 -1.365845617339e+01 0.0 
4.318116874181e+01 -1.618567469992e+01 0.0 
7.835066111909e+00 -5.376366223896e+00 0.0 
7.905687335704e+00 -4.382539065697e+00 0.0 
3.542640009567e+00 -1.600035116542e+01 0.0 
1.572431503071e+01 -1.388358386695e+01 0.0 
2.574684696680e+01 -1.357896141127e+01 0.0 
2.488842657651e+01 -1.399674354505e+01 0.0 
2.568301775611e+01 -1.453552048595e+01 0.0 
2.481535572009e+01 -1.495542756508e+01 0.0 
2.561729699688e+01 -1.549784648532e+01 0.0 
2.474623061296e+01 -1.592058894178e+01 0.0 
2.394234041695e+01 -1.537572575827e+01 0.0 
2.065825452567e+01 -1.621899055217e+01 0.0 
2.387180528935e+01 -1.634552264687e+01 0.0 
4.585364400844e+01 -1.383912334080e+01 0.0 
1.998744432052e+01 -1.370317155541e+01 0.0 
1.205356951443e+01 -6.313580285498e+00 0.0 
5.396543905849e+00 -3.731818611283e+00 0.0 
1.139652573295e+01 -3.745819399350e+00 0.0 
3.574124306703e+00 -4.551456826011e+00 0.0 
3.494140761930e+00 -5.539787055649e+00 0.0 
1.213651452413e+01 -1.664505033022e+01 0.0 
2.555045568519e+01 -1.646529356744e+01 0.0 
2.641671114986e+01 -1.603899382371e+01 0.0 
2.612920721894e+01 -7.906435260873e+00 0.0 
2.690339829698e+01 -8.456969591431e+00 0.0 
1.978024383368e+01 -1.664410216353e+01 0.0 
3.732829979082e+01 -1.336926601859e+01 0.0 
4.074336584605e+01 -1.355133328401e+01 0.0 
4.163204691081e+01 -1.310280943992e+01 0.0 
3.773826114429e+00 -3.493444309145e+00 0.0 
1.228783001032e+01 -3.374822835872e+00 0.0 
4.057110462520e+01 -1.652588478000e+01 0.0 
2.132535497898e+01 -6.523623360525e+00 0.0 
2.216932532211e+01 -6.110044769206e+00 0.0 
1.825781152128e+01 -3.370146817147e+00 0.0 
1.745679445888e+01 -2.812942552063e+00 0.0 
4.666517057280e+01 -1.539981381543e+01 0.0 
4.660575894464e+01 -1.639014410186e+01 0.0 
4.838230979954e+00 -1.063643436446e+01 0.0 
3.938942630206e+00 -1.106778981745e+01 0.0 
1.302967218620e+01 -1.621373452436e+01 0.0 
1.049548003190e+01 -4.204825123240e+00 0.0 
4.573571907195e+01 -1.683820511148e+01 0.0 
1.483686335807e+01 -1.430849689310e+01 0.0 
1.490982658890e+01 -1.332679386284e+01 0.0 
3.190805600162e+00 -9.510968358545e+00 0.0 
2.146625721848e+01 -4.642437303115e+00 0.0 
2.069866208266e+01 -4.111852942193e+00 0.0 
1.286859345584e+01 -6.873252723348e+00 0.0 
1.041794493184e+01 -5.194814260291e+00 0.0 
2.671081808965e+00 -4.976806516331e+00 0.0 
1.295786792925e+01 -1.720506531799e+01 0.0 
3.968438206511e+01 -1.696869067241e+01 0.0 
2.308550456051e+01 -1.579963151273e+01 0.0 
2.315593682844e+01 -1.482967445235e+01 0.0 
2.299471449450e+01 -1.677069968132e+01 0.0 
1.057344714696e+01 -3.214252277840e+00 0.0 
1.124057603753e+01 -1.707713739755e+01 0.0 
2.718402535754e+00 -1.543629882103e+01 0.0 
2.638549692805e+01 -1.696744916809e+01 0.0 
2.723416349007e+01 -1.658104204545e+01 0.0 
2.210193351704e+01 -7.046769643417e+00 0.0 
2.295180925161e+01 -6.657397605239e+00 0.0 
2.301355235833e+01 -5.709111896800e+00 0.0 
2.379052718281e+01 -6.254965406962e+00 0.0 
3.243528601237e+01 -1.214181853533e+01 0.0 
2.287977995457e+01 -7.583722368300e+00 0.0 
2.999876029544e+01 -1.150837653096e+01 0.0 
3.084435366963e+01 -1.109693775882e+01 0.0 
3.006650579669e+01 -1.057778994262e+01 0.0 
2.683802665066e+01 -9.386863216633e+00 0.0 
2.768641973621e+01 -8.988883915666e+00 0.0 
2.040296980397e+01 -7.903629133404e+00 0.0 
1.925235024054e+01 -1.218872783130e+01 0.0 
5.735667000424e+00 -1.020577277283e+01 0.0 
6.396559909872e+00 -1.272326295703e+01 0.0 
1.161199420714e+01 -1.212812778229e+01 0.0 
4.229046132615e+01 -1.663084237572e+01 0.0 
4.312275399692e+01 -1.718087491556e+01 0.0 
4.335502068163e+01 -1.320039231514e+01 0.0 
4.424630298089e+01 -1.275160688731e+01 0.0 
7.090116643816e+00 -3.818998061530e+00 0.0 
7.989472176569e+00 -3.389238711200e+00 0.0 
9.085824861778e+00 -1.144036167408e+01 0.0 
1.041972423731e+01 -1.651614080893e+01 0.0 
3.797525112640e+01 -1.686052038746e+01 0.0 
3.709114253394e+01 -1.730125999865e+01 0.0 
3.626966748340e+01 -1.675477052919e+01 0.0 
1.385164591440e+01 -1.677597757552e+01 0.0 
1.787152588784e+01 -8.198993896093e+00 0.0 
1.668849729812e+01 -1.248560611628e+01 0.0 
1.659546177905e+01 -3.232482605530e+00 0.0 
2.332214717345e+01 -1.292598167641e+01 0.0 
7.168238450786e+00 -2.824711686516e+00 0.0 
2.894878403906e+01 -1.475427524446e+01 0.0 
2.646763248247e+00 -1.643270107952e+01 0.0 
3.467431944285e+00 -1.699648837348e+01 0.0 
2.059475877282e+01 -1.719473628526e+01 0.0 
3.333868355437e+01 -1.080596971682e+01 0.0 
2.246451062637e+01 -1.334557761546e+01 0.0 
2.167821896388e+01 -1.280847834858e+01 0.0 
3.089653185767e+01 -1.017198487212e+01 0.0 
3.012604365669e+01 -9.657298805968e+00 0.0 
2.929627299435e+01 -1.006100135274e+01 0.0 
2.936201435219e+01 -9.136748899251e+00 0.0 
1.198219052702e+01 -7.291887238230e+00 0.0 
1.116702076035e+01 -6.731976101053e+00 0.0 
2.551388807505e+01 -1.746927036981e+01 0.0 
2.378639090370e+01 -1.728678807149e+01 0.0 
2.718543627188e+01 -1.748668016909e+01 0.0 
2.804681050301e+01 -1.712626668293e+01 0.0 
1.970737034667e+01 -1.762317646822e+01 0.0 
1.889535776135e+01 -1.707158098231e+01 0.0 
2.593777711283e+00 -5.971157087874e+00 0.0 
2.773468281110e+01 -8.067164273938e+00 0.0 
4.051205884347e+01 -1.751819982458e+01 0.0 
3.166903145421e+01 -1.068032992414e+01 0.0 
1.033042452886e+01 -1.748285844336e+01 0.0 
9.519274604626e+00 -1.694349240233e+01 0.0 
1.668308673328e+01 -2.255861778986e+00 0.0 
1.570531902832e+01 -2.676795860126e+00 0.0 
4.655826903379e+01 -1.736656245706e+01 0.0 
2.384148070773e+01 -5.328744256413e+00 0.0 
2.460255123641e+01 -5.852182672816e+00 0.0 
2.306638135119e+01 -4.798935440613e+00 0.0 
8.467720450578e-01 -1.849576263072e+01 0.0 
4.849657322345e+01 -1.084860705506e+01 0.0 
2.565860899507e+00 -1.742859793981e+01 0.0 
2.764418872564e+01 -9.927142821799e+00 0.0 
4.565165880064e+01 -1.785336695404e+01 0.0 
2.162231831329e+01 -1.376528337468e+01 0.0 
2.360646352969e+01 -9.136041963102e+00 0.0 
1.392738739903e+01 -1.578285505772e+01 0.0 
4.756405947478e+01 -1.683706841809e+01 0.0 
4.740895034054e+01 -1.793766756892e+01 0.0 
4.080779328826e+01 -1.257387192544e+01 0.0 
4.168907939671e+01 -1.210739129181e+01 0.0 
3.991197722154e+01 -1.300815793917e+01 0.0 
1.905536506762e+01 -3.940076697685e+00 0.0 
1.923879596617e+01 -2.875000734166e+00 0.0 
4.401386745746e+01 -1.673483229438e+01 0.0 
4.247233362525e+00 -7.094581653070e+00 0.0 
3.286051630211e+00 -7.635300020553e+00 0.0 
9.609533347623e+00 -4.594311677967e+00 0.0 
9.523554636369e+00 -5.595597029530e+00 0.0 
5.660336628893e+00 -1.119290329628e+01 0.0 
6.558070063295e+00 -1.076385809362e+01 0.0 
2.809866407414e+01 -1.518037766799e+01 0.0 
2.888868674504e+01 -1.570360690070e+01 0.0 
2.654431550819e+01 -1.411217777162e+01 0.0 
1.402158265969e+01 -1.375404617952e+01 0.0 
1.409592494026e+01 -1.277071998942e+01 0.0 
1.499355196178e+01 -1.235270737023e+01 0.0 
4.221535326155e+01 -1.759335617494e+01 0.0 
4.305583287033e+01 -1.822663146802e+01 0.0 
1.280748808359e+01 -7.834332838285e+00 0.0 
1.368988389326e+01 -7.420529606172e+00 0.0 
1.110091796060e+01 -7.683966794328e+00 0.0 
3.963446145980e+01 -1.794331310122e+01 0.0 
3.423932362213e+00 -1.796415590455e+01 0.0 
4.280814572302e+00 -1.752272834860e+01 0.0 
8.050136380041e+00 -2.421582378631e+00 0.0 
8.888674091650e+00 -2.984264211327e+00 0.0 
2.152839430898e+01 -3.732609965436e+00 0.0 
2.077799585292e+01 -3.183896021866e+00 0.0 
3.618719395821e+01 -1.770276572576e+01 0.0 
3.538165138340e+01 -1.718709995539e+01 0.0 
3.702925326420e+01 -1.828844288807e+01 0.0 
1.756739438711e+00 -5.353284859169e+00 0.0 
2.233710191104e+01 -1.527265621324e+01 0.0 
1.389483555057e+01 -1.771797164730e+01 0.0 
1.475634224300e+01 -1.728357428390e+01 0.0 
1.298797563052e+01 -1.825968924755e+01 0.0 
2.145331271866e+01 -1.673705379077e+01 0.0 
2.133282821169e+01 -1.769400773673e+01 0.0 
2.292139194136e+01 -1.774915400288e+01 0.0 
1.750750053243e+01 -1.861475593469e+00 0.0 
4.830478841772e+01 -1.752611802221e+01 0.0 
4.341203507805e+01 -1.220326745522e+01 0.0 
1.685254151866e+01 -1.443085301632e+00 0.0 
4.431538535165e+01 -1.171841387375e+01 0.0 
4.511308610496e+01 -1.229557320599e+01 0.0 
4.510133242889e+01 -1.123680627466e+01 0.0 
1.846818030617e+00 -4.410877617069e+00 0.0 
3.995468694584e+01 -1.186571542989e+01 0.0 
3.901387459804e+01 -1.242507616755e+01 0.0 
8.966735877533e+00 -1.837818700423e+00 0.0 
4.049310011091e+01 -1.848269508791e+01 0.0 
7.278862053803e+00 -1.918523922691e+00 0.0 
6.429715522129e+00 -2.316676521184e+00 0.0 
9.443505505022e+00 -1.792198868094e+01 0.0 
8.620386951051e+00 -1.737590365556e+01 0.0 
8.571868171503e+00 -1.834436667826e+01 0.0 
7.758629848526e+00 -1.775677907213e+01 0.0 
7.806648388584e+00 -1.680761266021e+01 0.0 
6.908555145436e+00 -1.723746463044e+01 0.0 
4.251709122090e+01 -1.156937480156e+01 0.0 
6.931136405615e+00 -1.832465719263e+01 0.0 
6.015545461353e+00 -1.768865355295e+01 0.0 
5.960535926343e+00 -1.872011001764e+01 0.0 
3.023253444786e+01 -8.761960642196e+00 0.0 
2.454622702599e+01 -6.749421992767e+00 0.0 
2.537499741604e+01 -6.347634963783e+00 0.0 
2.544077378460e+01 -5.431358513649e+00 0.0 
2.801367161747e+01 -1.820907270221e+01 0.0 
2.884507806914e+01 -1.762032095326e+01 0.0 
1.821474531936e+00 -1.588901260460e+01 0.0 
1.821006262604e+00 -1.489370287756e+01 0.0 
4.599962488908e+01 -1.176478780598e+01 0.0 
4.705457470007e+01 -1.172182804229e+01 0.0 
4.667668314802e+01 -1.263464558483e+01 0.0 
4.759648056504e+01 -1.252380987933e+01 0.0 
4.728041618103e+01 -1.341928568376e+01 0.0 
4.825209352360e+01 -1.330491640804e+01 0.0 
4.778118233428e+01 -1.420151961695e+01 0.0 
2.388192727579e+01 -1.826934810142e+01 0.0 
2.381714684947e+01 -4.385917965223e+00 0.0 
3.172733219247e+01 -9.758744265248e+00 0.0 
1.882012070658e+01 -1.805540597212e+01 0.0 
1.805667505243e+01 -1.742221226236e+01 0.0 
2.852599958080e+01 -8.597196079481e+00 0.0 
2.856486123437e+01 -7.661382718527e+00 0.0 
1.111792842875e+01 -1.818223852980e+01 0.0 
2.203322722466e+01 -7.986646678802e+00 0.0 
3.955703676900e+01 -1.903246763601e+01 0.0 
1.944842206513e+01 -8.038750575182e-01 0.0 
1.909882767783e+01 -1.746322740933e+00 0.0 
2.281147422941e+01 -8.525912918334e+00 0.0 
2.850633001468e+01 -9.533271335986e+00 0.0 
2.532883344309e+01 -7.308951659710e+00 0.0 
2.620475466461e+01 -6.979208585400e+00 0.0 
1.396278270396e+01 -1.475095389807e+01 0.0 
9.791001166724e+00 -2.554159793552e+00 0.0 
2.229293380421e+01 -4.269762271052e+00 0.0 
4.677238984118e+01 -1.430071795514e+01 0.0 
2.228658385918e+01 -3.344747535984e+00 0.0 
8.940223674553e-01 -1.543595733415e+01 0.0 
2.118566862474e+01 -8.435876987696e+00 0.0 
2.678325936437e+01 -1.032621195706e+01 0.0 
2.223400220487e+01 -5.179046761770e+00 0.0 
2.375370625384e+01 -7.251580562134e+00 0.0 
3.156971327386e+01 -1.255534750737e+01 0.0 
3.328226391312e+01 -1.172914813316e+01 0.0 
3.250948774219e+01 -1.120157009348e+01 0.0 
2.032993445717e+01 -8.867880112202e+00 0.0 
2.697226974856e+01 -7.536633082045e+00 0.0 
2.707377810386e+01 -6.590835263295e+00 0.0 
2.914099246827e+01 -1.191678458549e+01 0.0 
3.544824072239e+01 -1.621126558525e+01 0.0 
3.456511855436e+01 -1.665054783843e+01 0.0 
3.448395810225e+01 -1.759117813016e+01 0.0 
3.368378673938e+01 -1.708037781328e+01 0.0 
3.375560452567e+01 -1.610973066913e+01 0.0 
3.288001547988e+01 -1.654324255651e+01 0.0 
3.282475929147e+01 -1.749725654692e+01 0.0 
3.199880906313e+01 -1.697294088625e+01 0.0 
3.197001272932e+01 -1.811667776864e+01 0.0 
3.111884713021e+01 -1.742166785755e+01 0.0 
3.120418962865e+01 -1.642155709385e+01 0.0 
3.034666704371e+01 -1.683123833816e+01 0.0 
3.026224379976e+01 -1.772592851714e+01 0.0 
3.046632362943e+01 -1.582232843075e+01 0.0 
1.961344017324e+01 -1.857459447985e+01 0.0 
2.274975894774e+01 -9.532738811922e+00 0.0 
1.833923246887e+01 -2.396746883672e+00 0.0 
1.988859500848e+01 -2.249244376594e+00 0.0 
2.758045562861e+01 -1.086434261689e+01 0.0 
3.247300178163e+01 -1.909930104252e+01 0.0 
3.461947482503e+01 -1.911879848019e+01 0.0 
2.047161538662e+01 -6.941478180358e+00 0.0 
2.750230940214e+01 -1.915490590764e+01 0.0 
3.165081350803e+01 -1.161860780120e+01 0.0 
1.897456727641e+01 -4.889634688522e+00 0.0 
2.549338539756e+01 -1.914858252089e+01 0.0 
3.462873135081e+01 -1.567482276144e+01 0.0 
3.384432415243e+01 -1.512280684518e+01 0.0 
3.471433767690e+01 -1.469086942990e+01 0.0 
3.651470373046e+01 -1.918207952149e+01 0.0 
3.901742690249e+01 -1.345028556517e+01 0.0 
2.153224102692e+01 -1.920169709333e+01 0.0 
1.918382939341e+01 -1.316226275662e+01 0.0 
2.005389162382e+01 -1.271962165174e+01 0.0 
2.011472087878e+01 -1.175029352900e+01 0.0 
3.210679478412e+01 -1.598038618242e+01 0.0 
1.752175226543e+01 -1.914713022656e+01 0.0 
1.696897240059e+01 -1.832772588765e+01 0.0 
1.599682523337e+01 -1.832599992024e+01 0.0 
1.644507199462e+01 -1.743697981535e+01 0.0 
1.549987712903e+01 -1.915192375101e+01 0.0 
3.050250861901e+01 -1.918943550234e+01 0.0 
2.949944061527e+01 -1.922950455235e+01 0.0 
1.375892575273e+01 -6.447160534926e+00 0.0 
1.457223670180e+01 -7.006709243857e+00 0.0 
1.450818793236e+01 -7.965943451779e+00 0.0 
1.538804712402e+01 -7.553409623699e+00 0.0 
1.545817644768e+01 -6.580929593419e+00 0.0 
1.626506893751e+01 -7.129032608911e+00 0.0 
1.619833811522e+01 -8.086588580887e+00 0.0 
1.714448609609e+01 -6.697429609777e+00 0.0 
2.887616543568e+01 -1.668015232137e+01 0.0 
1.349814589130e+01 -1.918225301544e+01 0.0 
1.153887772210e+01 -1.311384581217e+01 0.0 
1.242708159886e+01 -1.267046795531e+01 0.0 
1.249799674267e+01 -1.169005616014e+01 0.0 
6.631723893693e+00 -9.774184881867e+00 0.0 
7.451471631867e+00 -1.033148796006e+01 0.0 
7.377795355458e+00 -1.132196345268e+01 0.0 
5.810931797536e+00 -9.211654212252e+00 0.0 
2.402683899133e+01 -1.441378562320e+01 0.0 
1.249768692036e+01 -1.917388426624e+01 0.0 
1.580373499437e+01 -1.290751860664e+01 0.0 
8.344650507834e+00 -9.898403995170e+00 0.0 
3.750622115305e+01 -1.086526401533e+01 0.0 
3.699391251667e+01 -1.171695900794e+01 0.0 
3.606517829518e+01 -1.173717504500e+01 0.0 
3.650257641795e+01 -1.270047380221e+01 0.0 
3.808951488918e+01 -1.183518714175e+01 0.0 
4.760380962420e+00 -1.162484888315e+01 0.0 
3.861210370848e+00 -1.205657631736e+01 0.0 
3.038284309476e+00 -1.149851280664e+01 0.0 
2.961598794889e+00 -1.248856794980e+01 0.0 
2.138953225512e+00 -1.193212674534e+01 0.0 
2.227383593457e+00 -1.096258903918e+01 0.0 
2.043265419276e+00 -1.292158472959e+01 0.0 
1.252449446028e+00 -1.225502002753e+01 0.0 
3.949985210740e+01 -1.086594001795e+01 0.0 
1.453499444792e+01 -8.768805922472e-01 0.0 
1.403518950933e+01 -1.749965556633e+00 0.0 
1.300715031023e+01 -1.714737233040e+00 0.0 
1.350929389899e+01 -2.527443911291e+00 0.0 
1.449600910711e+01 -2.595486162864e+00 0.0 
1.395693872901e+01 -3.484211041558e+00 0.0 
1.495105865208e+01 -3.364609636216e+00 0.0 
1.508822528740e+01 -1.766586020494e+00 0.0 
1.250223858430e+01 -8.634590186802e-01 0.0 
1.200279523409e+01 -1.709044504992e+00 0.0 
1.150086239419e+01 -8.592789190668e-01 0.0 
1.101482754194e+01 -1.677730591922e+00 0.0 
1.148018564526e+01 -2.659323866909e+00 0.0 
8.800552119754e+00 -3.989875954728e+00 0.0 
3.452790439430e+00 -1.901136170646e+01 0.0 
8.658451825200e-01 -9.503462241795e+00 0.0 
1.694787786797e+00 -9.000589234502e+00 0.0 
1.703436717094e+00 -8.038819004041e+00 0.0 
2.594197971110e+00 -8.563955242845e+00 0.0 
1.630513735412e+00 -9.907244747511e+00 0.0 
8.566859292791e-01 -7.512203837972e+00 0.0 
1.685461277022e+00 -7.164280248030e+00 0.0 
2.506394468801e+00 -8.623386730818e-01 0.0 
2.007475081581e+00 -1.727729545205e+00 0.0 
9.211534699767e-01 -1.628791366312e+00 0.0 
1.500000000020e+00 -2.598063549486e+00 0.0 
2.482078929963e+00 -2.553580088725e+00 0.0 
2.999795253092e+00 -1.732169015019e+00 0.0 
3.999712607169e+00 -1.728832897453e+00 0.0 
4.499752199340e+00 -8.656478679175e-01 0.0 
4.964377774841e+00 -1.730129617941e+00 0.0 
4.425017908337e+00 -2.597541756243e+00 0.0 
5.446573195014e+00 -8.410144840023e-01 0.0 
4.915722346614e+01 -1.550640962770e+01 0.0 
4.826794919243e+01 -1.600000000000e+01 0.0 
1.053139533193e+01 -1.911782884365e+01 0.0 
4.156049861949e+01 -1.095160998589e+01 0.0 
9.494526624416e+00 -8.650570090219e-01 0.0 
4.555762166964e+01 -1.897098103585e+01 0.0 
4.250656411371e+01 -1.914387356218e+01 0.0 
4.350906466345e+01 -1.917234727395e+01 0.0 
8.759665722424e-01 -1.746422130609e+01 0.0 
1.698936011838e+00 -1.795012186674e+01 0.0 
4.742476811029e+01 -1.900090177972e+01 0.0 
7.749196752349e+00 -6.368049313489e+00 0.0 
3.361572113416e+01 -1.798765193915e+01 0.0 
4.484660149212e+01 -1.728661231383e+01 0.0 
1.984038172228e+01 -4.502575320116e+00 0.0 
1.035080352627e+01 -6.166639575753e+00 0.0 
2.753558010652e+00 -1.444909521181e+01 0.0 
7.217069543032e+00 -1.328635391078e+01 0.0 
4.364336727739e+00 -1.655585677381e+01 0.0 
4.595208426108e+00 -1.357919665443e+01 0.0 
6.164967006980e+00 -1.569873454630e+01 0.0 
1.487855768353e+01 -1.826523774028e+01 0.0 
2.791876456372e+00 -4.019632415181e+00 0.0 
4.246464893515e+01 -1.364898659620e+01 0.0 
4.503855590351e+01 -1.329552780944e+01 0.0 
4.407239109604e+01 -1.573900004093e+01 0.0 
5.141054449252e+00 -6.664290382472e+00 0.0 
3.141083947149e+00 -1.055790764912e+01 0.0 
6.196463198741e+00 -4.256497932609e+00 0.0 
2.599618716181e+01 -1.836893455464e+01 0.0 
2.923057372337e+01 -1.098461757645e+01 0.0 
1.168343877486e+01 -1.114079645041e+01 0.0 
6.706222096238e+00 -8.780364234441e+00 0.0 
8.567858614669e+00 -6.943121440850e+00 0.0 
1.123755132901e+01 -5.753525820030e+00 0.0 
2.353456234423e+01 -1.008536320953e+01 0.0 
9.162073319168e+00 -1.045593739109e+01 0.0 
9.676343469685e+00 -1.496493008366e+01 0.0 
4.490637882905e+01 -1.628778970202e+01 0.0 
7.398129387772e+00 -9.639977982323e-01 0.0 
1.049641705805e+01 -1.552503975272e+01 0.0 
9.010356286268e+00 -1.242805042052e+01 0.0 
3.985573925497e+01 -1.399863651620e+01 0.0 
1.816196318262e+01 -1.554066497931e+01 0.0 
1.306332244168e+01 -3.963646550326e+00 0.0 
4.145850903932e+01 -1.608094559275e+01 0.0 
3.794664933633e+01 -1.779020121986e+01 0.0 
3.819614412903e+01 -1.290749321016e+01 0.0 
6.270014188119e+00 -3.255093186826e+00 0.0 
4.251165370388e+01 -1.263870364997e+01 0.0 
1.207347709171e+01 -1.763942826023e+01 0.0 
3.633240829927e+01 -1.577330481104e+01 0.0 
4.319052668832e+00 -6.101812561904e+00 0.0 
1.676492415806e+01 -1.151547901392e+01 0.0 
2.594059220037e+01 -1.074225223009e+01 0.0 
3.340750911501e+01 -9.898764354137e+00 0.0 
4.397619591281e+01 -1.769773736461e+01 0.0 
2.175611595028e+01 -1.185718747128e+01 0.0 
1.641818733106e+01 -1.640685203215e+01 0.0 
1.661211421753e+01 -1.346121366338e+01 0.0 
3.428853504935e+00 -6.551993389271e+00 0.0 
8.700728832502e+00 -1.638460872825e+01 0.0 
1.931369795309e+01 -1.121629383702e+01 0.0 
4.139798872363e+01 -1.706922153459e+01 0.0 
2.647837478700e+01 -1.507353829290e+01 0.0 
1.779469616424e+01 -9.161615782908e+00 0.0 
3.885879219319e+01 -1.642026488918e+01 0.0 
1.338194936770e+01 -1.125916521471e+01 0.0 
1.897071181111e+01 -1.609204322578e+01 0.0 
2.844308548793e+01 -1.046221003096e+01 0.0 
2.659854702194e+01 -1.316109415760e+01 0.0 
2.979604503271e+01 -1.433296157755e+01 0.0 
2.417694041347e+01 -1.251231397779e+01 0.0 
1.807401327411e+00 -1.388891148480e+01 0.0 
9.599810618782e+00 -1.595439365034e+01 0.0 
1.652144692160e+01 -4.205392788472e+00 0.0 
2.367839450246e+01 -8.188385218643e+00 0.0 
3.814894930468e+01 -1.390748338767e+01 0.0 
2.466448215774e+01 -1.685878545680e+01 0.0 
4.134044524611e+01 -1.806610045954e+01 0.0 
2.600511411958e+01 -9.801774120648e+00 0.0 
7.882158050716e+00 -1.582364037353e+01 0.0 
3.881607873422e+01 -1.737970515013e+01 0.0 
8.270182347708e+00 -1.088622154920e+01 0.0 
8.672520392520e-01 -4.532984309881e+00 0.0 
1.993447205337e+01 -3.579061902667e+00 0.0 
1.794616079549e+01 -7.238038888498e+00 0.0 
2.097277068165e+01 -1.132450168636e+01 0.0 
8.194803300681e+00 -1.187214224265e+01 0.0 
3.522279404911e+01 -1.823342818178e+01 0.0 
6.984481050295e+00 -1.625271465557e+01 0.0 
1.309433007797e+01 -1.521718594215e+01 0.0 
2.150246167611e+01 -1.885399038185e+00 0.0 
3.250689370209e+01 -1.028789870535e+01 0.0 
6.085886272238e+00 -1.668342132851e+01 0.0 
1.588455661727e+01 -1.193498985921e+01 0.0 
1.809323400821e+01 -1.651110084195e+01 0.0 
1.348885082381e+00 -1.136065576512e+01 0.0 
2.497670221995e+01 -1.834631276173e+01 0.0 
2.937062818424e+01 -8.233711194470e+00 0.0 
5.185823744469e+00 -1.711566910207e+01 0.0 
1.477497877209e+01 -1.530177014512e+01 0.0 
2.125346158933e+01 -7.473003997367e+00 0.0 
4.751561118290e+01 -1.084897772632e+01 0.0 
5.056026576843e+00 -1.825750475525e+01 0.0 
1.473948554523e+01 -1.634577436309e+01 0.0 
2.410566630936e+01 -1.345970002612e+01 0.0 
1.507337507513e+01 -1.138527895328e+01 0.0 
3.189857338687e+01 -8.887781229006e+00 0.0 
7.298712468334e+00 -1.230231046246e+01 0.0 
2.738235495295e+01 -1.368931690364e+01 0.0 
3.750141041969e+01 -1.920449893070e+01 0.0 
1.557271965640e+01 -1.683317951731e+01 0.0 
3.393731848929e+01 -1.413034777044e+01 0.0 
6.482156824153e+00 -1.174575135362e+01 0.0 
2.077971718439e+01 -1.421279621836e+01 0.0 
3.455084320178e+00 -2.562590040585e+00 0.0 
3.099056096250e+01 -9.270280416035e+00 0.0 
5.580176125418e+00 -1.217387969259e+01 0.0 
1.707247630389e+01 -7.660651981710e+00 0.0 
1.418658814174e+01 -1.180390575393e+01 0.0 
2.049103025389e+01 -1.811296706038e+01 0.0 
4.680386172316e+00 -1.260396879301e+01 0.0 
1.699679896554e+01 -8.624561788199e+00 0.0 
3.779470168555e+00 -1.303424899720e+01 0.0 
3.036589870126e+01 -7.879832518349e+00 0.0 
3.306993001774e+01 -1.457671062095e+01 0.0 
2.840150110165e+00 -1.346530088269e+01 0.0 
2.732011135052e+01 -1.464591214560e+01 0.0 
5.423639259568e+00 -2.659711955016e+00 0.0 
2.324455961696e+01 -1.387269388211e+01 0.0 
1.752768355571e+00 -1.693128613594e+01 0.0 
1.020244783051e+01 -8.076834012808e+00 0.0 
1.330873875224e+01 -1.222417528206e+01 0.0 
3.297727364880e+01 -1.555480372087e+01 0.0 
2.890929955439e+01 -6.868664170731e+00 0.0 
1.323294664622e+01 -1.320754260334e+01 0.0 
2.726532861246e+01 -1.560593120806e+01 0.0 
2.240020643398e+01 -1.429299177247e+01 0.0 
2.090445823633e+01 -1.228128621332e+01 0.0 
1.315809881502e+01 -1.420739326938e+01 0.0 
2.781328038068e+01 -7.181956082300e+00 0.0 
8.614200829057e+00 -5.936933226306e+00 0.0 
8.714765730069e+00 -4.979270529687e+00 0.0 
1.611881701099e+01 -9.041973294003e+00 0.0 
2.806830314340e+01 -1.614622947108e+01 0.0 
2.084435391396e+00 -3.385085422913e+00 0.0 
3.133211811152e+01 -1.542347619750e+01 0.0 
9.693114650768e+00 -3.590281506442e+00 0.0 
1.531883592202e+01 -8.504584946143e+00 0.0 
2.151589117094e+01 -1.578915763018e+01 0.0 
4.918943882696e+01 -1.355538828056e+01 0.0 
1.443236615188e+01 -8.918701794549e+00 0.0 
8.276250966452e-01 -5.537685192197e+00 0.0 
1.362790867918e+01 -8.374718262212e+00 0.0 
2.083767477370e+01 -1.324843956035e+01 0.0 
1.273834678703e+01 -8.790890389337e+00 0.0 
1.192275845670e+01 -8.242261327467e+00 0.0 
4.477236023583e+01 -1.824312396664e+01 0.0 
1.102989384254e+01 -8.649855800911e+00 0.0 
4.849096516045e+01 -1.917293752213e+01 0.0 
1.588996752238e+00 -1.910230934687e+01 0.0 
4.904245197583e+01 -1.159839008158e+01 0.0 
2.753852929608e+01 -5.782128488093e+00 0.0 
1.756133602833e+01 -8.306130313187e-01 0.0 
2.615423700951e+01 -6.153865090092e+00 0.0 
1.028818761294e+01 -7.122020845892e+00 0.0 
2.970818901196e+01 -1.527821347593e+01 0.0 
4.801461623449e+01 -1.164472570985e+01 0.0 
9.455722100419e+00 -6.546069291118e+00 0.0 
3.089099236677e+01 -1.835339328261e+01 0.0 
2.350000000013e+01 -1.920825896750e+01 0.0 
4.830620531887e+01 -1.506626155470e+01 0.0 
1.725381944701e+01 -1.688794487850e+01 0.0 
2.156246225273e+01 -1.475893794002e+01 0.0 
4.919319648787e+01 -1.742767505896e+01 0.0 
4.437935623576e+01 -1.077662927266e+01 0.0 
1.001520521978e+01 -1.652692675208e+00 0.0 
9.067160240050e-01 -1.441937727541e+01 0.0 
2.603365149390e+01 -4.755996613848e+00 0.0 
2.458344439002e+01 -4.873645517696e+00 0.0 
2.304312390142e+01 -3.836552768096e+00 0.0 
2.546923202198e+00 -6.902480355749e+00 0.0 
1.251534969393e+01 -2.490989965776e+00 0.0 
2.454061833377e+01 -3.933354231935e+00 0.0 
1.788186558740e+01 -1.827424884923e+01 0.0 
4.090785243552e+01 -1.166553231904e+01 0.0 
2.230128851568e+01 -1.623015738726e+01 0.0 
2.302362347568e+01 -2.916239960270e+00 0.0 
3.878119254461e+01 -1.830091164002e+01 0.0 
2.210081359958e+01 -1.829238229150e+01 0.0 
8.443704882233e+00 -1.921993252862e+01 0.0 
2.218405824691e+01 -1.724557581508e+01 0.0 
2.151157503963e+01 -2.790636689331e+00 0.0 
3.741658958955e+01 -1.250400191722e+01 0.0 
2.697247663737e+01 -1.838290202309e+01 0.0 
4.743362342862e+01 -1.585850773010e+01 0.0 
6.671345075358e+00 -1.924977576322e+01 0.0 
3.900825404537e+01 -1.157220003875e+01 0.0 
4.649692961375e+01 -1.836335837481e+01 0.0 
1.578831424832e+01 -3.678284023361e+00 0.0 
4.814208768888e+01 -1.841249298770e+01 0.0 
2.964123298315e+01 -1.625739458193e+01 0.0 
4.580760351902e+01 -1.284294554687e+01 0.0 
3.561520879615e+01 -1.245548941949e+01 0.0 
2.555418095658e+00 -1.841101588290e+01 0.0 
3.288468366144e+01 -1.834258164109e+01 0.0 
2.065894391445e+01 -2.240688571739e+00 0.0 
4.739171429915e+01 -1.496536413446e+01 0.0 
3.478086729185e+00 -8.576434653209e+00 0.0 
1.606010630246e+01 -1.588421807951e+00 0.0 
1.018329200594e+01 -1.834320874317e+01 0.0 
2.957213339430e+01 -1.720496954591e+01 0.0 
4.142712790164e+00 -1.837794506222e+01 0.0 
6.698721532573e-01 -2.499999999997e+00 0.0 
8.037039123140e+00 -1.571229354954e+00 0.0 
1.203541361428e+01 -1.847784298001e+01 0.0 
2.899968332038e+01 -1.848264722179e+01 0.0 
1.469229460948e+01 -4.219485753730e+00 0.0 
4.049590781957e+01 -1.932812501995e+01 0.0 
1.996211678340e+01 -1.506329754720e+00 0.0 
4.250588298353e+01 -1.067383247529e+01 0.0 
5.831497011152e+00 -1.635396227234e+00 0.0 
5.317606125670e+00 -1.923927974868e+01 0.0 
4.208546426993e+01 -1.842830665025e+01 0.0 
2.327553405011e+00 -9.459409929662e+00 0.0 
3.568351902251e+01 -1.096637218582e+01 0.0 
1.682104374890e+00 -6.231413350963e+00 0.0 
2.451812238018e+01 -1.766524914339e+01 0.0 
1.058003429638e+01 -2.391839617098e+00 0.0 
4.399988753123e+01 -1.851998776342e+01 0.0 
1.400000000010e+01 -1.852293523028e+01 0.0 
3.604719565984e+01 -1.850662876800e+01 0.0 
1.951297136734e+01 -1.938092349694e+01 0.0 
1.821365318472e+01 -1.531276353287e+00 0.0 
2.298031859732e+01 -1.854635324722e+01 0.0 
1.552168066204e+01 -1.764280741977e+01 0.0 
4.572957713638e+01 -1.073347898229e+01 0.0 
3.429637429624e+01 -1.838861552790e+01 0.0 
2.427434426052e+00 -7.705577451869e+00 0.0 
4.662792031485e+00 -3.359424455416e+00 0.0 
4.926794919243e+01 -1.926794919243e+01 0.0 
7.320508075690e-01 -7.320508075688e-01 0.0 
4.926794919243e+01 -1.073205080757e+01 0.0 
7.320508075705e-01 -1.926794919243e+01 0.0 
2.917460242467e+00 -3.202866455310e+00 0.0 
4.838200575963e+01 -1.232674147454e+01 0.0 
2.998445708009e+01 -1.854403752148e+01 0.0 
5.949940090766e-01 -1.152762038165e+01 0.0 
4.844763495759e+01 -1.678092548787e+01 0.0 
1.301685480160e+01 -3.170056592566e+00 0.0 
1.650046335855e+01 -6.731535384067e-01 0.0 
4.854881540991e+01 -1.405224059779e+01 0.0 
2.119545114693e+01 -1.846813384545e+01 0.0 
3.797852849897e+01 -1.857978513215e+01 0.0 
4.649823708745e+01 -1.338351810816e+01 0.0 
2.012685900976e+01 -2.889659035009e+00 0.0 
2.953271913273e+01 -1.791558075192e+01 0.0 
2.408509097292e+00 -1.021949208421e+01 0.0 
2.642589566221e+01 -1.773216561448e+01 0.0 
1.730010270775e+01 -1.763165076721e+01 0.0 
2.017406551304e+01 -8.513536440582e-01 0.0 
5.254761581934e-01 -1.249999999999e+01 0.0 
6.640448215642e+00 -1.545337834885e+00 0.0 
7.843361506349e+00 -1.852719839527e+01 0.0 
1.588442191088e+00 -1.066158564320e+01 0.0 
3.031250000000e+01 -6.420918367347e+00 0.0 
4.951250000000e+01 -6.500000000000e+00 0.0 
3.180701530612e+01 -7.414795918363e+00 0.0 
4.951250000000e+01 -7.500000000000e+00 0.0 
3.331250000000e+01 -8.420918367347e+00 0.0 
4.951470588234e+01 -8.500000000000e+00 0.0 
3.480610198624e+01 -9.413633635267e+00 0.0 
4.951470588234e+01 -9.500000000000e+00 0.0 

SCALARS node_number int
LOOKUP_TABLE default
1
2
3
4
5
6
7
8
9
10
11
12
13
14
15
16
17
18
19
20
21
22
23
24
25
26
27
28
29
30
31
32
33
34
35
36
37
38
39
40
41
42
43
44
45
46
47
48
49
50
51
52
53
54
55
56
57
58
59
60
61
62
63
64
65
66
67
68
69
70
71
72
73
74
75
76
77
78
79
80
81
82
84
85
86
87
88
89
90
91
92
93
99
100
101
102
104
105
106
107
108
109
110
111
112
113
114
115
116
117
118
119
120
121
122
123
124
125
126
127
128
129
130
131
132
133
134
135
136
290
291
292
293
294
295
296
297
298
299
300
301
302
303
304
305
306
307
308
309
310
311
312
313
314
315
316
317
318
319
320
321
322
323
324
325
326
327
328
329
330
331
332
333
334
335
336
337
338
339
340
341
342
343
344
345
346
347
348
349
350
351
352
353
354
355
356
357
358
359
360
361
362
363
364
365
366
367
368
369
370
371
372
373
374
375
376
377
378
379
380
381
382
383
384
385
386
387
388
389
390
391
392
393
394
395
396
397
398
399
400
401
402
403
404
405
406
407
408
409
410
411
412
413
414
415
416
417
418
419
420
421
422
423
424
425
426
427
428
429
430
431
432
433
434
435
436
437
438
439
440
441
442
443
444
445
446
447
448
449
450
451
452
453
454
455
456
457
458
459
460
461
462
463
464
465
466
467
468
469
470
471
472
473
474
475
476
477
478
479
480
481
482
483
484
485
486
487
488
489
490
491
492
493
494
495
496
497
498
499
500
501
502
503
504
505
506
507
508
509
510
511
512
513
514
515
516
517
518
519
520
521
522
523
524
525
526
527
528
529
530
531
532
533
534
535
536
537
538
539
540
541
542
543
544
545
546
547
548
549
550
551
552
553
554
555
556
557
558
559
560
561
562
563
564
565
566
567
568
569
570
571
572
573
574
575
576
577
578
579
580
581
582
583
584
585
586
587
588
589
590
591
592
593
594
595
596
597
598
599
600
601
602
603
604
605
606
607
608
609
610
611
612
613
614
615
616
617
618
619
620
621
622
623
624
625
626
627
628
629
630
631
632
633
634
635
636
637
638
639
640
641
642
643
644
645
646
647
648
649
650
651
652
653
654
655
656
657
658
659
660
661
662
663
664
665
666
667
668
669
670
671
672
673
674
675
676
677
678
679
680
681
682
683
684
685
686
687
688
689
690
691
692
693
694
695
696
697
698
699
700
701
702
703
704
705
706
707
708
709
710
711
712
713
714
715
716
717
718
719
720
721
722
723
724
725
726
727
728
729
730
731
732
733
734
735
736
737
738
739
740
741
742
743
744
745
746
747
748
749
750
751
752
753
754
755
756
757
758
759
760
761
762
763
764
765
766
767
768
769
770
771
772
773
774
775
776
777
778
779
780
781
782
783
784
785
786
787
788
789
790
791
792
793
794
795
796
797
798
799
800
801
802
803
804
805
806
807
808
809
810
811
812
813
814
815
816
817
818
819
820
821
822
823
824
825
826
827
828
829
830
831
832
833
834
835
836
837
838
839
840
841
842
843
844
845
846
847
848
849
850
851
852
853
854
855
856
857
858
859
860
861
862
863
864
865
866
867
868
869
870
871
872
873
874
875
876
877
878
879
880
881
882
883
884
885
886
887
888
889
890
891
892
893
894
895
896
897
898
899
900
901
902
903
904
905
906
907
908
909
910
911
912
913
914
915
916
917
918
919
920
921
922
923
924
925
926
927
928
929
930
931
932
933
934
935
936
937
938
939
940
941
942
943
944
945
946
947
948
949
950
951
952
953
954
955
956
957
958
959
960
961
962
963
964
965
966
967
968
969
970
971
972
973
974
975
976
977
978
979
980
981
982
983
984
985
986
987
988
989
990
991
992
993
994
995
996
997
998
999
1000
1001
1002
1003
1004
1005
1006
1007
1008
1009
1010
1011
1012
1013
1014
1015
1016
1017
1018
1019
1020
1021
1022
1023
1024
1025
1026
1027
1028
1029
1030
1031
1032
1033
1034
1035
1036
1037
1038
1039
1040
1041
1042
1043
1044
1045
1046
1047
1048
1049
1050
1051
1052
1053
1054
1055
1056
1057
1058
1059
1060
1061
1062
1063
1064
1065
1066
1067
1068
1069
1070
1071
1072
1073
1074
1075
1076
1077
1078
1079
1080
1081
1082
1083
1084
1085
1086
1087
1088
1089
1090
1091
1092
1093
1094
1095
1096
1097
1098
1099
1100
1101
1102
1103
1104
1105
1106
1107
1108
1109
1110
1111
1112
1113
1114
1115
1116
1117
1118
1119
1120
1121
1122
1123
1124
1125
1126
1127
1128
1129
1130
1131
1132
1133
1134
1135
1136
1137
1138
1139
1140
1141
1142
1143
1144
1145
1146
1147
1148
1149
1150
1151
1152
1153
1154
1155
1156
1157
1158
1159
1160
1161
1162
1163
1164
1165
1166
1167
1168
1169
1170
1171
1172
1173
1174
1175
1176
1177
1178
1179
1180
1181
1182
1183
1184
1185
1186
1187
1188
1189
1190
1191
1192
1193
1194
1195
1196
1197
1198
1199
1200
1201
1202
1203
1204
1205
1206
1207
1208
1209
1210
1211
1212
1213
1214
1215
1216
1217
1218
1219
1220
1221
1222
1223
1224
1225
1226
1227
1228
1229
1230
1231
1232
1233
1234
1235
1236
1237
1238
1239
1240
1241
1242
1243
1244
1245
1246
1247
1248
1249
1250
1251
1252
1253
1254
1255
1256
1257
1258
1259
1260
1261
1262
1263
1264
1277
1278
1279
1280
1281
1282
1283
1284

VECTORS node_mesh_deformation float
0.0 6.480513733070e-02 0.0 
0.000000000000e+00 1.244163309830e-01 0.0 
0.0 0.000000000000e+00 0.0 
0.000000000000e+00 0.000000000000e+00 0.0 
0.0 6.572225414366e-02 0.0 
0.0 6.593823778406e-02 0.0 
0.0 6.549509778808e-02 0.0 
0.0 6.439113619394e-02 0.0 
0.0 6.265111821910e-02 0.0 
0.0 6.042161207635e-02 0.0 
0.0 5.778863198534e-02 0.0 
0.0 5.481733647454e-02 0.0 
0.0 5.157034456057e-02 0.0 
0.0 4.808707143257e-02 0.0 
0.0 4.437839307716e-02 0.0 
0.0 4.045766673083e-02 0.0 
0.0 3.631618799434e-02 0.0 
0.0 3.194665403844e-02 0.0 
0.0 2.732024364730e-02 0.0 
0.0 2.242110148613e-02 0.0 
0.0 1.724212170134e-02 0.0 
0.0 1.177338217759e-02 0.0 
0.0 6.023584756381e-03 0.0 
0.000000000000e+00 0.000000000000e+00 0.0 
0.000000000000e+00 0.000000000000e+00 0.0 
0.000000000000e+00 0.000000000000e+00 0.0 
0.000000000000e+00 0.000000000000e+00 0.0 
0.000000000000e+00 0.000000000000e+00 0.0 
0.000000000000e+00 0.000000000000e+00 0.0 
0.000000000000e+00 0.000000000000e+00 0.0 
0.000000000000e+00 0.000000000000e+00 0.0 
0.000000000000e+00 0.000000000000e+00 0.0 
0.000000000000e+00 0.000000000000e+00 0.0 
0.000000000000e+00 0.000000000000e+00 0.0 
0.000000000000e+00 0.000000000000e+00 0.0 
0.000000000000e+00 0.000000000000e+00 0.0 
0.000000000000e+00 0.000000000000e+00 0.0 
0.000000000000e+00 0.000000000000e+00 0.0 
0.000000000000e+00 0.000000000000e+00 0.0 
0.000000000000e+00 0.000000000000e+00 0.0 
0.000000000000e+00 0.000000000000e+00 0.0 
0.000000000000e+00 0.000000000000e+00 0.0 
0.000000000000e+00 0.000000000000e+00 0.0 
0.000000000000e+00 0.000000000000e+00 0.0 
0.000000000000e+00 0.000000000000e+00 0.0 
0.000000000000e+00 0.000000000000e+00 0.0 
0.000000000000e+00 0.000000000000e+00 0.0 
0.000000000000e+00 0.000000000000e+00 0.0 
0.000000000000e+00 0.000000000000e+00 0.0 
0.000000000000e+00 0.000000000000e+00 0.0 
0.000000000000e+00 0.000000000000e+00 0.0 
0.000000000000e+00 0.000000000000e+00 0.0 
0.000000000000e+00 0.000000000000e+00 0.0 
0.000000000000e+00 0.000000000000e+00 0.0 
0.000000000000e+00 0.000000000000e+00 0.0 
0.000000000000e+00 0.000000000000e+00 0.0 
0.000000000000e+00 0.000000000000e+00 0.0 
0.000000000000e+00 0.000000000000e+00 0.0 
0.000000000000e+00 0.000000000000e+00 0.0 
0.000000000000e+00 0.000000000000e+00 0.0 
0.000000000000e+00 0.000000000000e+00 0.0 
0.000000000000e+00 0.000000000000e+00 0.0 
0.000000000000e+00 0.000000000000e+00 0.0 
0.000000000000e+00 0.000000000000e+00 0.0 
0.000000000000e+00 0.000000000000e+00 0.0 
0.000000000000e+00 0.000000000000e+00 0.0 
0.000000000000e+00 0.000000000000e+00 0.0 
0.000000000000e+00 0.000000000000e+00 0.0 
0.000000000000e+00 0.000000000000e+00 0.0 
0.000000000000e+00 0.000000000000e+00 0.0 
0.000000000000e+00 0.000000000000e+00 0.0 
0.000000000000e+00 0.000000000000e+00 0.0 
0.000000000000e+00 1.134987714453e-01 0.0 
0.000000000000e+00 1.021814888457e-01 0.0 
0.000000000000e+00 9.048239734737e-02 0.0 
0.000000000000e+00 7.843051653054e-02 0.0 
0.000000000000e+00 6.604569295125e-02 0.0 
0.000000000000e+00 5.335516710805e-02 0.0 
0.000000000000e+00 4.038310425279e-02 0.0 
0.000000000000e+00 2.715223891522e-02 0.0 
0.000000000000e+00 1.368993597007e-02 0.0 
-8.651095825755e-03 -7.615871563974e-03 0.0 
2.861187690172e-02 1.146948931131e-01 0.0 
-9.080443341567e-04 2.150786314277e-02 0.0 
6.664145690479e-03 4.554325748020e-02 0.0 
1.377559009235e-02 6.725208992294e-02 0.0 
2.022362664393e-02 8.653743902606e-02 0.0 
2.584966562313e-02 1.029865964222e-01 0.0 
2.946752134877e-02 1.154560672781e-01 0.0 
3.204054812009e-02 1.215927545316e-01 0.0 
3.254275138561e-02 1.226195677644e-01 0.0 
3.124134453239e-02 1.200306929670e-01 0.0 
0.000000000000e+00 1.637298035947e-01 0.0 
0.000000000000e+00 1.545805984605e-01 0.0 
0.000000000000e+00 1.449540875702e-01 0.0 
0.000000000000e+00 1.349172864213e-01 0.0 
1.613631126588e-03 1.244118176459e-01 0.0 
3.222338622294e-03 1.243937242904e-01 0.0 
4.853271749219e-03 1.243557220376e-01 0.0 
6.509586081364e-03 1.242869737000e-01 0.0 
8.197760139083e-03 1.241852776484e-01 0.0 
9.919639831281e-03 1.240133175311e-01 0.0 
1.169486535070e-02 1.237802849499e-01 0.0 
1.352120617331e-02 1.234332219461e-01 0.0 
1.542141659618e-02 1.229734055729e-01 0.0 
1.740088593550e-02 1.223362294379e-01 0.0 
1.946023011253e-02 1.214869147426e-01 0.0 
2.161549653754e-02 1.203651117039e-01 0.0 
2.385963777169e-02 1.189120064894e-01 0.0 
2.618775451241e-02 1.170445993401e-01 0.0 
-5.338436385212e-03 -2.274797350621e-02 0.0 
-3.975682557389e-04 -3.083864584966e-02 0.0 
5.027455337867e-03 -3.374651954701e-02 0.0 
1.094457657883e-02 -3.108982149654e-02 0.0 
1.537621595899e-02 -2.043290662330e-02 0.0 
1.799982620437e-02 -6.838921577137e-03 0.0 
1.899593536022e-02 3.702922477845e-03 0.0 
1.927224487584e-02 1.255956581690e-02 0.0 
1.936975236222e-02 2.042237607027e-02 0.0 
1.918474029991e-02 2.770405642487e-02 0.0 
1.863122802038e-02 3.439439657975e-02 0.0 
1.777227180762e-02 4.042699472277e-02 0.0 
1.654106143390e-02 4.594990690106e-02 0.0 
1.487232361637e-02 5.088353197471e-02 0.0 
1.287070509129e-02 5.512273400168e-02 0.0 
1.062930140870e-02 5.857077205987e-02 0.0 
8.185135193106e-03 6.130816120063e-02 0.0 
5.577152565428e-03 6.330573792877e-02 0.0 
2.803956959239e-03 6.444309331500e-02 0.0 
1.528903303154e-03 1.637653906909e-01 0.0 
2.986227630664e-03 1.637284631056e-01 0.0 
4.446715671200e-03 1.636932301818e-01 0.0 
5.910796598570e-03 1.636313145880e-01 0.0 
7.374758117166e-03 1.635306782291e-01 0.0 
8.835401016789e-03 1.633749618877e-01 0.0 
1.028846694811e-02 1.631416336846e-01 0.0 
1.172928075037e-02 1.628052906787e-01 0.0 
1.315293220281e-02 1.623305662470e-01 0.0 
1.455524034670e-02 1.616718300808e-01 0.0 
1.593304550908e-02 1.607779968743e-01 0.0 
1.728393251534e-02 1.595870161445e-01 0.0 
1.860785978010e-02 1.580223399629e-01 0.0 
1.990896535045e-02 1.559869776928e-01 0.0 
2.114047118550e-02 1.533605794441e-01 0.0 
2.230359379578e-02 1.500253775377e-01 0.0 
2.341821795824e-02 1.458268807744e-01 0.0 
2.452368056665e-02 1.405865452780e-01 0.0 
2.571938557910e-02 1.341147809316e-01 0.0 
2.691302959194e-02 1.260616909486e-01 0.0 
3.004377062553e-02 1.286555363222e-01 0.0 
2.827478954339e-02 1.343214015053e-01 0.0 
2.653775707836e-02 1.388754032859e-01 0.0 
2.485420966291e-02 1.425426047661e-01 0.0 
2.319489241941e-02 1.454514424827e-01 0.0 
2.154250000924e-02 1.477420640939e-01 0.0 
1.990895759971e-02 1.495287119661e-01 0.0 
1.830378411195e-02 1.509076446914e-01 0.0 
1.671960389476e-02 1.519588843981e-01 0.0 
1.515128651717e-02 1.527485538518e-01 0.0 
1.359485654135e-02 1.533300100262e-01 0.0 
1.205012486098e-02 1.537496589754e-01 0.0 
1.051635467743e-02 1.540484865693e-01 0.0 
8.991319018996e-03 1.542567424906e-01 0.0 
7.478417796690e-03 1.543975728844e-01 0.0 
5.976199668424e-03 1.544893795149e-01 0.0 
4.481358025217e-03 1.545458441828e-01 0.0 
2.990044526200e-03 1.545740779516e-01 0.0 
1.495594563366e-03 1.545520275511e-01 0.0 
1.570121496925e-03 1.449849496531e-01 0.0 
3.145491784899e-03 1.449572093244e-01 0.0 
4.726420194814e-03 1.449259854546e-01 0.0 
6.318684981643e-03 1.448657664874e-01 0.0 
7.926983492311e-03 1.447659695785e-01 0.0 
9.558395449467e-03 1.446110706462e-01 0.0 
1.121675993331e-02 1.443835048281e-01 0.0 
1.291001929022e-02 1.440555285094e-01 0.0 
1.464490290026e-02 1.435953836513e-01 0.0 
1.641833164602e-02 1.429590180231e-01 0.0 
1.823487715500e-02 1.420911773905e-01 0.0 
2.010254227201e-02 1.409349478272e-01 0.0 
2.203073179940e-02 1.394156061804e-01 0.0 
2.402868578234e-02 1.374519321636e-01 0.0 
2.608098133621e-02 1.349269722629e-01 0.0 
2.818077470888e-02 1.317317597716e-01 0.0 
3.030202093658e-02 1.276903258912e-01 0.0 
2.892060076525e-02 1.234515922837e-01 0.0 
2.669715581298e-02 1.261639904337e-01 0.0 
2.449494631794e-02 1.282982833886e-01 0.0 
2.237881933387e-02 1.299920664479e-01 0.0 
2.034231466773e-02 1.313083312773e-01 0.0 
1.838066247464e-02 1.323162731382e-01 0.0 
1.648215889659e-02 1.330786883800e-01 0.0 
1.465500348185e-02 1.336436615666e-01 0.0 
1.288629666666e-02 1.340567751833e-01 0.0 
1.117257340535e-02 1.343595621501e-01 0.0 
9.500444273357e-03 1.345681418619e-01 0.0 
7.866647141725e-03 1.347155389333e-01 0.0 
6.259596197118e-03 1.348075800597e-01 0.0 
4.675894591266e-03 1.348650369311e-01 0.0 
3.109924611032e-03 1.348926091600e-01 0.0 
1.551405940972e-03 1.348784441131e-01 0.0 
-4.339336709577e-03 8.300597113780e-03 0.0 
2.864052846810e-03 3.376272374702e-02 0.0 
1.028109995686e-02 5.667114292207e-02 0.0 
1.708776913085e-02 7.721278682050e-02 0.0 
2.322068122307e-02 9.523449167530e-02 0.0 
2.809369866230e-02 1.098818826193e-01 0.0 
3.101670331688e-02 1.192026287059e-01 0.0 
3.255948787199e-02 1.226101605571e-01 0.0 
3.209321034601e-02 1.217064225981e-01 0.0 
3.006745481333e-02 1.176585913666e-01 0.0 
1.176265344292e-02 3.259154219303e-02 0.0 
2.798790985761e-03 3.951734407440e-03 0.0 
1.330225635050e-02 2.393984356313e-02 0.0 
7.561886537662e-03 -2.477833762261e-02 0.0 
1.071978494362e-04 3.999565239496e-03 0.0 
2.486925780517e-02 7.421272424732e-02 0.0 
-1.112352038681e-03 4.598688520579e-02 0.0 
5.278375108496e-03 4.840293660429e-03 0.0 
3.377881176392e-02 1.028412323106e-01 0.0 
6.753808234986e-03 6.192257428403e-03 0.0 
3.559217995553e-02 1.139568395071e-01 0.0 
-7.558358119129e-04 4.213292667284e-03 0.0 
1.179610789648e-02 4.938859014223e-02 0.0 
7.100196702197e-03 8.108618773122e-03 0.0 
3.082891667614e-02 1.081362316303e-01 0.0 
-8.071196813463e-04 5.879671391541e-02 0.0 
-9.536924650734e-04 3.491152297626e-02 0.0 
6.695689740226e-03 9.742670137062e-03 0.0 
4.856044543992e-03 1.050251934850e-02 0.0 
1.527230584024e-03 1.162004057921e-02 0.0 
2.750751776269e-03 1.240759381698e-02 0.0 
3.559190027246e-03 1.079839712693e-02 0.0 
2.508353594327e-02 1.085492320164e-01 0.0 
1.646832278129e-02 1.128120628847e-01 0.0 
1.080206525439e-02 1.137752161908e-01 0.0 
1.043700476117e-03 7.208284782773e-02 0.0 
-7.660551164914e-04 4.962779751335e-03 0.0 
2.668934487122e-03 -2.415266498049e-02 0.0 
7.189266491833e-03 6.070808108181e-02 0.0 
-5.949173930337e-04 2.020441877257e-02 0.0 
5.551078888743e-03 1.149421036881e-01 0.0 
3.648620645139e-04 6.471314418980e-02 0.0 
6.517335778149e-03 1.153682145568e-02 0.0 
5.705894170919e-03 5.032456563232e-03 0.0 
7.015589955980e-03 7.039776662104e-03 0.0 
4.397978170129e-03 4.574744356642e-03 0.0 
1.476699971981e-03 3.639125138356e-03 0.0 
1.063756410929e-02 -1.658003898081e-03 0.0 
2.061622805523e-02 1.118053009192e-01 0.0 
-5.959974461565e-04 4.855723245576e-03 0.0 
7.849453707536e-04 4.745164687825e-02 0.0 
1.326574127813e-02 3.756153144619e-02 0.0 
-1.106434986451e-03 5.297874199893e-02 0.0 
7.741243905315e-04 9.491947871521e-03 0.0 
3.030016384896e-02 8.929760678659e-02 0.0 
1.854282985365e-02 5.472464729229e-02 0.0 
3.566732595923e-02 1.109835071360e-01 0.0 
3.384649173753e-02 1.126354592479e-01 0.0 
3.966555308466e-03 7.926089368574e-03 0.0 
1.268184429115e-03 9.497461099071e-02 0.0 
-3.932026998497e-04 4.072912988835e-03 0.0 
3.344436793940e-03 6.472842652935e-02 0.0 
4.302924836210e-04 2.144648270800e-02 0.0 
2.933153374808e-02 1.044729166564e-01 0.0 
3.097288745162e-02 9.819625333792e-02 0.0 
2.840951569455e-02 9.569185164658e-02 0.0 
3.021190542711e-02 8.826720179493e-02 0.0 
2.773475387051e-02 8.435994327040e-02 0.0 
2.892798809890e-02 7.782108137598e-02 0.0 
3.160043499277e-02 8.131954677205e-02 0.0 
2.984499605147e-02 7.117270876839e-02 0.0 
3.264958728197e-02 7.437460113160e-02 0.0 
2.619126949458e-02 7.360394410324e-02 0.0 
3.039912109106e-02 6.449383176176e-02 0.0 
3.329580303147e-02 6.739506993530e-02 0.0 
3.055355151482e-02 5.787520507518e-02 0.0 
3.348422425367e-02 6.047933559138e-02 0.0 
3.606327897734e-02 6.952348167693e-02 0.0 
3.625330072364e-02 6.230996530335e-02 0.0 
3.859810157435e-02 7.076558641813e-02 0.0 
3.877628719637e-02 6.321800604725e-02 0.0 
3.592672900400e-02 5.532862663834e-02 0.0 
3.837698870445e-02 5.598354352307e-02 0.0 
4.090724700094e-02 6.314949120100e-02 0.0 
4.041965290346e-02 5.566867717464e-02 0.0 
4.258023045990e-02 6.204842163626e-02 0.0 
4.196383417131e-02 5.433909429534e-02 0.0 
4.373683429739e-02 5.987759819132e-02 0.0 
4.296474666072e-02 5.201825853491e-02 0.0 
4.071054524342e-02 4.722044679159e-02 0.0 
4.153970529739e-02 4.486082590737e-02 0.0 
4.335576909634e-02 4.875468226733e-02 0.0 
4.174088744832e-02 4.162627760714e-02 0.0 
4.310316170533e-02 4.463105994229e-02 0.0 
4.128655876535e-02 3.763802236585e-02 0.0 
3.949759791938e-02 3.538521962342e-02 0.0 
3.883134170874e-02 3.163653431051e-02 0.0 
4.014069304728e-02 3.297631583508e-02 0.0 
3.738426024787e-02 2.718190611751e-02 0.0 
3.823401637149e-02 2.755779939632e-02 0.0 
3.515621469072e-02 2.210237661443e-02 0.0 
3.559532727510e-02 2.160832026373e-02 0.0 
3.219743738838e-02 1.671216330497e-02 0.0 
3.151065052090e-02 1.787587664960e-02 0.0 
2.829048213298e-02 1.318347750669e-02 0.0 
2.862650736711e-02 1.135354746634e-02 0.0 
2.454923565318e-02 8.753497938978e-03 0.0 
2.408318934671e-02 1.100158507099e-02 0.0 
2.028747870871e-02 7.551390021501e-03 0.0 
1.977878731649e-02 1.003231133613e-02 0.0 
1.604019345263e-02 7.571714170810e-03 0.0 
1.629079334123e-02 4.825533232475e-03 0.0 
1.222344291349e-02 5.924824241079e-03 0.0 
1.203844637308e-02 8.578304538929e-03 0.0 
8.496159965986e-03 7.873738898915e-03 0.0 
8.501891542055e-03 5.217091159716e-03 0.0 
5.181404529061e-03 8.093612052781e-03 0.0 
5.355825254409e-03 1.016925502229e-02 0.0 
2.474483817288e-03 1.103989698686e-02 0.0 
2.206843519255e-03 9.225307299364e-03 0.0 
-4.685834236184e-05 1.272593067988e-02 0.0 
2.611669647106e-04 1.403585818994e-02 0.0 
-1.928221245187e-03 1.627730968996e-02 0.0 
-2.186982921234e-03 1.523987818903e-02 0.0 
-3.706703038288e-03 1.921128377785e-02 0.0 
-3.413585194290e-03 1.971875740424e-02 0.0 
-4.852648689527e-03 2.294517224711e-02 0.0 
-4.466027474411e-03 2.284367439618e-02 0.0 
-5.059462716490e-03 2.282024052312e-02 0.0 
-5.864213054695e-03 2.668579775295e-02 0.0 
-5.923665668545e-03 2.697195320017e-02 0.0 
-6.429127111698e-03 3.083214528148e-02 0.0 
3.668732189793e-02 3.005712836576e-02 0.0 
-6.259907483047e-03 3.148771672381e-02 0.0 
-5.654895435100e-03 2.708311381020e-02 0.0 
-6.537295243788e-03 3.525190722161e-02 0.0 
-6.595744693475e-03 3.409038878080e-02 0.0 
-6.100110143592e-03 3.625502026706e-02 0.0 
-6.221280056910e-03 3.981752101960e-02 0.0 
-5.499032318600e-03 4.111032460581e-02 0.0 
3.830488481167e-02 2.781295172009e-02 0.0 
3.507596116323e-02 4.867705138639e-02 0.0 
-5.534499834274e-03 4.437585088594e-02 0.0 
-4.541106621507e-03 4.588900309296e-02 0.0 
-4.219646251365e-03 4.223415875015e-02 0.0 
-2.959724393159e-03 4.718157623008e-02 0.0 
2.512892641370e-02 8.005660362405e-02 0.0 
2.339749385820e-02 6.888712631557e-02 0.0 
2.250812180021e-02 7.526329159231e-02 0.0 
2.057904163709e-02 6.377791006754e-02 0.0 
1.986153175360e-02 6.997800694021e-02 0.0 
-3.339953507673e-03 5.043364534089e-02 0.0 
2.746297662044e-02 5.425499896128e-02 0.0 
2.102714678949e-02 5.745004163479e-02 0.0 
4.254997986749e-02 7.025159553901e-02 0.0 
4.423927136943e-02 5.257998622984e-02 0.0 
2.321705052982e-02 1.305523618809e-02 0.0 
-6.036094763517e-03 4.265748396390e-02 0.0 
-5.271090867376e-03 4.688907183618e-02 0.0 
-5.569009697480e-03 4.475834543351e-02 0.0 
-2.964472290200e-03 1.993215087286e-02 0.0 
-3.903415182819e-03 2.240956236162e-02 0.0 
-2.369725966332e-03 1.975351531027e-02 0.0 
-3.231027484023e-03 2.156431140389e-02 0.0 
-1.729604922616e-03 1.909616882367e-02 0.0 
-2.575974245694e-03 2.024622352902e-02 0.0 
-3.754737489981e-03 2.293082485906e-02 0.0 
-3.105886645679e-03 2.097948182087e-02 0.0 
-3.991056320379e-03 2.382197992052e-02 0.0 
-1.219274752545e-03 1.788769147555e-02 0.0 
-3.656160574117e-05 1.702747636051e-02 0.0 
-3.352592586892e-03 2.127943848636e-02 0.0 
-3.981816183394e-03 2.422630220474e-02 0.0 
-3.361579610746e-03 2.113671667744e-02 0.0 
-3.766886291976e-03 2.415509362762e-02 0.0 
-4.379331803818e-03 2.735630190206e-02 0.0 
-3.948289434179e-03 2.730212017347e-02 0.0 
-4.534138427998e-03 3.061557256995e-02 0.0 
1.898080194516e-02 1.220649603672e-02 0.0 
2.196523624585e-02 1.470039460497e-02 0.0 
1.792116633288e-02 1.383434595707e-02 0.0 
2.025750048504e-02 1.556046235526e-02 0.0 
1.654047666008e-02 1.445058025983e-02 0.0 
1.823706999732e-02 1.544416088207e-02 0.0 
1.474490679142e-02 1.419898683983e-02 0.0 
1.310289522431e-02 1.375162328060e-02 0.0 
3.028723439378e-02 5.128713258245e-02 0.0 
2.462474381500e-02 6.344779850485e-03 0.0 
2.848430298612e-02 9.404737195837e-03 0.0 
2.422295286814e-02 3.726750910183e-03 0.0 
2.769819282553e-02 7.356454332101e-03 0.0 
2.327634630817e-02 1.000055396210e-03 0.0 
2.630430338797e-02 5.271488554427e-03 0.0 
2.187072883207e-02 -1.833483997777e-03 0.0 
1.874917606359e-02 -4.473222463910e-03 0.0 
1.733927775925e-02 -7.999265813480e-03 0.0 
1.429544471367e-02 -8.642923008299e-03 0.0 
1.305818681611e-02 -1.263680382604e-02 0.0 
1.018014220250e-02 -1.108594359775e-02 0.0 
3.884588054378e-02 4.078372735547e-02 0.0 
2.194349457763e-02 1.712504131024e-02 0.0 
1.930553074139e-02 1.621647280623e-02 0.0 
2.292808459206e-02 1.836650499849e-02 0.0 
-2.294707897363e-03 4.319803875657e-02 0.0 
-3.379239086146e-03 2.362918031834e-02 0.0 
2.178291170694e-04 1.584380333522e-02 0.0 
1.705360016141e-03 1.534744020074e-02 0.0 
1.152453421860e-02 1.326587729562e-02 0.0 
-1.524651627149e-03 5.178947227254e-02 0.0 
2.431879461019e-02 3.227854507992e-03 0.0 
2.853210114522e-02 1.163436131810e-02 0.0 
1.778505974909e-02 5.818552539978e-02 0.0 
1.724876786881e-02 6.429326356660e-02 0.0 
1.637338839670e-03 1.408722200471e-02 0.0 
-2.032556705698e-03 5.460682540876e-02 0.0 
-2.571366829493e-03 1.852864453713e-02 0.0 
1.539369859183e-02 -1.168564659109e-02 0.0 
-3.384516168103e-03 2.677309460487e-02 0.0 
-2.856124060893e-03 2.268141733956e-02 0.0 
-4.674837148910e-03 2.591555333887e-02 0.0 
1.972028080972e-02 1.664516646752e-02 0.0 
2.328310687065e-02 1.919744838677e-02 0.0 
1.101139418697e-02 -7.142382665111e-03 0.0 
7.166762826181e-03 -7.684059339354e-03 0.0 
6.584069917487e-03 -1.148030965044e-02 0.0 
3.892990903772e-03 -6.072422441277e-03 0.0 
4.282865672298e-03 -3.020104186024e-03 0.0 
1.592760232487e-03 -4.369425267345e-04 0.0 
1.630483835365e-03 -2.884223035993e-03 0.0 
-1.731300884735e-04 3.724034959680e-03 0.0 
-4.722201610505e-04 5.621666992033e-03 0.0 
-1.740487923842e-03 1.022512215018e-02 0.0 
-7.984071722387e-04 9.076149533572e-03 0.0 
-1.956943990814e-03 1.567829503756e-02 0.0 
-2.812532783021e-03 1.957038674975e-02 0.0 
1.148126324294e-02 -1.676090160239e-02 0.0 
3.786906597846e-02 7.847618319175e-02 0.0 
2.690729127206e-04 1.400441504295e-02 0.0 
1.260436175800e-02 1.314361897931e-02 0.0 
1.505318256224e-02 5.222046033788e-02 0.0 
1.469675343003e-02 5.826240464704e-02 0.0 
1.649028730462e-02 7.038990313079e-02 0.0 
1.411007836609e-02 6.426994180724e-02 0.0 
1.223819115842e-02 5.192759909672e-02 0.0 
1.182453900564e-02 5.790064537980e-02 0.0 
1.333260846906e-02 7.022466014880e-02 0.0 
1.120782081417e-02 6.381852359280e-02 0.0 
1.239663740336e-02 7.609014144601e-02 0.0 
1.042042084403e-02 6.965738863097e-02 0.0 
9.195028572492e-03 5.719940018637e-02 0.0 
8.548299092503e-03 6.304696619562e-02 0.0 
9.492741640578e-03 7.541542352243e-02 0.0 
7.746504599730e-03 6.881895383225e-02 0.0 
8.449449043368e-03 8.107360709220e-02 0.0 
6.813312586225e-03 7.450461227044e-02 0.0 
6.118165315947e-03 6.207481991132e-02 0.0 
-1.664852228886e-04 5.579839201573e-02 0.0 
9.986854402632e-03 1.334703496005e-02 0.0 
8.625409818682e-03 1.254749280635e-02 0.0 
-4.755905412108e-03 4.855530695790e-02 0.0 
-4.898517311483e-03 4.604405981232e-02 0.0 
-5.571406566017e-03 4.238148125701e-02 0.0 
-4.764140074456e-03 4.335745043193e-02 0.0 
5.267357576599e-03 6.785604585061e-02 0.0 
4.628253951900e-03 5.521166367319e-02 0.0 
2.583237556283e-02 1.063726818042e-02 0.0 
2.970563224420e-02 1.998253890207e-02 0.0 
1.513836494308e-02 4.616513792509e-02 0.0 
-2.725852729433e-03 2.580609699941e-02 0.0 
-3.182051361958e-03 2.993361255162e-02 0.0 
4.354380981540e-02 4.758442055086e-02 0.0 
4.413703388495e-02 5.633749540332e-02 0.0 
4.303318100645e-02 5.056185049389e-02 0.0 
4.296389401383e-02 6.015390026665e-02 0.0 
4.396278641329e-02 6.592828343240e-02 0.0 
4.141388151978e-02 5.357436368361e-02 0.0 
1.504211965337e-03 1.589676214360e-02 0.0 
7.321905698007e-03 5.040986740036e-02 0.0 
-3.630914233534e-03 3.787404570968e-02 0.0 
-1.376074079972e-03 3.859115600186e-02 0.0 
-2.265653722051e-03 2.135566217719e-02 0.0 
1.096494911057e-02 1.331570792283e-02 0.0 
3.761506693985e-02 4.223774737366e-02 0.0 
3.539818138631e-02 3.642217591265e-02 0.0 
3.385113039318e-02 3.696712049810e-02 0.0 
3.140027039808e-02 3.169451439827e-02 0.0 
2.951842596920e-02 3.134958077302e-02 0.0 
2.684759320579e-02 2.657789214561e-02 0.0 
2.858227767945e-02 2.701143236159e-02 0.0 
1.945058130877e-02 1.660945671983e-02 0.0 
2.387211389887e-02 2.230553808554e-02 0.0 
5.863066747089e-03 8.020274751291e-02 0.0 
2.579654054084e-02 1.933142709433e-02 0.0 
-2.219807837882e-03 1.156545580948e-02 0.0 
8.209088249567e-04 5.263828223441e-02 0.0 
5.197431107185e-05 1.524433870206e-02 0.0 
-7.988575394529e-04 5.823524672526e-02 0.0 
-2.203102822156e-03 5.662854853371e-02 0.0 
1.361974741307e-03 1.212308716746e-02 0.0 
2.455909103710e-02 2.534944410002e-02 0.0 
2.713597710120e-02 3.018176855618e-02 0.0 
4.208400487305e-02 7.071453594893e-02 0.0 
4.301426956055e-02 7.623370242484e-02 0.0 
1.607958519352e-02 1.417376765485e-02 0.0 
2.138418477633e-02 8.165312852551e-02 0.0 
1.445024415527e-02 8.231546035558e-02 0.0 
1.323801542525e-02 8.809336743104e-02 0.0 
1.248419150518e-03 5.911237570868e-02 0.0 
1.048432287028e-03 8.285047501894e-03 0.0 
9.913532821805e-03 4.535106939302e-02 0.0 
3.236338449064e-02 2.015335633664e-02 0.0 
3.320270882604e-02 2.907294871567e-02 0.0 
1.310846013169e-02 -1.548417294494e-02 0.0 
9.609547705278e-03 -2.120649179135e-02 0.0 
3.912861715456e-03 6.089273538747e-02 0.0 
3.331442646356e-03 4.821162336296e-02 0.0 
-5.322690653024e-03 3.978726727323e-02 0.0 
-4.469291444217e-03 4.036273159931e-02 0.0 
2.938707621293e-03 1.253824562341e-02 0.0 
-1.109700120693e-03 2.163296364784e-02 0.0 
3.802902283518e-03 4.232500641394e-02 0.0 
8.028956849186e-03 1.349034516269e-02 0.0 
8.432694439371e-03 1.305652977710e-02 0.0 
-3.974267783203e-03 4.680753011261e-02 0.0 
2.612947693546e-02 2.010332516550e-02 0.0 
2.235798225384e-02 9.919044556686e-03 0.0 
-5.569751516852e-04 7.646882228026e-03 0.0 
-2.990667678011e-03 2.172608295346e-02 0.0 
-1.101878311180e-03 5.980532022095e-02 0.0 
2.264510963041e-03 1.035699455566e-02 0.0 
9.918682304900e-03 3.937545899414e-02 0.0 
2.550540770099e-02 2.295398377515e-02 0.0 
2.976941802678e-02 2.676196508283e-02 0.0 
2.069873388339e-02 1.856432501179e-02 0.0 
1.697675637260e-03 2.170841209779e-02 0.0 
1.820946980526e-04 1.148957864616e-02 0.0 
-2.015584769240e-03 2.446150235197e-02 0.0 
2.201078895914e-02 2.370359449660e-02 0.0 
2.429280633267e-02 2.823999321298e-02 0.0 
3.577715890357e-02 2.848686868589e-02 0.0 
3.640887803116e-02 3.791409035580e-02 0.0 
3.292556921119e-02 3.947673913668e-02 0.0 
3.588757634457e-02 4.842271734979e-02 0.0 
3.420388609587e-02 8.420739752270e-02 0.0 
3.875666345913e-02 3.651119028907e-02 0.0 
4.005696127565e-02 7.914664363173e-02 0.0 
3.879965807721e-02 8.732149648552e-02 0.0 
4.058715455928e-02 8.747323872574e-02 0.0 
4.433628260195e-02 7.073796036439e-02 0.0 
4.328367768837e-02 8.081038604649e-02 0.0 
3.176367753488e-02 1.417124758671e-02 0.0 
2.617268595334e-02 1.632705909708e-02 0.0 
-5.997657588509e-03 3.856412979314e-02 0.0 
-5.015059869620e-03 3.016864601613e-02 0.0 
-1.107660075064e-03 1.755673104458e-02 0.0 
7.645223258685e-03 4.449396629110e-02 0.0 
5.809107785247e-03 3.752963318899e-02 0.0 
1.016876549215e-02 8.748966495032e-02 0.0 
8.926010036895e-03 9.301433945224e-02 0.0 
3.937948900035e-04 4.397732371403e-02 0.0 
1.666776926209e-03 3.913075392079e-02 0.0 
-5.094348660238e-03 2.550234103083e-02 0.0 
-7.242841470063e-04 1.366246126981e-02 0.0 
1.232029459657e-02 3.993896073714e-02 0.0 
1.190413947670e-02 3.395110778639e-02 0.0 
1.490851101570e-02 4.010610945810e-02 0.0 
4.001633439573e-03 1.111682516135e-02 0.0 
2.032444500440e-02 1.951983670629e-03 0.0 
1.500237934899e-02 1.211091149540e-02 0.0 
8.112087415022e-03 -1.973233027800e-02 0.0 
3.687220947882e-02 3.291684592564e-02 0.0 
3.877949463222e-03 4.454808874035e-02 0.0 
3.244252538082e-02 4.733784826030e-02 0.0 
-1.640204892829e-03 1.969517956113e-02 0.0 
-1.804548867048e-03 1.655571707433e-02 0.0 
1.523393713349e-02 1.337507638748e-02 0.0 
3.303143323780e-02 1.011224351291e-01 0.0 
3.376347132618e-02 2.817551997612e-02 0.0 
3.337947086499e-02 2.564557155704e-02 0.0 
3.881486447728e-02 9.601934318846e-02 0.0 
4.015643498532e-02 9.569921081380e-02 0.0 
4.196609730723e-02 8.655893553071e-02 0.0 
4.105049105422e-02 9.430463051390e-02 0.0 
-2.408103701894e-03 1.292863441388e-02 0.0 
-3.631220548726e-03 1.706538064548e-02 0.0 
1.872971951581e-02 1.877794438004e-02 0.0 
1.871912997554e-02 1.724227355842e-02 0.0 
1.890009897394e-02 2.116508695196e-02 0.0 
2.101943167720e-02 2.544386604426e-02 0.0 
1.200239627856e-02 1.097486678135e-02 0.0 
1.282889335132e-02 1.205589761238e-02 0.0 
-2.034002768576e-03 5.786630742427e-02 0.0 
4.134289244862e-02 8.696035290780e-02 0.0 
7.590789007615e-03 3.258262269070e-02 0.0 
3.711766875614e-02 9.537693173321e-02 0.0 
-6.226913128788e-04 1.070108126625e-02 0.0 
-1.365208752576e-03 1.301664516276e-02 0.0 
6.779660046043e-03 -2.453646278835e-02 0.0 
5.222268432252e-03 -1.956822494969e-02 0.0 
2.609894324742e-03 3.545661132045e-02 0.0 
3.153681423476e-02 5.087268760951e-02 0.0 
3.431350842826e-02 5.965958895917e-02 0.0 
2.842510258042e-02 4.124189876942e-02 0.0 
-2.832312895550e-04 8.931246933923e-03 0.0 
2.399704692692e-03 1.151726129070e-01 0.0 
-1.248073727287e-03 1.460762683116e-02 0.0 
4.407428249445e-02 7.466702501033e-02 0.0 
2.792647870173e-03 2.896377457843e-02 0.0 
3.036507047039e-02 2.429078432643e-02 0.0 
4.222567226939e-02 4.188843845507e-02 0.0 
4.928856335800e-03 1.281701057953e-02 0.0 
2.135919144443e-03 4.246166647162e-02 0.0 
1.574655633313e-03 2.793433345896e-02 0.0 
1.515312123531e-02 9.393837374593e-02 0.0 
1.375571058541e-02 9.979007820681e-02 0.0 
1.655643070387e-02 8.829229192711e-02 0.0 
1.718728616605e-02 -7.659888191044e-03 0.0 
1.366309280816e-02 -1.011151858727e-02 0.0 
5.614783634371e-03 4.346739781091e-02 0.0 
-4.282897320517e-03 5.090550009582e-02 0.0 
-3.722506268523e-03 5.213245656760e-02 0.0 
-2.040196519658e-03 2.749298687608e-02 0.0 
-3.883962595204e-03 2.735863633419e-02 0.0 
-5.619299784263e-03 3.616801428366e-02 0.0 
-6.119371214045e-03 3.475687444747e-02 0.0 
3.113952226732e-02 4.118223187015e-02 0.0 
2.828903262273e-02 3.921056040219e-02 0.0 
3.587659955951e-02 4.284425392116e-02 0.0 
5.762626282218e-03 1.386066647015e-02 0.0 
5.664617109042e-03 1.314964482433e-02 0.0 
8.476742357615e-03 1.181192679996e-02 0.0 
5.841878405313e-03 3.197422609916e-02 0.0 
3.920523720986e-03 2.376895014824e-02 0.0 
-5.142706649917e-04 9.517699163474e-03 0.0 
1.840452203339e-03 4.687012268049e-03 0.0 
-3.875810192911e-03 1.780537342320e-02 0.0 
7.192311249788e-03 2.684866183641e-02 0.0 
-1.318118771044e-03 1.154908937013e-02 0.0 
-1.810454630617e-03 1.358353766591e-02 0.0 
5.473445350308e-03 3.964118419995e-02 0.0 
2.963705107387e-03 3.377521328534e-02 0.0 
2.147772602365e-02 2.057093359585e-02 0.0 
1.758507761869e-02 9.643184750435e-03 0.0 
1.129866029434e-02 2.846891685592e-02 0.0 
1.435809890641e-02 3.418895787891e-02 0.0 
8.086736807897e-03 2.160331868304e-02 0.0 
-9.940231306498e-04 6.070387256617e-02 0.0 
2.652822234362e-02 2.294015564487e-02 0.0 
3.064227931471e-03 8.764066391077e-03 0.0 
4.929983722612e-03 9.839193990409e-03 0.0 
1.510215048722e-03 7.194114721838e-03 0.0 
1.867240060218e-02 1.618882684818e-02 0.0 
1.387094906973e-02 1.221200133144e-02 0.0 
1.526126826648e-02 1.364886120776e-02 0.0 
7.176007655719e-03 -2.547364202734e-02 0.0 
1.189400854557e-03 3.341764561427e-02 0.0 
1.058932890414e-02 9.925395057003e-02 0.0 
6.010665260053e-03 -2.818439182294e-02 0.0 
9.169628191458e-03 1.050302528700e-01 0.0 
7.664975274714e-03 9.850290213117e-02 0.0 
7.937237643581e-03 1.106065659872e-01 0.0 
-2.635651289946e-04 6.234179886377e-02 0.0 
1.726148241460e-02 1.016080337224e-01 0.0 
1.884363412073e-02 9.441232639655e-02 0.0 
7.960637391504e-03 3.421806622187e-02 0.0 
4.909710180151e-03 2.001355758813e-02 0.0 
7.597907321407e-03 4.454569003717e-02 0.0 
5.730362296016e-03 4.893904126576e-02 0.0 
-1.041839718631e-03 9.476207853968e-03 0.0 
-1.682167191673e-03 1.203022025371e-02 0.0 
-1.198188915303e-03 8.046220229769e-03 0.0 
-1.765199932411e-03 1.094170669085e-02 0.0 
-2.290161087289e-03 1.478809013717e-02 0.0 
-2.228753325408e-03 1.364456685314e-02 0.0 
1.240316448852e-02 1.062733085104e-01 0.0 
-1.506128195610e-03 8.685949967795e-03 0.0 
-1.976170425429e-03 1.205804137621e-02 0.0 
-1.212660854653e-03 6.958282435448e-03 0.0 
3.863141617560e-02 1.041227727764e-01 0.0 
3.824554455875e-02 5.652374184701e-02 0.0 
3.660471021168e-02 6.803127415799e-02 0.0 
3.165383390531e-02 7.231217684623e-02 0.0 
1.407297194017e-02 1.618860922165e-02 0.0 
1.773626968224e-02 2.236040641883e-02 0.0 
-1.291585145157e-03 2.268185943220e-02 0.0 
-1.522266518344e-03 2.742756988573e-02 0.0 
6.343758008924e-03 1.047343288477e-01 0.0 
4.640006222154e-03 1.052990023597e-01 0.0 
5.055237377192e-03 9.470184466861e-02 0.0 
3.655106205883e-03 9.605680239657e-02 0.0 
3.925098830678e-03 8.540802079687e-02 0.0 
2.531798852552e-03 8.682487394732e-02 0.0 
2.986365254813e-03 7.591725539154e-02 0.0 
1.275803758149e-02 1.167648540373e-02 0.0 
2.583180634066e-02 5.262516789856e-02 0.0 
3.660247874746e-02 1.044632718843e-01 0.0 
8.943004522578e-03 8.813892765733e-03 0.0 
1.013100835437e-02 1.047368470523e-02 0.0 
4.153513007988e-02 9.116689272147e-02 0.0 
3.888273771556e-02 9.818431323019e-02 0.0 
-1.463378294986e-06 7.902115078348e-03 0.0 
3.746253389830e-02 2.808919967038e-02 0.0 
3.642631665905e-03 1.267538734098e-02 0.0 
1.378669619275e-03 -1.419530484686e-02 0.0 
8.068035938919e-03 -1.548831211136e-02 0.0 
4.015130228795e-02 3.530778616942e-02 0.0 
4.289349634318e-02 8.439416447929e-02 0.0 
4.039686840209e-02 6.405597668333e-02 0.0 
3.899487415877e-02 7.567081900054e-02 0.0 
5.511454985220e-03 1.376426928304e-02 0.0 
4.484866311460e-03 2.794953449221e-02 0.0 
2.506848277226e-02 3.107893946191e-02 0.0 
4.338395852898e-03 7.463808769481e-02 0.0 
1.918765794031e-02 3.170971740111e-02 0.0 
-7.058530721583e-04 2.513589560709e-02 0.0 
3.531943526576e-02 2.106422228442e-02 0.0 
4.455010735757e-02 6.534288268290e-02 0.0 
2.967550980778e-02 2.992556431592e-02 0.0 
3.928114226717e-02 4.630126691104e-02 0.0 
3.537931494829e-02 7.686403872145e-02 0.0 
3.269363754148e-02 9.136603061098e-02 0.0 
3.495266088695e-02 9.396755517485e-02 0.0 
3.231329379071e-02 1.548155102010e-02 0.0 
4.051233037033e-02 8.184451591892e-02 0.0 
3.654860142743e-02 8.818193376462e-02 0.0 
4.079388311022e-02 7.102574775829e-02 0.0 
1.801017314182e-02 4.587850056302e-02 0.0 
1.759900997133e-02 3.977004288830e-02 0.0 
1.353882663972e-02 2.867698275007e-02 0.0 
1.682337064273e-02 3.388495626139e-02 0.0 
2.090421326076e-02 4.498023964867e-02 0.0 
2.026317024290e-02 3.891838744210e-02 0.0 
1.566931028599e-02 2.829569342017e-02 0.0 
1.922116051817e-02 3.306479056011e-02 0.0 
1.291765942241e-02 2.073290915172e-02 0.0 
1.760022299576e-02 2.722860813788e-02 0.0 
2.278790729927e-02 3.756855178868e-02 0.0 
2.148139651357e-02 3.202895444812e-02 0.0 
1.638074914016e-02 2.312179340206e-02 0.0 
2.639370554715e-02 4.200265463972e-02 0.0 
7.557131752552e-03 7.161548379962e-03 0.0 
4.061763646715e-02 3.418204945912e-02 0.0 
1.017505600591e-02 -1.927853742103e-02 0.0 
1.145919112564e-02 -4.316230086490e-03 0.0 
4.382181232483e-02 6.838403662112e-02 0.0 
6.360081080700e-03 1.017623544946e-02 0.0 
5.409396546746e-03 1.059287284672e-02 0.0 
3.046939457277e-02 1.283765186051e-02 0.0 
7.086794702754e-03 7.550510209864e-03 0.0 
3.661239490165e-02 8.627187309000e-02 0.0 
1.984253390269e-02 -4.741996813367e-03 0.0 
7.012006174588e-03 6.693402644711e-03 0.0 
2.114948208318e-02 5.115333537180e-02 0.0 
2.430266165282e-02 5.618759123559e-02 0.0 
2.400973461432e-02 6.254657275407e-02 0.0 
4.280858301001e-03 1.025664445226e-02 0.0 
1.784637713712e-02 8.239244373039e-02 0.0 
5.343693374925e-03 4.770193237757e-03 0.0 
2.424700457136e-02 1.718683746970e-02 0.0 
2.837156496374e-02 1.944474019076e-02 0.0 
3.026583392029e-02 1.886425891377e-02 0.0 
2.373872323370e-02 4.374437826019e-02 0.0 
3.403237756928e-03 4.008256270584e-03 0.0 
5.729851110267e-03 7.114968985832e-03 0.0 
4.562340049240e-03 6.914431007868e-03 0.0 
7.421346713343e-03 9.728290533481e-03 0.0 
2.132819183407e-03 3.809038704770e-03 0.0 
6.355250814380e-03 8.468493142352e-03 0.0 
6.260775624867e-03 7.684440267134e-03 0.0 
1.707526695951e-03 2.156085602046e-03 0.0 
4.607435480219e-03 4.736570376007e-05 0.0 
4.844008117020e-03 2.903484375043e-03 0.0 
8.105990811876e-03 -7.324332701408e-04 0.0 
7.734740790498e-03 -4.080796063636e-03 0.0 
1.163852100652e-02 -3.495478254100e-03 0.0 
1.204743879468e-02 -1.146983822817e-04 0.0 
1.525940863596e-02 -4.912543419705e-03 0.0 
2.327575910084e-02 3.076558818016e-02 0.0 
9.793544443468e-04 3.660289832464e-03 0.0 
-5.363627107933e-04 1.757523744391e-02 0.0 
1.040010125250e-03 1.576309860222e-02 0.0 
5.972142566666e-04 1.509469164768e-02 0.0 
-6.437848620533e-03 3.666713113541e-02 0.0 
-6.362185611922e-03 3.271211271999e-02 0.0 
-5.904101624635e-03 3.106966776109e-02 0.0 
-6.160567179237e-03 4.072320057601e-02 0.0 
3.275609724902e-02 3.126722918314e-02 0.0 
4.805672941437e-04 3.735031874360e-03 0.0 
1.151712409202e-02 1.243927215035e-02 0.0 
-6.293250063351e-03 3.001272346406e-02 0.0 
2.283237583118e-02 1.103205165843e-01 0.0 
2.374653866956e-02 1.001087145787e-01 0.0 
2.590006508797e-02 9.833289702954e-02 0.0 
2.405848694557e-02 8.823866072366e-02 0.0 
2.122614601330e-02 1.002455921088e-01 0.0 
-4.918480581156e-03 3.694351675620e-02 0.0 
-4.076817352346e-03 3.712072209239e-02 0.0 
-3.496627326445e-03 4.033179728457e-02 0.0 
-3.146248555587e-03 3.674693191820e-02 0.0 
-2.460563190100e-03 3.973932002064e-02 0.0 
-2.726042161025e-03 4.327569894526e-02 0.0 
-2.153268909277e-03 3.588944201334e-02 0.0 
-1.429094985091e-03 3.908586162964e-02 0.0 
1.847818080086e-02 1.125022574278e-01 0.0 
8.722285125618e-03 -1.387000166622e-02 0.0 
5.152393244918e-03 -7.941203806316e-03 0.0 
6.243954661240e-03 2.697239238855e-03 0.0 
3.030848362618e-03 -2.455740676326e-03 0.0 
3.399258317407e-03 -1.125240312978e-02 0.0 
1.864555727648e-03 -5.293504445723e-03 0.0 
3.665393548665e-03 -1.242374271538e-02 0.0 
4.641274362195e-03 -1.822474979367e-02 0.0 
1.189190030935e-02 7.981126453570e-03 0.0 
7.192311887028e-03 1.164438581341e-02 0.0 
1.273634370768e-02 1.633174920946e-02 0.0 
8.030080961197e-03 1.961286590827e-02 0.0 
3.297333724431e-03 1.516972364831e-02 0.0 
-4.105709956495e-04 3.338700215128e-02 0.0 
-7.279742644890e-04 5.766511195215e-03 0.0 
-1.130777442973e-03 4.961938573540e-02 0.0 
-2.181009712397e-03 5.066774943228e-02 0.0 
-2.084358039790e-03 5.370686337534e-02 0.0 
-3.231965203497e-03 5.083400712654e-02 0.0 
-2.097375735063e-03 4.764664411754e-02 0.0 
-1.002714968034e-03 5.604241670473e-02 0.0 
-1.849300790852e-03 5.629009995068e-02 0.0 
5.289720282035e-03 6.311580969516e-02 0.0 
3.039136570143e-03 6.434217227132e-02 0.0 
1.504494508119e-03 6.567382198608e-02 0.0 
1.429557381290e-03 6.487139236133e-02 0.0 
2.367543419656e-03 6.322383539037e-02 0.0 
4.446440566851e-03 6.226631816550e-02 0.0 
5.752094280507e-03 5.942044440450e-02 0.0 
8.950237887362e-03 5.753870742222e-02 0.0 
6.832755409661e-03 5.592098705949e-02 0.0 
3.799158962231e-03 5.765026789386e-02 0.0 
1.047724607004e-02 5.382664539790e-02 0.0 
9.579153002193e-04 5.964797968943e-02 0.0 
1.818102998392e-03 5.332126976552e-02 0.0 
-2.631492009062e-04 4.182685324473e-03 0.0 
1.435149527421e-02 1.128540093193e-01 0.0 
1.339609137188e-02 3.112597850944e-02 0.0 
1.454235275723e-03 1.398931051503e-02 0.0 
2.171328168437e-03 1.150170171332e-02 0.0 
1.765173241893e-03 1.118641390418e-02 0.0 
-4.444537021223e-04 1.470015187255e-02 0.0 
-7.168881140789e-04 1.194336858462e-02 0.0 
7.976694249763e-04 1.364271007533e-02 0.0 
-5.159355450183e-03 3.715032537910e-02 0.0 
1.235557608017e-02 2.343305185687e-02 0.0 
4.094699523421e-03 3.636841844798e-02 0.0 
2.163020563558e-02 1.334230718585e-03 0.0 
-4.118698344715e-03 2.191309035479e-02 0.0 
-2.356399220112e-03 2.889761654387e-02 0.0 
-4.634944733616e-03 2.689169588107e-02 0.0 
-2.345449990171e-03 1.826357193048e-02 0.0 
-3.908511158958e-03 3.051755753529e-02 0.0 
-3.168808569783e-03 2.055590230355e-02 0.0 
3.459723492927e-03 7.030842829600e-03 0.0 
1.717149165645e-04 6.112547677055e-02 0.0 
1.133207080917e-02 8.184598467344e-02 0.0 
7.379114551640e-03 8.667256485100e-02 0.0 
6.804958697458e-03 5.627707439962e-02 0.0 
-4.559008914546e-03 4.878471775696e-02 0.0 
-3.806553397041e-03 4.346806469530e-02 0.0 
-7.328586067947e-04 4.820273021391e-02 0.0 
1.286725187036e-02 1.292865396790e-02 0.0 
4.184390534204e-02 7.888056796300e-02 0.0 
-1.580409152584e-03 1.708759552151e-02 0.0 
-6.497378283839e-03 3.834599676561e-02 0.0 
-5.674949820218e-03 3.203042053479e-02 0.0 
-3.037175625460e-03 1.632447158774e-02 0.0 
4.221301726954e-02 3.977516698096e-02 0.0 
-5.581855464573e-03 2.623032298143e-02 0.0 
-2.053873967887e-03 1.839946624967e-02 0.0 
5.213919454619e-03 4.936934480917e-02 0.0 
1.208404189520e-02 4.411538784476e-02 0.0 
-9.012450572072e-04 1.608186859276e-02 0.0 
-4.450301908918e-03 2.441716398811e-02 0.0 
1.554948623548e-02 7.642038178497e-02 0.0 
1.582962530793e-02 1.450257250319e-02 0.0 
3.841473376553e-04 2.290730003786e-03 0.0 
9.664155662655e-03 5.131386074452e-02 0.0 
9.221100185464e-03 2.822863187009e-02 0.0 
2.013232478988e-02 8.802384706728e-02 0.0 
2.326251155377e-03 4.899876210740e-02 0.0 
1.197505830934e-02 9.390530410720e-02 0.0 
9.510116547187e-04 9.429200628539e-03 0.0 
1.805122908081e-02 5.201466278358e-02 0.0 
-3.405174448986e-03 5.291474878436e-02 0.0 
1.559826172895e-02 1.008215183068e-02 0.0 
4.430088330307e-02 5.668000399714e-02 0.0 
3.253899019276e-02 1.106470853522e-01 0.0 
4.211457979224e-03 3.086122475661e-02 0.0 
3.580460398615e-02 2.660024760173e-02 0.0 
9.634364932818e-03 1.195541476420e-02 0.0 
1.426677959082e-02 1.338913693158e-02 0.0 
-3.179979563741e-03 5.454150975965e-02 0.0 
-2.119898762855e-03 1.555534971653e-02 0.0 
2.745412292283e-02 1.487889577445e-02 0.0 
7.761790659757e-03 3.862626789222e-02 0.0 
3.181931589087e-02 3.665967903439e-02 0.0 
2.048276537969e-02 4.894013495212e-03 0.0 
1.241633553214e-02 4.593829252716e-02 0.0 
2.772114235952e-03 1.255380877630e-02 0.0 
1.627916035976e-02 1.452316783687e-02 0.0 
4.321749922131e-02 7.736834967813e-02 0.0 
3.930918531831e-02 4.867437570762e-02 0.0 
3.323777156459e-02 5.380840666543e-02 0.0 
3.949027903890e-02 3.846991205536e-02 0.0 
-1.723218200630e-03 3.194511981491e-02 0.0 
-1.671487315489e-03 1.599549542348e-02 0.0 
9.381176770258e-03 -1.529828329816e-02 0.0 
4.127922446439e-02 4.403622988615e-02 0.0 
1.892641829743e-02 7.619147444176e-02 0.0 
2.184928028802e-02 2.117997846679e-02 0.0 
5.467627751223e-03 2.563584904283e-02 0.0 
4.465529320168e-02 6.130206534770e-02 0.0 
-2.806935618206e-03 1.827102315942e-02 0.0 
9.715030535773e-03 3.378960865050e-02 0.0 
-5.915725987066e-03 2.895783147592e-02 0.0 
-1.933656112737e-04 6.322356766406e-02 0.0 
1.843026107757e-02 -2.319002360367e-04 0.0 
1.974064894828e-02 -1.177318371163e-03 0.0 
3.405889675784e-02 2.247747421730e-02 0.0 
-5.348429835976e-03 2.760725533469e-02 0.0 
9.781867444488e-03 2.148714554177e-02 0.0 
-2.801425147079e-03 1.761539953192e-02 0.0 
3.386135598646e-03 1.397605066509e-02 0.0 
8.063301897515e-03 2.057929666136e-02 0.0 
3.503288363088e-02 1.030664715544e-01 0.0 
-2.597766153500e-03 1.657079083149e-02 0.0 
1.176992275558e-02 1.077937731107e-02 0.0 
1.305517883416e-02 1.278105429957e-02 0.0 
-1.652797709498e-03 4.255062185685e-02 0.0 
1.272672816589e-02 1.216159506603e-02 0.0 
3.918327992503e-02 1.015025471761e-01 0.0 
-2.245736016549e-03 1.516879770384e-02 0.0 
7.250822356436e-03 1.309332390906e-02 0.0 
3.422208516895e-02 2.052974116635e-02 0.0 
3.979591474810e-03 1.151306462634e-01 0.0 
-1.502823287251e-03 9.580920904895e-03 0.0 
6.129616169742e-03 1.178895025461e-02 0.0 
3.643042208498e-02 3.506616284736e-02 0.0 
8.488858300666e-03 1.010200939824e-02 0.0 
3.495898194413e-02 1.136693412093e-01 0.0 
-5.301349340304e-03 2.915563676486e-02 0.0 
3.741330117213e-02 4.918181680560e-02 0.0 
3.759734417621e-03 1.015898617088e-02 0.0 
7.088109571688e-03 1.093365057464e-02 0.0 
2.698950590322e-02 6.736907044869e-02 0.0 
-5.618406732359e-03 3.259751627372e-02 0.0 
2.672033185693e-02 2.105960219912e-02 0.0 
3.202418589202e-03 6.081509412908e-02 0.0 
3.778872281694e-02 1.047759914487e-01 0.0 
-5.106754604675e-03 3.352620567394e-02 0.0 
1.591207793161e-02 -1.430005459890e-03 0.0 
5.531372487937e-03 1.183181874112e-02 0.0 
1.075948932278e-02 9.643555023700e-03 0.0 
-4.428908769291e-03 3.386380390466e-02 0.0 
1.625459347909e-02 1.862082810614e-03 0.0 
-3.635957222077e-03 3.366332748726e-02 0.0 
3.594984389235e-02 1.127808588389e-01 0.0 
2.738703040200e-02 6.063473440231e-02 0.0 
-2.740011470692e-03 3.300038534501e-02 0.0 
3.370211617671e-02 4.244801641784e-02 0.0 
4.143031827510e-03 5.357985667247e-02 0.0 
3.356301802646e-02 3.009639625968e-02 0.0 
-1.006387187987e-03 1.741642661519e-02 0.0 
-5.067770491362e-03 2.257055206989e-02 0.0 
3.051065263350e-03 1.377509122985e-02 0.0 
2.421173684405e-02 4.987783333778e-02 0.0 
3.489591113279e-02 1.076151399969e-01 0.0 
3.404969807312e-03 1.456602983246e-02 0.0 
2.936730646946e-02 3.550375285800e-02 0.0 
3.039288834378e-02 2.587399158638e-02 0.0 
3.226473104586e-02 2.253953053678e-02 0.0 
3.557002550769e-03 1.466052368762e-02 0.0 
3.821633926714e-02 9.332903578445e-02 0.0 
-4.558693866095e-03 3.269469951544e-02 0.0 
-2.885792600482e-03 3.298037304665e-02 0.0 
1.226662863587e-02 3.051378258265e-03 0.0 
2.648052816532e-02 3.350294323742e-02 0.0 
8.730183423840e-04 6.332497532978e-02 0.0 
2.710008834018e-02 4.788584361707e-02 0.0 
6.493875238061e-04 2.774003030745e-02 0.0 
8.370490697878e-03 2.356397998277e-03 0.0 
2.286335127067e-02 1.944581428143e-02 0.0 
1.148020234865e-03 8.382599145007e-02 0.0 
5.056411929246e-03 5.611397920985e-03 0.0 
-5.409484752034e-04 6.123319239888e-02 0.0 
2.003967212810e-03 7.022809019329e-03 0.0 
2.969669214052e-02 2.213228684220e-02 0.0 
-3.268265504470e-04 1.123029920583e-02 0.0 
-2.387978898577e-03 1.409436080200e-02 0.0 
2.835814889195e-03 2.370572493660e-02 0.0 
-3.883958965638e-03 1.853648803141e-02 0.0 
3.964728888448e-04 1.131467456322e-02 0.0 
-3.316306270775e-04 5.383679410865e-03 0.0 
1.502547691423e-03 1.067742411903e-01 0.0 
3.130292280950e-02 9.872594890755e-02 0.0 
4.501201736733e-03 -3.004743096257e-02 0.0 
3.517187360428e-02 7.877540443627e-02 0.0 
-4.755510678322e-03 2.217031576525e-02 0.0 
2.957316097707e-02 4.514026437786e-02 0.0 
3.121575006901e-03 1.062177142088e-01 0.0 
-4.997171237497e-03 2.721326469829e-02 0.0 
1.204455322881e-02 1.735975172362e-02 0.0 
6.072186759063e-03 5.424172360602e-03 0.0 
2.059142971163e-03 6.518816496602e-02 0.0 
1.026236680171e-02 1.139978193258e-02 0.0 
2.687558298234e-02 2.224066612754e-02 0.0 
5.899696125553e-04 3.474550398533e-02 0.0 
9.228006782145e-03 1.156150123188e-01 0.0 
8.664236271539e-03 2.704635330991e-02 0.0 
-8.251691030550e-04 2.992966464264e-02 0.0 
2.639402814258e-02 8.348416729920e-02 0.0 
2.867746390284e-02 6.229699657747e-02 0.0 
2.237026139920e-02 4.235305295704e-02 0.0 
-2.611970587186e-03 5.565218881191e-02 0.0 
3.481205169134e-03 6.710081774187e-03 0.0 
2.190123131634e-02 6.465094645804e-02 0.0 
6.952096926319e-03 7.603417157341e-03 0.0 
1.542786043309e-02 1.044707319284e-01 0.0 
2.234867484693e-02 1.954206792526e-02 0.0 
1.527807717566e-02 4.380551467612e-02 0.0 
6.684438097984e-03 2.199709880549e-02 0.0 
1.136345205629e-02 1.004051575561e-02 0.0 
-6.365409737779e-04 3.988437374744e-03 0.0 
1.723802606785e-02 1.516783470047e-02 0.0 
1.550416114915e-02 2.034685490160e-02 0.0 
2.219724225449e-02 9.177356142380e-02 0.0 
1.286441455767e-02 1.370513818664e-02 0.0 
2.776097618316e-03 5.510377654717e-02 0.0 
-7.485198793757e-04 4.071231806329e-03 0.0 
1.933936744420e-02 1.041543589578e-01 0.0 
1.739319321295e-03 2.220075023627e-02 0.0 
6.399207732580e-03 -1.573976564194e-02 0.0 
8.872851268293e-04 2.159078035745e-02 0.0 
2.503327271680e-02 3.611424713189e-02 0.0 
6.359169434383e-03 9.216076280367e-02 0.0 
2.633508789766e-02 8.943721727100e-02 0.0 
-8.454021830095e-04 9.260801604363e-03 0.0 
1.089373962924e-02 1.888201977502e-02 0.0 
1.177925006069e-02 6.981394143510e-03 0.0 
3.224564792653e-03 6.641028426289e-02 0.0 
-4.183775254772e-03 4.901710472934e-02 0.0 
5.602357674132e-03 -2.561896432858e-02 0.0 
-5.295047153204e-04 7.530416049846e-03 0.0 
1.991340992991e-02 2.721672965691e-02 0.0 
-1.252475912064e-03 9.155419590272e-03 0.0 
6.813747847613e-04 6.561231956240e-02 0.0 
9.365246880508e-03 4.024127918402e-02 0.0 
5.987665403495e-04 6.537840282927e-03 0.0 
1.189195820769e-02 1.459835111247e-02 0.0 
3.411832082147e-03 -8.425095158112e-03 0.0 
2.269146403385e-03 8.900687416471e-03 0.0 
6.356669956968e-03 -5.137359470754e-03 0.0 
1.259324708700e-02 1.162831034789e-01 0.0 
7.947027545383e-03 5.217646040148e-02 0.0 
-7.265045568783e-04 4.284806523508e-03 0.0 
4.068170376257e-03 2.097174438429e-02 0.0 
-2.957854042549e-03 4.835999197421e-02 0.0 
2.712748736656e-02 1.060149122242e-01 0.0 
-1.464118454731e-03 5.877326524379e-02 0.0 
1.696259614093e-02 1.609419996435e-02 0.0 
4.896331072581e-03 2.234795576007e-02 0.0 
2.811328983697e-03 1.995442263046e-02 0.0 
2.162325043342e-03 6.139739348754e-03 0.0 
7.808749052053e-03 1.852187881721e-02 0.0 
3.378813950143e-03 3.291856799851e-03 0.0 
6.521441110042e-03 -2.372299874229e-02 0.0 
1.036559654660e-02 9.245529077557e-03 0.0 
5.494580600548e-03 8.954604321968e-03 0.0 
6.927616018196e-03 1.162826914850e-01 0.0 
9.641245396800e-03 1.915669687356e-02 0.0 
-2.827395428671e-03 5.363828098203e-02 0.0 
1.802021284450e-03 5.608961036362e-02 0.0 
1.692027728311e-04 1.003395955953e-02 0.0 
1.671122393312e-03 6.527630423356e-02 0.0 
1.168211855671e-03 1.164582709758e-01 0.0 
-1.283854367431e-04 4.420973945852e-03 0.0 
1.534820530189e-03 6.173720229841e-02 0.0 
2.476046929964e-03 9.837832660430e-02 0.0 
1.114486242300e-02 1.473865738614e-02 0.0 
-7.180522988028e-04 4.224211581696e-02 0.0 
1.367235898670e-03 4.321659967136e-02 0.0 
1.668649552158e-03 2.114343508465e-03 0.0 
6.582700192165e-03 -3.108377534333e-02 0.0 
1.975041821076e-03 7.777181127371e-02 0.0 
9.544163088908e-03 8.491232012744e-03 0.0 
6.177486728866e-03 1.821682366525e-02 0.0 
5.095527832665e-03 8.577636974577e-02 0.0 
1.518415296920e-02 4.763360757805e-04 0.0 
1.553712275681e-02 2.044941519671e-02 0.0 
-3.034920419165e-03 4.568659839993e-02 0.0 
1.723354844358e-02 1.818512808835e-02 0.0 
8.237038991119e-03 9.447536779792e-03 0.0 
6.302095879001e-04 -2.814290356159e-03 0.0 
-6.011434279700e-04 3.834879757863e-02 0.0 
8.916180009066e-03 4.814121891641e-02 0.0 
-1.229286013182e-03 7.428382433172e-03 0.0 
-1.997822993703e-03 4.497826965031e-02 0.0 
2.919869930476e-02 1.250858875331e-01 0.0 
7.373439794804e-04 1.592123141504e-01 0.0 
3.098026212449e-02 1.268763263059e-01 0.0 
7.652807696701e-04 1.498276066313e-01 0.0 
3.055724103803e-02 1.249317088085e-01 0.0 
7.586911337469e-04 1.399921765851e-01 0.0 
2.858375101986e-02 1.202088138536e-01 0.0 
7.847016446547e-04 1.297129437975e-01 0.0 

VECTORS node_bounda_dof_materi_velocity_x float
1.000000000000e+00 0.0 0.0 
1.000000000000e+00 0.0 0.0 
1.000000000000e+00 0.0 0.0 
1.000000000000e+00 0.0 0.0 
1.000000000000e+00 0.0 0.0 
1.000000000000e+00 0.0 0.0 
1.000000000000e+00 0.0 0.0 
1.000000000000e+00 0.0 0.0 
1.000000000000e+00 0.0 0.0 
1.000000000000e+00 0.0 0.0 
1.000000000000e+00 0.0 0.0 
1.000000000000e+00 0.0 0.0 
1.000000000000e+00 0.0 0.0 
1.000000000000e+00 0.0 0.0 
1.000000000000e+00 0.0 0.0 
1.000000000000e+00 0.0 0.0 
1.000000000000e+00 0.0 0.0 
1.000000000000e+00 0.0 0.0 
1.000000000000e+00 0.0 0.0 
1.000000000000e+00 0.0 0.0 
1.000000000000e+00 0.0 0.0 
1.000000000000e+00 0.0 0.0 
1.000000000000e+00 0.0 0.0 
1.000000000000e+00 0.0 0.0 
1.000000000000e+00 0.0 0.0 
1.000000000000e+00 0.0 0.0 
1.000000000000e+00 0.0 0.0 
1.000000000000e+00 0.0 0.0 
1.000000000000e+00 0.0 0.0 
1.000000000000e+00 0.0 0.0 
1.000000000000e+00 0.0 0.0 
1.000000000000e+00 0.0 0.0 
1.000000000000e+00 0.0 0.0 
1.000000000000e+00 0.0 0.0 
1.000000000000e+00 0.0 0.0 
1.000000000000e+00 0.0 0.0 
1.000000000000e+00 0.0 0.0 
1.000000000000e+00 0.0 0.0 
1.000000000000e+00 0.0 0.0 
1.000000000000e+00 0.0 0.0 
1.000000000000e+00 0.0 0.0 
1.000000000000e+00 0.0 0.0 
1.000000000000e+00 0.0 0.0 
1.000000000000e+00 0.0 0.0 
1.000000000000e+00 0.0 0.0 
1.000000000000e+00 0.0 0.0 
1.000000000000e+00 0.0 0.0 
1.000000000000e+00 0.0 0.0 
1.000000000000e+00 0.0 0.0 
1.000000000000e+00 0.0 0.0 
1.000000000000e+00 0.0 0.0 
1.000000000000e+00 0.0 0.0 
1.000000000000e+00 0.0 0.0 
1.000000000000e+00 0.0 0.0 
1.000000000000e+00 0.0 0.0 
1.000000000000e+00 0.0 0.0 
1.000000000000e+00 0.0 0.0 
1.000000000000e+00 0.0 0.0 
1.000000000000e+00 0.0 0.0 
1.000000000000e+00 0.0 0.0 
1.000000000000e+00 0.0 0.0 
1.000000000000e+00 0.0 0.0 
1.000000000000e+00 0.0 0.0 
1.000000000000e+00 0.0 0.0 
1.000000000000e+00 0.0 0.0 
1.000000000000e+00 0.0 0.0 
1.000000000000e+00 0.0 0.0 
1.000000000000e+00 0.0 0.0 
1.000000000000e+00 0.0 0.0 
1.000000000000e+00 0.0 0.0 
1.000000000000e+00 0.0 0.0 
1.000000000000e+00 0.0 0.0 
1.000000000000e+00 0.0 0.0 
1.000000000000e+00 0.0 0.0 
1.000000000000e+00 0.0 0.0 
1.000000000000e+00 0.0 0.0 
1.000000000000e+00 0.0 0.0 
1.000000000000e+00 0.0 0.0 
1.000000000000e+00 0.0 0.0 
1.000000000000e+00 0.0 0.0 
1.000000000000e+00 0.0 0.0 
0.0 0.0 0.0 
0.0 0.0 0.0 
0.0 0.0 0.0 
0.0 0.0 0.0 
0.0 0.0 0.0 
0.0 0.0 0.0 
0.0 0.0 0.0 
0.0 0.0 0.0 
0.0 0.0 0.0 
0.0 0.0 0.0 
0.0 0.0 0.0 
1.000000000000e+00 0.0 0.0 
1.000000000000e+00 0.0 0.0 
1.000000000000e+00 0.0 0.0 
1.000000000000e+00 0.0 0.0 
0.0 0.0 0.0 
0.0 0.0 0.0 
0.0 0.0 0.0 
0.0 0.0 0.0 
0.0 0.0 0.0 
0.0 0.0 0.0 
0.0 0.0 0.0 
0.0 0.0 0.0 
0.0 0.0 0.0 
0.0 0.0 0.0 
0.0 0.0 0.0 
0.0 0.0 0.0 
0.0 0.0 0.0 
0.0 0.0 0.0 
0.0 0.0 0.0 
0.0 0.0 0.0 
0.0 0.0 0.0 
0.0 0.0 0.0 
0.0 0.0 0.0 
0.0 0.0 0.0 
0.0 0.0 0.0 
0.0 0.0 0.0 
0.0 0.0 0.0 
0.0 0.0 0.0 
0.0 0.0 0.0 
0.0 0.0 0.0 
0.0 0.0 0.0 
0.0 0.0 0.0 
0.0 0.0 0.0 
0.0 0.0 0.0 
0.0 0.0 0.0 
0.0 0.0 0.0 
0.0 0.0 0.0 
0.0 0.0 0.0 
0.0 0.0 0.0 
0.0 0.0 0.0 
0.0 0.0 0.0 
0.0 0.0 0.0 
0.0 0.0 0.0 
0.0 0.0 0.0 
0.0 0.0 0.0 
0.0 0.0 0.0 
0.0 0.0 0.0 
0.0 0.0 0.0 
0.0 0.0 0.0 
0.0 0.0 0.0 
0.0 0.0 0.0 
0.0 0.0 0.0 
0.0 0.0 0.0 
0.0 0.0 0.0 
0.0 0.0 0.0 
0.0 0.0 0.0 
0.0 0.0 0.0 
0.0 0.0 0.0 
0.0 0.0 0.0 
0.0 0.0 0.0 
0.0 0.0 0.0 
0.0 0.0 0.0 
0.0 0.0 0.0 
0.0 0.0 0.0 
0.0 0.0 0.0 
0.0 0.0 0.0 
0.0 0.0 0.0 
0.0 0.0 0.0 
0.0 0.0 0.0 
0.0 0.0 0.0 
0.0 0.0 0.0 
0.0 0.0 0.0 
0.0 0.0 0.0 
0.0 0.0 0.0 
0.0 0.0 0.0 
0.0 0.0 0.0 
0.0 0.0 0.0 
0.0 0.0 0.0 
0.0 0.0 0.0 
0.0 0.0 0.0 
0.0 0.0 0.0 
0.0 0.0 0.0 
0.0 0.0 0.0 
0.0 0.0 0.0 
0.0 0.0 0.0 
0.0 0.0 0.0 
0.0 0.0 0.0 
0.0 0.0 0.0 
0.0 0.0 0.0 
0.0 0.0 0.0 
0.0 0.0 0.0 
0.0 0.0 0.0 
0.0 0.0 0.0 
0.0 0.0 0.0 
0.0 0.0 0.0 
0.0 0.0 0.0 
0.0 0.0 0.0 
0.0 0.0 0.0 
0.0 0.0 0.0 
0.0 0.0 0.0 
0.0 0.0 0.0 
0.0 0.0 0.0 
0.0 0.0 0.0 
0.0 0.0 0.0 
0.0 0.0 0.0 
0.0 0.0 0.0 
0.0 0.0 0.0 
0.0 0.0 0.0 
0.0 0.0 0.0 
0.0 0.0 0.0 
0.0 0.0 0.0 
0.0 0.0 0.0 
0.0 0.0 0.0 
0.0 0.0 0.0 
0.0 0.0 0.0 
0.0 0.0 0.0 
0.0 0.0 0.0 
0.0 0.0 0.0 
0.0 0.0 0.0 
0.0 0.0 0.0 
0.0 0.0 0.0 
0.0 0.0 0.0 
0.0 0.0 0.0 
0.0 0.0 0.0 
0.0 0.0 0.0 
0.0 0.0 0.0 
0.0 0.0 0.0 
0.0 0.0 0.0 
0.0 0.0 0.0 
0.0 0.0 0.0 
0.0 0.0 0.0 
0.0 0.0 0.0 
0.0 0.0 0.0 
0.0 0.0 0.0 
0.0 0.0 0.0 
0.0 0.0 0.0 
0.0 0.0 0.0 
0.0 0.0 0.0 
0.0 0.0 0.0 
0.0 0.0 0.0 
0.0 0.0 0.0 
0.0 0.0 0.0 
0.0 0.0 0.0 
0.0 0.0 0.0 
0.0 0.0 0.0 
0.0 0.0 0.0 
0.0 0.0 0.0 
0.0 0.0 0.0 
0.0 0.0 0.0 
0.0 0.0 0.0 
0.0 0.0 0.0 
0.0 0.0 0.0 
0.0 0.0 0.0 
0.0 0.0 0.0 
0.0 0.0 0.0 
0.0 0.0 0.0 
0.0 0.0 0.0 
0.0 0.0 0.0 
0.0 0.0 0.0 
0.0 0.0 0.0 
0.0 0.0 0.0 
0.0 0.0 0.0 
0.0 0.0 0.0 
0.0 0.0 0.0 
0.0 0.0 0.0 
0.0 0.0 0.0 
0.0 0.0 0.0 
0.0 0.0 0.0 
0.0 0.0 0.0 
0.0 0.0 0.0 
0.0 0.0 0.0 
0.0 0.0 0.0 
0.0 0.0 0.0 
0.0 0.0 0.0 
0.0 0.0 0.0 
0.0 0.0 0.0 
0.0 0.0 0.0 
0.0 0.0 0.0 
0.0 0.0 0.0 
0.0 0.0 0.0 
0.0 0.0 0.0 
0.0 0.0 0.0 
0.0 0.0 0.0 
0.0 0.0 0.0 
0.0 0.0 0.0 
0.0 0.0 0.0 
0.0 0.0 0.0 
0.0 0.0 0.0 
0.0 0.0 0.0 
0.0 0.0 0.0 
0.0 0.0 0.0 
0.0 0.0 0.0 
0.0 0.0 0.0 
0.0 0.0 0.0 
0.0 0.0 0.0 
0.0 0.0 0.0 
0.0 0.0 0.0 
0.0 0.0 0.0 
0.0 0.0 0.0 
0.0 0.0 0.0 
0.0 0.0 0.0 
0.0 0.0 0.0 
0.0 0.0 0.0 
0.0 0.0 0.0 
0.0 0.0 0.0 
0.0 0.0 0.0 
0.0 0.0 0.0 
0.0 0.0 0.0 
0.0 0.0 0.0 
0.0 0.0 0.0 
0.0 0.0 0.0 
0.0 0.0 0.0 
0.0 0.0 0.0 
0.0 0.0 0.0 
0.0 0.0 0.0 
0.0 0.0 0.0 
0.0 0.0 0.0 
0.0 0.0 0.0 
0.0 0.0 0.0 
0.0 0.0 0.0 
0.0 0.0 0.0 
0.0 0.0 0.0 
0.0 0.0 0.0 
0.0 0.0 0.0 
0.0 0.0 0.0 
0.0 0.0 0.0 
0.0 0.0 0.0 
0.0 0.0 0.0 
0.0 0.0 0.0 
0.0 0.0 0.0 
0.0 0.0 0.0 
0.0 0.0 0.0 
0.0 0.0 0.0 
0.0 0.0 0.0 
0.0 0.0 0.0 
0.0 0.0 0.0 
0.0 0.0 0.0 
0.0 0.0 0.0 
0.0 0.0 0.0 
0.0 0.0 0.0 
0.0 0.0 0.0 
0.0 0.0 0.0 
0.0 0.0 0.0 
0.0 0.0 0.0 
0.0 0.0 0.0 
0.0 0.0 0.0 
0.0 0.0 0.0 
0.0 0.0 0.0 
0.0 0.0 0.0 
0.0 0.0 0.0 
0.0 0.0 0.0 
0.0 0.0 0.0 
0.0 0.0 0.0 
0.0 0.0 0.0 
0.0 0.0 0.0 
0.0 0.0 0.0 
0.0 0.0 0.0 
0.0 0.0 0.0 
0.0 0.0 0.0 
0.0 0.0 0.0 
0.0 0.0 0.0 
0.0 0.0 0.0 
0.0 0.0 0.0 
0.0 0.0 0.0 
0.0 0.0 0.0 
0.0 0.0 0.0 
0.0 0.0 0.0 
0.0 0.0 0.0 
0.0 0.0 0.0 
0.0 0.0 0.0 
0.0 0.0 0.0 
0.0 0.0 0.0 
0.0 0.0 0.0 
0.0 0.0 0.0 
0.0 0.0 0.0 
0.0 0.0 0.0 
0.0 0.0 0.0 
0.0 0.0 0.0 
0.0 0.0 0.0 
0.0 0.0 0.0 
0.0 0.0 0.0 
0.0 0.0 0.0 
0.0 0.0 0.0 
0.0 0.0 0.0 
0.0 0.0 0.0 
0.0 0.0 0.0 
0.0 0.0 0.0 
0.0 0.0 0.0 
0.0 0.0 0.0 
0.0 0.0 0.0 
0.0 0.0 0.0 
0.0 0.0 0.0 
0.0 0.0 0.0 
0.0 0.0 0.0 
0.0 0.0 0.0 
0.0 0.0 0.0 
0.0 0.0 0.0 
0.0 0.0 0.0 
0.0 0.0 0.0 
0.0 0.0 0.0 
0.0 0.0 0.0 
0.0 0.0 0.0 
0.0 0.0 0.0 
0.0 0.0 0.0 
0.0 0.0 0.0 
0.0 0.0 0.0 
0.0 0.0 0.0 
0.0 0.0 0.0 
0.0 0.0 0.0 
0.0 0.0 0.0 
0.0 0.0 0.0 
0.0 0.0 0.0 
0.0 0.0 0.0 
0.0 0.0 0.0 
0.0 0.0 0.0 
0.0 0.0 0.0 
0.0 0.0 0.0 
0.0 0.0 0.0 
0.0 0.0 0.0 
0.0 0.0 0.0 
0.0 0.0 0.0 
0.0 0.0 0.0 
0.0 0.0 0.0 
0.0 0.0 0.0 
0.0 0.0 0.0 
0.0 0.0 0.0 
0.0 0.0 0.0 
0.0 0.0 0.0 
0.0 0.0 0.0 
0.0 0.0 0.0 
0.0 0.0 0.0 
0.0 0.0 0.0 
0.0 0.0 0.0 
0.0 0.0 0.0 
0.0 0.0 0.0 
0.0 0.0 0.0 
0.0 0.0 0.0 
0.0 0.0 0.0 
0.0 0.0 0.0 
0.0 0.0 0.0 
0.0 0.0 0.0 
0.0 0.0 0.0 
0.0 0.0 0.0 
0.0 0.0 0.0 
0.0 0.0 0.0 
0.0 0.0 0.0 
0.0 0.0 0.0 
0.0 0.0 0.0 
0.0 0.0 0.0 
0.0 0.0 0.0 
0.0 0.0 0.0 
0.0 0.0 0.0 
0.0 0.0 0.0 
0.0 0.0 0.0 
0.0 0.0 0.0 
0.0 0.0 0.0 
0.0 0.0 0.0 
0.0 0.0 0.0 
0.0 0.0 0.0 
0.0 0.0 0.0 
0.0 0.0 0.0 
0.0 0.0 0.0 
0.0 0.0 0.0 
0.0 0.0 0.0 
0.0 0.0 0.0 
0.0 0.0 0.0 
0.0 0.0 0.0 
0.0 0.0 0.0 
0.0 0.0 0.0 
0.0 0.0 0.0 
0.0 0.0 0.0 
0.0 0.0 0.0 
0.0 0.0 0.0 
0.0 0.0 0.0 
0.0 0.0 0.0 
0.0 0.0 0.0 
0.0 0.0 0.0 
0.0 0.0 0.0 
0.0 0.0 0.0 
0.0 0.0 0.0 
0.0 0.0 0.0 
0.0 0.0 0.0 
0.0 0.0 0.0 
0.0 0.0 0.0 
0.0 0.0 0.0 
0.0 0.0 0.0 
0.0 0.0 0.0 
0.0 0.0 0.0 
0.0 0.0 0.0 
0.0 0.0 0.0 
0.0 0.0 0.0 
0.0 0.0 0.0 
0.0 0.0 0.0 
0.0 0.0 0.0 
0.0 0.0 0.0 
0.0 0.0 0.0 
0.0 0.0 0.0 
0.0 0.0 0.0 
0.0 0.0 0.0 
0.0 0.0 0.0 
0.0 0.0 0.0 
0.0 0.0 0.0 
0.0 0.0 0.0 
0.0 0.0 0.0 
0.0 0.0 0.0 
0.0 0.0 0.0 
0.0 0.0 0.0 
0.0 0.0 0.0 
0.0 0.0 0.0 
0.0 0.0 0.0 
0.0 0.0 0.0 
0.0 0.0 0.0 
0.0 0.0 0.0 
0.0 0.0 0.0 
0.0 0.0 0.0 
0.0 0.0 0.0 
0.0 0.0 0.0 
0.0 0.0 0.0 
0.0 0.0 0.0 
0.0 0.0 0.0 
0.0 0.0 0.0 
0.0 0.0 0.0 
0.0 0.0 0.0 
0.0 0.0 0.0 
0.0 0.0 0.0 
0.0 0.0 0.0 
0.0 0.0 0.0 
0.0 0.0 0.0 
0.0 0.0 0.0 
0.0 0.0 0.0 
0.0 0.0 0.0 
0.0 0.0 0.0 
0.0 0.0 0.0 
0.0 0.0 0.0 
0.0 0.0 0.0 
0.0 0.0 0.0 
0.0 0.0 0.0 
0.0 0.0 0.0 
0.0 0.0 0.0 
0.0 0.0 0.0 
0.0 0.0 0.0 
0.0 0.0 0.0 
0.0 0.0 0.0 
0.0 0.0 0.0 
0.0 0.0 0.0 
0.0 0.0 0.0 
0.0 0.0 0.0 
0.0 0.0 0.0 
0.0 0.0 0.0 
0.0 0.0 0.0 
0.0 0.0 0.0 
0.0 0.0 0.0 
0.0 0.0 0.0 
0.0 0.0 0.0 
0.0 0.0 0.0 
0.0 0.0 0.0 
0.0 0.0 0.0 
0.0 0.0 0.0 
0.0 0.0 0.0 
0.0 0.0 0.0 
0.0 0.0 0.0 
0.0 0.0 0.0 
0.0 0.0 0.0 
0.0 0.0 0.0 
0.0 0.0 0.0 
0.0 0.0 0.0 
0.0 0.0 0.0 
0.0 0.0 0.0 
0.0 0.0 0.0 
0.0 0.0 0.0 
0.0 0.0 0.0 
0.0 0.0 0.0 
0.0 0.0 0.0 
0.0 0.0 0.0 
0.0 0.0 0.0 
0.0 0.0 0.0 
0.0 0.0 0.0 
0.0 0.0 0.0 
0.0 0.0 0.0 
0.0 0.0 0.0 
0.0 0.0 0.0 
0.0 0.0 0.0 
0.0 0.0 0.0 
0.0 0.0 0.0 
0.0 0.0 0.0 
0.0 0.0 0.0 
0.0 0.0 0.0 
0.0 0.0 0.0 
0.0 0.0 0.0 
0.0 0.0 0.0 
0.0 0.0 0.0 
0.0 0.0 0.0 
0.0 0.0 0.0 
0.0 0.0 0.0 
0.0 0.0 0.0 
0.0 0.0 0.0 
0.0 0.0 0.0 
0.0 0.0 0.0 
0.0 0.0 0.0 
0.0 0.0 0.0 
0.0 0.0 0.0 
0.0 0.0 0.0 
0.0 0.0 0.0 
0.0 0.0 0.0 
0.0 0.0 0.0 
0.0 0.0 0.0 
0.0 0.0 0.0 
0.0 0.0 0.0 
0.0 0.0 0.0 
0.0 0.0 0.0 
0.0 0.0 0.0 
0.0 0.0 0.0 
0.0 0.0 0.0 
0.0 0.0 0.0 
0.0 0.0 0.0 
0.0 0.0 0.0 
0.0 0.0 0.0 
0.0 0.0 0.0 
0.0 0.0 0.0 
0.0 0.0 0.0 
0.0 0.0 0.0 
0.0 0.0 0.0 
0.0 0.0 0.0 
0.0 0.0 0.0 
0.0 0.0 0.0 
0.0 0.0 0.0 
0.0 0.0 0.0 
0.0 0.0 0.0 
0.0 0.0 0.0 
0.0 0.0 0.0 
0.0 0.0 0.0 
0.0 0.0 0.0 
0.0 0.0 0.0 
0.0 0.0 0.0 
0.0 0.0 0.0 
0.0 0.0 0.0 
0.0 0.0 0.0 
0.0 0.0 0.0 
0.0 0.0 0.0 
0.0 0.0 0.0 
0.0 0.0 0.0 
0.0 0.0 0.0 
0.0 0.0 0.0 
0.0 0.0 0.0 
0.0 0.0 0.0 
0.0 0.0 0.0 
0.0 0.0 0.0 
0.0 0.0 0.0 
0.0 0.0 0.0 
0.0 0.0 0.0 
0.0 0.0 0.0 
0.0 0.0 0.0 
0.0 0.0 0.0 
0.0 0.0 0.0 
0.0 0.0 0.0 
0.0 0.0 0.0 
0.0 0.0 0.0 
0.0 0.0 0.0 
0.0 0.0 0.0 
0.0 0.0 0.0 
0.0 0.0 0.0 
0.0 0.0 0.0 
0.0 0.0 0.0 
0.0 0.0 0.0 
0.0 0.0 0.0 
0.0 0.0 0.0 
0.0 0.0 0.0 
0.0 0.0 0.0 
0.0 0.0 0.0 
0.0 0.0 0.0 
0.0 0.0 0.0 
0.0 0.0 0.0 
0.0 0.0 0.0 
0.0 0.0 0.0 
0.0 0.0 0.0 
0.0 0.0 0.0 
0.0 0.0 0.0 
0.0 0.0 0.0 
0.0 0.0 0.0 
0.0 0.0 0.0 
0.0 0.0 0.0 
0.0 0.0 0.0 
0.0 0.0 0.0 
0.0 0.0 0.0 
0.0 0.0 0.0 
0.0 0.0 0.0 
0.0 0.0 0.0 
0.0 0.0 0.0 
0.0 0.0 0.0 
0.0 0.0 0.0 
0.0 0.0 0.0 
0.0 0.0 0.0 
0.0 0.0 0.0 
0.0 0.0 0.0 
0.0 0.0 0.0 
0.0 0.0 0.0 
0.0 0.0 0.0 
0.0 0.0 0.0 
0.0 0.0 0.0 
0.0 0.0 0.0 
0.0 0.0 0.0 
0.0 0.0 0.0 
0.0 0.0 0.0 
0.0 0.0 0.0 
0.0 0.0 0.0 
0.0 0.0 0.0 
0.0 0.0 0.0 
0.0 0.0 0.0 
0.0 0.0 0.0 
0.0 0.0 0.0 
0.0 0.0 0.0 
0.0 0.0 0.0 
0.0 0.0 0.0 
0.0 0.0 0.0 
0.0 0.0 0.0 
0.0 0.0 0.0 
0.0 0.0 0.0 
0.0 0.0 0.0 
0.0 0.0 0.0 
0.0 0.0 0.0 
0.0 0.0 0.0 
0.0 0.0 0.0 
0.0 0.0 0.0 
0.0 0.0 0.0 
0.0 0.0 0.0 
0.0 0.0 0.0 
0.0 0.0 0.0 
0.0 0.0 0.0 
0.0 0.0 0.0 
0.0 0.0 0.0 
0.0 0.0 0.0 
0.0 0.0 0.0 
0.0 0.0 0.0 
0.0 0.0 0.0 
0.0 0.0 0.0 
0.0 0.0 0.0 
0.0 0.0 0.0 
0.0 0.0 0.0 
0.0 0.0 0.0 
0.0 0.0 0.0 
0.0 0.0 0.0 
0.0 0.0 0.0 
0.0 0.0 0.0 
0.0 0.0 0.0 
0.0 0.0 0.0 
0.0 0.0 0.0 
0.0 0.0 0.0 
0.0 0.0 0.0 
0.0 0.0 0.0 
0.0 0.0 0.0 
0.0 0.0 0.0 
0.0 0.0 0.0 
0.0 0.0 0.0 
0.0 0.0 0.0 
0.0 0.0 0.0 
0.0 0.0 0.0 
0.0 0.0 0.0 
0.0 0.0 0.0 
0.0 0.0 0.0 
0.0 0.0 0.0 
0.0 0.0 0.0 
0.0 0.0 0.0 
0.0 0.0 0.0 
0.0 0.0 0.0 
0.0 0.0 0.0 
0.0 0.0 0.0 
0.0 0.0 0.0 
0.0 0.0 0.0 
0.0 0.0 0.0 
0.0 0.0 0.0 
0.0 0.0 0.0 
0.0 0.0 0.0 
0.0 0.0 0.0 
0.0 0.0 0.0 
0.0 0.0 0.0 
0.0 0.0 0.0 
0.0 0.0 0.0 
0.0 0.0 0.0 
0.0 0.0 0.0 
0.0 0.0 0.0 
0.0 0.0 0.0 
0.0 0.0 0.0 
0.0 0.0 0.0 
0.0 0.0 0.0 
0.0 0.0 0.0 
0.0 0.0 0.0 
0.0 0.0 0.0 
0.0 0.0 0.0 
0.0 0.0 0.0 
0.0 0.0 0.0 
0.0 0.0 0.0 
0.0 0.0 0.0 
0.0 0.0 0.0 
0.0 0.0 0.0 
0.0 0.0 0.0 
0.0 0.0 0.0 
0.0 0.0 0.0 
0.0 0.0 0.0 
0.0 0.0 0.0 
0.0 0.0 0.0 
0.0 0.0 0.0 
0.0 0.0 0.0 
0.0 0.0 0.0 
0.0 0.0 0.0 
0.0 0.0 0.0 
0.0 0.0 0.0 
0.0 0.0 0.0 
0.0 0.0 0.0 
0.0 0.0 0.0 
0.0 0.0 0.0 
0.0 0.0 0.0 
0.0 0.0 0.0 
0.0 0.0 0.0 
0.0 0.0 0.0 
0.0 0.0 0.0 
0.0 0.0 0.0 
0.0 0.0 0.0 
0.0 0.0 0.0 
0.0 0.0 0.0 
0.0 0.0 0.0 
0.0 0.0 0.0 
0.0 0.0 0.0 
0.0 0.0 0.0 
0.0 0.0 0.0 
0.0 0.0 0.0 
0.0 0.0 0.0 
0.0 0.0 0.0 
0.0 0.0 0.0 
0.0 0.0 0.0 
0.0 0.0 0.0 
0.0 0.0 0.0 
0.0 0.0 0.0 
0.0 0.0 0.0 
0.0 0.0 0.0 
0.0 0.0 0.0 
0.0 0.0 0.0 
0.0 0.0 0.0 
0.0 0.0 0.0 
0.0 0.0 0.0 
0.0 0.0 0.0 
0.0 0.0 0.0 
0.0 0.0 0.0 
0.0 0.0 0.0 
0.0 0.0 0.0 
0.0 0.0 0.0 
0.0 0.0 0.0 
0.0 0.0 0.0 
0.0 0.0 0.0 
0.0 0.0 0.0 
0.0 0.0 0.0 
0.0 0.0 0.0 
0.0 0.0 0.0 
0.0 0.0 0.0 
0.0 0.0 0.0 
0.0 0.0 0.0 
0.0 0.0 0.0 
0.0 0.0 0.0 
0.0 0.0 0.0 
0.0 0.0 0.0 
0.0 0.0 0.0 
0.0 0.0 0.0 
0.0 0.0 0.0 
0.0 0.0 0.0 
0.0 0.0 0.0 
0.0 0.0 0.0 
0.0 0.0 0.0 
0.0 0.0 0.0 
0.0 0.0 0.0 
0.0 0.0 0.0 
0.0 0.0 0.0 
0.0 0.0 0.0 
0.0 0.0 0.0 
0.0 0.0 0.0 
0.0 0.0 0.0 
0.0 0.0 0.0 
0.0 0.0 0.0 
0.0 0.0 0.0 
0.0 0.0 0.0 
0.0 0.0 0.0 
0.0 0.0 0.0 
0.0 0.0 0.0 
0.0 0.0 0.0 
0.0 0.0 0.0 
0.0 0.0 0.0 
0.0 0.0 0.0 
0.0 0.0 0.0 
0.0 0.0 0.0 
0.0 0.0 0.0 
0.0 0.0 0.0 
0.0 0.0 0.0 
0.0 0.0 0.0 
0.0 0.0 0.0 
0.0 0.0 0.0 
0.0 0.0 0.0 
0.0 0.0 0.0 
0.0 0.0 0.0 
0.0 0.0 0.0 
0.0 0.0 0.0 
0.0 0.0 0.0 
0.0 0.0 0.0 
0.0 0.0 0.0 
0.0 0.0 0.0 
0.0 0.0 0.0 
0.0 0.0 0.0 
0.0 0.0 0.0 
0.0 0.0 0.0 
0.0 0.0 0.0 
0.0 0.0 0.0 
0.0 0.0 0.0 
0.0 0.0 0.0 
0.0 0.0 0.0 
0.0 0.0 0.0 
0.0 0.0 0.0 
0.0 0.0 0.0 
0.0 0.0 0.0 
0.0 0.0 0.0 
0.0 0.0 0.0 
0.0 0.0 0.0 
0.0 0.0 0.0 
0.0 0.0 0.0 
0.0 0.0 0.0 
0.0 0.0 0.0 
0.0 0.0 0.0 
0.0 0.0 0.0 
0.0 0.0 0.0 
0.0 0.0 0.0 
0.0 0.0 0.0 
0.0 0.0 0.0 
0.0 0.0 0.0 
0.0 0.0 0.0 
0.0 0.0 0.0 
0.0 0.0 0.0 
0.0 0.0 0.0 
0.0 0.0 0.0 
0.0 0.0 0.0 
0.0 0.0 0.0 
0.0 0.0 0.0 
0.0 0.0 0.0 
0.0 0.0 0.0 
0.0 0.0 0.0 
0.0 0.0 0.0 
0.0 0.0 0.0 
0.0 0.0 0.0 
0.0 0.0 0.0 
0.0 0.0 0.0 
0.0 0.0 0.0 
0.0 0.0 0.0 
0.0 0.0 0.0 
0.0 0.0 0.0 
0.0 0.0 0.0 
0.0 0.0 0.0 
0.0 0.0 0.0 
0.0 0.0 0.0 
0.0 0.0 0.0 
0.0 0.0 0.0 
0.0 0.0 0.0 
0.0 0.0 0.0 
0.0 0.0 0.0 
0.0 0.0 0.0 
0.0 0.0 0.0 
0.0 0.0 0.0 
0.0 0.0 0.0 
0.0 0.0 0.0 
0.0 0.0 0.0 
0.0 0.0 0.0 
0.0 0.0 0.0 
0.0 0.0 0.0 
0.0 0.0 0.0 
0.0 0.0 0.0 
0.0 0.0 0.0 
0.0 0.0 0.0 
0.0 0.0 0.0 
0.0 0.0 0.0 
0.0 0.0 0.0 
0.0 0.0 0.0 
0.0 0.0 0.0 
0.0 0.0 0.0 
0.0 0.0 0.0 
0.0 0.0 0.0 
0.0 0.0 0.0 
0.0 0.0 0.0 
0.0 0.0 0.0 
0.0 0.0 0.0 
0.0 0.0 0.0 
0.0 0.0 0.0 
0.0 0.0 0.0 
0.0 0.0 0.0 
0.0 0.0 0.0 
0.0 0.0 0.0 
0.0 0.0 0.0 
0.0 0.0 0.0 
0.0 0.0 0.0 
0.0 0.0 0.0 
0.0 0.0 0.0 
0.0 0.0 0.0 
0.0 0.0 0.0 
0.0 0.0 0.0 
0.0 0.0 0.0 
0.0 0.0 0.0 
0.0 0.0 0.0 
0.0 0.0 0.0 
0.0 0.0 0.0 
0.0 0.0 0.0 
0.0 0.0 0.0 
0.0 0.0 0.0 
0.0 0.0 0.0 
0.0 0.0 0.0 
0.0 0.0 0.0 
0.0 0.0 0.0 
0.0 0.0 0.0 
0.0 0.0 0.0 
0.0 0.0 0.0 
0.0 0.0 0.0 
0.0 0.0 0.0 
0.0 0.0 0.0 
0.0 0.0 0.0 
0.0 0.0 0.0 
0.0 0.0 0.0 
0.0 0.0 0.0 
0.0 0.0 0.0 
0.0 0.0 0.0 
0.0 0.0 0.0 
0.0 0.0 0.0 
0.0 0.0 0.0 
0.0 0.0 0.0 
0.0 0.0 0.0 
0.0 0.0 0.0 
0.0 0.0 0.0 
0.0 0.0 0.0 
0.0 0.0 0.0 
0.0 0.0 0.0 
0.0 0.0 0.0 
0.0 0.0 0.0 
0.0 0.0 0.0 
0.0 0.0 0.0 
0.0 0.0 0.0 
0.0 0.0 0.0 
0.0 0.0 0.0 
0.0 0.0 0.0 
0.0 0.0 0.0 
0.0 0.0 0.0 
0.0 0.0 0.0 
0.0 0.0 0.0 
0.0 0.0 0.0 
0.0 0.0 0.0 
0.0 0.0 0.0 
0.0 0.0 0.0 
0.0 0.0 0.0 
0.0 0.0 0.0 
0.0 0.0 0.0 
0.0 0.0 0.0 
0.0 0.0 0.0 
0.0 0.0 0.0 
0.0 0.0 0.0 
0.0 0.0 0.0 
0.0 0.0 0.0 
0.0 0.0 0.0 
0.0 0.0 0.0 
0.0 0.0 0.0 
0.0 0.0 0.0 
0.0 0.0 0.0 
0.0 0.0 0.0 
0.0 0.0 0.0 
0.0 0.0 0.0 
0.0 0.0 0.0 
0.0 0.0 0.0 
0.0 0.0 0.0 
0.0 0.0 0.0 
0.0 0.0 0.0 
0.0 0.0 0.0 
0.0 0.0 0.0 
0.0 0.0 0.0 
0.0 0.0 0.0 
0.0 0.0 0.0 
0.0 0.0 0.0 
0.0 0.0 0.0 
0.0 0.0 0.0 
0.0 0.0 0.0 
0.0 0.0 0.0 
0.0 0.0 0.0 
0.0 0.0 0.0 
0.0 0.0 0.0 
0.0 0.0 0.0 
0.0 0.0 0.0 
0.0 0.0 0.0 
0.0 0.0 0.0 
0.0 0.0 0.0 
0.0 0.0 0.0 
0.0 0.0 0.0 
0.0 0.0 0.0 
0.0 0.0 0.0 
0.0 0.0 0.0 
0.0 0.0 0.0 
0.0 0.0 0.0 
0.0 0.0 0.0 
0.0 0.0 0.0 
0.0 0.0 0.0 
0.0 0.0 0.0 
0.0 0.0 0.0 
0.0 0.0 0.0 
0.0 0.0 0.0 
0.0 0.0 0.0 
0.0 0.0 0.0 
0.0 0.0 0.0 
0.0 0.0 0.0 
0.0 0.0 0.0 
0.0 0.0 0.0 
0.0 0.0 0.0 
0.0 0.0 0.0 
0.0 0.0 0.0 
0.0 0.0 0.0 
0.0 0.0 0.0 
0.0 0.0 0.0 
0.0 0.0 0.0 
0.0 0.0 0.0 
0.0 0.0 0.0 
0.0 0.0 0.0 
0.0 0.0 0.0 
0.0 0.0 0.0 
0.0 0.0 0.0 

VECTORS node_bounda_dof_materi_velocity_y float
0.0 0.0 0.0 
0.0 0.0 0.0 
0.0 1.000000000000e+00 0.0 
0.0 1.000000000000e+00 0.0 
0.0 0.0 0.0 
0.0 0.0 0.0 
0.0 0.0 0.0 
0.0 0.0 0.0 
0.0 0.0 0.0 
0.0 0.0 0.0 
0.0 0.0 0.0 
0.0 0.0 0.0 
0.0 0.0 0.0 
0.0 0.0 0.0 
0.0 0.0 0.0 
0.0 0.0 0.0 
0.0 0.0 0.0 
0.0 0.0 0.0 
0.0 0.0 0.0 
0.0 0.0 0.0 
0.0 0.0 0.0 
0.0 0.0 0.0 
0.0 0.0 0.0 
0.0 1.000000000000e+00 0.0 
0.0 1.000000000000e+00 0.0 
0.0 1.000000000000e+00 0.0 
0.0 1.000000000000e+00 0.0 
0.0 1.000000000000e+00 0.0 
0.0 1.000000000000e+00 0.0 
0.0 1.000000000000e+00 0.0 
0.0 1.000000000000e+00 0.0 
0.0 1.000000000000e+00 0.0 
0.0 1.000000000000e+00 0.0 
0.0 1.000000000000e+00 0.0 
0.0 1.000000000000e+00 0.0 
0.0 1.000000000000e+00 0.0 
0.0 1.000000000000e+00 0.0 
0.0 1.000000000000e+00 0.0 
0.0 1.000000000000e+00 0.0 
0.0 1.000000000000e+00 0.0 
0.0 1.000000000000e+00 0.0 
0.0 1.000000000000e+00 0.0 
0.0 1.000000000000e+00 0.0 
0.0 1.000000000000e+00 0.0 
0.0 1.000000000000e+00 0.0 
0.0 1.000000000000e+00 0.0 
0.0 1.000000000000e+00 0.0 
0.0 1.000000000000e+00 0.0 
0.0 1.000000000000e+00 0.0 
0.0 1.000000000000e+00 0.0 
0.0 1.000000000000e+00 0.0 
0.0 1.000000000000e+00 0.0 
0.0 1.000000000000e+00 0.0 
0.0 1.000000000000e+00 0.0 
0.0 1.000000000000e+00 0.0 
0.0 1.000000000000e+00 0.0 
0.0 1.000000000000e+00 0.0 
0.0 1.000000000000e+00 0.0 
0.0 1.000000000000e+00 0.0 
0.0 1.000000000000e+00 0.0 
0.0 1.000000000000e+00 0.0 
0.0 1.000000000000e+00 0.0 
0.0 1.000000000000e+00 0.0 
0.0 1.000000000000e+00 0.0 
0.0 1.000000000000e+00 0.0 
0.0 1.000000000000e+00 0.0 
0.0 1.000000000000e+00 0.0 
0.0 1.000000000000e+00 0.0 
0.0 1.000000000000e+00 0.0 
0.0 1.000000000000e+00 0.0 
0.0 1.000000000000e+00 0.0 
0.0 1.000000000000e+00 0.0 
0.0 0.0 0.0 
0.0 0.0 0.0 
0.0 0.0 0.0 
0.0 0.0 0.0 
0.0 0.0 0.0 
0.0 0.0 0.0 
0.0 0.0 0.0 
0.0 0.0 0.0 
0.0 0.0 0.0 
0.0 0.0 0.0 
0.0 0.0 0.0 
0.0 0.0 0.0 
0.0 0.0 0.0 
0.0 0.0 0.0 
0.0 0.0 0.0 
0.0 0.0 0.0 
0.0 0.0 0.0 
0.0 0.0 0.0 
0.0 0.0 0.0 
0.0 0.0 0.0 
0.0 0.0 0.0 
0.0 0.0 0.0 
0.0 0.0 0.0 
0.0 0.0 0.0 
0.0 0.0 0.0 
0.0 0.0 0.0 
0.0 0.0 0.0 
0.0 0.0 0.0 
0.0 0.0 0.0 
0.0 0.0 0.0 
0.0 0.0 0.0 
0.0 0.0 0.0 
0.0 0.0 0.0 
0.0 0.0 0.0 
0.0 0.0 0.0 
0.0 0.0 0.0 
0.0 0.0 0.0 
0.0 0.0 0.0 
0.0 0.0 0.0 
0.0 0.0 0.0 
0.0 0.0 0.0 
0.0 0.0 0.0 
0.0 0.0 0.0 
0.0 0.0 0.0 
0.0 0.0 0.0 
0.0 0.0 0.0 
0.0 0.0 0.0 
0.0 0.0 0.0 
0.0 0.0 0.0 
0.0 0.0 0.0 
0.0 0.0 0.0 
0.0 0.0 0.0 
0.0 0.0 0.0 
0.0 0.0 0.0 
0.0 0.0 0.0 
0.0 0.0 0.0 
0.0 0.0 0.0 
0.0 0.0 0.0 
0.0 0.0 0.0 
0.0 0.0 0.0 
0.0 0.0 0.0 
0.0 0.0 0.0 
0.0 0.0 0.0 
0.0 0.0 0.0 
0.0 0.0 0.0 
0.0 0.0 0.0 
0.0 0.0 0.0 
0.0 0.0 0.0 
0.0 0.0 0.0 
0.0 0.0 0.0 
0.0 0.0 0.0 
0.0 0.0 0.0 
0.0 0.0 0.0 
0.0 0.0 0.0 
0.0 0.0 0.0 
0.0 0.0 0.0 
0.0 0.0 0.0 
0.0 0.0 0.0 
0.0 0.0 0.0 
0.0 0.0 0.0 
0.0 0.0 0.0 
0.0 0.0 0.0 
0.0 0.0 0.0 
0.0 0.0 0.0 
0.0 0.0 0.0 
0.0 0.0 0.0 
0.0 0.0 0.0 
0.0 0.0 0.0 
0.0 0.0 0.0 
0.0 0.0 0.0 
0.0 0.0 0.0 
0.0 0.0 0.0 
0.0 0.0 0.0 
0.0 0.0 0.0 
0.0 0.0 0.0 
0.0 0.0 0.0 
0.0 0.0 0.0 
0.0 0.0 0.0 
0.0 0.0 0.0 
0.0 0.0 0.0 
0.0 0.0 0.0 
0.0 0.0 0.0 
0.0 0.0 0.0 
0.0 0.0 0.0 
0.0 0.0 0.0 
0.0 0.0 0.0 
0.0 0.0 0.0 
0.0 0.0 0.0 
0.0 0.0 0.0 
0.0 0.0 0.0 
0.0 0.0 0.0 
0.0 0.0 0.0 
0.0 0.0 0.0 
0.0 0.0 0.0 
0.0 0.0 0.0 
0.0 0.0 0.0 
0.0 0.0 0.0 
0.0 0.0 0.0 
0.0 0.0 0.0 
0.0 0.0 0.0 
0.0 0.0 0.0 
0.0 0.0 0.0 
0.0 0.0 0.0 
0.0 0.0 0.0 
0.0 0.0 0.0 
0.0 0.0 0.0 
0.0 0.0 0.0 
0.0 0.0 0.0 
0.0 0.0 0.0 
0.0 0.0 0.0 
0.0 0.0 0.0 
0.0 0.0 0.0 
0.0 0.0 0.0 
0.0 0.0 0.0 
0.0 0.0 0.0 
0.0 0.0 0.0 
0.0 0.0 0.0 
0.0 0.0 0.0 
0.0 0.0 0.0 
0.0 0.0 0.0 
0.0 0.0 0.0 
0.0 0.0 0.0 
0.0 0.0 0.0 
0.0 0.0 0.0 
0.0 0.0 0.0 
0.0 0.0 0.0 
0.0 0.0 0.0 
0.0 0.0 0.0 
0.0 0.0 0.0 
0.0 0.0 0.0 
0.0 0.0 0.0 
0.0 0.0 0.0 
0.0 0.0 0.0 
0.0 0.0 0.0 
0.0 0.0 0.0 
0.0 0.0 0.0 
0.0 0.0 0.0 
0.0 0.0 0.0 
0.0 0.0 0.0 
0.0 0.0 0.0 
0.0 0.0 0.0 
0.0 0.0 0.0 
0.0 0.0 0.0 
0.0 0.0 0.0 
0.0 0.0 0.0 
0.0 0.0 0.0 
0.0 0.0 0.0 
0.0 0.0 0.0 
0.0 0.0 0.0 
0.0 0.0 0.0 
0.0 0.0 0.0 
0.0 0.0 0.0 
0.0 0.0 0.0 
0.0 0.0 0.0 
0.0 0.0 0.0 
0.0 0.0 0.0 
0.0 0.0 0.0 
0.0 0.0 0.0 
0.0 0.0 0.0 
0.0 0.0 0.0 
0.0 0.0 0.0 
0.0 0.0 0.0 
0.0 0.0 0.0 
0.0 0.0 0.0 
0.0 0.0 0.0 
0.0 0.0 0.0 
0.0 0.0 0.0 
0.0 0.0 0.0 
0.0 0.0 0.0 
0.0 0.0 0.0 
0.0 0.0 0.0 
0.0 0.0 0.0 
0.0 0.0 0.0 
0.0 0.0 0.0 
0.0 0.0 0.0 
0.0 0.0 0.0 
0.0 0.0 0.0 
0.0 0.0 0.0 
0.0 0.0 0.0 
0.0 0.0 0.0 
0.0 0.0 0.0 
0.0 0.0 0.0 
0.0 0.0 0.0 
0.0 0.0 0.0 
0.0 0.0 0.0 
0.0 0.0 0.0 
0.0 0.0 0.0 
0.0 0.0 0.0 
0.0 0.0 0.0 
0.0 0.0 0.0 
0.0 0.0 0.0 
0.0 0.0 0.0 
0.0 0.0 0.0 
0.0 0.0 0.0 
0.0 0.0 0.0 
0.0 0.0 0.0 
0.0 0.0 0.0 
0.0 0.0 0.0 
0.0 0.0 0.0 
0.0 0.0 0.0 
0.0 0.0 0.0 
0.0 0.0 0.0 
0.0 0.0 0.0 
0.0 0.0 0.0 
0.0 0.0 0.0 
0.0 0.0 0.0 
0.0 0.0 0.0 
0.0 0.0 0.0 
0.0 0.0 0.0 
0.0 0.0 0.0 
0.0 0.0 0.0 
0.0 0.0 0.0 
0.0 0.0 0.0 
0.0 0.0 0.0 
0.0 0.0 0.0 
0.0 0.0 0.0 
0.0 0.0 0.0 
0.0 0.0 0.0 
0.0 0.0 0.0 
0.0 0.0 0.0 
0.0 0.0 0.0 
0.0 0.0 0.0 
0.0 0.0 0.0 
0.0 0.0 0.0 
0.0 0.0 0.0 
0.0 0.0 0.0 
0.0 0.0 0.0 
0.0 0.0 0.0 
0.0 0.0 0.0 
0.0 0.0 0.0 
0.0 0.0 0.0 
0.0 0.0 0.0 
0.0 0.0 0.0 
0.0 0.0 0.0 
0.0 0.0 0.0 
0.0 0.0 0.0 
0.0 0.0 0.0 
0.0 0.0 0.0 
0.0 0.0 0.0 
0.0 0.0 0.0 
0.0 0.0 0.0 
0.0 0.0 0.0 
0.0 0.0 0.0 
0.0 0.0 0.0 
0.0 0.0 0.0 
0.0 0.0 0.0 
0.0 0.0 0.0 
0.0 0.0 0.0 
0.0 0.0 0.0 
0.0 0.0 0.0 
0.0 0.0 0.0 
0.0 0.0 0.0 
0.0 0.0 0.0 
0.0 0.0 0.0 
0.0 0.0 0.0 
0.0 0.0 0.0 
0.0 0.0 0.0 
0.0 0.0 0.0 
0.0 0.0 0.0 
0.0 0.0 0.0 
0.0 0.0 0.0 
0.0 0.0 0.0 
0.0 0.0 0.0 
0.0 0.0 0.0 
0.0 0.0 0.0 
0.0 0.0 0.0 
0.0 0.0 0.0 
0.0 0.0 0.0 
0.0 0.0 0.0 
0.0 0.0 0.0 
0.0 0.0 0.0 
0.0 0.0 0.0 
0.0 0.0 0.0 
0.0 0.0 0.0 
0.0 0.0 0.0 
0.0 0.0 0.0 
0.0 0.0 0.0 
0.0 0.0 0.0 
0.0 0.0 0.0 
0.0 0.0 0.0 
0.0 0.0 0.0 
0.0 0.0 0.0 
0.0 0.0 0.0 
0.0 0.0 0.0 
0.0 0.0 0.0 
0.0 0.0 0.0 
0.0 0.0 0.0 
0.0 0.0 0.0 
0.0 0.0 0.0 
0.0 0.0 0.0 
0.0 0.0 0.0 
0.0 0.0 0.0 
0.0 0.0 0.0 
0.0 0.0 0.0 
0.0 0.0 0.0 
0.0 0.0 0.0 
0.0 0.0 0.0 
0.0 0.0 0.0 
0.0 0.0 0.0 
0.0 0.0 0.0 
0.0 0.0 0.0 
0.0 0.0 0.0 
0.0 0.0 0.0 
0.0 0.0 0.0 
0.0 0.0 0.0 
0.0 0.0 0.0 
0.0 0.0 0.0 
0.0 0.0 0.0 
0.0 0.0 0.0 
0.0 0.0 0.0 
0.0 0.0 0.0 
0.0 0.0 0.0 
0.0 0.0 0.0 
0.0 0.0 0.0 
0.0 0.0 0.0 
0.0 0.0 0.0 
0.0 0.0 0.0 
0.0 0.0 0.0 
0.0 0.0 0.0 
0.0 0.0 0.0 
0.0 0.0 0.0 
0.0 0.0 0.0 
0.0 0.0 0.0 
0.0 0.0 0.0 
0.0 0.0 0.0 
0.0 0.0 0.0 
0.0 0.0 0.0 
0.0 0.0 0.0 
0.0 0.0 0.0 
0.0 0.0 0.0 
0.0 0.0 0.0 
0.0 0.0 0.0 
0.0 0.0 0.0 
0.0 0.0 0.0 
0.0 0.0 0.0 
0.0 0.0 0.0 
0.0 0.0 0.0 
0.0 0.0 0.0 
0.0 0.0 0.0 
0.0 0.0 0.0 
0.0 0.0 0.0 
0.0 0.0 0.0 
0.0 0.0 0.0 
0.0 0.0 0.0 
0.0 0.0 0.0 
0.0 0.0 0.0 
0.0 0.0 0.0 
0.0 0.0 0.0 
0.0 0.0 0.0 
0.0 0.0 0.0 
0.0 0.0 0.0 
0.0 0.0 0.0 
0.0 0.0 0.0 
0.0 0.0 0.0 
0.0 0.0 0.0 
0.0 0.0 0.0 
0.0 0.0 0.0 
0.0 0.0 0.0 
0.0 0.0 0.0 
0.0 0.0 0.0 
0.0 0.0 0.0 
0.0 0.0 0.0 
0.0 0.0 0.0 
0.0 0.0 0.0 
0.0 0.0 0.0 
0.0 0.0 0.0 
0.0 0.0 0.0 
0.0 0.0 0.0 
0.0 0.0 0.0 
0.0 0.0 0.0 
0.0 0.0 0.0 
0.0 0.0 0.0 
0.0 0.0 0.0 
0.0 0.0 0.0 
0.0 0.0 0.0 
0.0 0.0 0.0 
0.0 0.0 0.0 
0.0 0.0 0.0 
0.0 0.0 0.0 
0.0 0.0 0.0 
0.0 0.0 0.0 
0.0 0.0 0.0 
0.0 0.0 0.0 
0.0 0.0 0.0 
0.0 0.0 0.0 
0.0 0.0 0.0 
0.0 0.0 0.0 
0.0 0.0 0.0 
0.0 0.0 0.0 
0.0 0.0 0.0 
0.0 0.0 0.0 
0.0 0.0 0.0 
0.0 0.0 0.0 
0.0 0.0 0.0 
0.0 0.0 0.0 
0.0 0.0 0.0 
0.0 0.0 0.0 
0.0 0.0 0.0 
0.0 0.0 0.0 
0.0 0.0 0.0 
0.0 0.0 0.0 
0.0 0.0 0.0 
0.0 0.0 0.0 
0.0 0.0 0.0 
0.0 0.0 0.0 
0.0 0.0 0.0 
0.0 0.0 0.0 
0.0 0.0 0.0 
0.0 0.0 0.0 
0.0 0.0 0.0 
0.0 0.0 0.0 
0.0 0.0 0.0 
0.0 0.0 0.0 
0.0 0.0 0.0 
0.0 0.0 0.0 
0.0 0.0 0.0 
0.0 0.0 0.0 
0.0 0.0 0.0 
0.0 0.0 0.0 
0.0 0.0 0.0 
0.0 0.0 0.0 
0.0 0.0 0.0 
0.0 0.0 0.0 
0.0 0.0 0.0 
0.0 0.0 0.0 
0.0 0.0 0.0 
0.0 0.0 0.0 
0.0 0.0 0.0 
0.0 0.0 0.0 
0.0 0.0 0.0 
0.0 0.0 0.0 
0.0 0.0 0.0 
0.0 0.0 0.0 
0.0 0.0 0.0 
0.0 0.0 0.0 
0.0 0.0 0.0 
0.0 0.0 0.0 
0.0 0.0 0.0 
0.0 0.0 0.0 
0.0 0.0 0.0 
0.0 0.0 0.0 
0.0 0.0 0.0 
0.0 0.0 0.0 
0.0 0.0 0.0 
0.0 0.0 0.0 
0.0 0.0 0.0 
0.0 0.0 0.0 
0.0 0.0 0.0 
0.0 0.0 0.0 
0.0 0.0 0.0 
0.0 0.0 0.0 
0.0 0.0 0.0 
0.0 0.0 0.0 
0.0 0.0 0.0 
0.0 0.0 0.0 
0.0 0.0 0.0 
0.0 0.0 0.0 
0.0 0.0 0.0 
0.0 0.0 0.0 
0.0 0.0 0.0 
0.0 0.0 0.0 
0.0 0.0 0.0 
0.0 0.0 0.0 
0.0 0.0 0.0 
0.0 0.0 0.0 
0.0 0.0 0.0 
0.0 0.0 0.0 
0.0 0.0 0.0 
0.0 0.0 0.0 
0.0 0.0 0.0 
0.0 0.0 0.0 
0.0 0.0 0.0 
0.0 0.0 0.0 
0.0 0.0 0.0 
0.0 0.0 0.0 
0.0 0.0 0.0 
0.0 0.0 0.0 
0.0 0.0 0.0 
0.0 0.0 0.0 
0.0 0.0 0.0 
0.0 0.0 0.0 
0.0 0.0 0.0 
0.0 0.0 0.0 
0.0 0.0 0.0 
0.0 0.0 0.0 
0.0 0.0 0.0 
0.0 0.0 0.0 
0.0 0.0 0.0 
0.0 0.0 0.0 
0.0 0.0 0.0 
0.0 0.0 0.0 
0.0 0.0 0.0 
0.0 0.0 0.0 
0.0 0.0 0.0 
0.0 0.0 0.0 
0.0 0.0 0.0 
0.0 0.0 0.0 
0.0 0.0 0.0 
0.0 0.0 0.0 
0.0 0.0 0.0 
0.0 0.0 0.0 
0.0 0.0 0.0 
0.0 0.0 0.0 
0.0 0.0 0.0 
0.0 0.0 0.0 
0.0 0.0 0.0 
0.0 0.0 0.0 
0.0 0.0 0.0 
0.0 0.0 0.0 
0.0 0.0 0.0 
0.0 0.0 0.0 
0.0 0.0 0.0 
0.0 0.0 0.0 
0.0 0.0 0.0 
0.0 0.0 0.0 
0.0 0.0 0.0 
0.0 0.0 0.0 
0.0 0.0 0.0 
0.0 0.0 0.0 
0.0 0.0 0.0 
0.0 0.0 0.0 
0.0 0.0 0.0 
0.0 0.0 0.0 
0.0 0.0 0.0 
0.0 0.0 0.0 
0.0 0.0 0.0 
0.0 0.0 0.0 
0.0 0.0 0.0 
0.0 0.0 0.0 
0.0 0.0 0.0 
0.0 0.0 0.0 
0.0 0.0 0.0 
0.0 0.0 0.0 
0.0 0.0 0.0 
0.0 0.0 0.0 
0.0 0.0 0.0 
0.0 0.0 0.0 
0.0 0.0 0.0 
0.0 0.0 0.0 
0.0 0.0 0.0 
0.0 0.0 0.0 
0.0 0.0 0.0 
0.0 0.0 0.0 
0.0 0.0 0.0 
0.0 0.0 0.0 
0.0 0.0 0.0 
0.0 0.0 0.0 
0.0 0.0 0.0 
0.0 0.0 0.0 
0.0 0.0 0.0 
0.0 0.0 0.0 
0.0 0.0 0.0 
0.0 0.0 0.0 
0.0 0.0 0.0 
0.0 0.0 0.0 
0.0 0.0 0.0 
0.0 0.0 0.0 
0.0 0.0 0.0 
0.0 0.0 0.0 
0.0 0.0 0.0 
0.0 0.0 0.0 
0.0 0.0 0.0 
0.0 0.0 0.0 
0.0 0.0 0.0 
0.0 0.0 0.0 
0.0 0.0 0.0 
0.0 0.0 0.0 
0.0 0.0 0.0 
0.0 0.0 0.0 
0.0 0.0 0.0 
0.0 0.0 0.0 
0.0 0.0 0.0 
0.0 0.0 0.0 
0.0 0.0 0.0 
0.0 0.0 0.0 
0.0 0.0 0.0 
0.0 0.0 0.0 
0.0 0.0 0.0 
0.0 0.0 0.0 
0.0 0.0 0.0 
0.0 0.0 0.0 
0.0 0.0 0.0 
0.0 0.0 0.0 
0.0 0.0 0.0 
0.0 0.0 0.0 
0.0 0.0 0.0 
0.0 0.0 0.0 
0.0 0.0 0.0 
0.0 0.0 0.0 
0.0 0.0 0.0 
0.0 0.0 0.0 
0.0 0.0 0.0 
0.0 0.0 0.0 
0.0 0.0 0.0 
0.0 0.0 0.0 
0.0 0.0 0.0 
0.0 0.0 0.0 
0.0 0.0 0.0 
0.0 0.0 0.0 
0.0 0.0 0.0 
0.0 0.0 0.0 
0.0 0.0 0.0 
0.0 0.0 0.0 
0.0 0.0 0.0 
0.0 0.0 0.0 
0.0 0.0 0.0 
0.0 0.0 0.0 
0.0 0.0 0.0 
0.0 0.0 0.0 
0.0 0.0 0.0 
0.0 0.0 0.0 
0.0 0.0 0.0 
0.0 0.0 0.0 
0.0 0.0 0.0 
0.0 0.0 0.0 
0.0 0.0 0.0 
0.0 0.0 0.0 
0.0 0.0 0.0 
0.0 0.0 0.0 
0.0 0.0 0.0 
0.0 0.0 0.0 
0.0 0.0 0.0 
0.0 0.0 0.0 
0.0 0.0 0.0 
0.0 0.0 0.0 
0.0 0.0 0.0 
0.0 0.0 0.0 
0.0 0.0 0.0 
0.0 0.0 0.0 
0.0 0.0 0.0 
0.0 0.0 0.0 
0.0 0.0 0.0 
0.0 0.0 0.0 
0.0 0.0 0.0 
0.0 0.0 0.0 
0.0 0.0 0.0 
0.0 0.0 0.0 
0.0 0.0 0.0 
0.0 0.0 0.0 
0.0 0.0 0.0 
0.0 0.0 0.0 
0.0 0.0 0.0 
0.0 0.0 0.0 
0.0 0.0 0.0 
0.0 0.0 0.0 
0.0 0.0 0.0 
0.0 0.0 0.0 
0.0 0.0 0.0 
0.0 0.0 0.0 
0.0 0.0 0.0 
0.0 0.0 0.0 
0.0 0.0 0.0 
0.0 0.0 0.0 
0.0 0.0 0.0 
0.0 0.0 0.0 
0.0 0.0 0.0 
0.0 0.0 0.0 
0.0 0.0 0.0 
0.0 0.0 0.0 
0.0 0.0 0.0 
0.0 0.0 0.0 
0.0 0.0 0.0 
0.0 0.0 0.0 
0.0 0.0 0.0 
0.0 0.0 0.0 
0.0 0.0 0.0 
0.0 0.0 0.0 
0.0 0.0 0.0 
0.0 0.0 0.0 
0.0 0.0 0.0 
0.0 0.0 0.0 
0.0 0.0 0.0 
0.0 0.0 0.0 
0.0 0.0 0.0 
0.0 0.0 0.0 
0.0 0.0 0.0 
0.0 0.0 0.0 
0.0 0.0 0.0 
0.0 0.0 0.0 
0.0 0.0 0.0 
0.0 0.0 0.0 
0.0 0.0 0.0 
0.0 0.0 0.0 
0.0 0.0 0.0 
0.0 0.0 0.0 
0.0 0.0 0.0 
0.0 0.0 0.0 
0.0 0.0 0.0 
0.0 0.0 0.0 
0.0 0.0 0.0 
0.0 0.0 0.0 
0.0 0.0 0.0 
0.0 0.0 0.0 
0.0 0.0 0.0 
0.0 0.0 0.0 
0.0 0.0 0.0 
0.0 0.0 0.0 
0.0 0.0 0.0 
0.0 0.0 0.0 
0.0 0.0 0.0 
0.0 0.0 0.0 
0.0 0.0 0.0 
0.0 0.0 0.0 
0.0 0.0 0.0 
0.0 0.0 0.0 
0.0 0.0 0.0 
0.0 0.0 0.0 
0.0 0.0 0.0 
0.0 0.0 0.0 
0.0 0.0 0.0 
0.0 0.0 0.0 
0.0 0.0 0.0 
0.0 0.0 0.0 
0.0 0.0 0.0 
0.0 0.0 0.0 
0.0 0.0 0.0 
0.0 0.0 0.0 
0.0 0.0 0.0 
0.0 0.0 0.0 
0.0 0.0 0.0 
0.0 0.0 0.0 
0.0 0.0 0.0 
0.0 0.0 0.0 
0.0 0.0 0.0 
0.0 0.0 0.0 
0.0 0.0 0.0 
0.0 0.0 0.0 
0.0 0.0 0.0 
0.0 0.0 0.0 
0.0 0.0 0.0 
0.0 0.0 0.0 
0.0 0.0 0.0 
0.0 0.0 0.0 
0.0 0.0 0.0 
0.0 0.0 0.0 
0.0 0.0 0.0 
0.0 0.0 0.0 
0.0 0.0 0.0 
0.0 0.0 0.0 
0.0 0.0 0.0 
0.0 0.0 0.0 
0.0 0.0 0.0 
0.0 0.0 0.0 
0.0 0.0 0.0 
0.0 0.0 0.0 
0.0 0.0 0.0 
0.0 0.0 0.0 
0.0 0.0 0.0 
0.0 0.0 0.0 
0.0 0.0 0.0 
0.0 0.0 0.0 
0.0 0.0 0.0 
0.0 0.0 0.0 
0.0 0.0 0.0 
0.0 0.0 0.0 
0.0 0.0 0.0 
0.0 0.0 0.0 
0.0 0.0 0.0 
0.0 0.0 0.0 
0.0 0.0 0.0 
0.0 0.0 0.0 
0.0 0.0 0.0 
0.0 0.0 0.0 
0.0 0.0 0.0 
0.0 0.0 0.0 
0.0 0.0 0.0 
0.0 0.0 0.0 
0.0 0.0 0.0 
0.0 0.0 0.0 
0.0 0.0 0.0 
0.0 0.0 0.0 
0.0 0.0 0.0 
0.0 0.0 0.0 
0.0 0.0 0.0 
0.0 0.0 0.0 
0.0 0.0 0.0 
0.0 0.0 0.0 
0.0 0.0 0.0 
0.0 0.0 0.0 
0.0 0.0 0.0 
0.0 0.0 0.0 
0.0 0.0 0.0 
0.0 0.0 0.0 
0.0 0.0 0.0 
0.0 0.0 0.0 
0.0 0.0 0.0 
0.0 0.0 0.0 
0.0 0.0 0.0 
0.0 0.0 0.0 
0.0 0.0 0.0 
0.0 0.0 0.0 
0.0 0.0 0.0 
0.0 0.0 0.0 
0.0 0.0 0.0 
0.0 0.0 0.0 
0.0 0.0 0.0 
0.0 0.0 0.0 
0.0 0.0 0.0 
0.0 0.0 0.0 
0.0 0.0 0.0 
0.0 0.0 0.0 
0.0 0.0 0.0 
0.0 0.0 0.0 
0.0 0.0 0.0 
0.0 0.0 0.0 
0.0 0.0 0.0 
0.0 0.0 0.0 
0.0 0.0 0.0 
0.0 0.0 0.0 
0.0 0.0 0.0 
0.0 0.0 0.0 
0.0 0.0 0.0 
0.0 0.0 0.0 
0.0 0.0 0.0 
0.0 0.0 0.0 
0.0 0.0 0.0 
0.0 0.0 0.0 
0.0 0.0 0.0 
0.0 0.0 0.0 
0.0 0.0 0.0 
0.0 0.0 0.0 
0.0 0.0 0.0 
0.0 0.0 0.0 
0.0 0.0 0.0 
0.0 0.0 0.0 
0.0 0.0 0.0 
0.0 0.0 0.0 
0.0 0.0 0.0 
0.0 0.0 0.0 
0.0 0.0 0.0 
0.0 0.0 0.0 
0.0 0.0 0.0 
0.0 0.0 0.0 
0.0 0.0 0.0 
0.0 0.0 0.0 
0.0 0.0 0.0 
0.0 0.0 0.0 
0.0 0.0 0.0 
0.0 0.0 0.0 
0.0 0.0 0.0 
0.0 0.0 0.0 
0.0 0.0 0.0 
0.0 0.0 0.0 
0.0 0.0 0.0 
0.0 0.0 0.0 
0.0 0.0 0.0 
0.0 0.0 0.0 
0.0 0.0 0.0 
0.0 0.0 0.0 
0.0 0.0 0.0 
0.0 0.0 0.0 
0.0 0.0 0.0 
0.0 0.0 0.0 
0.0 0.0 0.0 
0.0 0.0 0.0 
0.0 0.0 0.0 
0.0 0.0 0.0 
0.0 0.0 0.0 
0.0 0.0 0.0 
0.0 0.0 0.0 
0.0 0.0 0.0 
0.0 0.0 0.0 
0.0 0.0 0.0 
0.0 0.0 0.0 
0.0 0.0 0.0 
0.0 0.0 0.0 
0.0 0.0 0.0 
0.0 0.0 0.0 
0.0 0.0 0.0 
0.0 0.0 0.0 
0.0 0.0 0.0 
0.0 0.0 0.0 
0.0 0.0 0.0 
0.0 0.0 0.0 
0.0 0.0 0.0 
0.0 0.0 0.0 
0.0 0.0 0.0 
0.0 0.0 0.0 
0.0 0.0 0.0 
0.0 0.0 0.0 
0.0 0.0 0.0 
0.0 0.0 0.0 
0.0 0.0 0.0 
0.0 0.0 0.0 
0.0 0.0 0.0 
0.0 0.0 0.0 
0.0 0.0 0.0 
0.0 0.0 0.0 
0.0 0.0 0.0 
0.0 0.0 0.0 
0.0 0.0 0.0 
0.0 0.0 0.0 
0.0 0.0 0.0 
0.0 0.0 0.0 
0.0 0.0 0.0 
0.0 0.0 0.0 
0.0 0.0 0.0 
0.0 0.0 0.0 
0.0 0.0 0.0 
0.0 0.0 0.0 
0.0 0.0 0.0 
0.0 0.0 0.0 
0.0 0.0 0.0 
0.0 0.0 0.0 
0.0 0.0 0.0 
0.0 0.0 0.0 
0.0 0.0 0.0 
0.0 0.0 0.0 
0.0 0.0 0.0 
0.0 0.0 0.0 
0.0 0.0 0.0 
0.0 0.0 0.0 
0.0 0.0 0.0 
0.0 0.0 0.0 
0.0 0.0 0.0 
0.0 0.0 0.0 
0.0 0.0 0.0 
0.0 0.0 0.0 
0.0 0.0 0.0 
0.0 0.0 0.0 
0.0 0.0 0.0 
0.0 0.0 0.0 
0.0 0.0 0.0 
0.0 0.0 0.0 
0.0 0.0 0.0 
0.0 0.0 0.0 
0.0 0.0 0.0 
0.0 0.0 0.0 
0.0 0.0 0.0 
0.0 0.0 0.0 
0.0 0.0 0.0 
0.0 0.0 0.0 
0.0 0.0 0.0 
0.0 0.0 0.0 
0.0 0.0 0.0 
0.0 0.0 0.0 
0.0 0.0 0.0 
0.0 0.0 0.0 
0.0 0.0 0.0 
0.0 0.0 0.0 
0.0 0.0 0.0 
0.0 0.0 0.0 
0.0 0.0 0.0 
0.0 0.0 0.0 
0.0 0.0 0.0 
0.0 0.0 0.0 
0.0 0.0 0.0 
0.0 0.0 0.0 
0.0 0.0 0.0 
0.0 0.0 0.0 
0.0 0.0 0.0 
0.0 0.0 0.0 
0.0 0.0 0.0 
0.0 0.0 0.0 
0.0 0.0 0.0 
0.0 0.0 0.0 
0.0 0.0 0.0 
0.0 0.0 0.0 
0.0 0.0 0.0 
0.0 0.0 0.0 
0.0 0.0 0.0 
0.0 0.0 0.0 
0.0 0.0 0.0 
0.0 0.0 0.0 
0.0 0.0 0.0 
0.0 0.0 0.0 
0.0 0.0 0.0 
0.0 0.0 0.0 
0.0 0.0 0.0 
0.0 0.0 0.0 
0.0 0.0 0.0 
0.0 0.0 0.0 
0.0 0.0 0.0 
0.0 0.0 0.0 
0.0 0.0 0.0 
0.0 0.0 0.0 
0.0 0.0 0.0 
0.0 0.0 0.0 
0.0 0.0 0.0 
0.0 0.0 0.0 
0.0 0.0 0.0 
0.0 0.0 0.0 
0.0 0.0 0.0 
0.0 0.0 0.0 
0.0 0.0 0.0 
0.0 0.0 0.0 
0.0 0.0 0.0 
0.0 0.0 0.0 
0.0 0.0 0.0 
0.0 0.0 0.0 
0.0 0.0 0.0 
0.0 0.0 0.0 
0.0 0.0 0.0 
0.0 0.0 0.0 
0.0 0.0 0.0 
0.0 0.0 0.0 
0.0 0.0 0.0 
0.0 0.0 0.0 
0.0 0.0 0.0 
0.0 0.0 0.0 
0.0 0.0 0.0 
0.0 0.0 0.0 
0.0 0.0 0.0 
0.0 0.0 0.0 
0.0 0.0 0.0 
0.0 0.0 0.0 
0.0 0.0 0.0 
0.0 0.0 0.0 
0.0 0.0 0.0 
0.0 0.0 0.0 
0.0 0.0 0.0 
0.0 0.0 0.0 
0.0 0.0 0.0 
0.0 0.0 0.0 
0.0 0.0 0.0 
0.0 0.0 0.0 
0.0 0.0 0.0 
0.0 0.0 0.0 
0.0 0.0 0.0 
0.0 0.0 0.0 

SCALARS node_boundary float
LOOKUP_TABLE default
1.000000000000e+00 
1.000000000000e+00 
1.000000000000e+00 
1.000000000000e+00 
1.000000000000e+00 
1.000000000000e+00 
1.000000000000e+00 
1.000000000000e+00 
1.000000000000e+00 
1.000000000000e+00 
1.000000000000e+00 
1.000000000000e+00 
1.000000000000e+00 
1.000000000000e+00 
1.000000000000e+00 
1.000000000000e+00 
1.000000000000e+00 
1.000000000000e+00 
1.000000000000e+00 
1.000000000000e+00 
1.000000000000e+00 
1.000000000000e+00 
1.000000000000e+00 
1.000000000000e+00 
1.000000000000e+00 
1.000000000000e+00 
1.000000000000e+00 
1.000000000000e+00 
1.000000000000e+00 
1.000000000000e+00 
1.000000000000e+00 
1.000000000000e+00 
1.000000000000e+00 
1.000000000000e+00 
1.000000000000e+00 
1.000000000000e+00 
1.000000000000e+00 
1.000000000000e+00 
1.000000000000e+00 
1.000000000000e+00 
1.000000000000e+00 
1.000000000000e+00 
1.000000000000e+00 
1.000000000000e+00 
1.000000000000e+00 
1.000000000000e+00 
1.000000000000e+00 
1.000000000000e+00 
1.000000000000e+00 
1.000000000000e+00 
1.000000000000e+00 
1.000000000000e+00 
1.000000000000e+00 
1.000000000000e+00 
1.000000000000e+00 
1.000000000000e+00 
1.000000000000e+00 
1.000000000000e+00 
1.000000000000e+00 
1.000000000000e+00 
1.000000000000e+00 
1.000000000000e+00 
1.000000000000e+00 
1.000000000000e+00 
1.000000000000e+00 
1.000000000000e+00 
1.000000000000e+00 
1.000000000000e+00 
1.000000000000e+00 
1.000000000000e+00 
1.000000000000e+00 
1.000000000000e+00 
1.000000000000e+00 
1.000000000000e+00 
1.000000000000e+00 
1.000000000000e+00 
1.000000000000e+00 
1.000000000000e+00 
1.000000000000e+00 
1.000000000000e+00 
1.000000000000e+00 
1.000000000000e+00 
0.0
1.000000000000e+00 
1.000000000000e+00 
1.000000000000e+00 
1.000000000000e+00 
1.000000000000e+00 
1.000000000000e+00 
0.0
0.0
0.0
1.000000000000e+00 
1.000000000000e+00 
1.000000000000e+00 
1.000000000000e+00 
0.0
0.0
0.0
0.0
0.0
0.0
0.0
0.0
0.0
0.0
0.0
0.0
0.0
0.0
1.000000000000e+00 
1.000000000000e+00 
1.000000000000e+00 
1.000000000000e+00 
1.000000000000e+00 
1.000000000000e+00 
1.000000000000e+00 
1.000000000000e+00 
1.000000000000e+00 
1.000000000000e+00 
1.000000000000e+00 
1.000000000000e+00 
1.000000000000e+00 
1.000000000000e+00 
1.000000000000e+00 
1.000000000000e+00 
1.000000000000e+00 
1.000000000000e+00 
1.000000000000e+00 
1.000000000000e+00 
1.000000000000e+00 
1.000000000000e+00 
1.000000000000e+00 
1.000000000000e+00 
1.000000000000e+00 
1.000000000000e+00 
1.000000000000e+00 
1.000000000000e+00 
1.000000000000e+00 
1.000000000000e+00 
1.000000000000e+00 
1.000000000000e+00 
1.000000000000e+00 
1.000000000000e+00 
1.000000000000e+00 
1.000000000000e+00 
1.000000000000e+00 
1.000000000000e+00 
1.000000000000e+00 
0.0
0.0
0.0
0.0
0.0
0.0
0.0
0.0
0.0
0.0
0.0
0.0
0.0
0.0
0.0
0.0
0.0
0.0
0.0
0.0
0.0
0.0
0.0
0.0
0.0
0.0
0.0
0.0
0.0
0.0
0.0
0.0
0.0
0.0
0.0
0.0
0.0
0.0
0.0
0.0
0.0
0.0
0.0
0.0
0.0
0.0
0.0
0.0
0.0
0.0
0.0
0.0
1.000000000000e+00 
1.000000000000e+00 
1.000000000000e+00 
1.000000000000e+00 
1.000000000000e+00 
1.000000000000e+00 
0.0
0.0
0.0
0.0
0.0
0.0
0.0
0.0
0.0
0.0
0.0
0.0
0.0
0.0
0.0
0.0
0.0
0.0
0.0
0.0
0.0
0.0
0.0
0.0
0.0
0.0
0.0
0.0
0.0
0.0
0.0
0.0
0.0
0.0
0.0
0.0
0.0
0.0
0.0
0.0
0.0
0.0
0.0
0.0
0.0
0.0
0.0
0.0
0.0
0.0
0.0
0.0
0.0
0.0
0.0
0.0
0.0
0.0
0.0
0.0
0.0
0.0
0.0
0.0
0.0
0.0
0.0
0.0
0.0
0.0
0.0
0.0
0.0
0.0
0.0
0.0
0.0
0.0
0.0
0.0
0.0
0.0
0.0
0.0
0.0
0.0
0.0
0.0
0.0
0.0
0.0
0.0
0.0
0.0
0.0
0.0
0.0
0.0
0.0
0.0
0.0
0.0
0.0
0.0
0.0
0.0
0.0
0.0
0.0
0.0
0.0
0.0
0.0
0.0
0.0
0.0
0.0
0.0
0.0
0.0
0.0
0.0
0.0
0.0
0.0
0.0
0.0
0.0
0.0
0.0
0.0
0.0
0.0
0.0
0.0
0.0
0.0
0.0
0.0
0.0
0.0
0.0
0.0
0.0
0.0
0.0
0.0
0.0
0.0
0.0
0.0
0.0
0.0
0.0
0.0
0.0
0.0
0.0
0.0
0.0
0.0
0.0
0.0
0.0
0.0
0.0
0.0
0.0
0.0
0.0
0.0
0.0
0.0
0.0
0.0
0.0
0.0
0.0
0.0
0.0
0.0
0.0
0.0
0.0
0.0
0.0
0.0
0.0
0.0
0.0
0.0
0.0
0.0
0.0
0.0
0.0
0.0
0.0
0.0
0.0
0.0
0.0
0.0
0.0
0.0
0.0
0.0
0.0
0.0
0.0
0.0
0.0
0.0
0.0
0.0
0.0
0.0
0.0
0.0
0.0
0.0
0.0
0.0
0.0
0.0
0.0
0.0
0.0
0.0
0.0
0.0
0.0
0.0
0.0
0.0
0.0
0.0
0.0
0.0
0.0
0.0
0.0
0.0
0.0
0.0
0.0
0.0
0.0
0.0
0.0
0.0
0.0
0.0
0.0
0.0
0.0
0.0
0.0
0.0
0.0
0.0
0.0
0.0
0.0
0.0
0.0
0.0
0.0
0.0
0.0
0.0
0.0
0.0
0.0
0.0
0.0
0.0
0.0
0.0
0.0
0.0
0.0
0.0
0.0
0.0
0.0
0.0
0.0
0.0
0.0
0.0
0.0
0.0
0.0
0.0
0.0
0.0
0.0
0.0
0.0
0.0
0.0
0.0
0.0
0.0
0.0
0.0
0.0
0.0
0.0
0.0
0.0
0.0
0.0
0.0
0.0
0.0
0.0
0.0
0.0
0.0
0.0
0.0
0.0
0.0
0.0
0.0
0.0
0.0
0.0
0.0
0.0
0.0
0.0
0.0
0.0
0.0
0.0
0.0
0.0
0.0
0.0
0.0
0.0
0.0
0.0
0.0
0.0
0.0
0.0
0.0
0.0
0.0
0.0
0.0
0.0
0.0
0.0
0.0
0.0
0.0
0.0
0.0
0.0
0.0
0.0
0.0
0.0
0.0
0.0
0.0
0.0
0.0
0.0
0.0
0.0
0.0
0.0
0.0
0.0
0.0
0.0
0.0
0.0
0.0
0.0
0.0
0.0
0.0
0.0
0.0
0.0
0.0
0.0
0.0
0.0
0.0
0.0
0.0
0.0
0.0
0.0
0.0
0.0
0.0
0.0
0.0
0.0
0.0
0.0
0.0
0.0
0.0
0.0
0.0
0.0
0.0
0.0
0.0
0.0
0.0
0.0
0.0
0.0
0.0
0.0
0.0
0.0
0.0
0.0
0.0
0.0
0.0
0.0
0.0
0.0
0.0
0.0
0.0
0.0
0.0
0.0
0.0
0.0
0.0
0.0
0.0
0.0
0.0
0.0
0.0
0.0
0.0
0.0
0.0
0.0
0.0
0.0
0.0
0.0
0.0
0.0
0.0
0.0
0.0
0.0
0.0
0.0
0.0
0.0
0.0
0.0
0.0
0.0
0.0
0.0
0.0
0.0
0.0
0.0
0.0
0.0
0.0
0.0
0.0
0.0
0.0
0.0
0.0
0.0
0.0
0.0
0.0
0.0
0.0
0.0
0.0
0.0
0.0
0.0
0.0
0.0
0.0
0.0
0.0
0.0
0.0
0.0
0.0
0.0
0.0
0.0
0.0
0.0
0.0
0.0
0.0
0.0
0.0
0.0
0.0
0.0
0.0
0.0
0.0
0.0
0.0
0.0
0.0
0.0
0.0
0.0
0.0
0.0
0.0
0.0
0.0
0.0
0.0
0.0
0.0
0.0
0.0
0.0
0.0
0.0
0.0
0.0
0.0
0.0
0.0
0.0
0.0
0.0
0.0
0.0
0.0
0.0
0.0
0.0
0.0
0.0
0.0
0.0
0.0
0.0
0.0
0.0
0.0
0.0
0.0
0.0
0.0
0.0
0.0
0.0
0.0
0.0
0.0
0.0
0.0
0.0
0.0
0.0
0.0
0.0
0.0
0.0
0.0
0.0
0.0
0.0
0.0
0.0
0.0
0.0
0.0
0.0
0.0
0.0
0.0
0.0
0.0
0.0
0.0
0.0
0.0
0.0
0.0
0.0
0.0
0.0
0.0
0.0
0.0
0.0
0.0
0.0
0.0
0.0
0.0
0.0
0.0
0.0
0.0
0.0
0.0
0.0
0.0
0.0
0.0
0.0
0.0
0.0
0.0
0.0
0.0
0.0
0.0
0.0
0.0
0.0
0.0
0.0
0.0
0.0
0.0
0.0
0.0
0.0
0.0
0.0
0.0
0.0
0.0
0.0
0.0
0.0
0.0
0.0
0.0
0.0
0.0
0.0
0.0
0.0
0.0
0.0
0.0
0.0
0.0
0.0
0.0
0.0
0.0
0.0
0.0
0.0
0.0
0.0
0.0
0.0
0.0
0.0
0.0
0.0
0.0
0.0
0.0
0.0
0.0
0.0
0.0
0.0
0.0
0.0
0.0
0.0
0.0
0.0
0.0
0.0
0.0
0.0
0.0
0.0
0.0
0.0
0.0
0.0
0.0
0.0
0.0
0.0
0.0
0.0
0.0
0.0
0.0
0.0
0.0
0.0
0.0
0.0
0.0
0.0
0.0
0.0
0.0
0.0
0.0
0.0
0.0
0.0
0.0
0.0
0.0
0.0
0.0
0.0
0.0
0.0
0.0
0.0
0.0
0.0
0.0
0.0
0.0
0.0
0.0
0.0
0.0
0.0
0.0
0.0
0.0
0.0
0.0
0.0
0.0
0.0
0.0
0.0
0.0
0.0
0.0
0.0
0.0
0.0
0.0
0.0
0.0
0.0
0.0
0.0
0.0
0.0
0.0
0.0
0.0
0.0
0.0
0.0
0.0
0.0
0.0
0.0
0.0
0.0
0.0
0.0
0.0
0.0
0.0
0.0
0.0
0.0
0.0
0.0
0.0
0.0
0.0
0.0
0.0
0.0
0.0
0.0
0.0
0.0
0.0
0.0
0.0
0.0
0.0
0.0
0.0
0.0
0.0
0.0
0.0
0.0
0.0
0.0
0.0
0.0
0.0
0.0
0.0
0.0
0.0
0.0
0.0
0.0
0.0
0.0
0.0
0.0
0.0
0.0
0.0
0.0
0.0
0.0
0.0
0.0
0.0
0.0
0.0
0.0
0.0
0.0
0.0
0.0
0.0
0.0
0.0
0.0
0.0
0.0
0.0
0.0
0.0
0.0
0.0
0.0
0.0
0.0
0.0
0.0
0.0
0.0
0.0
0.0
0.0
0.0
0.0
0.0
0.0
0.0
0.0
0.0
0.0
0.0
0.0
0.0
0.0
0.0
0.0
0.0
0.0
0.0
0.0
0.0
0.0
0.0
0.0
0.0
0.0
0.0
0.0
0.0
0.0
0.0
0.0

VECTORS node_force_edge float
0.0 0.0 0.0 
0.0 0.0 0.0 
0.0 0.0 0.0 
0.0 0.0 0.0 
0.0 0.0 0.0 
0.0 0.0 0.0 
0.0 0.0 0.0 
0.0 0.0 0.0 
0.0 0.0 0.0 
0.0 0.0 0.0 
0.0 0.0 0.0 
0.0 0.0 0.0 
0.0 0.0 0.0 
0.0 0.0 0.0 
0.0 0.0 0.0 
0.0 0.0 0.0 
0.0 0.0 0.0 
0.0 0.0 0.0 
0.0 0.0 0.0 
0.0 0.0 0.0 
0.0 0.0 0.0 
0.0 0.0 0.0 
0.0 0.0 0.0 
0.0 0.0 0.0 
0.0 0.0 0.0 
0.0 0.0 0.0 
0.0 0.0 0.0 
0.0 0.0 0.0 
0.0 0.0 0.0 
0.0 0.0 0.0 
0.0 0.0 0.0 
0.0 0.0 0.0 
0.0 0.0 0.0 
0.0 0.0 0.0 
0.0 0.0 0.0 
0.0 0.0 0.0 
0.0 0.0 0.0 
0.0 0.0 0.0 
0.0 0.0 0.0 
0.0 0.0 0.0 
0.0 0.0 0.0 
0.0 0.0 0.0 
0.0 0.0 0.0 
0.0 0.0 0.0 
0.0 0.0 0.0 
0.0 0.0 0.0 
0.0 0.0 0.0 
0.0 0.0 0.0 
0.0 0.0 0.0 
0.0 0.0 0.0 
0.0 0.0 0.0 
0.0 0.0 0.0 
0.0 0.0 0.0 
0.0 0.0 0.0 
0.0 0.0 0.0 
0.0 0.0 0.0 
0.0 0.0 0.0 
0.0 0.0 0.0 
0.0 0.0 0.0 
0.0 0.0 0.0 
0.0 0.0 0.0 
0.0 0.0 0.0 
0.0 0.0 0.0 
0.0 0.0 0.0 
0.0 0.0 0.0 
0.0 0.0 0.0 
0.0 0.0 0.0 
0.0 0.0 0.0 
0.0 0.0 0.0 
0.0 0.0 0.0 
0.0 0.0 0.0 
0.0 0.0 0.0 
0.0 0.0 0.0 
0.0 0.0 0.0 
0.0 0.0 0.0 
0.0 0.0 0.0 
0.0 0.0 0.0 
0.0 0.0 0.0 
0.0 0.0 0.0 
0.0 0.0 0.0 
0.0 0.0 0.0 
0.0 -1.000000000000e+02 0.0 
0.0 0.0 0.0 
0.0 0.0 0.0 
0.0 0.0 0.0 
0.0 0.0 0.0 
0.0 0.0 0.0 
0.0 0.0 0.0 
0.0 0.0 0.0 
0.0 0.0 0.0 
0.0 0.0 0.0 
0.0 0.0 0.0 
0.0 0.0 0.0 
0.0 0.0 0.0 
0.0 0.0 0.0 
0.0 0.0 0.0 
0.0 0.0 0.0 
0.0 0.0 0.0 
0.0 0.0 0.0 
0.0 0.0 0.0 
0.0 0.0 0.0 
0.0 0.0 0.0 
0.0 0.0 0.0 
0.0 0.0 0.0 
0.0 0.0 0.0 
0.0 0.0 0.0 
0.0 0.0 0.0 
0.0 0.0 0.0 
0.0 0.0 0.0 
0.0 0.0 0.0 
0.0 -1.000000000000e+02 0.0 
0.0 -1.000000000000e+02 0.0 
0.0 -1.000000000000e+02 0.0 
0.0 -1.000000000000e+02 0.0 
0.0 -1.000000000000e+02 0.0 
0.0 0.0 0.0 
0.0 0.0 0.0 
0.0 0.0 0.0 
0.0 0.0 0.0 
0.0 0.0 0.0 
0.0 0.0 0.0 
0.0 0.0 0.0 
0.0 0.0 0.0 
0.0 0.0 0.0 
0.0 0.0 0.0 
0.0 0.0 0.0 
0.0 0.0 0.0 
0.0 0.0 0.0 
0.0 0.0 0.0 
0.0 0.0 0.0 
0.0 0.0 0.0 
0.0 0.0 0.0 
0.0 0.0 0.0 
0.0 0.0 0.0 
0.0 0.0 0.0 
0.0 0.0 0.0 
0.0 0.0 0.0 
0.0 0.0 0.0 
0.0 0.0 0.0 
0.0 0.0 0.0 
0.0 0.0 0.0 
0.0 0.0 0.0 
0.0 0.0 0.0 
0.0 0.0 0.0 
0.0 0.0 0.0 
0.0 0.0 0.0 
0.0 0.0 0.0 
0.0 0.0 0.0 
0.0 0.0 0.0 
0.0 0.0 0.0 
0.0 0.0 0.0 
0.0 0.0 0.0 
0.0 0.0 0.0 
0.0 0.0 0.0 
0.0 0.0 0.0 
0.0 0.0 0.0 
0.0 0.0 0.0 
0.0 0.0 0.0 
0.0 0.0 0.0 
0.0 0.0 0.0 
0.0 0.0 0.0 
0.0 0.0 0.0 
0.0 0.0 0.0 
0.0 0.0 0.0 
0.0 0.0 0.0 
0.0 0.0 0.0 
0.0 0.0 0.0 
0.0 0.0 0.0 
0.0 0.0 0.0 
0.0 0.0 0.0 
0.0 0.0 0.0 
0.0 0.0 0.0 
0.0 0.0 0.0 
0.0 0.0 0.0 
0.0 0.0 0.0 
0.0 0.0 0.0 
0.0 0.0 0.0 
0.0 0.0 0.0 
0.0 0.0 0.0 
0.0 0.0 0.0 
0.0 0.0 0.0 
0.0 0.0 0.0 
0.0 0.0 0.0 
0.0 0.0 0.0 
0.0 0.0 0.0 
0.0 0.0 0.0 
0.0 0.0 0.0 
0.0 0.0 0.0 
0.0 0.0 0.0 
0.0 0.0 0.0 
0.0 0.0 0.0 
0.0 0.0 0.0 
0.0 0.0 0.0 
0.0 0.0 0.0 
0.0 0.0 0.0 
0.0 0.0 0.0 
0.0 0.0 0.0 
0.0 0.0 0.0 
0.0 0.0 0.0 
0.0 0.0 0.0 
0.0 0.0 0.0 
0.0 0.0 0.0 
0.0 0.0 0.0 
0.0 0.0 0.0 
0.0 0.0 0.0 
0.0 0.0 0.0 
0.0 0.0 0.0 
0.0 0.0 0.0 
0.0 0.0 0.0 
0.0 0.0 0.0 
0.0 0.0 0.0 
0.0 0.0 0.0 
0.0 0.0 0.0 
0.0 0.0 0.0 
0.0 0.0 0.0 
0.0 0.0 0.0 
0.0 0.0 0.0 
0.0 0.0 0.0 
0.0 0.0 0.0 
0.0 0.0 0.0 
0.0 0.0 0.0 
0.0 0.0 0.0 
0.0 0.0 0.0 
0.0 0.0 0.0 
0.0 0.0 0.0 
0.0 0.0 0.0 
0.0 0.0 0.0 
0.0 0.0 0.0 
0.0 0.0 0.0 
0.0 0.0 0.0 
0.0 0.0 0.0 
0.0 0.0 0.0 
0.0 0.0 0.0 
0.0 0.0 0.0 
0.0 0.0 0.0 
0.0 0.0 0.0 
0.0 0.0 0.0 
0.0 0.0 0.0 
0.0 0.0 0.0 
0.0 0.0 0.0 
0.0 0.0 0.0 
0.0 0.0 0.0 
0.0 0.0 0.0 
0.0 0.0 0.0 
0.0 0.0 0.0 
0.0 0.0 0.0 
0.0 0.0 0.0 
0.0 0.0 0.0 
0.0 0.0 0.0 
0.0 0.0 0.0 
0.0 0.0 0.0 
0.0 0.0 0.0 
0.0 0.0 0.0 
0.0 0.0 0.0 
0.0 0.0 0.0 
0.0 0.0 0.0 
0.0 0.0 0.0 
0.0 0.0 0.0 
0.0 0.0 0.0 
0.0 0.0 0.0 
0.0 0.0 0.0 
0.0 0.0 0.0 
0.0 0.0 0.0 
0.0 0.0 0.0 
0.0 0.0 0.0 
0.0 0.0 0.0 
0.0 0.0 0.0 
0.0 0.0 0.0 
0.0 0.0 0.0 
0.0 0.0 0.0 
0.0 0.0 0.0 
0.0 0.0 0.0 
0.0 0.0 0.0 
0.0 0.0 0.0 
0.0 0.0 0.0 
0.0 0.0 0.0 
0.0 0.0 0.0 
0.0 0.0 0.0 
0.0 0.0 0.0 
0.0 0.0 0.0 
0.0 0.0 0.0 
0.0 0.0 0.0 
0.0 0.0 0.0 
0.0 0.0 0.0 
0.0 0.0 0.0 
0.0 0.0 0.0 
0.0 0.0 0.0 
0.0 0.0 0.0 
0.0 0.0 0.0 
0.0 0.0 0.0 
0.0 0.0 0.0 
0.0 0.0 0.0 
0.0 0.0 0.0 
0.0 0.0 0.0 
0.0 0.0 0.0 
0.0 0.0 0.0 
0.0 0.0 0.0 
0.0 0.0 0.0 
0.0 0.0 0.0 
0.0 0.0 0.0 
0.0 0.0 0.0 
0.0 0.0 0.0 
0.0 0.0 0.0 
0.0 0.0 0.0 
0.0 0.0 0.0 
0.0 0.0 0.0 
0.0 0.0 0.0 
0.0 0.0 0.0 
0.0 0.0 0.0 
0.0 0.0 0.0 
0.0 0.0 0.0 
0.0 0.0 0.0 
0.0 0.0 0.0 
0.0 0.0 0.0 
0.0 0.0 0.0 
0.0 0.0 0.0 
0.0 0.0 0.0 
0.0 0.0 0.0 
0.0 0.0 0.0 
0.0 0.0 0.0 
0.0 0.0 0.0 
0.0 0.0 0.0 
0.0 0.0 0.0 
0.0 0.0 0.0 
0.0 0.0 0.0 
0.0 0.0 0.0 
0.0 0.0 0.0 
0.0 0.0 0.0 
0.0 0.0 0.0 
0.0 0.0 0.0 
0.0 0.0 0.0 
0.0 0.0 0.0 
0.0 0.0 0.0 
0.0 0.0 0.0 
0.0 0.0 0.0 
0.0 0.0 0.0 
0.0 0.0 0.0 
0.0 0.0 0.0 
0.0 0.0 0.0 
0.0 0.0 0.0 
0.0 0.0 0.0 
0.0 0.0 0.0 
0.0 0.0 0.0 
0.0 0.0 0.0 
0.0 0.0 0.0 
0.0 0.0 0.0 
0.0 0.0 0.0 
0.0 0.0 0.0 
0.0 0.0 0.0 
0.0 0.0 0.0 
0.0 0.0 0.0 
0.0 0.0 0.0 
0.0 0.0 0.0 
0.0 0.0 0.0 
0.0 0.0 0.0 
0.0 0.0 0.0 
0.0 0.0 0.0 
0.0 0.0 0.0 
0.0 0.0 0.0 
0.0 0.0 0.0 
0.0 0.0 0.0 
0.0 0.0 0.0 
0.0 0.0 0.0 
0.0 0.0 0.0 
0.0 0.0 0.0 
0.0 0.0 0.0 
0.0 0.0 0.0 
0.0 0.0 0.0 
0.0 0.0 0.0 
0.0 0.0 0.0 
0.0 0.0 0.0 
0.0 0.0 0.0 
0.0 0.0 0.0 
0.0 0.0 0.0 
0.0 0.0 0.0 
0.0 0.0 0.0 
0.0 0.0 0.0 
0.0 0.0 0.0 
0.0 0.0 0.0 
0.0 0.0 0.0 
0.0 0.0 0.0 
0.0 0.0 0.0 
0.0 0.0 0.0 
0.0 0.0 0.0 
0.0 0.0 0.0 
0.0 0.0 0.0 
0.0 0.0 0.0 
0.0 0.0 0.0 
0.0 0.0 0.0 
0.0 0.0 0.0 
0.0 0.0 0.0 
0.0 0.0 0.0 
0.0 0.0 0.0 
0.0 0.0 0.0 
0.0 0.0 0.0 
0.0 0.0 0.0 
0.0 0.0 0.0 
0.0 0.0 0.0 
0.0 0.0 0.0 
0.0 0.0 0.0 
0.0 0.0 0.0 
0.0 0.0 0.0 
0.0 0.0 0.0 
0.0 0.0 0.0 
0.0 0.0 0.0 
0.0 0.0 0.0 
0.0 0.0 0.0 
0.0 0.0 0.0 
0.0 0.0 0.0 
0.0 0.0 0.0 
0.0 0.0 0.0 
0.0 0.0 0.0 
0.0 0.0 0.0 
0.0 0.0 0.0 
0.0 0.0 0.0 
0.0 0.0 0.0 
0.0 0.0 0.0 
0.0 0.0 0.0 
0.0 0.0 0.0 
0.0 0.0 0.0 
0.0 0.0 0.0 
0.0 0.0 0.0 
0.0 0.0 0.0 
0.0 0.0 0.0 
0.0 0.0 0.0 
0.0 0.0 0.0 
0.0 0.0 0.0 
0.0 0.0 0.0 
0.0 0.0 0.0 
0.0 0.0 0.0 
0.0 0.0 0.0 
0.0 0.0 0.0 
0.0 0.0 0.0 
0.0 0.0 0.0 
0.0 0.0 0.0 
0.0 0.0 0.0 
0.0 0.0 0.0 
0.0 0.0 0.0 
0.0 0.0 0.0 
0.0 0.0 0.0 
0.0 0.0 0.0 
0.0 0.0 0.0 
0.0 0.0 0.0 
0.0 0.0 0.0 
0.0 0.0 0.0 
0.0 0.0 0.0 
0.0 0.0 0.0 
0.0 0.0 0.0 
0.0 0.0 0.0 
0.0 0.0 0.0 
0.0 0.0 0.0 
0.0 0.0 0.0 
0.0 0.0 0.0 
0.0 0.0 0.0 
0.0 0.0 0.0 
0.0 0.0 0.0 
0.0 0.0 0.0 
0.0 0.0 0.0 
0.0 0.0 0.0 
0.0 0.0 0.0 
0.0 0.0 0.0 
0.0 0.0 0.0 
0.0 0.0 0.0 
0.0 0.0 0.0 
0.0 0.0 0.0 
0.0 0.0 0.0 
0.0 0.0 0.0 
0.0 0.0 0.0 
0.0 0.0 0.0 
0.0 0.0 0.0 
0.0 0.0 0.0 
0.0 0.0 0.0 
0.0 0.0 0.0 
0.0 0.0 0.0 
0.0 0.0 0.0 
0.0 0.0 0.0 
0.0 0.0 0.0 
0.0 0.0 0.0 
0.0 0.0 0.0 
0.0 0.0 0.0 
0.0 0.0 0.0 
0.0 0.0 0.0 
0.0 0.0 0.0 
0.0 0.0 0.0 
0.0 0.0 0.0 
0.0 0.0 0.0 
0.0 0.0 0.0 
0.0 0.0 0.0 
0.0 0.0 0.0 
0.0 0.0 0.0 
0.0 0.0 0.0 
0.0 0.0 0.0 
0.0 0.0 0.0 
0.0 0.0 0.0 
0.0 0.0 0.0 
0.0 0.0 0.0 
0.0 0.0 0.0 
0.0 0.0 0.0 
0.0 0.0 0.0 
0.0 0.0 0.0 
0.0 0.0 0.0 
0.0 0.0 0.0 
0.0 0.0 0.0 
0.0 0.0 0.0 
0.0 0.0 0.0 
0.0 0.0 0.0 
0.0 0.0 0.0 
0.0 0.0 0.0 
0.0 0.0 0.0 
0.0 0.0 0.0 
0.0 0.0 0.0 
0.0 0.0 0.0 
0.0 0.0 0.0 
0.0 0.0 0.0 
0.0 0.0 0.0 
0.0 0.0 0.0 
0.0 0.0 0.0 
0.0 0.0 0.0 
0.0 0.0 0.0 
0.0 0.0 0.0 
0.0 0.0 0.0 
0.0 0.0 0.0 
0.0 0.0 0.0 
0.0 0.0 0.0 
0.0 0.0 0.0 
0.0 0.0 0.0 
0.0 0.0 0.0 
0.0 0.0 0.0 
0.0 0.0 0.0 
0.0 0.0 0.0 
0.0 0.0 0.0 
0.0 0.0 0.0 
0.0 0.0 0.0 
0.0 0.0 0.0 
0.0 0.0 0.0 
0.0 0.0 0.0 
0.0 0.0 0.0 
0.0 0.0 0.0 
0.0 0.0 0.0 
0.0 0.0 0.0 
0.0 0.0 0.0 
0.0 0.0 0.0 
0.0 0.0 0.0 
0.0 0.0 0.0 
0.0 0.0 0.0 
0.0 0.0 0.0 
0.0 0.0 0.0 
0.0 0.0 0.0 
0.0 0.0 0.0 
0.0 0.0 0.0 
0.0 0.0 0.0 
0.0 0.0 0.0 
0.0 0.0 0.0 
0.0 0.0 0.0 
0.0 0.0 0.0 
0.0 0.0 0.0 
0.0 0.0 0.0 
0.0 0.0 0.0 
0.0 0.0 0.0 
0.0 0.0 0.0 
0.0 0.0 0.0 
0.0 0.0 0.0 
0.0 0.0 0.0 
0.0 0.0 0.0 
0.0 0.0 0.0 
0.0 0.0 0.0 
0.0 0.0 0.0 
0.0 0.0 0.0 
0.0 0.0 0.0 
0.0 0.0 0.0 
0.0 0.0 0.0 
0.0 0.0 0.0 
0.0 0.0 0.0 
0.0 0.0 0.0 
0.0 0.0 0.0 
0.0 0.0 0.0 
0.0 0.0 0.0 
0.0 0.0 0.0 
0.0 0.0 0.0 
0.0 0.0 0.0 
0.0 0.0 0.0 
0.0 0.0 0.0 
0.0 0.0 0.0 
0.0 0.0 0.0 
0.0 0.0 0.0 
0.0 0.0 0.0 
0.0 0.0 0.0 
0.0 0.0 0.0 
0.0 0.0 0.0 
0.0 0.0 0.0 
0.0 0.0 0.0 
0.0 0.0 0.0 
0.0 0.0 0.0 
0.0 0.0 0.0 
0.0 0.0 0.0 
0.0 0.0 0.0 
0.0 0.0 0.0 
0.0 0.0 0.0 
0.0 0.0 0.0 
0.0 0.0 0.0 
0.0 0.0 0.0 
0.0 0.0 0.0 
0.0 0.0 0.0 
0.0 0.0 0.0 
0.0 0.0 0.0 
0.0 0.0 0.0 
0.0 0.0 0.0 
0.0 0.0 0.0 
0.0 0.0 0.0 
0.0 0.0 0.0 
0.0 0.0 0.0 
0.0 0.0 0.0 
0.0 0.0 0.0 
0.0 0.0 0.0 
0.0 0.0 0.0 
0.0 0.0 0.0 
0.0 0.0 0.0 
0.0 0.0 0.0 
0.0 0.0 0.0 
0.0 0.0 0.0 
0.0 0.0 0.0 
0.0 0.0 0.0 
0.0 0.0 0.0 
0.0 0.0 0.0 
0.0 0.0 0.0 
0.0 0.0 0.0 
0.0 0.0 0.0 
0.0 0.0 0.0 
0.0 0.0 0.0 
0.0 0.0 0.0 
0.0 0.0 0.0 
0.0 0.0 0.0 
0.0 0.0 0.0 
0.0 0.0 0.0 
0.0 0.0 0.0 
0.0 0.0 0.0 
0.0 0.0 0.0 
0.0 0.0 0.0 
0.0 0.0 0.0 
0.0 0.0 0.0 
0.0 0.0 0.0 
0.0 0.0 0.0 
0.0 0.0 0.0 
0.0 0.0 0.0 
0.0 0.0 0.0 
0.0 0.0 0.0 
0.0 0.0 0.0 
0.0 0.0 0.0 
0.0 0.0 0.0 
0.0 0.0 0.0 
0.0 0.0 0.0 
0.0 0.0 0.0 
0.0 0.0 0.0 
0.0 0.0 0.0 
0.0 0.0 0.0 
0.0 0.0 0.0 
0.0 0.0 0.0 
0.0 0.0 0.0 
0.0 0.0 0.0 
0.0 0.0 0.0 
0.0 0.0 0.0 
0.0 0.0 0.0 
0.0 0.0 0.0 
0.0 0.0 0.0 
0.0 0.0 0.0 
0.0 0.0 0.0 
0.0 0.0 0.0 
0.0 0.0 0.0 
0.0 0.0 0.0 
0.0 0.0 0.0 
0.0 0.0 0.0 
0.0 0.0 0.0 
0.0 0.0 0.0 
0.0 0.0 0.0 
0.0 0.0 0.0 
0.0 0.0 0.0 
0.0 0.0 0.0 
0.0 0.0 0.0 
0.0 0.0 0.0 
0.0 0.0 0.0 
0.0 0.0 0.0 
0.0 0.0 0.0 
0.0 0.0 0.0 
0.0 0.0 0.0 
0.0 0.0 0.0 
0.0 0.0 0.0 
0.0 0.0 0.0 
0.0 0.0 0.0 
0.0 0.0 0.0 
0.0 0.0 0.0 
0.0 0.0 0.0 
0.0 0.0 0.0 
0.0 0.0 0.0 
0.0 0.0 0.0 
0.0 0.0 0.0 
0.0 0.0 0.0 
0.0 0.0 0.0 
0.0 0.0 0.0 
0.0 0.0 0.0 
0.0 0.0 0.0 
0.0 0.0 0.0 
0.0 0.0 0.0 
0.0 0.0 0.0 
0.0 0.0 0.0 
0.0 0.0 0.0 
0.0 0.0 0.0 
0.0 0.0 0.0 
0.0 0.0 0.0 
0.0 0.0 0.0 
0.0 0.0 0.0 
0.0 0.0 0.0 
0.0 0.0 0.0 
0.0 0.0 0.0 
0.0 0.0 0.0 
0.0 0.0 0.0 
0.0 0.0 0.0 
0.0 0.0 0.0 
0.0 0.0 0.0 
0.0 0.0 0.0 
0.0 0.0 0.0 
0.0 0.0 0.0 
0.0 0.0 0.0 
0.0 0.0 0.0 
0.0 0.0 0.0 
0.0 0.0 0.0 
0.0 0.0 0.0 
0.0 0.0 0.0 
0.0 0.0 0.0 
0.0 0.0 0.0 
0.0 0.0 0.0 
0.0 0.0 0.0 
0.0 0.0 0.0 
0.0 0.0 0.0 
0.0 0.0 0.0 
0.0 0.0 0.0 
0.0 0.0 0.0 
0.0 0.0 0.0 
0.0 0.0 0.0 
0.0 0.0 0.0 
0.0 0.0 0.0 
0.0 0.0 0.0 
0.0 0.0 0.0 
0.0 0.0 0.0 
0.0 0.0 0.0 
0.0 0.0 0.0 
0.0 0.0 0.0 
0.0 0.0 0.0 
0.0 0.0 0.0 
0.0 0.0 0.0 
0.0 0.0 0.0 
0.0 0.0 0.0 
0.0 0.0 0.0 
0.0 0.0 0.0 
0.0 0.0 0.0 
0.0 0.0 0.0 
0.0 0.0 0.0 
0.0 0.0 0.0 
0.0 0.0 0.0 
0.0 0.0 0.0 
0.0 0.0 0.0 
0.0 0.0 0.0 
0.0 0.0 0.0 
0.0 0.0 0.0 
0.0 0.0 0.0 
0.0 0.0 0.0 
0.0 0.0 0.0 
0.0 0.0 0.0 
0.0 0.0 0.0 
0.0 0.0 0.0 
0.0 0.0 0.0 
0.0 0.0 0.0 
0.0 0.0 0.0 
0.0 0.0 0.0 
0.0 0.0 0.0 
0.0 0.0 0.0 
0.0 0.0 0.0 
0.0 0.0 0.0 
0.0 0.0 0.0 
0.0 0.0 0.0 
0.0 0.0 0.0 
0.0 0.0 0.0 
0.0 0.0 0.0 
0.0 0.0 0.0 
0.0 0.0 0.0 
0.0 0.0 0.0 
0.0 0.0 0.0 
0.0 0.0 0.0 
0.0 0.0 0.0 
0.0 0.0 0.0 
0.0 0.0 0.0 
0.0 0.0 0.0 
0.0 0.0 0.0 
0.0 0.0 0.0 
0.0 0.0 0.0 
0.0 0.0 0.0 
0.0 0.0 0.0 
0.0 0.0 0.0 
0.0 0.0 0.0 
0.0 0.0 0.0 
0.0 0.0 0.0 
0.0 0.0 0.0 
0.0 0.0 0.0 
0.0 0.0 0.0 
0.0 0.0 0.0 
0.0 0.0 0.0 
0.0 0.0 0.0 
0.0 0.0 0.0 
0.0 0.0 0.0 
0.0 0.0 0.0 
0.0 0.0 0.0 
0.0 0.0 0.0 
0.0 0.0 0.0 
0.0 0.0 0.0 
0.0 0.0 0.0 
0.0 0.0 0.0 
0.0 0.0 0.0 
0.0 0.0 0.0 
0.0 0.0 0.0 
0.0 0.0 0.0 
0.0 0.0 0.0 
0.0 0.0 0.0 
0.0 0.0 0.0 
0.0 0.0 0.0 
0.0 0.0 0.0 
0.0 0.0 0.0 
0.0 0.0 0.0 
0.0 0.0 0.0 
0.0 0.0 0.0 
0.0 0.0 0.0 
0.0 0.0 0.0 
0.0 0.0 0.0 
0.0 0.0 0.0 
0.0 0.0 0.0 
0.0 0.0 0.0 
0.0 0.0 0.0 
0.0 0.0 0.0 
0.0 0.0 0.0 
0.0 0.0 0.0 
0.0 0.0 0.0 
0.0 0.0 0.0 
0.0 0.0 0.0 
0.0 0.0 0.0 
0.0 0.0 0.0 
0.0 0.0 0.0 
0.0 0.0 0.0 
0.0 0.0 0.0 
0.0 0.0 0.0 
0.0 0.0 0.0 
0.0 0.0 0.0 
0.0 0.0 0.0 
0.0 0.0 0.0 
0.0 0.0 0.0 
0.0 0.0 0.0 
0.0 0.0 0.0 
0.0 0.0 0.0 
0.0 0.0 0.0 
0.0 0.0 0.0 
0.0 0.0 0.0 
0.0 0.0 0.0 
0.0 0.0 0.0 
0.0 0.0 0.0 
0.0 0.0 0.0 
0.0 0.0 0.0 
0.0 0.0 0.0 
0.0 0.0 0.0 
0.0 0.0 0.0 
0.0 0.0 0.0 
0.0 0.0 0.0 
0.0 0.0 0.0 
0.0 0.0 0.0 
0.0 0.0 0.0 
0.0 0.0 0.0 
0.0 0.0 0.0 
0.0 0.0 0.0 
0.0 0.0 0.0 
0.0 0.0 0.0 
0.0 0.0 0.0 
0.0 0.0 0.0 
0.0 0.0 0.0 
0.0 0.0 0.0 
0.0 0.0 0.0 
0.0 0.0 0.0 
0.0 0.0 0.0 
0.0 0.0 0.0 
0.0 0.0 0.0 
0.0 0.0 0.0 
0.0 0.0 0.0 
0.0 0.0 0.0 
0.0 0.0 0.0 
0.0 0.0 0.0 
0.0 0.0 0.0 
0.0 0.0 0.0 
0.0 0.0 0.0 
0.0 0.0 0.0 
0.0 0.0 0.0 
0.0 0.0 0.0 
0.0 0.0 0.0 
0.0 0.0 0.0 
0.0 0.0 0.0 
0.0 0.0 0.0 
0.0 0.0 0.0 
0.0 0.0 0.0 
0.0 0.0 0.0 
0.0 0.0 0.0 
0.0 0.0 0.0 
0.0 0.0 0.0 
0.0 0.0 0.0 
0.0 0.0 0.0 
0.0 0.0 0.0 
0.0 0.0 0.0 
0.0 0.0 0.0 
0.0 0.0 0.0 
0.0 0.0 0.0 
0.0 0.0 0.0 
0.0 0.0 0.0 
0.0 0.0 0.0 
0.0 0.0 0.0 
0.0 0.0 0.0 
0.0 0.0 0.0 
0.0 0.0 0.0 
0.0 0.0 0.0 
0.0 0.0 0.0 
0.0 0.0 0.0 
0.0 0.0 0.0 
0.0 0.0 0.0 
0.0 0.0 0.0 
0.0 0.0 0.0 
0.0 0.0 0.0 
0.0 0.0 0.0 
0.0 0.0 0.0 
0.0 0.0 0.0 
0.0 0.0 0.0 
0.0 0.0 0.0 
0.0 0.0 0.0 
0.0 0.0 0.0 
0.0 0.0 0.0 
0.0 0.0 0.0 
0.0 0.0 0.0 
0.0 0.0 0.0 
0.0 0.0 0.0 
0.0 0.0 0.0 
0.0 0.0 0.0 
0.0 0.0 0.0 
0.0 0.0 0.0 
0.0 0.0 0.0 
0.0 0.0 0.0 
0.0 0.0 0.0 
0.0 0.0 0.0 
0.0 0.0 0.0 
0.0 0.0 0.0 
0.0 0.0 0.0 
0.0 0.0 0.0 
0.0 0.0 0.0 
0.0 0.0 0.0 
0.0 0.0 0.0 
0.0 0.0 0.0 
0.0 0.0 0.0 
0.0 0.0 0.0 
0.0 0.0 0.0 
0.0 0.0 0.0 
0.0 0.0 0.0 
0.0 0.0 0.0 
0.0 0.0 0.0 
0.0 0.0 0.0 
0.0 0.0 0.0 
0.0 0.0 0.0 
0.0 0.0 0.0 
0.0 0.0 0.0 
0.0 0.0 0.0 
0.0 0.0 0.0 
0.0 0.0 0.0 
0.0 0.0 0.0 
0.0 0.0 0.0 
0.0 0.0 0.0 
0.0 0.0 0.0 
0.0 0.0 0.0 
0.0 0.0 0.0 
0.0 0.0 0.0 
0.0 0.0 0.0 
0.0 0.0 0.0 
0.0 0.0 0.0 
0.0 0.0 0.0 
0.0 0.0 0.0 
0.0 0.0 0.0 
0.0 0.0 0.0 
0.0 0.0 0.0 
0.0 0.0 0.0 
0.0 0.0 0.0 
0.0 0.0 0.0 
0.0 0.0 0.0 
0.0 0.0 0.0 
0.0 0.0 0.0 
0.0 0.0 0.0 
0.0 0.0 0.0 
0.0 0.0 0.0 
0.0 0.0 0.0 
0.0 0.0 0.0 
0.0 0.0 0.0 
0.0 0.0 0.0 
0.0 0.0 0.0 
0.0 0.0 0.0 
0.0 0.0 0.0 
0.0 0.0 0.0 
0.0 0.0 0.0 
0.0 0.0 0.0 
0.0 0.0 0.0 
0.0 0.0 0.0 
0.0 0.0 0.0 
0.0 0.0 0.0 
0.0 0.0 0.0 
0.0 0.0 0.0 
0.0 0.0 0.0 
0.0 0.0 0.0 
0.0 0.0 0.0 
0.0 0.0 0.0 
0.0 0.0 0.0 
0.0 0.0 0.0 
0.0 0.0 0.0 
0.0 0.0 0.0 
0.0 0.0 0.0 
0.0 0.0 0.0 
0.0 0.0 0.0 
0.0 0.0 0.0 
0.0 0.0 0.0 
0.0 0.0 0.0 
0.0 0.0 0.0 
0.0 0.0 0.0 
0.0 0.0 0.0 
0.0 0.0 0.0 
0.0 0.0 0.0 
0.0 0.0 0.0 
0.0 0.0 0.0 
0.0 0.0 0.0 
0.0 0.0 0.0 
0.0 0.0 0.0 
0.0 0.0 0.0 
0.0 0.0 0.0 
0.0 0.0 0.0 
0.0 0.0 0.0 
0.0 0.0 0.0 
0.0 0.0 0.0 
0.0 0.0 0.0 
0.0 0.0 0.0 
0.0 0.0 0.0 
0.0 0.0 0.0 
0.0 0.0 0.0 
0.0 0.0 0.0 
0.0 0.0 0.0 
0.0 0.0 0.0 
0.0 0.0 0.0 
0.0 0.0 0.0 
0.0 0.0 0.0 
0.0 0.0 0.0 
0.0 0.0 0.0 
0.0 0.0 0.0 
0.0 0.0 0.0 
0.0 0.0 0.0 
0.0 0.0 0.0 
0.0 0.0 0.0 
0.0 0.0 0.0 
0.0 0.0 0.0 
0.0 0.0 0.0 
0.0 0.0 0.0 
0.0 0.0 0.0 
0.0 0.0 0.0 
0.0 0.0 0.0 
0.0 0.0 0.0 
0.0 0.0 0.0 
0.0 0.0 0.0 
0.0 0.0 0.0 
0.0 0.0 0.0 
0.0 0.0 0.0 
0.0 0.0 0.0 
0.0 0.0 0.0 
0.0 0.0 0.0 
0.0 0.0 0.0 
0.0 0.0 0.0 
0.0 0.0 0.0 
0.0 0.0 0.0 
0.0 0.0 0.0 
0.0 0.0 0.0 
0.0 0.0 0.0 
0.0 0.0 0.0 
0.0 0.0 0.0 
0.0 0.0 0.0 
0.0 0.0 0.0 
0.0 0.0 0.0 
0.0 0.0 0.0 
0.0 0.0 0.0 
0.0 0.0 0.0 
0.0 0.0 0.0 
0.0 0.0 0.0 
0.0 0.0 0.0 
0.0 0.0 0.0 
0.0 0.0 0.0 
0.0 0.0 0.0 
0.0 0.0 0.0 
0.0 0.0 0.0 
0.0 0.0 0.0 
0.0 0.0 0.0 
0.0 0.0 0.0 
0.0 0.0 0.0 
0.0 0.0 0.0 
0.0 0.0 0.0 
0.0 0.0 0.0 
0.0 0.0 0.0 
0.0 0.0 0.0 
0.0 0.0 0.0 
0.0 0.0 0.0 
0.0 0.0 0.0 
0.0 0.0 0.0 
0.0 0.0 0.0 

VECTORS node_force_gravity float
0.0 -1.962000000000e+01 0.0 
0.0 -1.962000000000e+01 0.0 
0.0 -1.962000000000e+01 0.0 
0.0 -1.962000000000e+01 0.0 
0.0 -1.962000000000e+01 0.0 
0.0 -1.962000000000e+01 0.0 
0.0 -1.962000000000e+01 0.0 
0.0 -1.962000000000e+01 0.0 
0.0 -1.962000000000e+01 0.0 
0.0 -1.962000000000e+01 0.0 
0.0 -1.962000000000e+01 0.0 
0.0 -1.962000000000e+01 0.0 
0.0 -1.962000000000e+01 0.0 
0.0 -1.962000000000e+01 0.0 
0.0 -1.962000000000e+01 0.0 
0.0 -1.962000000000e+01 0.0 
0.0 -1.962000000000e+01 0.0 
0.0 -1.962000000000e+01 0.0 
0.0 -1.962000000000e+01 0.0 
0.0 -1.962000000000e+01 0.0 
0.0 -1.962000000000e+01 0.0 
0.0 -1.962000000000e+01 0.0 
0.0 -1.962000000000e+01 0.0 
0.0 -1.962000000000e+01 0.0 
0.0 -1.962000000000e+01 0.0 
0.0 -1.962000000000e+01 0.0 
0.0 -1.962000000000e+01 0.0 
0.0 -1.962000000000e+01 0.0 
0.0 -1.962000000000e+01 0.0 
0.0 -1.962000000000e+01 0.0 
0.0 -1.962000000000e+01 0.0 
0.0 -1.962000000000e+01 0.0 
0.0 -1.962000000000e+01 0.0 
0.0 -1.962000000000e+01 0.0 
0.0 -1.962000000000e+01 0.0 
0.0 -1.962000000000e+01 0.0 
0.0 -1.962000000000e+01 0.0 
0.0 -1.962000000000e+01 0.0 
0.0 -1.962000000000e+01 0.0 
0.0 -1.962000000000e+01 0.0 
0.0 -1.962000000000e+01 0.0 
0.0 -1.962000000000e+01 0.0 
0.0 -1.962000000000e+01 0.0 
0.0 -1.962000000000e+01 0.0 
0.0 -1.962000000000e+01 0.0 
0.0 -1.962000000000e+01 0.0 
0.0 -1.962000000000e+01 0.0 
0.0 -1.962000000000e+01 0.0 
0.0 -1.962000000000e+01 0.0 
0.0 -1.962000000000e+01 0.0 
0.0 -1.962000000000e+01 0.0 
0.0 -1.962000000000e+01 0.0 
0.0 -1.962000000000e+01 0.0 
0.0 -1.962000000000e+01 0.0 
0.0 -1.962000000000e+01 0.0 
0.0 -1.962000000000e+01 0.0 
0.0 -1.962000000000e+01 0.0 
0.0 -1.962000000000e+01 0.0 
0.0 -1.962000000000e+01 0.0 
0.0 -1.962000000000e+01 0.0 
0.0 -1.962000000000e+01 0.0 
0.0 -1.962000000000e+01 0.0 
0.0 -1.962000000000e+01 0.0 
0.0 -1.962000000000e+01 0.0 
0.0 -1.962000000000e+01 0.0 
0.0 -1.962000000000e+01 0.0 
0.0 -1.962000000000e+01 0.0 
0.0 -1.962000000000e+01 0.0 
0.0 -1.962000000000e+01 0.0 
0.0 -1.962000000000e+01 0.0 
0.0 -1.962000000000e+01 0.0 
0.0 -1.962000000000e+01 0.0 
0.0 -1.962000000000e+01 0.0 
0.0 -1.962000000000e+01 0.0 
0.0 -1.962000000000e+01 0.0 
0.0 -1.962000000000e+01 0.0 
0.0 -1.962000000000e+01 0.0 
0.0 -1.962000000000e+01 0.0 
0.0 -1.962000000000e+01 0.0 
0.0 -1.962000000000e+01 0.0 
0.0 -1.962000000000e+01 0.0 
0.0 -1.962000000000e+01 0.0 
0.0 -1.962000000000e+01 0.0 
0.0 -1.962000000000e+01 0.0 
0.0 -1.962000000000e+01 0.0 
0.0 -1.962000000000e+01 0.0 
0.0 -1.962000000000e+01 0.0 
0.0 -1.962000000000e+01 0.0 
0.0 -1.962000000000e+01 0.0 
0.0 -1.962000000000e+01 0.0 
0.0 -1.962000000000e+01 0.0 
0.0 -1.962000000000e+01 0.0 
0.0 -1.962000000000e+01 0.0 
0.0 -1.962000000000e+01 0.0 
0.0 -1.962000000000e+01 0.0 
0.0 -1.962000000000e+01 0.0 
0.0 -1.962000000000e+01 0.0 
0.0 -1.962000000000e+01 0.0 
0.0 -1.962000000000e+01 0.0 
0.0 -1.962000000000e+01 0.0 
0.0 -1.962000000000e+01 0.0 
0.0 -1.962000000000e+01 0.0 
0.0 -1.962000000000e+01 0.0 
0.0 -1.962000000000e+01 0.0 
0.0 -1.962000000000e+01 0.0 
0.0 -1.962000000000e+01 0.0 
0.0 -1.962000000000e+01 0.0 
0.0 -1.962000000000e+01 0.0 
0.0 -1.962000000000e+01 0.0 
0.0 -1.962000000000e+01 0.0 
0.0 -1.962000000000e+01 0.0 
0.0 -1.962000000000e+01 0.0 
0.0 -1.962000000000e+01 0.0 
0.0 -1.962000000000e+01 0.0 
0.0 -1.962000000000e+01 0.0 
0.0 -1.962000000000e+01 0.0 
0.0 -1.962000000000e+01 0.0 
0.0 -1.962000000000e+01 0.0 
0.0 -1.962000000000e+01 0.0 
0.0 -1.962000000000e+01 0.0 
0.0 -1.962000000000e+01 0.0 
0.0 -1.962000000000e+01 0.0 
0.0 -1.962000000000e+01 0.0 
0.0 -1.962000000000e+01 0.0 
0.0 -1.962000000000e+01 0.0 
0.0 -1.962000000000e+01 0.0 
0.0 -1.962000000000e+01 0.0 
0.0 -1.962000000000e+01 0.0 
0.0 -1.962000000000e+01 0.0 
0.0 -1.962000000000e+01 0.0 
0.0 -1.962000000000e+01 0.0 
0.0 -1.962000000000e+01 0.0 
0.0 -1.962000000000e+01 0.0 
0.0 -1.962000000000e+01 0.0 
0.0 -1.962000000000e+01 0.0 
0.0 -1.962000000000e+01 0.0 
0.0 -1.962000000000e+01 0.0 
0.0 -1.962000000000e+01 0.0 
0.0 -1.962000000000e+01 0.0 
0.0 -1.962000000000e+01 0.0 
0.0 -1.962000000000e+01 0.0 
0.0 -1.962000000000e+01 0.0 
0.0 -1.962000000000e+01 0.0 
0.0 -1.962000000000e+01 0.0 
0.0 -1.962000000000e+01 0.0 
0.0 -1.962000000000e+01 0.0 
0.0 -1.962000000000e+01 0.0 
0.0 -1.962000000000e+01 0.0 
0.0 -1.962000000000e+01 0.0 
0.0 -1.962000000000e+01 0.0 
0.0 -1.962000000000e+01 0.0 
0.0 -1.962000000000e+01 0.0 
0.0 -1.962000000000e+01 0.0 
0.0 -1.962000000000e+01 0.0 
0.0 -1.962000000000e+01 0.0 
0.0 -1.962000000000e+01 0.0 
0.0 -1.962000000000e+01 0.0 
0.0 -1.962000000000e+01 0.0 
0.0 -1.962000000000e+01 0.0 
0.0 -1.962000000000e+01 0.0 
0.0 -1.962000000000e+01 0.0 
0.0 -1.962000000000e+01 0.0 
0.0 -1.962000000000e+01 0.0 
0.0 -1.962000000000e+01 0.0 
0.0 -1.962000000000e+01 0.0 
0.0 -1.962000000000e+01 0.0 
0.0 -1.962000000000e+01 0.0 
0.0 -1.962000000000e+01 0.0 
0.0 -1.962000000000e+01 0.0 
0.0 -1.962000000000e+01 0.0 
0.0 -1.962000000000e+01 0.0 
0.0 -1.962000000000e+01 0.0 
0.0 -1.962000000000e+01 0.0 
0.0 -1.962000000000e+01 0.0 
0.0 -1.962000000000e+01 0.0 
0.0 -1.962000000000e+01 0.0 
0.0 -1.962000000000e+01 0.0 
0.0 -1.962000000000e+01 0.0 
0.0 -1.962000000000e+01 0.0 
0.0 -1.962000000000e+01 0.0 
0.0 -1.962000000000e+01 0.0 
0.0 -1.962000000000e+01 0.0 
0.0 -1.962000000000e+01 0.0 
0.0 -1.962000000000e+01 0.0 
0.0 -1.962000000000e+01 0.0 
0.0 -1.962000000000e+01 0.0 
0.0 -1.962000000000e+01 0.0 
0.0 -1.962000000000e+01 0.0 
0.0 -1.962000000000e+01 0.0 
0.0 -1.962000000000e+01 0.0 
0.0 -1.962000000000e+01 0.0 
0.0 -1.962000000000e+01 0.0 
0.0 -1.962000000000e+01 0.0 
0.0 -1.962000000000e+01 0.0 
0.0 -1.962000000000e+01 0.0 
0.0 -1.962000000000e+01 0.0 
0.0 -1.962000000000e+01 0.0 
0.0 -1.962000000000e+01 0.0 
0.0 -1.962000000000e+01 0.0 
0.0 -1.962000000000e+01 0.0 
0.0 -1.962000000000e+01 0.0 
0.0 -1.962000000000e+01 0.0 
0.0 -1.962000000000e+01 0.0 
0.0 -1.962000000000e+01 0.0 
0.0 -1.962000000000e+01 0.0 
0.0 -1.962000000000e+01 0.0 
0.0 -1.962000000000e+01 0.0 
0.0 -1.962000000000e+01 0.0 
0.0 -1.962000000000e+01 0.0 
0.0 -1.962000000000e+01 0.0 
0.0 -1.962000000000e+01 0.0 
0.0 -1.962000000000e+01 0.0 
0.0 -1.962000000000e+01 0.0 
0.0 -1.962000000000e+01 0.0 
0.0 -1.962000000000e+01 0.0 
0.0 -1.962000000000e+01 0.0 
0.0 -1.962000000000e+01 0.0 
0.0 -1.962000000000e+01 0.0 
0.0 -1.962000000000e+01 0.0 
0.0 -1.962000000000e+01 0.0 
0.0 -1.962000000000e+01 0.0 
0.0 -1.962000000000e+01 0.0 
0.0 -1.962000000000e+01 0.0 
0.0 -1.962000000000e+01 0.0 
0.0 -1.962000000000e+01 0.0 
0.0 -1.962000000000e+01 0.0 
0.0 -1.962000000000e+01 0.0 
0.0 -1.962000000000e+01 0.0 
0.0 -1.962000000000e+01 0.0 
0.0 -1.962000000000e+01 0.0 
0.0 -1.962000000000e+01 0.0 
0.0 -1.962000000000e+01 0.0 
0.0 -1.962000000000e+01 0.0 
0.0 -1.962000000000e+01 0.0 
0.0 -1.962000000000e+01 0.0 
0.0 -1.962000000000e+01 0.0 
0.0 -1.962000000000e+01 0.0 
0.0 -1.962000000000e+01 0.0 
0.0 -1.962000000000e+01 0.0 
0.0 -1.962000000000e+01 0.0 
0.0 -1.962000000000e+01 0.0 
0.0 -1.962000000000e+01 0.0 
0.0 -1.962000000000e+01 0.0 
0.0 -1.962000000000e+01 0.0 
0.0 -1.962000000000e+01 0.0 
0.0 -1.962000000000e+01 0.0 
0.0 -1.962000000000e+01 0.0 
0.0 -1.962000000000e+01 0.0 
0.0 -1.962000000000e+01 0.0 
0.0 -1.962000000000e+01 0.0 
0.0 -1.962000000000e+01 0.0 
0.0 -1.962000000000e+01 0.0 
0.0 -1.962000000000e+01 0.0 
0.0 -1.962000000000e+01 0.0 
0.0 -1.962000000000e+01 0.0 
0.0 -1.962000000000e+01 0.0 
0.0 -1.962000000000e+01 0.0 
0.0 -1.962000000000e+01 0.0 
0.0 -1.962000000000e+01 0.0 
0.0 -1.962000000000e+01 0.0 
0.0 -1.962000000000e+01 0.0 
0.0 -1.962000000000e+01 0.0 
0.0 -1.962000000000e+01 0.0 
0.0 -1.962000000000e+01 0.0 
0.0 -1.962000000000e+01 0.0 
0.0 -1.962000000000e+01 0.0 
0.0 -1.962000000000e+01 0.0 
0.0 -1.962000000000e+01 0.0 
0.0 -1.962000000000e+01 0.0 
0.0 -1.962000000000e+01 0.0 
0.0 -1.962000000000e+01 0.0 
0.0 -1.962000000000e+01 0.0 
0.0 -1.962000000000e+01 0.0 
0.0 -1.962000000000e+01 0.0 
0.0 -1.962000000000e+01 0.0 
0.0 -1.962000000000e+01 0.0 
0.0 -1.962000000000e+01 0.0 
0.0 -1.962000000000e+01 0.0 
0.0 -1.962000000000e+01 0.0 
0.0 -1.962000000000e+01 0.0 
0.0 -1.962000000000e+01 0.0 
0.0 -1.962000000000e+01 0.0 
0.0 -1.962000000000e+01 0.0 
0.0 -1.962000000000e+01 0.0 
0.0 -1.962000000000e+01 0.0 
0.0 -1.962000000000e+01 0.0 
0.0 -1.962000000000e+01 0.0 
0.0 -1.962000000000e+01 0.0 
0.0 -1.962000000000e+01 0.0 
0.0 -1.962000000000e+01 0.0 
0.0 -1.962000000000e+01 0.0 
0.0 -1.962000000000e+01 0.0 
0.0 -1.962000000000e+01 0.0 
0.0 -1.962000000000e+01 0.0 
0.0 -1.962000000000e+01 0.0 
0.0 -1.962000000000e+01 0.0 
0.0 -1.962000000000e+01 0.0 
0.0 -1.962000000000e+01 0.0 
0.0 -1.962000000000e+01 0.0 
0.0 -1.962000000000e+01 0.0 
0.0 -1.962000000000e+01 0.0 
0.0 -1.962000000000e+01 0.0 
0.0 -1.962000000000e+01 0.0 
0.0 -1.962000000000e+01 0.0 
0.0 -1.962000000000e+01 0.0 
0.0 -1.962000000000e+01 0.0 
0.0 -1.962000000000e+01 0.0 
0.0 -1.962000000000e+01 0.0 
0.0 -1.962000000000e+01 0.0 
0.0 -1.962000000000e+01 0.0 
0.0 -1.962000000000e+01 0.0 
0.0 -1.962000000000e+01 0.0 
0.0 -1.962000000000e+01 0.0 
0.0 -1.962000000000e+01 0.0 
0.0 -1.962000000000e+01 0.0 
0.0 -1.962000000000e+01 0.0 
0.0 -1.962000000000e+01 0.0 
0.0 -1.962000000000e+01 0.0 
0.0 -1.962000000000e+01 0.0 
0.0 -1.962000000000e+01 0.0 
0.0 -1.962000000000e+01 0.0 
0.0 -1.962000000000e+01 0.0 
0.0 -1.962000000000e+01 0.0 
0.0 -1.962000000000e+01 0.0 
0.0 -1.962000000000e+01 0.0 
0.0 -1.962000000000e+01 0.0 
0.0 -1.962000000000e+01 0.0 
0.0 -1.962000000000e+01 0.0 
0.0 -1.962000000000e+01 0.0 
0.0 -1.962000000000e+01 0.0 
0.0 -1.962000000000e+01 0.0 
0.0 -1.962000000000e+01 0.0 
0.0 -1.962000000000e+01 0.0 
0.0 -1.962000000000e+01 0.0 
0.0 -1.962000000000e+01 0.0 
0.0 -1.962000000000e+01 0.0 
0.0 -1.962000000000e+01 0.0 
0.0 -1.962000000000e+01 0.0 
0.0 -1.962000000000e+01 0.0 
0.0 -1.962000000000e+01 0.0 
0.0 -1.962000000000e+01 0.0 
0.0 -1.962000000000e+01 0.0 
0.0 -1.962000000000e+01 0.0 
0.0 -1.962000000000e+01 0.0 
0.0 -1.962000000000e+01 0.0 
0.0 -1.962000000000e+01 0.0 
0.0 -1.962000000000e+01 0.0 
0.0 -1.962000000000e+01 0.0 
0.0 -1.962000000000e+01 0.0 
0.0 -1.962000000000e+01 0.0 
0.0 -1.962000000000e+01 0.0 
0.0 -1.962000000000e+01 0.0 
0.0 -1.962000000000e+01 0.0 
0.0 -1.962000000000e+01 0.0 
0.0 -1.962000000000e+01 0.0 
0.0 -1.962000000000e+01 0.0 
0.0 -1.962000000000e+01 0.0 
0.0 -1.962000000000e+01 0.0 
0.0 -1.962000000000e+01 0.0 
0.0 -1.962000000000e+01 0.0 
0.0 -1.962000000000e+01 0.0 
0.0 -1.962000000000e+01 0.0 
0.0 -1.962000000000e+01 0.0 
0.0 -1.962000000000e+01 0.0 
0.0 -1.962000000000e+01 0.0 
0.0 -1.962000000000e+01 0.0 
0.0 -1.962000000000e+01 0.0 
0.0 -1.962000000000e+01 0.0 
0.0 -1.962000000000e+01 0.0 
0.0 -1.962000000000e+01 0.0 
0.0 -1.962000000000e+01 0.0 
0.0 -1.962000000000e+01 0.0 
0.0 -1.962000000000e+01 0.0 
0.0 -1.962000000000e+01 0.0 
0.0 -1.962000000000e+01 0.0 
0.0 -1.962000000000e+01 0.0 
0.0 -1.962000000000e+01 0.0 
0.0 -1.962000000000e+01 0.0 
0.0 -1.962000000000e+01 0.0 
0.0 -1.962000000000e+01 0.0 
0.0 -1.962000000000e+01 0.0 
0.0 -1.962000000000e+01 0.0 
0.0 -1.962000000000e+01 0.0 
0.0 -1.962000000000e+01 0.0 
0.0 -1.962000000000e+01 0.0 
0.0 -1.962000000000e+01 0.0 
0.0 -1.962000000000e+01 0.0 
0.0 -1.962000000000e+01 0.0 
0.0 -1.962000000000e+01 0.0 
0.0 -1.962000000000e+01 0.0 
0.0 -1.962000000000e+01 0.0 
0.0 -1.962000000000e+01 0.0 
0.0 -1.962000000000e+01 0.0 
0.0 -1.962000000000e+01 0.0 
0.0 -1.962000000000e+01 0.0 
0.0 -1.962000000000e+01 0.0 
0.0 -1.962000000000e+01 0.0 
0.0 -1.962000000000e+01 0.0 
0.0 -1.962000000000e+01 0.0 
0.0 -1.962000000000e+01 0.0 
0.0 -1.962000000000e+01 0.0 
0.0 -1.962000000000e+01 0.0 
0.0 -1.962000000000e+01 0.0 
0.0 -1.962000000000e+01 0.0 
0.0 -1.962000000000e+01 0.0 
0.0 -1.962000000000e+01 0.0 
0.0 -1.962000000000e+01 0.0 
0.0 -1.962000000000e+01 0.0 
0.0 -1.962000000000e+01 0.0 
0.0 -1.962000000000e+01 0.0 
0.0 -1.962000000000e+01 0.0 
0.0 -1.962000000000e+01 0.0 
0.0 -1.962000000000e+01 0.0 
0.0 -1.962000000000e+01 0.0 
0.0 -1.962000000000e+01 0.0 
0.0 -1.962000000000e+01 0.0 
0.0 -1.962000000000e+01 0.0 
0.0 -1.962000000000e+01 0.0 
0.0 -1.962000000000e+01 0.0 
0.0 -1.962000000000e+01 0.0 
0.0 -1.962000000000e+01 0.0 
0.0 -1.962000000000e+01 0.0 
0.0 -1.962000000000e+01 0.0 
0.0 -1.962000000000e+01 0.0 
0.0 -1.962000000000e+01 0.0 
0.0 -1.962000000000e+01 0.0 
0.0 -1.962000000000e+01 0.0 
0.0 -1.962000000000e+01 0.0 
0.0 -1.962000000000e+01 0.0 
0.0 -1.962000000000e+01 0.0 
0.0 -1.962000000000e+01 0.0 
0.0 -1.962000000000e+01 0.0 
0.0 -1.962000000000e+01 0.0 
0.0 -1.962000000000e+01 0.0 
0.0 -1.962000000000e+01 0.0 
0.0 -1.962000000000e+01 0.0 
0.0 -1.962000000000e+01 0.0 
0.0 -1.962000000000e+01 0.0 
0.0 -1.962000000000e+01 0.0 
0.0 -1.962000000000e+01 0.0 
0.0 -1.962000000000e+01 0.0 
0.0 -1.962000000000e+01 0.0 
0.0 -1.962000000000e+01 0.0 
0.0 -1.962000000000e+01 0.0 
0.0 -1.962000000000e+01 0.0 
0.0 -1.962000000000e+01 0.0 
0.0 -1.962000000000e+01 0.0 
0.0 -1.962000000000e+01 0.0 
0.0 -1.962000000000e+01 0.0 
0.0 -1.962000000000e+01 0.0 
0.0 -1.962000000000e+01 0.0 
0.0 -1.962000000000e+01 0.0 
0.0 -1.962000000000e+01 0.0 
0.0 -1.962000000000e+01 0.0 
0.0 -1.962000000000e+01 0.0 
0.0 -1.962000000000e+01 0.0 
0.0 -1.962000000000e+01 0.0 
0.0 -1.962000000000e+01 0.0 
0.0 -1.962000000000e+01 0.0 
0.0 -1.962000000000e+01 0.0 
0.0 -1.962000000000e+01 0.0 
0.0 -1.962000000000e+01 0.0 
0.0 -1.962000000000e+01 0.0 
0.0 -1.962000000000e+01 0.0 
0.0 -1.962000000000e+01 0.0 
0.0 -1.962000000000e+01 0.0 
0.0 -1.962000000000e+01 0.0 
0.0 -1.962000000000e+01 0.0 
0.0 -1.962000000000e+01 0.0 
0.0 -1.962000000000e+01 0.0 
0.0 -1.962000000000e+01 0.0 
0.0 -1.962000000000e+01 0.0 
0.0 -1.962000000000e+01 0.0 
0.0 -1.962000000000e+01 0.0 
0.0 -1.962000000000e+01 0.0 
0.0 -1.962000000000e+01 0.0 
0.0 -1.962000000000e+01 0.0 
0.0 -1.962000000000e+01 0.0 
0.0 -1.962000000000e+01 0.0 
0.0 -1.962000000000e+01 0.0 
0.0 -1.962000000000e+01 0.0 
0.0 -1.962000000000e+01 0.0 
0.0 -1.962000000000e+01 0.0 
0.0 -1.962000000000e+01 0.0 
0.0 -1.962000000000e+01 0.0 
0.0 -1.962000000000e+01 0.0 
0.0 -1.962000000000e+01 0.0 
0.0 -1.962000000000e+01 0.0 
0.0 -1.962000000000e+01 0.0 
0.0 -1.962000000000e+01 0.0 
0.0 -1.962000000000e+01 0.0 
0.0 -1.962000000000e+01 0.0 
0.0 -1.962000000000e+01 0.0 
0.0 -1.962000000000e+01 0.0 
0.0 -1.962000000000e+01 0.0 
0.0 -1.962000000000e+01 0.0 
0.0 -1.962000000000e+01 0.0 
0.0 -1.962000000000e+01 0.0 
0.0 -1.962000000000e+01 0.0 
0.0 -1.962000000000e+01 0.0 
0.0 -1.962000000000e+01 0.0 
0.0 -1.962000000000e+01 0.0 
0.0 -1.962000000000e+01 0.0 
0.0 -1.962000000000e+01 0.0 
0.0 -1.962000000000e+01 0.0 
0.0 -1.962000000000e+01 0.0 
0.0 -1.962000000000e+01 0.0 
0.0 -1.962000000000e+01 0.0 
0.0 -1.962000000000e+01 0.0 
0.0 -1.962000000000e+01 0.0 
0.0 -1.962000000000e+01 0.0 
0.0 -1.962000000000e+01 0.0 
0.0 -1.962000000000e+01 0.0 
0.0 -1.962000000000e+01 0.0 
0.0 -1.962000000000e+01 0.0 
0.0 -1.962000000000e+01 0.0 
0.0 -1.962000000000e+01 0.0 
0.0 -1.962000000000e+01 0.0 
0.0 -1.962000000000e+01 0.0 
0.0 -1.962000000000e+01 0.0 
0.0 -1.962000000000e+01 0.0 
0.0 -1.962000000000e+01 0.0 
0.0 -1.962000000000e+01 0.0 
0.0 -1.962000000000e+01 0.0 
0.0 -1.962000000000e+01 0.0 
0.0 -1.962000000000e+01 0.0 
0.0 -1.962000000000e+01 0.0 
0.0 -1.962000000000e+01 0.0 
0.0 -1.962000000000e+01 0.0 
0.0 -1.962000000000e+01 0.0 
0.0 -1.962000000000e+01 0.0 
0.0 -1.962000000000e+01 0.0 
0.0 -1.962000000000e+01 0.0 
0.0 -1.962000000000e+01 0.0 
0.0 -1.962000000000e+01 0.0 
0.0 -1.962000000000e+01 0.0 
0.0 -1.962000000000e+01 0.0 
0.0 -1.962000000000e+01 0.0 
0.0 -1.962000000000e+01 0.0 
0.0 -1.962000000000e+01 0.0 
0.0 -1.962000000000e+01 0.0 
0.0 -1.962000000000e+01 0.0 
0.0 -1.962000000000e+01 0.0 
0.0 -1.962000000000e+01 0.0 
0.0 -1.962000000000e+01 0.0 
0.0 -1.962000000000e+01 0.0 
0.0 -1.962000000000e+01 0.0 
0.0 -1.962000000000e+01 0.0 
0.0 -1.962000000000e+01 0.0 
0.0 -1.962000000000e+01 0.0 
0.0 -1.962000000000e+01 0.0 
0.0 -1.962000000000e+01 0.0 
0.0 -1.962000000000e+01 0.0 
0.0 -1.962000000000e+01 0.0 
0.0 -1.962000000000e+01 0.0 
0.0 -1.962000000000e+01 0.0 
0.0 -1.962000000000e+01 0.0 
0.0 -1.962000000000e+01 0.0 
0.0 -1.962000000000e+01 0.0 
0.0 -1.962000000000e+01 0.0 
0.0 -1.962000000000e+01 0.0 
0.0 -1.962000000000e+01 0.0 
0.0 -1.962000000000e+01 0.0 
0.0 -1.962000000000e+01 0.0 
0.0 -1.962000000000e+01 0.0 
0.0 -1.962000000000e+01 0.0 
0.0 -1.962000000000e+01 0.0 
0.0 -1.962000000000e+01 0.0 
0.0 -1.962000000000e+01 0.0 
0.0 -1.962000000000e+01 0.0 
0.0 -1.962000000000e+01 0.0 
0.0 -1.962000000000e+01 0.0 
0.0 -1.962000000000e+01 0.0 
0.0 -1.962000000000e+01 0.0 
0.0 -1.962000000000e+01 0.0 
0.0 -1.962000000000e+01 0.0 
0.0 -1.962000000000e+01 0.0 
0.0 -1.962000000000e+01 0.0 
0.0 -1.962000000000e+01 0.0 
0.0 -1.962000000000e+01 0.0 
0.0 -1.962000000000e+01 0.0 
0.0 -1.962000000000e+01 0.0 
0.0 -1.962000000000e+01 0.0 
0.0 -1.962000000000e+01 0.0 
0.0 -1.962000000000e+01 0.0 
0.0 -1.962000000000e+01 0.0 
0.0 -1.962000000000e+01 0.0 
0.0 -1.962000000000e+01 0.0 
0.0 -1.962000000000e+01 0.0 
0.0 -1.962000000000e+01 0.0 
0.0 -1.962000000000e+01 0.0 
0.0 -1.962000000000e+01 0.0 
0.0 -1.962000000000e+01 0.0 
0.0 -1.962000000000e+01 0.0 
0.0 -1.962000000000e+01 0.0 
0.0 -1.962000000000e+01 0.0 
0.0 -1.962000000000e+01 0.0 
0.0 -1.962000000000e+01 0.0 
0.0 -1.962000000000e+01 0.0 
0.0 -1.962000000000e+01 0.0 
0.0 -1.962000000000e+01 0.0 
0.0 -1.962000000000e+01 0.0 
0.0 -1.962000000000e+01 0.0 
0.0 -1.962000000000e+01 0.0 
0.0 -1.962000000000e+01 0.0 
0.0 -1.962000000000e+01 0.0 
0.0 -1.962000000000e+01 0.0 
0.0 -1.962000000000e+01 0.0 
0.0 -1.962000000000e+01 0.0 
0.0 -1.962000000000e+01 0.0 
0.0 -1.962000000000e+01 0.0 
0.0 -1.962000000000e+01 0.0 
0.0 -1.962000000000e+01 0.0 
0.0 -1.962000000000e+01 0.0 
0.0 -1.962000000000e+01 0.0 
0.0 -1.962000000000e+01 0.0 
0.0 -1.962000000000e+01 0.0 
0.0 -1.962000000000e+01 0.0 
0.0 -1.962000000000e+01 0.0 
0.0 -1.962000000000e+01 0.0 
0.0 -1.962000000000e+01 0.0 
0.0 -1.962000000000e+01 0.0 
0.0 -1.962000000000e+01 0.0 
0.0 -1.962000000000e+01 0.0 
0.0 -1.962000000000e+01 0.0 
0.0 -1.962000000000e+01 0.0 
0.0 -1.962000000000e+01 0.0 
0.0 -1.962000000000e+01 0.0 
0.0 -1.962000000000e+01 0.0 
0.0 -1.962000000000e+01 0.0 
0.0 -1.962000000000e+01 0.0 
0.0 -1.962000000000e+01 0.0 
0.0 -1.962000000000e+01 0.0 
0.0 -1.962000000000e+01 0.0 
0.0 -1.962000000000e+01 0.0 
0.0 -1.962000000000e+01 0.0 
0.0 -1.962000000000e+01 0.0 
0.0 -1.962000000000e+01 0.0 
0.0 -1.962000000000e+01 0.0 
0.0 -1.962000000000e+01 0.0 
0.0 -1.962000000000e+01 0.0 
0.0 -1.962000000000e+01 0.0 
0.0 -1.962000000000e+01 0.0 
0.0 -1.962000000000e+01 0.0 
0.0 -1.962000000000e+01 0.0 
0.0 -1.962000000000e+01 0.0 
0.0 -1.962000000000e+01 0.0 
0.0 -1.962000000000e+01 0.0 
0.0 -1.962000000000e+01 0.0 
0.0 -1.962000000000e+01 0.0 
0.0 -1.962000000000e+01 0.0 
0.0 -1.962000000000e+01 0.0 
0.0 -1.962000000000e+01 0.0 
0.0 -1.962000000000e+01 0.0 
0.0 -1.962000000000e+01 0.0 
0.0 -1.962000000000e+01 0.0 
0.0 -1.962000000000e+01 0.0 
0.0 -1.962000000000e+01 0.0 
0.0 -1.962000000000e+01 0.0 
0.0 -1.962000000000e+01 0.0 
0.0 -1.962000000000e+01 0.0 
0.0 -1.962000000000e+01 0.0 
0.0 -1.962000000000e+01 0.0 
0.0 -1.962000000000e+01 0.0 
0.0 -1.962000000000e+01 0.0 
0.0 -1.962000000000e+01 0.0 
0.0 -1.962000000000e+01 0.0 
0.0 -1.962000000000e+01 0.0 
0.0 -1.962000000000e+01 0.0 
0.0 -1.962000000000e+01 0.0 
0.0 -1.962000000000e+01 0.0 
0.0 -1.962000000000e+01 0.0 
0.0 -1.962000000000e+01 0.0 
0.0 -1.962000000000e+01 0.0 
0.0 -1.962000000000e+01 0.0 
0.0 -1.962000000000e+01 0.0 
0.0 -1.962000000000e+01 0.0 
0.0 -1.962000000000e+01 0.0 
0.0 -1.962000000000e+01 0.0 
0.0 -1.962000000000e+01 0.0 
0.0 -1.962000000000e+01 0.0 
0.0 -1.962000000000e+01 0.0 
0.0 -1.962000000000e+01 0.0 
0.0 -1.962000000000e+01 0.0 
0.0 -1.962000000000e+01 0.0 
0.0 -1.962000000000e+01 0.0 
0.0 -1.962000000000e+01 0.0 
0.0 -1.962000000000e+01 0.0 
0.0 -1.962000000000e+01 0.0 
0.0 -1.962000000000e+01 0.0 
0.0 -1.962000000000e+01 0.0 
0.0 -1.962000000000e+01 0.0 
0.0 -1.962000000000e+01 0.0 
0.0 -1.962000000000e+01 0.0 
0.0 -1.962000000000e+01 0.0 
0.0 -1.962000000000e+01 0.0 
0.0 -1.962000000000e+01 0.0 
0.0 -1.962000000000e+01 0.0 
0.0 -1.962000000000e+01 0.0 
0.0 -1.962000000000e+01 0.0 
0.0 -1.962000000000e+01 0.0 
0.0 -1.962000000000e+01 0.0 
0.0 -1.962000000000e+01 0.0 
0.0 -1.962000000000e+01 0.0 
0.0 -1.962000000000e+01 0.0 
0.0 -1.962000000000e+01 0.0 
0.0 -1.962000000000e+01 0.0 
0.0 -1.962000000000e+01 0.0 
0.0 -1.962000000000e+01 0.0 
0.0 -1.962000000000e+01 0.0 
0.0 -1.962000000000e+01 0.0 
0.0 -1.962000000000e+01 0.0 
0.0 -1.962000000000e+01 0.0 
0.0 -1.962000000000e+01 0.0 
0.0 -1.962000000000e+01 0.0 
0.0 -1.962000000000e+01 0.0 
0.0 -1.962000000000e+01 0.0 
0.0 -1.962000000000e+01 0.0 
0.0 -1.962000000000e+01 0.0 
0.0 -1.962000000000e+01 0.0 
0.0 -1.962000000000e+01 0.0 
0.0 -1.962000000000e+01 0.0 
0.0 -1.962000000000e+01 0.0 
0.0 -1.962000000000e+01 0.0 
0.0 -1.962000000000e+01 0.0 
0.0 -1.962000000000e+01 0.0 
0.0 -1.962000000000e+01 0.0 
0.0 -1.962000000000e+01 0.0 
0.0 -1.962000000000e+01 0.0 
0.0 -1.962000000000e+01 0.0 
0.0 -1.962000000000e+01 0.0 
0.0 -1.962000000000e+01 0.0 
0.0 -1.962000000000e+01 0.0 
0.0 -1.962000000000e+01 0.0 
0.0 -1.962000000000e+01 0.0 
0.0 -1.962000000000e+01 0.0 
0.0 -1.962000000000e+01 0.0 
0.0 -1.962000000000e+01 0.0 
0.0 -1.962000000000e+01 0.0 
0.0 -1.962000000000e+01 0.0 
0.0 -1.962000000000e+01 0.0 
0.0 -1.962000000000e+01 0.0 
0.0 -1.962000000000e+01 0.0 
0.0 -1.962000000000e+01 0.0 
0.0 -1.962000000000e+01 0.0 
0.0 -1.962000000000e+01 0.0 
0.0 -1.962000000000e+01 0.0 
0.0 -1.962000000000e+01 0.0 
0.0 -1.962000000000e+01 0.0 
0.0 -1.962000000000e+01 0.0 
0.0 -1.962000000000e+01 0.0 
0.0 -1.962000000000e+01 0.0 
0.0 -1.962000000000e+01 0.0 
0.0 -1.962000000000e+01 0.0 
0.0 -1.962000000000e+01 0.0 
0.0 -1.962000000000e+01 0.0 
0.0 -1.962000000000e+01 0.0 
0.0 -1.962000000000e+01 0.0 
0.0 -1.962000000000e+01 0.0 
0.0 -1.962000000000e+01 0.0 
0.0 -1.962000000000e+01 0.0 
0.0 -1.962000000000e+01 0.0 
0.0 -1.962000000000e+01 0.0 
0.0 -1.962000000000e+01 0.0 
0.0 -1.962000000000e+01 0.0 
0.0 -1.962000000000e+01 0.0 
0.0 -1.962000000000e+01 0.0 
0.0 -1.962000000000e+01 0.0 
0.0 -1.962000000000e+01 0.0 
0.0 -1.962000000000e+01 0.0 
0.0 -1.962000000000e+01 0.0 
0.0 -1.962000000000e+01 0.0 
0.0 -1.962000000000e+01 0.0 
0.0 -1.962000000000e+01 0.0 
0.0 -1.962000000000e+01 0.0 
0.0 -1.962000000000e+01 0.0 
0.0 -1.962000000000e+01 0.0 
0.0 -1.962000000000e+01 0.0 
0.0 -1.962000000000e+01 0.0 
0.0 -1.962000000000e+01 0.0 
0.0 -1.962000000000e+01 0.0 
0.0 -1.962000000000e+01 0.0 
0.0 -1.962000000000e+01 0.0 
0.0 -1.962000000000e+01 0.0 
0.0 -1.962000000000e+01 0.0 
0.0 -1.962000000000e+01 0.0 
0.0 -1.962000000000e+01 0.0 
0.0 -1.962000000000e+01 0.0 
0.0 -1.962000000000e+01 0.0 
0.0 -1.962000000000e+01 0.0 
0.0 -1.962000000000e+01 0.0 
0.0 -1.962000000000e+01 0.0 
0.0 -1.962000000000e+01 0.0 
0.0 -1.962000000000e+01 0.0 
0.0 -1.962000000000e+01 0.0 
0.0 -1.962000000000e+01 0.0 
0.0 -1.962000000000e+01 0.0 
0.0 -1.962000000000e+01 0.0 
0.0 -1.962000000000e+01 0.0 
0.0 -1.962000000000e+01 0.0 
0.0 -1.962000000000e+01 0.0 
0.0 -1.962000000000e+01 0.0 
0.0 -1.962000000000e+01 0.0 
0.0 -1.962000000000e+01 0.0 
0.0 -1.962000000000e+01 0.0 
0.0 -1.962000000000e+01 0.0 
0.0 -1.962000000000e+01 0.0 
0.0 -1.962000000000e+01 0.0 
0.0 -1.962000000000e+01 0.0 
0.0 -1.962000000000e+01 0.0 
0.0 -1.962000000000e+01 0.0 
0.0 -1.962000000000e+01 0.0 
0.0 -1.962000000000e+01 0.0 
0.0 -1.962000000000e+01 0.0 
0.0 -1.962000000000e+01 0.0 
0.0 -1.962000000000e+01 0.0 
0.0 -1.962000000000e+01 0.0 
0.0 -1.962000000000e+01 0.0 
0.0 -1.962000000000e+01 0.0 
0.0 -1.962000000000e+01 0.0 
0.0 -1.962000000000e+01 0.0 
0.0 -1.962000000000e+01 0.0 
0.0 -1.962000000000e+01 0.0 
0.0 -1.962000000000e+01 0.0 
0.0 -1.962000000000e+01 0.0 
0.0 -1.962000000000e+01 0.0 
0.0 -1.962000000000e+01 0.0 
0.0 -1.962000000000e+01 0.0 
0.0 -1.962000000000e+01 0.0 
0.0 -1.962000000000e+01 0.0 
0.0 -1.962000000000e+01 0.0 
0.0 -1.962000000000e+01 0.0 
0.0 -1.962000000000e+01 0.0 
0.0 -1.962000000000e+01 0.0 
0.0 -1.962000000000e+01 0.0 
0.0 -1.962000000000e+01 0.0 
0.0 -1.962000000000e+01 0.0 
0.0 -1.962000000000e+01 0.0 
0.0 -1.962000000000e+01 0.0 
0.0 -1.962000000000e+01 0.0 
0.0 -1.962000000000e+01 0.0 
0.0 -1.962000000000e+01 0.0 
0.0 -1.962000000000e+01 0.0 
0.0 -1.962000000000e+01 0.0 
0.0 -1.962000000000e+01 0.0 
0.0 -1.962000000000e+01 0.0 
0.0 -1.962000000000e+01 0.0 
0.0 -1.962000000000e+01 0.0 
0.0 -1.962000000000e+01 0.0 
0.0 -1.962000000000e+01 0.0 
0.0 -1.962000000000e+01 0.0 
0.0 -1.962000000000e+01 0.0 
0.0 -1.962000000000e+01 0.0 
0.0 -1.962000000000e+01 0.0 
0.0 -1.962000000000e+01 0.0 
0.0 -1.962000000000e+01 0.0 
0.0 -1.962000000000e+01 0.0 
0.0 -1.962000000000e+01 0.0 
0.0 -1.962000000000e+01 0.0 
0.0 -1.962000000000e+01 0.0 
0.0 -1.962000000000e+01 0.0 
0.0 -1.962000000000e+01 0.0 
0.0 -1.962000000000e+01 0.0 
0.0 -1.962000000000e+01 0.0 
0.0 -1.962000000000e+01 0.0 
0.0 -1.962000000000e+01 0.0 
0.0 -1.962000000000e+01 0.0 
0.0 -1.962000000000e+01 0.0 
0.0 -1.962000000000e+01 0.0 
0.0 -1.962000000000e+01 0.0 
0.0 -1.962000000000e+01 0.0 
0.0 -1.962000000000e+01 0.0 
0.0 -1.962000000000e+01 0.0 
0.0 -1.962000000000e+01 0.0 
0.0 -1.962000000000e+01 0.0 
0.0 -1.962000000000e+01 0.0 
0.0 -1.962000000000e+01 0.0 
0.0 -1.962000000000e+01 0.0 
0.0 -1.962000000000e+01 0.0 
0.0 -1.962000000000e+01 0.0 
0.0 -1.962000000000e+01 0.0 
0.0 -1.962000000000e+01 0.0 
0.0 -1.962000000000e+01 0.0 
0.0 -1.962000000000e+01 0.0 
0.0 -1.962000000000e+01 0.0 
0.0 -1.962000000000e+01 0.0 
0.0 -1.962000000000e+01 0.0 
0.0 -1.962000000000e+01 0.0 
0.0 -1.962000000000e+01 0.0 
0.0 -1.962000000000e+01 0.0 
0.0 -1.962000000000e+01 0.0 
0.0 -1.962000000000e+01 0.0 
0.0 -1.962000000000e+01 0.0 
0.0 -1.962000000000e+01 0.0 
0.0 -1.962000000000e+01 0.0 
0.0 -1.962000000000e+01 0.0 
0.0 -1.962000000000e+01 0.0 
0.0 -1.962000000000e+01 0.0 
0.0 -1.962000000000e+01 0.0 
0.0 -1.962000000000e+01 0.0 
0.0 -1.962000000000e+01 0.0 
0.0 -1.962000000000e+01 0.0 
0.0 -1.962000000000e+01 0.0 
0.0 -1.962000000000e+01 0.0 
0.0 -1.962000000000e+01 0.0 
0.0 -1.962000000000e+01 0.0 
0.0 -1.962000000000e+01 0.0 
0.0 -1.962000000000e+01 0.0 
0.0 -1.962000000000e+01 0.0 
0.0 -1.962000000000e+01 0.0 
0.0 -1.962000000000e+01 0.0 
0.0 -1.962000000000e+01 0.0 
0.0 -1.962000000000e+01 0.0 
0.0 -1.962000000000e+01 0.0 
0.0 -1.962000000000e+01 0.0 
0.0 -1.962000000000e+01 0.0 
0.0 -1.962000000000e+01 0.0 
0.0 -1.962000000000e+01 0.0 
0.0 -1.962000000000e+01 0.0 
0.0 -1.962000000000e+01 0.0 
0.0 -1.962000000000e+01 0.0 
0.0 -1.962000000000e+01 0.0 
0.0 -1.962000000000e+01 0.0 
0.0 -1.962000000000e+01 0.0 
0.0 -1.962000000000e+01 0.0 
0.0 -1.962000000000e+01 0.0 
0.0 -1.962000000000e+01 0.0 
0.0 -1.962000000000e+01 0.0 
0.0 -1.962000000000e+01 0.0 
0.0 -1.962000000000e+01 0.0 
0.0 -1.962000000000e+01 0.0 
0.0 -1.962000000000e+01 0.0 
0.0 -1.962000000000e+01 0.0 
0.0 -1.962000000000e+01 0.0 
0.0 -1.962000000000e+01 0.0 
0.0 -1.962000000000e+01 0.0 
0.0 -1.962000000000e+01 0.0 
0.0 -1.962000000000e+01 0.0 
0.0 -1.962000000000e+01 0.0 
0.0 -1.962000000000e+01 0.0 
0.0 -1.962000000000e+01 0.0 
0.0 -1.962000000000e+01 0.0 
0.0 -1.962000000000e+01 0.0 
0.0 -1.962000000000e+01 0.0 
0.0 -1.962000000000e+01 0.0 
0.0 -1.962000000000e+01 0.0 
0.0 -1.962000000000e+01 0.0 
0.0 -1.962000000000e+01 0.0 
0.0 -1.962000000000e+01 0.0 
0.0 -1.962000000000e+01 0.0 
0.0 -1.962000000000e+01 0.0 
0.0 -1.962000000000e+01 0.0 
0.0 -1.962000000000e+01 0.0 
0.0 -1.962000000000e+01 0.0 
0.0 -1.962000000000e+01 0.0 
0.0 -1.962000000000e+01 0.0 
0.0 -1.962000000000e+01 0.0 
0.0 -1.962000000000e+01 0.0 
0.0 -1.962000000000e+01 0.0 
0.0 -1.962000000000e+01 0.0 
0.0 -1.962000000000e+01 0.0 
0.0 -1.962000000000e+01 0.0 
0.0 -1.962000000000e+01 0.0 
0.0 -1.962000000000e+01 0.0 
0.0 -1.962000000000e+01 0.0 
0.0 -1.962000000000e+01 0.0 
0.0 -1.962000000000e+01 0.0 
0.0 -1.962000000000e+01 0.0 
0.0 -1.962000000000e+01 0.0 
0.0 -1.962000000000e+01 0.0 
0.0 -1.962000000000e+01 0.0 
0.0 -1.962000000000e+01 0.0 
0.0 -1.962000000000e+01 0.0 
0.0 -1.962000000000e+01 0.0 
0.0 -1.962000000000e+01 0.0 
0.0 -1.962000000000e+01 0.0 
0.0 -1.962000000000e+01 0.0 
0.0 -1.962000000000e+01 0.0 
0.0 -1.962000000000e+01 0.0 
0.0 -1.962000000000e+01 0.0 
0.0 -1.962000000000e+01 0.0 
0.0 -1.962000000000e+01 0.0 
0.0 -1.962000000000e+01 0.0 
0.0 -1.962000000000e+01 0.0 
0.0 -1.962000000000e+01 0.0 
0.0 -1.962000000000e+01 0.0 
0.0 -1.962000000000e+01 0.0 
0.0 -1.962000000000e+01 0.0 
0.0 -1.962000000000e+01 0.0 
0.0 -1.962000000000e+01 0.0 
0.0 -1.962000000000e+01 0.0 
0.0 -1.962000000000e+01 0.0 
0.0 -1.962000000000e+01 0.0 
0.0 -1.962000000000e+01 0.0 
0.0 -1.962000000000e+01 0.0 
0.0 -1.962000000000e+01 0.0 
0.0 -1.962000000000e+01 0.0 
0.0 -1.962000000000e+01 0.0 
0.0 -1.962000000000e+01 0.0 
0.0 -1.962000000000e+01 0.0 
0.0 -1.962000000000e+01 0.0 
0.0 -1.962000000000e+01 0.0 
0.0 -1.962000000000e+01 0.0 
0.0 -1.962000000000e+01 0.0 
0.0 -1.962000000000e+01 0.0 
0.0 -1.962000000000e+01 0.0 
0.0 -1.962000000000e+01 0.0 
0.0 -1.962000000000e+01 0.0 
0.0 -1.962000000000e+01 0.0 
0.0 -1.962000000000e+01 0.0 
0.0 -1.962000000000e+01 0.0 
0.0 -1.962000000000e+01 0.0 
0.0 -1.962000000000e+01 0.0 
0.0 -1.962000000000e+01 0.0 
0.0 -1.962000000000e+01 0.0 
0.0 -1.962000000000e+01 0.0 
0.0 -1.962000000000e+01 0.0 
0.0 -1.962000000000e+01 0.0 
0.0 -1.962000000000e+01 0.0 
0.0 -1.962000000000e+01 0.0 
0.0 -1.962000000000e+01 0.0 
0.0 -1.962000000000e+01 0.0 
0.0 -1.962000000000e+01 0.0 
0.0 -1.962000000000e+01 0.0 
0.0 -1.962000000000e+01 0.0 
0.0 -1.962000000000e+01 0.0 
0.0 -1.962000000000e+01 0.0 
0.0 -1.962000000000e+01 0.0 
0.0 -1.962000000000e+01 0.0 
0.0 -1.962000000000e+01 0.0 
0.0 -1.962000000000e+01 0.0 
0.0 -1.962000000000e+01 0.0 
0.0 -1.962000000000e+01 0.0 
0.0 -1.962000000000e+01 0.0 
0.0 -1.962000000000e+01 0.0 
0.0 -1.962000000000e+01 0.0 
0.0 -1.962000000000e+01 0.0 
0.0 -1.962000000000e+01 0.0 
0.0 -1.962000000000e+01 0.0 
0.0 -1.962000000000e+01 0.0 
0.0 -1.962000000000e+01 0.0 
0.0 -1.962000000000e+01 0.0 
0.0 -1.962000000000e+01 0.0 
0.0 -1.962000000000e+01 0.0 
0.0 -1.962000000000e+01 0.0 
0.0 -1.962000000000e+01 0.0 
0.0 -1.962000000000e+01 0.0 
0.0 -1.962000000000e+01 0.0 
0.0 -1.962000000000e+01 0.0 
0.0 -1.962000000000e+01 0.0 
0.0 -1.962000000000e+01 0.0 
0.0 -1.962000000000e+01 0.0 
0.0 -1.962000000000e+01 0.0 
0.0 -1.962000000000e+01 0.0 
0.0 -1.962000000000e+01 0.0 
0.0 -1.962000000000e+01 0.0 
0.0 -1.962000000000e+01 0.0 
0.0 -1.962000000000e+01 0.0 
0.0 -1.962000000000e+01 0.0 
0.0 -1.962000000000e+01 0.0 
0.0 -1.962000000000e+01 0.0 
0.0 -1.962000000000e+01 0.0 
0.0 -1.962000000000e+01 0.0 
0.0 -1.962000000000e+01 0.0 
0.0 -1.962000000000e+01 0.0 
0.0 -1.962000000000e+01 0.0 
0.0 -1.962000000000e+01 0.0 
0.0 -1.962000000000e+01 0.0 
0.0 -1.962000000000e+01 0.0 
0.0 -1.962000000000e+01 0.0 
0.0 -1.962000000000e+01 0.0 
0.0 -1.962000000000e+01 0.0 
0.0 -1.962000000000e+01 0.0 
0.0 -1.962000000000e+01 0.0 
0.0 -1.962000000000e+01 0.0 
0.0 -1.962000000000e+01 0.0 
0.0 -1.962000000000e+01 0.0 
0.0 -1.962000000000e+01 0.0 
0.0 -1.962000000000e+01 0.0 
0.0 -1.962000000000e+01 0.0 
0.0 -1.962000000000e+01 0.0 
0.0 -1.962000000000e+01 0.0 
0.0 -1.962000000000e+01 0.0 
0.0 -1.962000000000e+01 0.0 
0.0 -1.962000000000e+01 0.0 
0.0 -1.962000000000e+01 0.0 
0.0 -1.962000000000e+01 0.0 
0.0 -1.962000000000e+01 0.0 
0.0 -1.962000000000e+01 0.0 
0.0 -1.962000000000e+01 0.0 
0.0 -1.962000000000e+01 0.0 
0.0 -1.962000000000e+01 0.0 
0.0 -1.962000000000e+01 0.0 
0.0 -1.962000000000e+01 0.0 
0.0 -1.962000000000e+01 0.0 
0.0 -1.962000000000e+01 0.0 
0.0 -1.962000000000e+01 0.0 
0.0 -1.962000000000e+01 0.0 
0.0 -1.962000000000e+01 0.0 
0.0 -1.962000000000e+01 0.0 
0.0 -1.962000000000e+01 0.0 
0.0 -1.962000000000e+01 0.0 
0.0 -1.962000000000e+01 0.0 
0.0 -1.962000000000e+01 0.0 
0.0 -1.962000000000e+01 0.0 
0.0 -1.962000000000e+01 0.0 
0.0 -1.962000000000e+01 0.0 
0.0 -1.962000000000e+01 0.0 
0.0 -1.962000000000e+01 0.0 
0.0 -1.962000000000e+01 0.0 
0.0 -1.962000000000e+01 0.0 
0.0 -1.962000000000e+01 0.0 

VECTORS node_rhside_materi_fixed float
-5.534401373870e+00 0.0 0.0 
4.810537081194e+01 0.0 0.0 
-8.393083232268e+01 -2.004622372070e+02 0.0 
5.852483933479e+01 -1.403144619558e+02 0.0 
-9.358532643043e+00 0.0 0.0 
-1.237711878509e+01 0.0 0.0 
-1.492153533821e+01 0.0 0.0 
-2.586022583545e+01 0.0 0.0 
-4.140403979763e+01 0.0 0.0 
-5.509867907050e+01 0.0 0.0 
-6.722998281311e+01 0.0 0.0 
-7.790766657616e+01 0.0 0.0 
-8.708375679012e+01 0.0 0.0 
-9.519572456023e+01 0.0 0.0 
-1.025634311393e+02 0.0 0.0 
-1.090676853571e+02 0.0 0.0 
-1.148332762341e+02 0.0 0.0 
-1.206068177368e+02 0.0 0.0 
-1.259360395387e+02 0.0 0.0 
-1.329524574210e+02 0.0 0.0 
-1.422141564674e+02 0.0 0.0 
-1.517028483250e+02 0.0 0.0 
-1.616987210751e+02 0.0 0.0 
8.244728904397e-01 -2.794309775890e+02 0.0 
1.401137468801e+00 -2.807955131216e+02 0.0 
4.094525350827e+00 -2.800364295506e+02 0.0 
3.029693545025e+00 -2.803534702743e+02 0.0 
5.521102193128e+00 -2.814481940300e+02 0.0 
6.423743723327e+00 -2.811324742682e+02 0.0 
7.367485746010e+00 -2.823199362994e+02 0.0 
8.735202152122e+00 -2.834635964657e+02 0.0 
1.125863127323e+01 -2.836628781368e+02 0.0 
1.070628755992e+01 -2.849622119375e+02 0.0 
1.376198434455e+01 -2.873632119937e+02 0.0 
1.526683966652e+01 -2.881980805703e+02 0.0 
1.673302970528e+01 -2.911202464544e+02 0.0 
1.836727978858e+01 -2.931947089338e+02 0.0 
2.035209291391e+01 -2.960505049038e+02 0.0 
2.174197459413e+01 -2.998529314371e+02 0.0 
2.444986586211e+01 -3.035243982039e+02 0.0 
2.584938936951e+01 -3.078999623044e+02 0.0 
2.740711560785e+01 -3.125174489864e+02 0.0 
2.859541930781e+01 -3.172092194801e+02 0.0 
2.916851690225e+01 -3.225393627902e+02 0.0 
3.034635378243e+01 -3.284913250212e+02 0.0 
3.059074956834e+01 -3.340078030696e+02 0.0 
3.074230966064e+01 -3.397165757310e+02 0.0 
3.053323983006e+01 -3.456205794459e+02 0.0 
2.983237433438e+01 -3.510348085471e+02 0.0 
2.898631586898e+01 -3.562660165167e+02 0.0 
2.785964844767e+01 -3.614282870980e+02 0.0 
2.672625654785e+01 -3.664125872318e+02 0.0 
2.525193228079e+01 -3.707796419421e+02 0.0 
2.368940146761e+01 -3.747859031216e+02 0.0 
2.206644245982e+01 -3.792651973388e+02 0.0 
2.041340657845e+01 -3.825546916591e+02 0.0 
1.868576991457e+01 -3.859804328097e+02 0.0 
1.676974843482e+01 -3.888542208926e+02 0.0 
1.503583412804e+01 -3.913849695986e+02 0.0 
1.328669338764e+01 -3.935423981489e+02 0.0 
1.153585287193e+01 -3.953392124276e+02 0.0 
9.995711773887e+00 -3.966875742969e+02 0.0 
8.582983457945e+00 -3.981307989907e+02 0.0 
7.200196367894e+00 -3.987617111041e+02 0.0 
6.060298886453e+00 -3.992555814390e+02 0.0 
4.992712084859e+00 -3.995119758311e+02 0.0 
4.088527941643e+00 -4.005559858775e+02 0.0 
3.089706393192e+00 -3.999509305409e+02 0.0 
2.335130305615e+00 -4.007462386820e+02 0.0 
2.044710774379e+00 -4.002838351837e+02 0.0 
1.106126180076e+00 -4.005246683426e+02 0.0 
5.422957314030e-01 -4.004135922171e+02 0.0 
5.584420025215e+01 0.0 0.0 
6.417167515877e+01 0.0 0.0 
7.187708298915e+01 0.0 0.0 
7.922103991287e+01 0.0 0.0 
8.647206029529e+01 0.0 0.0 
9.386620723336e+01 0.0 0.0 
1.005605076896e+02 0.0 0.0 
1.066641304301e+02 0.0 0.0 
1.140233703461e+02 0.0 0.0 
0.0 0.0 0.0 
0.0 0.0 0.0 
0.0 0.0 0.0 
0.0 0.0 0.0 
0.0 0.0 0.0 
0.0 0.0 0.0 
0.0 0.0 0.0 
0.0 0.0 0.0 
0.0 0.0 0.0 
0.0 0.0 0.0 
0.0 0.0 0.0 
9.181371361896e+00 0.0 0.0 
2.368004963088e+01 0.0 0.0 
3.179038044871e+01 0.0 0.0 
4.004912387825e+01 0.0 0.0 
0.0 0.0 0.0 
0.0 0.0 0.0 
0.0 0.0 0.0 
0.0 0.0 0.0 
0.0 0.0 0.0 
0.0 0.0 0.0 
0.0 0.0 0.0 
0.0 0.0 0.0 
0.0 0.0 0.0 
0.0 0.0 0.0 
0.0 0.0 0.0 
0.0 0.0 0.0 
0.0 0.0 0.0 
0.0 0.0 0.0 
0.0 0.0 0.0 
0.0 0.0 0.0 
0.0 0.0 0.0 
0.0 0.0 0.0 
0.0 0.0 0.0 
0.0 0.0 0.0 
0.0 0.0 0.0 
0.0 0.0 0.0 
0.0 0.0 0.0 
0.0 0.0 0.0 
0.0 0.0 0.0 
0.0 0.0 0.0 
0.0 0.0 0.0 
0.0 0.0 0.0 
0.0 0.0 0.0 
0.0 0.0 0.0 
0.0 0.0 0.0 
0.0 0.0 0.0 
0.0 0.0 0.0 
0.0 0.0 0.0 
0.0 0.0 0.0 
0.0 0.0 0.0 
0.0 0.0 0.0 
0.0 0.0 0.0 
0.0 0.0 0.0 
0.0 0.0 0.0 
0.0 0.0 0.0 
0.0 0.0 0.0 
0.0 0.0 0.0 
0.0 0.0 0.0 
0.0 0.0 0.0 
0.0 0.0 0.0 
0.0 0.0 0.0 
0.0 0.0 0.0 
0.0 0.0 0.0 
0.0 0.0 0.0 
0.0 0.0 0.0 
0.0 0.0 0.0 
0.0 0.0 0.0 
0.0 0.0 0.0 
0.0 0.0 0.0 
0.0 0.0 0.0 
0.0 0.0 0.0 
0.0 0.0 0.0 
0.0 0.0 0.0 
0.0 0.0 0.0 
0.0 0.0 0.0 
0.0 0.0 0.0 
0.0 0.0 0.0 
0.0 0.0 0.0 
0.0 0.0 0.0 
0.0 0.0 0.0 
0.0 0.0 0.0 
0.0 0.0 0.0 
0.0 0.0 0.0 
0.0 0.0 0.0 
0.0 0.0 0.0 
0.0 0.0 0.0 
0.0 0.0 0.0 
0.0 0.0 0.0 
0.0 0.0 0.0 
0.0 0.0 0.0 
0.0 0.0 0.0 
0.0 0.0 0.0 
0.0 0.0 0.0 
0.0 0.0 0.0 
0.0 0.0 0.0 
0.0 0.0 0.0 
0.0 0.0 0.0 
0.0 0.0 0.0 
0.0 0.0 0.0 
0.0 0.0 0.0 
0.0 0.0 0.0 
0.0 0.0 0.0 
0.0 0.0 0.0 
0.0 0.0 0.0 
0.0 0.0 0.0 
0.0 0.0 0.0 
0.0 0.0 0.0 
0.0 0.0 0.0 
0.0 0.0 0.0 
0.0 0.0 0.0 
0.0 0.0 0.0 
0.0 0.0 0.0 
0.0 0.0 0.0 
0.0 0.0 0.0 
0.0 0.0 0.0 
0.0 0.0 0.0 
0.0 0.0 0.0 
0.0 0.0 0.0 
0.0 0.0 0.0 
0.0 0.0 0.0 
0.0 0.0 0.0 
0.0 0.0 0.0 
0.0 0.0 0.0 
0.0 0.0 0.0 
0.0 0.0 0.0 
0.0 0.0 0.0 
0.0 0.0 0.0 
0.0 0.0 0.0 
0.0 0.0 0.0 
0.0 0.0 0.0 
0.0 0.0 0.0 
0.0 0.0 0.0 
0.0 0.0 0.0 
0.0 0.0 0.0 
0.0 0.0 0.0 
0.0 0.0 0.0 
0.0 0.0 0.0 
0.0 0.0 0.0 
0.0 0.0 0.0 
0.0 0.0 0.0 
0.0 0.0 0.0 
0.0 0.0 0.0 
0.0 0.0 0.0 
0.0 0.0 0.0 
0.0 0.0 0.0 
0.0 0.0 0.0 
0.0 0.0 0.0 
0.0 0.0 0.0 
0.0 0.0 0.0 
0.0 0.0 0.0 
0.0 0.0 0.0 
0.0 0.0 0.0 
0.0 0.0 0.0 
0.0 0.0 0.0 
0.0 0.0 0.0 
0.0 0.0 0.0 
0.0 0.0 0.0 
0.0 0.0 0.0 
0.0 0.0 0.0 
0.0 0.0 0.0 
0.0 0.0 0.0 
0.0 0.0 0.0 
0.0 0.0 0.0 
0.0 0.0 0.0 
0.0 0.0 0.0 
0.0 0.0 0.0 
0.0 0.0 0.0 
0.0 0.0 0.0 
0.0 0.0 0.0 
0.0 0.0 0.0 
0.0 0.0 0.0 
0.0 0.0 0.0 
0.0 0.0 0.0 
0.0 0.0 0.0 
0.0 0.0 0.0 
0.0 0.0 0.0 
0.0 0.0 0.0 
0.0 0.0 0.0 
0.0 0.0 0.0 
0.0 0.0 0.0 
0.0 0.0 0.0 
0.0 0.0 0.0 
0.0 0.0 0.0 
0.0 0.0 0.0 
0.0 0.0 0.0 
0.0 0.0 0.0 
0.0 0.0 0.0 
0.0 0.0 0.0 
0.0 0.0 0.0 
0.0 0.0 0.0 
0.0 0.0 0.0 
0.0 0.0 0.0 
0.0 0.0 0.0 
0.0 0.0 0.0 
0.0 0.0 0.0 
0.0 0.0 0.0 
0.0 0.0 0.0 
0.0 0.0 0.0 
0.0 0.0 0.0 
0.0 0.0 0.0 
0.0 0.0 0.0 
0.0 0.0 0.0 
0.0 0.0 0.0 
0.0 0.0 0.0 
0.0 0.0 0.0 
0.0 0.0 0.0 
0.0 0.0 0.0 
0.0 0.0 0.0 
0.0 0.0 0.0 
0.0 0.0 0.0 
0.0 0.0 0.0 
0.0 0.0 0.0 
0.0 0.0 0.0 
0.0 0.0 0.0 
0.0 0.0 0.0 
0.0 0.0 0.0 
0.0 0.0 0.0 
0.0 0.0 0.0 
0.0 0.0 0.0 
0.0 0.0 0.0 
0.0 0.0 0.0 
0.0 0.0 0.0 
0.0 0.0 0.0 
0.0 0.0 0.0 
0.0 0.0 0.0 
0.0 0.0 0.0 
0.0 0.0 0.0 
0.0 0.0 0.0 
0.0 0.0 0.0 
0.0 0.0 0.0 
0.0 0.0 0.0 
0.0 0.0 0.0 
0.0 0.0 0.0 
0.0 0.0 0.0 
0.0 0.0 0.0 
0.0 0.0 0.0 
0.0 0.0 0.0 
0.0 0.0 0.0 
0.0 0.0 0.0 
0.0 0.0 0.0 
0.0 0.0 0.0 
0.0 0.0 0.0 
0.0 0.0 0.0 
0.0 0.0 0.0 
0.0 0.0 0.0 
0.0 0.0 0.0 
0.0 0.0 0.0 
0.0 0.0 0.0 
0.0 0.0 0.0 
0.0 0.0 0.0 
0.0 0.0 0.0 
0.0 0.0 0.0 
0.0 0.0 0.0 
0.0 0.0 0.0 
0.0 0.0 0.0 
0.0 0.0 0.0 
0.0 0.0 0.0 
0.0 0.0 0.0 
0.0 0.0 0.0 
0.0 0.0 0.0 
0.0 0.0 0.0 
0.0 0.0 0.0 
0.0 0.0 0.0 
0.0 0.0 0.0 
0.0 0.0 0.0 
0.0 0.0 0.0 
0.0 0.0 0.0 
0.0 0.0 0.0 
0.0 0.0 0.0 
0.0 0.0 0.0 
0.0 0.0 0.0 
0.0 0.0 0.0 
0.0 0.0 0.0 
0.0 0.0 0.0 
0.0 0.0 0.0 
0.0 0.0 0.0 
0.0 0.0 0.0 
0.0 0.0 0.0 
0.0 0.0 0.0 
0.0 0.0 0.0 
0.0 0.0 0.0 
0.0 0.0 0.0 
0.0 0.0 0.0 
0.0 0.0 0.0 
0.0 0.0 0.0 
0.0 0.0 0.0 
0.0 0.0 0.0 
0.0 0.0 0.0 
0.0 0.0 0.0 
0.0 0.0 0.0 
0.0 0.0 0.0 
0.0 0.0 0.0 
0.0 0.0 0.0 
0.0 0.0 0.0 
0.0 0.0 0.0 
0.0 0.0 0.0 
0.0 0.0 0.0 
0.0 0.0 0.0 
0.0 0.0 0.0 
0.0 0.0 0.0 
0.0 0.0 0.0 
0.0 0.0 0.0 
0.0 0.0 0.0 
0.0 0.0 0.0 
0.0 0.0 0.0 
0.0 0.0 0.0 
0.0 0.0 0.0 
0.0 0.0 0.0 
0.0 0.0 0.0 
0.0 0.0 0.0 
0.0 0.0 0.0 
0.0 0.0 0.0 
0.0 0.0 0.0 
0.0 0.0 0.0 
0.0 0.0 0.0 
0.0 0.0 0.0 
0.0 0.0 0.0 
0.0 0.0 0.0 
0.0 0.0 0.0 
0.0 0.0 0.0 
0.0 0.0 0.0 
0.0 0.0 0.0 
0.0 0.0 0.0 
0.0 0.0 0.0 
0.0 0.0 0.0 
0.0 0.0 0.0 
0.0 0.0 0.0 
0.0 0.0 0.0 
0.0 0.0 0.0 
0.0 0.0 0.0 
0.0 0.0 0.0 
0.0 0.0 0.0 
0.0 0.0 0.0 
0.0 0.0 0.0 
0.0 0.0 0.0 
0.0 0.0 0.0 
0.0 0.0 0.0 
0.0 0.0 0.0 
0.0 0.0 0.0 
0.0 0.0 0.0 
0.0 0.0 0.0 
0.0 0.0 0.0 
0.0 0.0 0.0 
0.0 0.0 0.0 
0.0 0.0 0.0 
0.0 0.0 0.0 
0.0 0.0 0.0 
0.0 0.0 0.0 
0.0 0.0 0.0 
0.0 0.0 0.0 
0.0 0.0 0.0 
0.0 0.0 0.0 
0.0 0.0 0.0 
0.0 0.0 0.0 
0.0 0.0 0.0 
0.0 0.0 0.0 
0.0 0.0 0.0 
0.0 0.0 0.0 
0.0 0.0 0.0 
0.0 0.0 0.0 
0.0 0.0 0.0 
0.0 0.0 0.0 
0.0 0.0 0.0 
0.0 0.0 0.0 
0.0 0.0 0.0 
0.0 0.0 0.0 
0.0 0.0 0.0 
0.0 0.0 0.0 
0.0 0.0 0.0 
0.0 0.0 0.0 
0.0 0.0 0.0 
0.0 0.0 0.0 
0.0 0.0 0.0 
0.0 0.0 0.0 
0.0 0.0 0.0 
0.0 0.0 0.0 
0.0 0.0 0.0 
0.0 0.0 0.0 
0.0 0.0 0.0 
0.0 0.0 0.0 
0.0 0.0 0.0 
0.0 0.0 0.0 
0.0 0.0 0.0 
0.0 0.0 0.0 
0.0 0.0 0.0 
0.0 0.0 0.0 
0.0 0.0 0.0 
0.0 0.0 0.0 
0.0 0.0 0.0 
0.0 0.0 0.0 
0.0 0.0 0.0 
0.0 0.0 0.0 
0.0 0.0 0.0 
0.0 0.0 0.0 
0.0 0.0 0.0 
0.0 0.0 0.0 
0.0 0.0 0.0 
0.0 0.0 0.0 
0.0 0.0 0.0 
0.0 0.0 0.0 
0.0 0.0 0.0 
0.0 0.0 0.0 
0.0 0.0 0.0 
0.0 0.0 0.0 
0.0 0.0 0.0 
0.0 0.0 0.0 
0.0 0.0 0.0 
0.0 0.0 0.0 
0.0 0.0 0.0 
0.0 0.0 0.0 
0.0 0.0 0.0 
0.0 0.0 0.0 
0.0 0.0 0.0 
0.0 0.0 0.0 
0.0 0.0 0.0 
0.0 0.0 0.0 
0.0 0.0 0.0 
0.0 0.0 0.0 
0.0 0.0 0.0 
0.0 0.0 0.0 
0.0 0.0 0.0 
0.0 0.0 0.0 
0.0 0.0 0.0 
0.0 0.0 0.0 
0.0 0.0 0.0 
0.0 0.0 0.0 
0.0 0.0 0.0 
0.0 0.0 0.0 
0.0 0.0 0.0 
0.0 0.0 0.0 
0.0 0.0 0.0 
0.0 0.0 0.0 
0.0 0.0 0.0 
0.0 0.0 0.0 
0.0 0.0 0.0 
0.0 0.0 0.0 
0.0 0.0 0.0 
0.0 0.0 0.0 
0.0 0.0 0.0 
0.0 0.0 0.0 
0.0 0.0 0.0 
0.0 0.0 0.0 
0.0 0.0 0.0 
0.0 0.0 0.0 
0.0 0.0 0.0 
0.0 0.0 0.0 
0.0 0.0 0.0 
0.0 0.0 0.0 
0.0 0.0 0.0 
0.0 0.0 0.0 
0.0 0.0 0.0 
0.0 0.0 0.0 
0.0 0.0 0.0 
0.0 0.0 0.0 
0.0 0.0 0.0 
0.0 0.0 0.0 
0.0 0.0 0.0 
0.0 0.0 0.0 
0.0 0.0 0.0 
0.0 0.0 0.0 
0.0 0.0 0.0 
0.0 0.0 0.0 
0.0 0.0 0.0 
0.0 0.0 0.0 
0.0 0.0 0.0 
0.0 0.0 0.0 
0.0 0.0 0.0 
0.0 0.0 0.0 
0.0 0.0 0.0 
0.0 0.0 0.0 
0.0 0.0 0.0 
0.0 0.0 0.0 
0.0 0.0 0.0 
0.0 0.0 0.0 
0.0 0.0 0.0 
0.0 0.0 0.0 
0.0 0.0 0.0 
0.0 0.0 0.0 
0.0 0.0 0.0 
0.0 0.0 0.0 
0.0 0.0 0.0 
0.0 0.0 0.0 
0.0 0.0 0.0 
0.0 0.0 0.0 
0.0 0.0 0.0 
0.0 0.0 0.0 
0.0 0.0 0.0 
0.0 0.0 0.0 
0.0 0.0 0.0 
0.0 0.0 0.0 
0.0 0.0 0.0 
0.0 0.0 0.0 
0.0 0.0 0.0 
0.0 0.0 0.0 
0.0 0.0 0.0 
0.0 0.0 0.0 
0.0 0.0 0.0 
0.0 0.0 0.0 
0.0 0.0 0.0 
0.0 0.0 0.0 
0.0 0.0 0.0 
0.0 0.0 0.0 
0.0 0.0 0.0 
0.0 0.0 0.0 
0.0 0.0 0.0 
0.0 0.0 0.0 
0.0 0.0 0.0 
0.0 0.0 0.0 
0.0 0.0 0.0 
0.0 0.0 0.0 
0.0 0.0 0.0 
0.0 0.0 0.0 
0.0 0.0 0.0 
0.0 0.0 0.0 
0.0 0.0 0.0 
0.0 0.0 0.0 
0.0 0.0 0.0 
0.0 0.0 0.0 
0.0 0.0 0.0 
0.0 0.0 0.0 
0.0 0.0 0.0 
0.0 0.0 0.0 
0.0 0.0 0.0 
0.0 0.0 0.0 
0.0 0.0 0.0 
0.0 0.0 0.0 
0.0 0.0 0.0 
0.0 0.0 0.0 
0.0 0.0 0.0 
0.0 0.0 0.0 
0.0 0.0 0.0 
0.0 0.0 0.0 
0.0 0.0 0.0 
0.0 0.0 0.0 
0.0 0.0 0.0 
0.0 0.0 0.0 
0.0 0.0 0.0 
0.0 0.0 0.0 
0.0 0.0 0.0 
0.0 0.0 0.0 
0.0 0.0 0.0 
0.0 0.0 0.0 
0.0 0.0 0.0 
0.0 0.0 0.0 
0.0 0.0 0.0 
0.0 0.0 0.0 
0.0 0.0 0.0 
0.0 0.0 0.0 
0.0 0.0 0.0 
0.0 0.0 0.0 
0.0 0.0 0.0 
0.0 0.0 0.0 
0.0 0.0 0.0 
0.0 0.0 0.0 
0.0 0.0 0.0 
0.0 0.0 0.0 
0.0 0.0 0.0 
0.0 0.0 0.0 
0.0 0.0 0.0 
0.0 0.0 0.0 
0.0 0.0 0.0 
0.0 0.0 0.0 
0.0 0.0 0.0 
0.0 0.0 0.0 
0.0 0.0 0.0 
0.0 0.0 0.0 
0.0 0.0 0.0 
0.0 0.0 0.0 
0.0 0.0 0.0 
0.0 0.0 0.0 
0.0 0.0 0.0 
0.0 0.0 0.0 
0.0 0.0 0.0 
0.0 0.0 0.0 
0.0 0.0 0.0 
0.0 0.0 0.0 
0.0 0.0 0.0 
0.0 0.0 0.0 
0.0 0.0 0.0 
0.0 0.0 0.0 
0.0 0.0 0.0 
0.0 0.0 0.0 
0.0 0.0 0.0 
0.0 0.0 0.0 
0.0 0.0 0.0 
0.0 0.0 0.0 
0.0 0.0 0.0 
0.0 0.0 0.0 
0.0 0.0 0.0 
0.0 0.0 0.0 
0.0 0.0 0.0 
0.0 0.0 0.0 
0.0 0.0 0.0 
0.0 0.0 0.0 
0.0 0.0 0.0 
0.0 0.0 0.0 
0.0 0.0 0.0 
0.0 0.0 0.0 
0.0 0.0 0.0 
0.0 0.0 0.0 
0.0 0.0 0.0 
0.0 0.0 0.0 
0.0 0.0 0.0 
0.0 0.0 0.0 
0.0 0.0 0.0 
0.0 0.0 0.0 
0.0 0.0 0.0 
0.0 0.0 0.0 
0.0 0.0 0.0 
0.0 0.0 0.0 
0.0 0.0 0.0 
0.0 0.0 0.0 
0.0 0.0 0.0 
0.0 0.0 0.0 
0.0 0.0 0.0 
0.0 0.0 0.0 
0.0 0.0 0.0 
0.0 0.0 0.0 
0.0 0.0 0.0 
0.0 0.0 0.0 
0.0 0.0 0.0 
0.0 0.0 0.0 
0.0 0.0 0.0 
0.0 0.0 0.0 
0.0 0.0 0.0 
0.0 0.0 0.0 
0.0 0.0 0.0 
0.0 0.0 0.0 
0.0 0.0 0.0 
0.0 0.0 0.0 
0.0 0.0 0.0 
0.0 0.0 0.0 
0.0 0.0 0.0 
0.0 0.0 0.0 
0.0 0.0 0.0 
0.0 0.0 0.0 
0.0 0.0 0.0 
0.0 0.0 0.0 
0.0 0.0 0.0 
0.0 0.0 0.0 
0.0 0.0 0.0 
0.0 0.0 0.0 
0.0 0.0 0.0 
0.0 0.0 0.0 
0.0 0.0 0.0 
0.0 0.0 0.0 
0.0 0.0 0.0 
0.0 0.0 0.0 
0.0 0.0 0.0 
0.0 0.0 0.0 
0.0 0.0 0.0 
0.0 0.0 0.0 
0.0 0.0 0.0 
0.0 0.0 0.0 
0.0 0.0 0.0 
0.0 0.0 0.0 
0.0 0.0 0.0 
0.0 0.0 0.0 
0.0 0.0 0.0 
0.0 0.0 0.0 
0.0 0.0 0.0 
0.0 0.0 0.0 
0.0 0.0 0.0 
0.0 0.0 0.0 
0.0 0.0 0.0 
0.0 0.0 0.0 
0.0 0.0 0.0 
0.0 0.0 0.0 
0.0 0.0 0.0 
0.0 0.0 0.0 
0.0 0.0 0.0 
0.0 0.0 0.0 
0.0 0.0 0.0 
0.0 0.0 0.0 
0.0 0.0 0.0 
0.0 0.0 0.0 
0.0 0.0 0.0 
0.0 0.0 0.0 
0.0 0.0 0.0 
0.0 0.0 0.0 
0.0 0.0 0.0 
0.0 0.0 0.0 
0.0 0.0 0.0 
0.0 0.0 0.0 
0.0 0.0 0.0 
0.0 0.0 0.0 
0.0 0.0 0.0 
0.0 0.0 0.0 
0.0 0.0 0.0 
0.0 0.0 0.0 
0.0 0.0 0.0 
0.0 0.0 0.0 
0.0 0.0 0.0 
0.0 0.0 0.0 
0.0 0.0 0.0 
0.0 0.0 0.0 
0.0 0.0 0.0 
0.0 0.0 0.0 
0.0 0.0 0.0 
0.0 0.0 0.0 
0.0 0.0 0.0 
0.0 0.0 0.0 
0.0 0.0 0.0 
0.0 0.0 0.0 
0.0 0.0 0.0 
0.0 0.0 0.0 
0.0 0.0 0.0 
0.0 0.0 0.0 
0.0 0.0 0.0 
0.0 0.0 0.0 
0.0 0.0 0.0 
0.0 0.0 0.0 
0.0 0.0 0.0 
0.0 0.0 0.0 
0.0 0.0 0.0 
0.0 0.0 0.0 
0.0 0.0 0.0 
0.0 0.0 0.0 
0.0 0.0 0.0 
0.0 0.0 0.0 
0.0 0.0 0.0 
0.0 0.0 0.0 
0.0 0.0 0.0 
0.0 0.0 0.0 
0.0 0.0 0.0 
0.0 0.0 0.0 
0.0 0.0 0.0 
0.0 0.0 0.0 
0.0 0.0 0.0 
0.0 0.0 0.0 
0.0 0.0 0.0 
0.0 0.0 0.0 
0.0 0.0 0.0 
0.0 0.0 0.0 
0.0 0.0 0.0 
0.0 0.0 0.0 
0.0 0.0 0.0 
0.0 0.0 0.0 
0.0 0.0 0.0 
0.0 0.0 0.0 
0.0 0.0 0.0 
0.0 0.0 0.0 
0.0 0.0 0.0 
0.0 0.0 0.0 
0.0 0.0 0.0 
0.0 0.0 0.0 
0.0 0.0 0.0 
0.0 0.0 0.0 
0.0 0.0 0.0 
0.0 0.0 0.0 
0.0 0.0 0.0 
0.0 0.0 0.0 
0.0 0.0 0.0 
0.0 0.0 0.0 
0.0 0.0 0.0 
0.0 0.0 0.0 
0.0 0.0 0.0 
0.0 0.0 0.0 
0.0 0.0 0.0 
0.0 0.0 0.0 
0.0 0.0 0.0 
0.0 0.0 0.0 
0.0 0.0 0.0 
0.0 0.0 0.0 
0.0 0.0 0.0 
0.0 0.0 0.0 
0.0 0.0 0.0 
0.0 0.0 0.0 
0.0 0.0 0.0 
0.0 0.0 0.0 
0.0 0.0 0.0 
0.0 0.0 0.0 
0.0 0.0 0.0 
0.0 0.0 0.0 
0.0 0.0 0.0 
0.0 0.0 0.0 
0.0 0.0 0.0 
0.0 0.0 0.0 
0.0 0.0 0.0 
0.0 0.0 0.0 
0.0 0.0 0.0 
0.0 0.0 0.0 
0.0 0.0 0.0 
0.0 0.0 0.0 
0.0 0.0 0.0 
0.0 0.0 0.0 
0.0 0.0 0.0 
0.0 0.0 0.0 
0.0 0.0 0.0 
0.0 0.0 0.0 
0.0 0.0 0.0 
0.0 0.0 0.0 
0.0 0.0 0.0 
0.0 0.0 0.0 
0.0 0.0 0.0 
0.0 0.0 0.0 
0.0 0.0 0.0 
0.0 0.0 0.0 
0.0 0.0 0.0 
0.0 0.0 0.0 
0.0 0.0 0.0 
0.0 0.0 0.0 
0.0 0.0 0.0 
0.0 0.0 0.0 
0.0 0.0 0.0 
0.0 0.0 0.0 
0.0 0.0 0.0 
0.0 0.0 0.0 
0.0 0.0 0.0 
0.0 0.0 0.0 
0.0 0.0 0.0 
0.0 0.0 0.0 
0.0 0.0 0.0 
0.0 0.0 0.0 
0.0 0.0 0.0 
0.0 0.0 0.0 
0.0 0.0 0.0 
0.0 0.0 0.0 
0.0 0.0 0.0 
0.0 0.0 0.0 
0.0 0.0 0.0 
0.0 0.0 0.0 
0.0 0.0 0.0 
0.0 0.0 0.0 
0.0 0.0 0.0 
0.0 0.0 0.0 
0.0 0.0 0.0 
0.0 0.0 0.0 
0.0 0.0 0.0 
0.0 0.0 0.0 
0.0 0.0 0.0 
0.0 0.0 0.0 
0.0 0.0 0.0 
0.0 0.0 0.0 
0.0 0.0 0.0 
0.0 0.0 0.0 
0.0 0.0 0.0 
0.0 0.0 0.0 
0.0 0.0 0.0 
0.0 0.0 0.0 
0.0 0.0 0.0 
0.0 0.0 0.0 
0.0 0.0 0.0 
0.0 0.0 0.0 
0.0 0.0 0.0 
0.0 0.0 0.0 
0.0 0.0 0.0 
0.0 0.0 0.0 
0.0 0.0 0.0 
0.0 0.0 0.0 
0.0 0.0 0.0 
0.0 0.0 0.0 
0.0 0.0 0.0 
0.0 0.0 0.0 
0.0 0.0 0.0 
0.0 0.0 0.0 
0.0 0.0 0.0 
0.0 0.0 0.0 
0.0 0.0 0.0 
0.0 0.0 0.0 
0.0 0.0 0.0 
0.0 0.0 0.0 
0.0 0.0 0.0 
0.0 0.0 0.0 
0.0 0.0 0.0 
0.0 0.0 0.0 
0.0 0.0 0.0 
0.0 0.0 0.0 
0.0 0.0 0.0 
0.0 0.0 0.0 
0.0 0.0 0.0 
0.0 0.0 0.0 
0.0 0.0 0.0 
0.0 0.0 0.0 
0.0 0.0 0.0 
0.0 0.0 0.0 
0.0 0.0 0.0 
0.0 0.0 0.0 
0.0 0.0 0.0 
0.0 0.0 0.0 
0.0 0.0 0.0 
0.0 0.0 0.0 
0.0 0.0 0.0 
0.0 0.0 0.0 
0.0 0.0 0.0 
0.0 0.0 0.0 
0.0 0.0 0.0 
0.0 0.0 0.0 
0.0 0.0 0.0 
0.0 0.0 0.0 
0.0 0.0 0.0 
0.0 0.0 0.0 
0.0 0.0 0.0 
0.0 0.0 0.0 
0.0 0.0 0.0 
0.0 0.0 0.0 
0.0 0.0 0.0 
0.0 0.0 0.0 
0.0 0.0 0.0 
0.0 0.0 0.0 
0.0 0.0 0.0 
0.0 0.0 0.0 
0.0 0.0 0.0 
0.0 0.0 0.0 
0.0 0.0 0.0 
0.0 0.0 0.0 
0.0 0.0 0.0 
0.0 0.0 0.0 
0.0 0.0 0.0 
0.0 0.0 0.0 
0.0 0.0 0.0 
0.0 0.0 0.0 
0.0 0.0 0.0 
0.0 0.0 0.0 
0.0 0.0 0.0 
0.0 0.0 0.0 
0.0 0.0 0.0 
0.0 0.0 0.0 
0.0 0.0 0.0 
0.0 0.0 0.0 
0.0 0.0 0.0 
0.0 0.0 0.0 
0.0 0.0 0.0 
0.0 0.0 0.0 
0.0 0.0 0.0 
0.0 0.0 0.0 
0.0 0.0 0.0 
0.0 0.0 0.0 
0.0 0.0 0.0 
0.0 0.0 0.0 
0.0 0.0 0.0 
0.0 0.0 0.0 
0.0 0.0 0.0 
0.0 0.0 0.0 
0.0 0.0 0.0 
0.0 0.0 0.0 
0.0 0.0 0.0 
0.0 0.0 0.0 
0.0 0.0 0.0 
0.0 0.0 0.0 
0.0 0.0 0.0 
0.0 0.0 0.0 
0.0 0.0 0.0 
0.0 0.0 0.0 
0.0 0.0 0.0 
0.0 0.0 0.0 
0.0 0.0 0.0 
0.0 0.0 0.0 
0.0 0.0 0.0 
0.0 0.0 0.0 
0.0 0.0 0.0 
0.0 0.0 0.0 
0.0 0.0 0.0 
0.0 0.0 0.0 
0.0 0.0 0.0 
0.0 0.0 0.0 
0.0 0.0 0.0 
0.0 0.0 0.0 
0.0 0.0 0.0 
0.0 0.0 0.0 
0.0 0.0 0.0 
0.0 0.0 0.0 
0.0 0.0 0.0 
0.0 0.0 0.0 
0.0 0.0 0.0 
0.0 0.0 0.0 
0.0 0.0 0.0 
0.0 0.0 0.0 
0.0 0.0 0.0 
0.0 0.0 0.0 
0.0 0.0 0.0 
0.0 0.0 0.0 
0.0 0.0 0.0 
0.0 0.0 0.0 
0.0 0.0 0.0 
0.0 0.0 0.0 
0.0 0.0 0.0 
0.0 0.0 0.0 
0.0 0.0 0.0 
0.0 0.0 0.0 
0.0 0.0 0.0 
0.0 0.0 0.0 
0.0 0.0 0.0 
0.0 0.0 0.0 
0.0 0.0 0.0 
0.0 0.0 0.0 
0.0 0.0 0.0 
0.0 0.0 0.0 
0.0 0.0 0.0 
0.0 0.0 0.0 
0.0 0.0 0.0 
0.0 0.0 0.0 
0.0 0.0 0.0 
0.0 0.0 0.0 
0.0 0.0 0.0 
0.0 0.0 0.0 
0.0 0.0 0.0 
0.0 0.0 0.0 
0.0 0.0 0.0 
0.0 0.0 0.0 
0.0 0.0 0.0 
0.0 0.0 0.0 
0.0 0.0 0.0 
0.0 0.0 0.0 
0.0 0.0 0.0 
0.0 0.0 0.0 
0.0 0.0 0.0 
0.0 0.0 0.0 
0.0 0.0 0.0 
0.0 0.0 0.0 
0.0 0.0 0.0 
0.0 0.0 0.0 
0.0 0.0 0.0 
0.0 0.0 0.0 
0.0 0.0 0.0 
0.0 0.0 0.0 
0.0 0.0 0.0 
0.0 0.0 0.0 
0.0 0.0 0.0 
0.0 0.0 0.0 
0.0 0.0 0.0 
0.0 0.0 0.0 
0.0 0.0 0.0 
0.0 0.0 0.0 
0.0 0.0 0.0 
0.0 0.0 0.0 
0.0 0.0 0.0 
0.0 0.0 0.0 
0.0 0.0 0.0 
0.0 0.0 0.0 

VECTORS node_materi_velocity float
0.0 -4.886336780890e-04 0.0 
0.0 9.933854848309e-03 0.0 
0.0 0.0 0.0 
0.0 0.0 0.0 
0.0 -4.761456334213e-04 0.0 
0.0 -4.624297943573e-04 0.0 
0.0 -4.466759012704e-04 0.0 
0.0 -4.283081053279e-04 0.0 
0.0 -4.064309839447e-04 0.0 
0.0 -3.811709789232e-04 0.0 
0.0 -3.525993437965e-04 0.0 
0.0 -3.208518092330e-04 0.0 
0.0 -2.864461101197e-04 0.0 
0.0 -2.499994015440e-04 0.0 
0.0 -2.123787756999e-04 0.0 
0.0 -1.747461933658e-04 0.0 
0.0 -1.380688964527e-04 0.0 
0.0 -1.029027072687e-04 0.0 
0.0 -7.110345681637e-05 0.0 
0.0 -4.373490742023e-05 0.0 
0.0 -2.180090655628e-05 0.0 
0.0 -6.740718749920e-06 0.0 
0.0 2.081628753610e-07 0.0 
0.0 0.0 0.0 
0.0 0.0 0.0 
0.0 0.0 0.0 
0.0 0.0 0.0 
0.0 0.0 0.0 
0.0 0.0 0.0 
0.0 0.0 0.0 
0.0 0.0 0.0 
0.0 0.0 0.0 
0.0 0.0 0.0 
0.0 0.0 0.0 
0.0 0.0 0.0 
0.0 0.0 0.0 
0.0 0.0 0.0 
0.0 0.0 0.0 
0.0 0.0 0.0 
0.0 0.0 0.0 
0.0 0.0 0.0 
0.0 0.0 0.0 
0.0 0.0 0.0 
0.0 0.0 0.0 
0.0 0.0 0.0 
0.0 0.0 0.0 
0.0 0.0 0.0 
0.0 0.0 0.0 
0.0 0.0 0.0 
0.0 0.0 0.0 
0.0 0.0 0.0 
0.0 0.0 0.0 
0.0 0.0 0.0 
0.0 0.0 0.0 
0.0 0.0 0.0 
0.0 0.0 0.0 
0.0 0.0 0.0 
0.0 0.0 0.0 
0.0 0.0 0.0 
0.0 0.0 0.0 
0.0 0.0 0.0 
0.0 0.0 0.0 
0.0 0.0 0.0 
0.0 0.0 0.0 
0.0 0.0 0.0 
0.0 0.0 0.0 
0.0 0.0 0.0 
0.0 0.0 0.0 
0.0 0.0 0.0 
0.0 0.0 0.0 
0.0 0.0 0.0 
0.0 0.0 0.0 
0.0 8.915706584222e-03 0.0 
0.0 7.898743480045e-03 0.0 
0.0 6.884386528399e-03 0.0 
0.0 5.873722439582e-03 0.0 
0.0 4.869039399979e-03 0.0 
0.0 3.871903525067e-03 0.0 
0.0 2.884494168387e-03 0.0 
0.0 1.908922974338e-03 0.0 
0.0 9.473483744876e-04 0.0 
-2.584457440193e-04 5.313674356753e-04 0.0 
1.920553489445e-03 9.276863182061e-03 0.0 
-2.074217924707e-04 9.274509278413e-04 0.0 
-1.428269069575e-04 1.367202206242e-03 0.0 
-1.572155785729e-05 2.036334021229e-03 0.0 
2.887319904709e-04 3.028418067457e-03 0.0 
1.352221758714e-03 4.509483588538e-03 0.0 
8.450741469781e-04 7.637542307016e-03 0.0 
1.374681025358e-03 9.457291071750e-03 0.0 
1.813537375625e-03 9.908753766670e-03 0.0 
1.958756810681e-03 9.767081842409e-03 0.0 
0.0 1.402828545472e-02 0.0 
0.0 1.299231800985e-02 0.0 
0.0 1.197193714245e-02 0.0 
0.0 1.095253772035e-02 0.0 
1.144792647810e-04 9.934763420285e-03 0.0 
2.294848095360e-04 9.937219387650e-03 0.0 
3.444464062637e-04 9.940473108023e-03 0.0 
4.593787647052e-04 9.944547100576e-03 0.0 
5.745912006741e-04 9.948781812446e-03 0.0 
6.901516725976e-04 9.952247685548e-03 0.0 
8.072668189926e-04 9.953708179338e-03 0.0 
9.254558310325e-04 9.949594067885e-03 0.0 
1.046694207401e-03 9.937566631928e-03 0.0 
1.171598742432e-03 9.912392353258e-03 0.0 
1.301095237312e-03 9.866974405782e-03 0.0 
1.437740237200e-03 9.793393091434e-03 0.0 
1.584143179448e-03 9.681005691859e-03 0.0 
1.743455504481e-03 9.514657791059e-03 0.0 
-2.286093259205e-04 3.572475452688e-04 0.0 
-1.758504142537e-04 1.824247171562e-04 0.0 
-1.148714884505e-04 3.095428642632e-05 0.0 
-5.214450980481e-05 -9.523033166212e-05 0.0 
3.689336524268e-06 -1.979708513739e-04 0.0 
5.198577365509e-05 -2.794248441084e-04 0.0 
9.203855455936e-05 -3.424928281543e-04 0.0 
1.232162666707e-04 -3.906500395508e-04 0.0 
1.457970592238e-04 -4.262063561203e-04 0.0 
1.599817636329e-04 -4.514214978686e-04 0.0 
1.662338579381e-04 -4.692158221874e-04 0.0 
1.657355261818e-04 -4.800953571337e-04 0.0 
1.584266295916e-04 -4.867833161715e-04 0.0 
1.460815590143e-04 -4.901793863859e-04 0.0 
1.289550791097e-04 -4.916543541646e-04 0.0 
1.078353466527e-04 -4.915352920535e-04 0.0 
8.349166362595e-05 -4.906980062842e-04 0.0 
5.684295542030e-05 -4.898777937770e-04 0.0 
2.882843420712e-05 -4.890725296819e-04 0.0 
1.563470529772e-04 1.402445493452e-02 0.0 
2.566247291574e-04 1.401213036930e-02 0.0 
3.654894847832e-04 1.400809818607e-02 0.0 
4.808906337375e-04 1.400825703286e-02 0.0 
5.966793042063e-04 1.400875301877e-02 0.0 
7.088707194798e-04 1.400735525360e-02 0.0 
8.139305553122e-04 1.400154395004e-02 0.0 
9.084375580723e-04 1.398961526483e-02 0.0 
9.883860612216e-04 1.396833058646e-02 0.0 
1.049719039452e-03 1.393251231242e-02 0.0 
1.088391816705e-03 1.387753102660e-02 0.0 
1.099736641519e-03 1.379725222612e-02 0.0 
1.079392087860e-03 1.368416596077e-02 0.0 
1.024789479956e-03 1.352978336490e-02 0.0 
9.134804883700e-04 1.330156209541e-02 0.0 
7.466738997783e-04 1.298417915222e-02 0.0 
5.352773026034e-04 1.254134116467e-02 0.0 
2.995960889594e-04 1.193626550425e-02 0.0 
1.120060942446e-04 1.110308072209e-02 0.0 
-8.876396297755e-05 9.944205011242e-03 0.0 
1.195243213257e-03 1.053914490995e-02 0.0 
1.147892296099e-03 1.127745455334e-02 0.0 
1.141595259472e-03 1.180100750793e-02 0.0 
1.156534989215e-03 1.217740402737e-02 0.0 
1.171192092054e-03 1.244194683447e-02 0.0 
1.173395492428e-03 1.262610780566e-02 0.0 
1.161051964641e-03 1.275535275885e-02 0.0 
1.132213296001e-03 1.284604984886e-02 0.0 
1.087031731204e-03 1.290789584021e-02 0.0 
1.026742888782e-03 1.294822363840e-02 0.0 
9.531122105038e-04 1.297263956761e-02 0.0 
8.683290980656e-04 1.298581251792e-02 0.0 
7.744869219488e-04 1.299190487702e-02 0.0 
6.736432545408e-04 1.299368121695e-02 0.0 
5.680120013930e-04 1.299318471390e-02 0.0 
4.595734424860e-04 1.299260111141e-02 0.0 
3.498971219656e-04 1.299390875444e-02 0.0 
2.386418972010e-04 1.299722446162e-02 0.0 
1.206650877152e-04 1.299606783568e-02 0.0 
1.183432424420e-04 1.197345993956e-02 0.0 
2.364715148084e-04 1.197657981255e-02 0.0 
3.516259038427e-04 1.197662477048e-02 0.0 
4.645402821776e-04 1.197752970910e-02 0.0 
5.754778528013e-04 1.197973274874e-02 0.0 
6.839526154378e-04 1.198186913552e-02 0.0 
7.889377191933e-04 1.198197317336e-02 0.0 
8.895399125389e-04 1.197750045963e-02 0.0 
9.847615809493e-04 1.196523444538e-02 0.0 
1.073748006566e-03 1.194047750044e-02 0.0 
1.156173632926e-03 1.189749066900e-02 0.0 
1.232492673494e-03 1.182907716446e-02 0.0 
1.304441486534e-03 1.172546139078e-02 0.0 
1.375923789627e-03 1.157281769728e-02 0.0 
1.452611908140e-03 1.134951800325e-02 0.0 
1.543318071141e-03 1.102724295201e-02 0.0 
1.653221988972e-03 1.056781103536e-02 0.0 
1.792052593524e-03 1.015811081934e-02 0.0 
1.652238784084e-03 1.043195053273e-02 0.0 
1.524450515802e-03 1.062377503213e-02 0.0 
1.408826816798e-03 1.075676490760e-02 0.0 
1.300070118237e-03 1.084621241483e-02 0.0 
1.194684700262e-03 1.090423409383e-02 0.0 
1.090390151708e-03 1.093960952083e-02 0.0 
9.857789950942e-04 1.095882082407e-02 0.0 
8.803429588022e-04 1.096739720432e-02 0.0 
7.739758489500e-04 1.096962278381e-02 0.0 
6.664032996762e-04 1.096775906273e-02 0.0 
5.578556361125e-04 1.096455255869e-02 0.0 
4.482706635919e-04 1.096117375329e-02 0.0 
3.373981714720e-04 1.095841533833e-02 0.0 
2.251248713732e-04 1.095616253513e-02 0.0 
1.125364201106e-04 1.095387480648e-02 0.0 
-2.079776880672e-04 7.200009335252e-04 0.0 
-1.848895062513e-04 1.115493961254e-03 0.0 
-8.943615636500e-05 1.670131021236e-03 0.0 
9.883296896807e-05 2.483391571140e-03 0.0 
6.377495951759e-04 3.655691137064e-03 0.0 
1.262081379247e-03 6.063841710309e-03 0.0 
1.081967812015e-03 8.723273866408e-03 0.0 
1.645835502273e-03 9.773326692506e-03 0.0 
1.920366805690e-03 9.889450855035e-03 0.0 
1.959272705595e-03 9.553768993024e-03 0.0 
-3.838670336919e-06 1.111951913128e-03 0.0 
2.858402070207e-04 6.276920906416e-05 0.0 
1.826205697479e-04 -4.434941199900e-04 0.0 
6.450440322279e-05 -1.636968357329e-04 0.0 
1.595676975231e-04 2.205429800470e-05 0.0 
5.367051854930e-04 2.527522945548e-03 0.0 
5.164202580989e-05 -2.307676064532e-04 0.0 
4.225532002890e-04 1.327675991886e-04 0.0 
1.532318321034e-03 5.663544934545e-03 0.0 
5.431117226731e-04 2.456170105382e-04 0.0 
2.220052297209e-03 8.767240419661e-03 0.0 
8.251574957467e-05 8.272856117944e-06 0.0 
1.588332630212e-04 -4.838582316803e-04 0.0 
6.160229435745e-04 4.236422240600e-04 0.0 
2.154557199989e-03 8.593681928224e-03 0.0 
4.085712926701e-05 -3.667931081668e-04 0.0 
5.156515862008e-05 -1.270331009386e-04 0.0 
6.018998088241e-04 5.854118199962e-04 0.0 
4.314362624944e-04 6.984483235026e-04 0.0 
1.162924618969e-04 8.038631855309e-04 0.0 
2.210345542991e-04 8.576319397734e-04 0.0 
3.022166369907e-04 7.395053817539e-04 0.0 
1.754799907911e-03 8.692235414169e-03 0.0 
1.138911772090e-03 9.002860933946e-03 0.0 
7.533800102985e-04 9.007788477518e-03 0.0 
7.462859966624e-05 5.355167330867e-03 0.0 
4.858934014756e-05 3.702199029639e-06 0.0 
-7.627437987315e-05 2.586236820897e-04 0.0 
9.781761149349e-05 -4.817807127562e-04 0.0 
3.456246474708e-05 -3.350285380621e-05 0.0 
3.917121153865e-04 9.064621662241e-03 0.0 
3.393416296026e-05 -4.387299928335e-04 0.0 
5.867072360118e-04 7.401794556498e-04 0.0 
4.503374155780e-04 1.684738157995e-04 0.0 
5.856520607631e-04 3.242282128746e-04 0.0 
3.757372826057e-04 9.980562101373e-05 0.0 
2.176087920148e-04 3.951253779751e-05 0.0 
1.356425568321e-04 -3.253643519732e-04 0.0 
1.424070504856e-03 8.967293563217e-03 0.0 
1.381601591993e-04 1.527890472583e-05 0.0 
5.732713948443e-05 3.418950766759e-03 0.0 
1.823277509427e-04 -4.741495971187e-04 0.0 
4.841405584939e-05 -3.043339834835e-04 0.0 
5.806897638047e-05 6.544463203745e-04 0.0 
1.208692035206e-03 3.743374978422e-03 0.0 
1.782202708274e-04 1.681353611778e-03 0.0 
1.977867598628e-03 7.762696587606e-03 0.0 
2.256814763584e-03 8.911756451420e-03 0.0 
-1.209635737266e-04 6.912555376767e-04 0.0 
8.966828586761e-05 7.270090683222e-03 0.0 
2.168341799109e-05 1.716259515916e-06 0.0 
4.443195445094e-05 -4.792447181654e-04 0.0 
3.168329967158e-05 1.496809971716e-03 0.0 
2.096567635302e-03 8.269030050631e-03 0.0 
2.288198557458e-03 7.627346446521e-03 0.0 
2.119419222844e-03 7.451223964207e-03 0.0 
2.327355128932e-03 6.708262099057e-03 0.0 
2.161019394973e-03 6.412291691625e-03 0.0 
2.306951089944e-03 5.778162984009e-03 0.0 
2.493437497817e-03 6.004378917710e-03 0.0 
2.424425950583e-03 5.130743196666e-03 0.0 
2.620475156622e-03 5.300810971028e-03 0.0 
2.105556192756e-03 5.472559816761e-03 0.0 
2.501298727248e-03 4.485876508859e-03 0.0 
2.699779057600e-03 4.604465904264e-03 0.0 
2.532088376794e-03 3.859455834774e-03 0.0 
2.725921728561e-03 3.935157346564e-03 0.0 
2.867656584815e-03 4.632202047780e-03 0.0 
2.883376383595e-03 3.925000608755e-03 0.0 
2.994952964918e-03 4.558122578528e-03 0.0 
2.993834994462e-03 3.819729815271e-03 0.0 
2.843756808087e-03 3.276998588794e-03 0.0 
2.937172771578e-03 3.160548573162e-03 0.0 
3.048316085850e-03 3.623129393288e-03 0.0 
2.972910571104e-03 2.969201805323e-03 0.0 
3.038551029726e-03 3.345428351736e-03 0.0 
2.947406037280e-03 2.715881516198e-03 0.0 
2.961829822887e-03 3.004938105438e-03 0.0 
2.862773816663e-03 2.421291935083e-03 0.0 
2.823342567385e-03 2.188960244261e-03 0.0 
2.737940347893e-03 1.938387414294e-03 0.0 
2.726440804198e-03 2.106679852311e-03 0.0 
2.608074378817e-03 1.673716124306e-03 0.0 
2.549420013679e-03 1.789969283149e-03 0.0 
2.443909623650e-03 1.409108112329e-03 0.0 
2.473576955963e-03 1.319974466014e-03 0.0 
2.324013134008e-03 1.099979645775e-03 0.0 
2.256105119539e-03 1.155452578756e-03 0.0 
2.154377761704e-03 8.896707894611e-04 0.0 
2.055409803420e-03 9.204154083256e-04 0.0 
1.973542353203e-03 6.945494924643e-04 0.0 
1.851032096815e-03 7.080635927048e-04 0.0 
1.787925744052e-03 5.167007947623e-04 0.0 
1.879679474801e-03 5.133333100156e-04 0.0 
1.711966515727e-03 3.637789197662e-04 0.0 
1.603790606999e-03 3.580236875702e-04 0.0 
1.544921451386e-03 2.300405551389e-04 0.0 
1.624470653731e-03 2.439304047446e-04 0.0 
1.473620338491e-03 1.308179366389e-04 0.0 
1.527406608415e-03 1.516969022426e-04 0.0 
1.392131595174e-03 5.562291525399e-05 0.0 
1.327297688398e-03 3.111318780087e-05 0.0 
1.259509375507e-03 -2.967410158723e-05 0.0 
1.302869124531e-03 4.791801498009e-07 0.0 
1.182920011017e-03 -7.315538075329e-05 0.0 
1.130503993248e-03 -1.053048202938e-04 0.0 
1.066385779955e-03 -1.380484143535e-04 0.0 
1.100754471415e-03 -1.019331822735e-04 0.0 
9.951195189776e-04 -1.584856467254e-04 0.0 
9.541877064813e-04 -1.949973141023e-04 0.0 
8.929864638072e-04 -2.080615062769e-04 0.0 
9.198272232458e-04 -1.683673576121e-04 0.0 
8.264888417898e-04 -2.124825902233e-04 0.0 
7.947413300762e-04 -2.514431704652e-04 0.0 
7.367462453628e-04 -2.507552562009e-04 0.0 
7.568898891616e-04 -2.097473391017e-04 0.0 
6.746009945498e-04 -2.443957862849e-04 0.0 
6.847793436737e-04 -2.020866576920e-04 0.0 
6.495807636903e-04 -2.845663319654e-04 0.0 
5.948678930532e-04 -2.748153598442e-04 0.0 
5.666792062947e-04 -3.139048605574e-04 0.0 
5.184842064824e-04 -3.013608653571e-04 0.0 
2.326221242495e-03 1.032393522860e-03 0.0 
4.897879876767e-04 -3.385281669509e-04 0.0 
5.293907202042e-04 -3.488190403514e-04 0.0 
4.463284594458e-04 -3.243159765808e-04 0.0 
4.665644058230e-04 -2.860004841202e-04 0.0 
4.181084923416e-04 -3.593842832237e-04 0.0 
3.785759894156e-04 -3.441042685129e-04 0.0 
3.519643037668e-04 -3.769545622571e-04 0.0 
1.890822949129e-03 9.446533604327e-04 0.0 
2.754502253092e-03 2.699945559293e-03 0.0 
3.155649504372e-04 -3.612045485894e-04 0.0 
2.915143505187e-04 -3.917318455838e-04 0.0 
3.208551641154e-04 -4.057194420789e-04 0.0 
2.645194178544e-04 -4.181359262380e-04 0.0 
1.972125978457e-03 6.073174624612e-03 0.0 
1.892208853130e-03 5.115679309779e-03 0.0 
1.777341453285e-03 5.686200816468e-03 0.0 
1.670278687881e-03 4.720726376150e-03 0.0 
1.574648570893e-03 5.255884443922e-03 0.0 
2.367023566486e-04 -4.042907892294e-04 0.0 
2.308148547368e-03 3.678162735625e-03 0.0 
1.743632153084e-03 4.173655327499e-03 0.0 
3.085395558952e-03 4.088946038172e-03 0.0 
2.637508730851e-03 2.257074346767e-03 0.0 
1.661148790880e-03 2.577301856845e-04 0.0 
3.351293645168e-04 -3.270373661653e-04 0.0 
2.751440645852e-04 -3.441688504117e-04 0.0 
2.885288843425e-04 -3.089930656267e-04 0.0 
7.599893449554e-04 -1.670505971091e-04 0.0 
6.785895352457e-04 -1.591906135560e-04 0.0 
7.439198135540e-04 -1.245253882612e-04 0.0 
6.548615808973e-04 -1.172914839768e-04 0.0 
7.075580529103e-04 -8.402609969883e-05 0.0 
6.129687065245e-04 -7.811979926240e-05 0.0 
5.685359370817e-04 -1.077683206547e-04 0.0 
5.231324158333e-04 -7.033809659171e-05 0.0 
4.858635335100e-04 -9.684858177673e-05 0.0 
6.505021306359e-04 -4.747072997387e-05 0.0 
7.540477378832e-04 -4.913077027855e-05 0.0 
4.388019355427e-04 -6.152068940406e-05 0.0 
4.076107518547e-04 -8.528484507105e-05 0.0 
3.605956890024e-04 -5.238728872972e-05 0.0 
3.344763495370e-04 -7.363354333989e-05 0.0 
3.700915072409e-04 -1.087883841348e-04 0.0 
3.015062232249e-04 -9.505748329178e-05 0.0 
3.276941604251e-04 -1.317696472410e-04 0.0 
1.540382698258e-03 1.718656251097e-04 0.0 
1.651754578761e-03 2.686868554329e-04 0.0 
1.509897060175e-03 1.888859882299e-04 0.0 
1.593406535123e-03 2.738412733643e-04 0.0 
1.434094440982e-03 2.001953107702e-04 0.0 
1.485054378306e-03 2.707759014392e-04 0.0 
1.312001731714e-03 2.034803751570e-04 0.0 
1.276462703107e-03 1.451273601633e-04 0.0 
2.514635101276e-03 3.254589812170e-03 0.0 
1.426596468285e-03 2.185021044617e-04 0.0 
1.454997416041e-03 3.546587224383e-04 0.0 
1.274805116753e-03 2.118380411310e-04 0.0 
1.272010709404e-03 3.557511603662e-04 0.0 
1.096204037301e-03 2.117114914892e-04 0.0 
1.062551670696e-03 3.640580653443e-04 0.0 
8.977837493644e-04 2.201647693309e-04 0.0 
9.392382681633e-04 8.861557164100e-05 0.0 
7.540041190976e-04 9.730679998999e-05 0.0 
7.998034114141e-04 -1.675605775091e-05 0.0 
6.296119724107e-04 -8.340702588295e-06 0.0 
6.764408709209e-04 -1.068902510491e-04 0.0 
2.674566390010e-03 1.751730562859e-03 0.0 
1.660571157573e-03 3.598223546841e-04 0.0 
1.514555066895e-03 3.381280582511e-04 0.0 
1.705223647258e-03 4.428345202204e-04 0.0 
2.870771688291e-04 -4.299896818503e-04 0.0 
2.669359220098e-04 -6.222619495014e-05 0.0 
6.788836768705e-04 -1.652941935308e-05 0.0 
7.922658153988e-04 -1.361234271513e-05 0.0 
1.143802314634e-03 1.526206789956e-04 0.0 
2.143045151383e-04 -4.283814275389e-04 0.0 
8.361789164988e-04 3.818647580328e-04 0.0 
1.005717903518e-03 5.502760235046e-04 0.0 
1.446169322326e-03 4.283953550886e-03 0.0 
1.370477545248e-03 4.793739774772e-03 0.0 
6.955261917157e-04 1.373566116740e-05 0.0 
1.873235130190e-04 -4.151893124203e-04 0.0 
4.618858118252e-04 -3.799078397242e-05 0.0 
5.630910441592e-04 1.158626402864e-04 0.0 
2.375433375625e-04 -8.173352633527e-05 0.0 
2.053820428190e-04 -5.127848268701e-05 0.0 
5.191407236710e-04 -1.359130458959e-04 0.0 
1.517035768900e-03 3.985751329387e-04 0.0 
1.724905317696e-03 5.190708074902e-04 0.0 
8.276868512686e-04 -1.059968023183e-04 0.0 
7.062817375096e-04 -1.831366328892e-04 0.0 
5.682075095441e-04 -1.840383195495e-04 0.0 
6.025172908817e-04 -2.506825668948e-04 0.0 
7.213057560515e-04 -2.401648751211e-04 0.0 
6.167426790291e-04 -2.956412497417e-04 0.0 
5.085628335272e-04 -3.054148780376e-04 0.0 
5.242477713541e-04 -3.421295811126e-04 0.0 
6.196061497740e-04 -3.265155922544e-04 0.0 
5.293703632417e-04 -3.654571546201e-04 0.0 
4.431219382956e-04 -3.797849518819e-04 0.0 
4.497637141789e-04 -3.970110309991e-04 0.0 
2.244493078115e-04 -3.462576357841e-05 0.0 
4.574660120812e-04 9.174477699209e-06 0.0 
2.933123137143e-03 5.357629561189e-03 0.0 
5.809313538211e-04 8.829869890789e-06 0.0 
1.146765499627e-03 1.970383834346e-04 0.0 
1.223883582281e-03 3.818453004695e-03 0.0 
1.168054231230e-03 4.307681987435e-03 0.0 
1.279275088621e-03 5.301348335277e-03 0.0 
1.096164312771e-03 4.794438953293e-03 0.0 
9.711588918224e-04 3.804097009674e-03 0.0 
9.182341197266e-04 4.276468522505e-03 0.0 
1.013412489129e-03 5.277147259006e-03 0.0 
8.527093975057e-04 4.746033453004e-03 0.0 
9.236258360227e-04 5.753513492596e-03 0.0 
7.781786509970e-04 5.211519449184e-03 0.0 
6.990463432798e-04 4.209094615673e-03 0.0 
6.387956971055e-04 4.667309033721e-03 0.0 
6.975158781978e-04 5.673726579651e-03 0.0 
5.703673616623e-04 5.123589232205e-03 0.0 
6.126901055808e-04 6.132306237819e-03 0.0 
4.955933011366e-04 5.577990016172e-03 0.0 
4.507435999040e-04 4.574096171084e-03 0.0 
1.712713680051e-04 -4.364636599680e-04 0.0 
1.122867490751e-03 1.047119949590e-04 0.0 
9.823515560510e-04 1.148937291187e-04 0.0 
2.331533198104e-04 -3.265367493256e-04 0.0 
2.414232568400e-04 -2.904725527937e-04 0.0 
2.968801544297e-04 -2.712233464776e-04 0.0 
2.431942036005e-04 -2.526023934696e-04 0.0 
3.836065944073e-04 5.029562772869e-03 0.0 
3.409917311596e-04 4.027554902462e-03 0.0 
7.536836093007e-04 5.772269905718e-04 0.0 
9.247760181747e-04 7.749425287159e-04 0.0 
1.257954038034e-03 3.329442173954e-03 0.0 
1.786132341739e-04 -6.912478977236e-05 0.0 
2.022200597451e-04 -1.016904063962e-04 0.0 
2.416347533902e-03 1.889839375267e-03 0.0 
2.466599713766e-03 2.383361716487e-03 0.0 
2.209811591943e-03 1.974217405143e-03 0.0 
2.206852850243e-03 2.486559318955e-03 0.0 
2.488906885737e-03 2.986093268643e-03 0.0 
1.925758165878e-03 2.040406127033e-03 0.0 
8.630604397110e-04 -4.791879507023e-05 0.0 
5.553167053432e-04 3.670562934668e-03 0.0 
3.447133535847e-04 -4.171190621342e-04 0.0 
3.033996142278e-04 -4.389309345000e-04 0.0 
1.501464315611e-04 -4.124918244645e-05 0.0 
1.224176652753e-03 8.560407192798e-05 0.0 
2.709666498465e-03 1.940887774457e-03 0.0 
2.538052770437e-03 1.548060950103e-03 0.0 
2.522623476815e-03 1.678514768365e-03 0.0 
2.328846257893e-03 1.329947109298e-03 0.0 
2.261569819784e-03 1.403712563768e-03 0.0 
2.046416974118e-03 1.100354842439e-03 0.0 
2.118241257133e-03 1.043147448164e-03 0.0 
1.485739308463e-03 4.465417198822e-04 0.0 
1.816450095299e-03 8.502147489214e-04 0.0 
4.224932797756e-04 6.040411207909e-03 0.0 
1.836226002964e-03 4.746059590644e-04 0.0 
6.112770937601e-04 -3.447008616665e-04 0.0 
1.938057830832e-04 -4.474604334394e-04 0.0 
3.712397908473e-04 -4.102575567400e-04 0.0 
1.433839733395e-04 -4.245061867943e-04 0.0 
1.559670725066e-04 -4.009559824299e-04 0.0 
5.740822905747e-04 3.215705060976e-05 0.0 
1.924814563329e-03 1.118096794002e-03 0.0 
2.143054571429e-03 1.433833157904e-03 0.0 
2.174810235895e-03 3.125376405270e-03 0.0 
2.478140493785e-03 3.727564375527e-03 0.0 
1.269940703057e-03 3.396104389442e-04 0.0 
1.644271815018e-03 6.253486288959e-03 0.0 
1.072163983918e-03 6.290251233715e-03 0.0 
9.640055432281e-04 6.769739673415e-03 0.0 
1.340492241870e-04 -4.461583718540e-04 0.0 
3.580737650962e-04 -3.872517217032e-04 0.0 
7.841339019702e-04 3.290173120447e-03 0.0 
1.197753498423e-03 7.503074954869e-04 0.0 
1.125571052682e-03 1.010418081506e-03 0.0 
3.745034759084e-04 1.428881986713e-04 0.0 
2.893443503356e-04 3.433644121217e-05 0.0 
2.856167910175e-04 4.468704134234e-03 0.0 
2.452630014661e-04 3.482306722682e-03 0.0 
2.986499340988e-04 -2.319240270859e-04 0.0 
2.411863776136e-04 -2.135252273189e-04 0.0 
6.974991041276e-04 4.213279334051e-05 0.0 
3.804576514395e-04 -4.222406769958e-04 0.0 
2.826219121809e-04 3.038031154937e-03 0.0 
1.084676333776e-03 5.467800094218e-05 0.0 
1.159123729754e-03 2.693214698375e-05 0.0 
1.883423958299e-04 -2.724170258856e-04 0.0 
6.461732901862e-04 8.083995768686e-04 0.0 
5.042190917537e-04 6.136837390053e-04 0.0 
7.083662162416e-04 -3.043873255796e-04 0.0 
4.462898022929e-04 -4.046364034832e-04 0.0 
1.124306627116e-04 -4.117779073321e-04 0.0 
5.489223805389e-04 5.118746629867e-05 0.0 
8.015057986313e-04 2.830715621297e-03 0.0 
1.898472657167e-03 8.134345462256e-04 0.0 
2.145962981480e-03 9.604126494821e-04 0.0 
1.578580699292e-03 6.491785270386e-04 0.0 
3.151763990907e-04 -4.339219978415e-04 0.0 
4.610912791018e-04 2.496705733727e-05 0.0 
1.251387688995e-04 -5.727627004097e-05 0.0 
1.771252518098e-03 1.110993708355e-03 0.0 
1.973737959910e-03 1.416393795565e-03 0.0 
1.413085912888e-03 9.866215595998e-04 0.0 
1.364045305740e-03 1.297409595204e-03 0.0 
1.032156984848e-03 1.324076564243e-03 0.0 
1.287633997995e-03 1.670799369803e-03 0.0 
2.661544810164e-03 6.154300097061e-03 0.0 
1.655287846256e-03 1.266681541399e-03 0.0 
3.031240554178e-03 5.216131575595e-03 0.0 
2.919486249760e-03 6.114194709282e-03 0.0 
2.984378257110e-03 5.904716639897e-03 0.0 
2.735515324765e-03 3.512934521432e-03 0.0 
2.735077944859e-03 4.379194238181e-03 0.0 
1.464344815362e-03 5.249352192230e-04 0.0 
1.790085085437e-03 3.735387617680e-04 0.0 
3.558441675418e-04 -2.504337911354e-04 0.0 
3.956474970192e-04 -1.472058742473e-04 0.0 
8.346129738543e-04 -1.282129919576e-04 0.0 
5.901735381829e-04 3.218589095603e-03 0.0 
4.460190287553e-04 2.686542450318e-03 0.0 
7.339787115922e-04 6.686896299829e-03 0.0 
6.373898886770e-04 7.146314409533e-03 0.0 
2.528404849753e-04 -4.496155367996e-04 0.0 
2.630414567161e-04 -4.557075879795e-04 0.0 
6.115916055591e-04 -1.909200163024e-04 0.0 
4.754903543245e-04 6.587370553545e-06 0.0 
1.021588693477e-03 2.861790615118e-03 0.0 
1.007902612125e-03 2.396487267010e-03 0.0 
1.264118935321e-03 2.843303934816e-03 0.0 
6.811057882285e-04 6.715007603637e-05 0.0 
1.260472407536e-03 9.800421324723e-05 0.0 
1.415194399729e-03 1.074909503974e-04 0.0 
3.679211943281e-04 -8.151493037405e-05 0.0 
2.433828844840e-03 1.216106052253e-03 0.0 
2.205684460661e-04 -4.644787417325e-04 0.0 
2.623664057218e-03 2.746192865105e-03 0.0 
1.017692355371e-04 -3.197815463730e-05 0.0 
1.173784200493e-04 -1.930098511633e-05 0.0 
1.188928715606e-03 3.594780832605e-04 0.0 
2.400904579492e-03 7.836493156102e-03 0.0 
2.262596011513e-03 9.522824305660e-04 0.0 
2.169345921117e-03 8.010678290529e-04 0.0 
2.815035509025e-03 6.902007961741e-03 0.0 
2.842220218089e-03 6.623556205793e-03 0.0 
2.988350770883e-03 5.548467149144e-03 0.0 
2.800244814966e-03 6.166018910523e-03 0.0 
6.852279755173e-04 -3.179568836190e-04 0.0 
5.927787567962e-04 -3.528087360633e-04 0.0 
1.497088000916e-03 8.176720233123e-04 0.0 
1.452378282503e-03 6.483757041504e-04 0.0 
1.560077730757e-03 1.044689802714e-03 0.0 
1.752521211730e-03 1.336898770220e-03 0.0 
9.665152875539e-04 2.645309841515e-04 0.0 
1.060323437189e-03 2.551377451205e-04 0.0 
1.206647909600e-04 -3.865181477587e-04 0.0 
2.427100922373e-03 4.658891149749e-03 0.0 
6.097027756892e-04 2.320244402284e-03 0.0 
2.740682016992e-03 7.028794827397e-03 0.0 
3.620432000095e-04 2.009458277635e-05 0.0 
3.801873397129e-04 5.062891877060e-06 0.0 
2.174396930673e-04 -5.855687673961e-05 0.0 
2.934820382231e-04 -1.716799616854e-04 0.0 
1.930367922034e-04 2.520820589890e-03 0.0 
9.191577730083e-04 1.693300729002e-03 0.0 
1.184056541964e-03 2.109330731646e-03 0.0 
6.988507393307e-04 1.351658857790e-03 0.0 
1.506193511019e-05 -1.431906164645e-06 0.0 
1.700158241319e-04 9.071482163114e-03 0.0 
7.541294947324e-05 -1.297686077357e-05 0.0 
2.930834639484e-03 4.066747660528e-03 0.0 
2.092363120585e-04 2.044412406025e-03 0.0 
2.086287090757e-03 7.438189231574e-04 0.0 
2.172174801719e-03 1.547653543243e-03 0.0 
8.310228411524e-04 5.721561027471e-05 0.0 
1.567283761788e-04 3.041683669593e-03 0.0 
1.161413859452e-04 1.966332740978e-03 0.0 
1.095487352424e-03 7.294102781034e-03 0.0 
9.785573413830e-04 7.790455639014e-03 0.0 
1.220848073109e-03 6.817151696515e-03 0.0 
4.804760163598e-04 2.679832817431e-04 0.0 
2.527218166873e-04 3.254623206617e-04 0.0 
4.242734857627e-04 3.132214502181e-03 0.0 
2.195290747022e-04 -3.596209486414e-04 0.0 
1.760411252475e-04 -3.391188408388e-04 0.0 
3.758678754209e-04 -4.261588873189e-04 0.0 
4.323257885645e-04 -4.048848366193e-04 0.0 
3.550099183002e-04 -2.102178360310e-04 0.0 
4.165194559612e-04 -2.280145976344e-04 0.0 
2.499848118921e-03 2.241117725483e-03 0.0 
2.331619286845e-03 2.228136475642e-03 0.0 
2.694250202456e-03 2.098235874332e-03 0.0 
1.033080511972e-03 4.930845999480e-06 0.0 
1.085091952104e-03 -2.906886355152e-05 0.0 
1.200034745204e-03 -4.770783359324e-06 0.0 
4.562528566497e-04 2.273579702622e-03 0.0 
3.040363549854e-04 1.669950586485e-03 0.0 
7.856509044493e-04 -2.764209132795e-04 0.0 
8.147338374549e-04 -2.560749779750e-04 0.0 
6.521976385932e-04 -3.231871803817e-04 0.0 
5.904088009976e-04 1.893119337771e-03 0.0 
8.299302969964e-05 -4.792593148723e-06 0.0 
1.248787847025e-04 -8.569757652549e-06 0.0 
2.263338970626e-04 -4.673079130324e-04 0.0 
2.671538727233e-04 -4.564789980923e-04 0.0 
3.832258193379e-04 8.475781474865e-04 0.0 
2.680548682108e-04 6.567398264892e-04 0.0 
9.745210014966e-04 1.974072444282e-03 0.0 
1.239414782764e-03 2.373914114938e-03 0.0 
6.962450555234e-04 1.490603257247e-03 0.0 
7.683054814297e-05 -4.002551679681e-04 0.0 
1.936556082915e-03 7.533858623180e-04 0.0 
5.170233226171e-04 6.755208985486e-05 0.0 
6.592426791055e-04 8.837965083403e-05 0.0 
3.676799806687e-04 4.836676763833e-05 0.0 
1.425975383248e-03 4.806838206664e-04 0.0 
1.078942690419e-03 3.600728871093e-04 0.0 
1.184962347559e-03 4.735541184766e-04 0.0 
1.322413623243e-04 6.141146840065e-05 0.0 
8.697838979903e-05 2.367300016129e-03 0.0 
7.514033282199e-04 7.705020208058e-03 0.0 
9.358956505959e-05 -2.101580395788e-05 0.0 
6.461073268429e-04 8.200223356035e-03 0.0 
5.431116730407e-04 7.610160731040e-03 0.0 
5.577144922694e-04 8.688687013795e-03 0.0 
7.335072349540e-05 -4.220487300072e-04 0.0 
1.229560690520e-03 7.994202672377e-03 0.0 
1.376102211758e-03 7.369765960475e-03 0.0 
2.178079483153e-04 -4.659833608624e-04 0.0 
3.987764520832e-04 1.398193891312e-03 0.0 
1.954295085770e-04 -4.739228180676e-04 0.0 
1.880682507666e-04 -4.707685374462e-04 0.0 
2.722040715049e-04 1.525283260187e-05 0.0 
2.949960315221e-04 4.869007162978e-06 0.0 
1.948309547462e-04 1.290328038835e-05 0.0 
2.254574553811e-04 5.483995563069e-06 0.0 
3.057639535115e-04 -8.919867793396e-06 0.0 
2.344185368400e-04 -5.892122339269e-06 0.0 
8.715536861535e-04 8.349907118736e-03 0.0 
1.519942709707e-04 6.493082487073e-06 0.0 
1.711880366721e-04 -2.666287238461e-06 0.0 
9.889472866406e-05 4.632946569765e-06 0.0 
2.576246160578e-03 7.434895488806e-03 0.0 
1.547683781025e-03 2.074605321159e-03 0.0 
1.462621601143e-03 2.618081798711e-03 0.0 
1.057759297886e-03 2.646433816931e-03 0.0 
1.194203588395e-03 8.338200331094e-04 0.0 
1.511454728317e-03 1.223734325257e-03 0.0 
7.734410998175e-05 -4.588480654016e-05 0.0 
8.945684090608e-05 -7.377501405400e-05 0.0 
4.477291785413e-04 8.147666482080e-03 0.0 
3.280147344629e-04 8.187238095677e-03 0.0 
3.588781021999e-04 7.260666443131e-03 0.0 
2.592780283886e-04 7.370014692594e-03 0.0 
2.804698015368e-04 6.462829869287e-03 0.0 
1.806264511124e-04 6.576644980369e-03 0.0 
2.143697591804e-04 5.671585441262e-03 0.0 
1.007868815910e-03 4.417444223496e-04 0.0 
5.382075407747e-04 1.682520076932e-03 0.0 
2.567921306760e-03 7.916400899463e-03 0.0 
7.524741878745e-04 1.897782959394e-04 0.0 
8.853701843133e-04 1.967460542464e-04 0.0 
2.667233385186e-03 5.454323056731e-03 0.0 
2.273613821094e-03 5.895121189644e-03 0.0 
3.028631475274e-04 2.956867808229e-05 0.0 
1.668329139775e-03 9.653554277312e-04 0.0 
3.032626565901e-04 8.725968720361e-04 0.0 
-1.230100217215e-04 4.244414415819e-04 0.0 
4.565839954268e-05 3.312189375677e-04 0.0 
1.907407602950e-03 1.235186802891e-03 0.0 
2.910842292224e-03 5.031357054829e-03 0.0 
1.849318105872e-03 2.560898160451e-03 0.0 
1.803829145753e-03 3.258640009819e-03 0.0 
9.497656503379e-04 3.438033825694e-05 0.0 
2.623428422902e-04 -4.515367440395e-04 0.0 
5.237097461656e-04 1.073968306483e-03 0.0 
3.128035563134e-04 5.573182515699e-03 0.0 
2.424209838085e-04 1.093863860696e-03 0.0 
4.066273844459e-05 -5.839109263885e-05 0.0 
1.670653161205e-03 7.200668689291e-04 0.0 
2.894068552173e-03 3.273695541638e-03 0.0 
8.215218769428e-04 1.039352168307e-03 0.0 
1.647300693714e-03 1.648544947154e-03 0.0 
2.793854740332e-03 5.382155772211e-03 0.0 
2.486760638043e-03 6.911760576650e-03 0.0 
2.619410005547e-03 7.048253261860e-03 0.0 
1.647572503779e-03 5.201782451809e-04 0.0 
2.119281731965e-03 3.910818167343e-03 0.0 
1.684031571759e-03 4.099563119148e-03 0.0 
3.072098139830e-03 4.374879903097e-03 0.0 
1.525737834164e-03 3.259451901720e-03 0.0 
1.515403897094e-03 2.758142656113e-03 0.0 
1.185412383741e-03 1.942787033449e-03 0.0 
1.466939207558e-03 2.284463836213e-03 0.0 
1.790829778383e-03 3.106325508348e-03 0.0 
1.753885164321e-03 2.600706459349e-03 0.0 
1.378235289715e-03 1.846074668504e-03 0.0 
1.674313301265e-03 2.126731123036e-03 0.0 
1.146462078669e-03 1.296668298561e-03 0.0 
1.537477394404e-03 1.676400899603e-03 0.0 
1.958430574383e-03 2.373167251382e-03 0.0 
1.844947092721e-03 1.929543455856e-03 0.0 
1.425970978608e-03 1.361302130213e-03 0.0 
2.229821695766e-03 2.599951777089e-03 0.0 
6.161593243845e-04 1.747367731067e-04 0.0 
2.119317644514e-03 1.200538115608e-03 0.0 
1.935877776961e-04 1.788447678006e-04 0.0 
1.019559391597e-04 4.741455466818e-04 0.0 
3.027523580495e-03 3.714605721407e-03 0.0 
5.731049183511e-04 6.332904667916e-04 0.0 
4.851429806167e-04 6.933923737458e-04 0.0 
1.245790418232e-03 5.335288062589e-04 0.0 
6.035178442430e-04 3.713428983025e-04 0.0 
2.804474203795e-03 6.200888493655e-03 0.0 
6.878395184971e-04 2.395434068059e-04 0.0 
5.739974167591e-04 2.872370975564e-04 0.0 
1.786058725213e-03 3.631480073980e-03 0.0 
2.039898854015e-03 3.977224165325e-03 0.0 
1.981923088636e-03 4.546216126778e-03 0.0 
3.762454130106e-04 6.897070738771e-04 0.0 
1.346130720602e-03 6.317868869481e-03 0.0 
4.227542091472e-04 1.449812944298e-04 0.0 
1.752149315322e-03 3.707052881132e-04 0.0 
1.907781892375e-03 4.957318407603e-04 0.0 
1.920444234710e-03 5.071764339620e-04 0.0 
2.032866540423e-03 2.889219752320e-03 0.0 
3.133575155732e-04 7.417789263558e-05 0.0 
5.516777504252e-04 1.163318674596e-04 0.0 
4.970311855839e-04 9.370056364292e-05 0.0 
7.530539534021e-04 1.351967664642e-04 0.0 
2.518569726692e-04 5.103805038825e-05 0.0 
5.671236621140e-04 4.886319286806e-04 0.0 
5.522255634630e-04 4.227998163876e-04 0.0 
7.207446293227e-04 -2.792819116856e-04 0.0 
8.333633354902e-04 -2.228605566535e-04 0.0 
9.306434254688e-04 -1.989862974558e-04 0.0 
9.562024846107e-04 -1.561860485336e-04 0.0 
8.382443617677e-04 -1.736485543810e-04 0.0 
9.670630985394e-04 -9.645830011757e-05 0.0 
1.088378116173e-03 -7.899988340535e-05 0.0 
9.613652933072e-04 -1.587607971388e-05 0.0 
1.953450105712e-03 1.716061189601e-03 0.0 
1.937728444467e-04 3.297152127222e-05 0.0 
8.059863504354e-04 -8.716311744683e-05 0.0 
9.068588495003e-04 -8.651688541702e-05 0.0 
9.250798361236e-04 -1.273385885542e-04 0.0 
4.121362019164e-04 -2.686532148925e-04 0.0 
4.774658084747e-04 -2.453325462894e-04 0.0 
4.777405137821e-04 -2.035616570926e-04 0.0 
3.489633066932e-04 -2.898463669357e-04 0.0 
2.348639883641e-03 1.224811999199e-03 0.0 
1.718640522100e-04 2.618822559878e-05 0.0 
1.287554224156e-03 6.045804173692e-05 0.0 
5.371944819136e-04 -2.613274883959e-04 0.0 
1.584895838403e-03 8.849323119610e-03 0.0 
1.722730372308e-03 7.902988956411e-03 0.0 
1.901423941838e-03 7.731091824374e-03 0.0 
1.828283316489e-03 6.820783031586e-03 0.0 
1.531259527646e-03 7.907577183171e-03 0.0 
2.938380166864e-04 -1.922238614038e-04 0.0 
2.337792306029e-04 -1.745176745206e-04 0.0 
1.839091731216e-04 -1.955523912941e-04 0.0 
1.753309690544e-04 -1.573640021993e-04 0.0 
1.276368814372e-04 -1.780733803707e-04 0.0 
1.341471276436e-04 -2.154152733047e-04 0.0 
1.178704352232e-04 -1.408038453365e-04 0.0 
7.371528642401e-05 -1.652970180710e-04 0.0 
1.276270840863e-03 9.003860149832e-03 0.0 
1.059097150858e-04 -2.539657783878e-04 0.0 
2.043583240184e-04 -2.999762548214e-04 0.0 
2.146932929554e-04 -3.590984649134e-04 0.0 
2.866900309538e-04 -3.352643518052e-04 0.0 
2.919226865571e-04 -2.724600839427e-04 0.0 
3.925094499580e-04 -3.092230558718e-04 0.0 
3.865036245978e-04 -2.391582447843e-04 0.0 
1.869215336094e-04 -2.192437982517e-04 0.0 
1.582745113619e-04 -3.774523608168e-04 0.0 
2.221675230368e-04 -4.019341576058e-04 0.0 
1.738710481482e-04 -4.162560153324e-04 0.0 
2.219620359224e-04 -4.319864596578e-04 0.0 
2.892390390540e-04 -4.176077086041e-04 0.0 
3.148525116243e-04 -4.429763503399e-04 0.0 
4.253592817389e-05 2.811079555045e-06 0.0 
5.054539753627e-05 -2.686403961190e-04 0.0 
9.722909219198e-05 -2.878717538760e-04 0.0 
9.302659169094e-05 -3.212834453977e-04 0.0 
1.463811433759e-04 -3.054344960449e-04 0.0 
9.652811783080e-05 -2.546222905118e-04 0.0 
4.509966562864e-05 -3.371493788771e-04 0.0 
8.652019864242e-05 -3.494059403674e-04 0.0 
7.155271134524e-05 -4.801630843872e-04 0.0 
6.083823068191e-05 -4.683073388533e-04 0.0 
2.788177632905e-05 -4.683014732287e-04 0.0 
4.935775223200e-05 -4.550134542239e-04 0.0 
8.070504466935e-05 -4.572215188948e-04 0.0 
8.967395553295e-05 -4.701709933754e-04 0.0 
1.171323945287e-04 -4.728175477053e-04 0.0 
1.219752710304e-04 -4.835078378195e-04 0.0 
1.418452527905e-04 -4.751251981164e-04 0.0 
1.405666939652e-04 -4.623943890947e-04 0.0 
1.420123388342e-04 -4.845138199234e-04 0.0 
6.944275064377e-05 4.362627251770e-03 0.0 
1.323464882083e-04 3.870467004201e-03 0.0 
1.417641113908e-04 1.749919277674e-05 0.0 
9.958319681140e-04 8.973639992626e-03 0.0 
1.860194812058e-04 -4.621803648503e-04 0.0 
1.095167156469e-04 9.682061278044e-04 0.0 
1.715499607753e-04 7.953321109976e-04 0.0 
1.363907167850e-04 7.733014813879e-04 0.0 
2.507781779067e-05 -1.368368653078e-05 0.0 
4.051176085002e-05 -6.650320703775e-06 0.0 
5.950458485389e-05 9.433446999797e-04 0.0 
3.831841362761e-04 -3.905542984174e-04 0.0 
1.093758301124e-03 1.544544125122e-03 0.0 
3.080130071169e-04 2.593639916994e-03 0.0 
6.070102586998e-04 4.100457433136e-04 0.0 
5.086198425932e-04 -3.815980836593e-04 0.0 
1.431237615446e-04 -8.735827637048e-05 0.0 
4.428422241187e-04 -1.224573971820e-04 0.0 
1.673419707885e-04 -2.649740127286e-05 0.0 
2.630810153793e-04 -1.164373354044e-04 0.0 
2.889997837473e-04 -4.331237744457e-05 0.0 
4.561457133353e-04 7.554694450007e-05 0.0 
1.058567963380e-04 -4.327973381780e-04 0.0 
8.296927003029e-04 6.223095301615e-03 0.0 
5.296494375978e-04 6.592478470248e-03 0.0 
5.081177077571e-04 4.122752958143e-03 0.0 
2.574632164523e-04 -3.761216230516e-04 0.0 
1.901017991272e-04 -2.322366198364e-04 0.0 
2.366891077422e-04 -4.399872012372e-04 0.0 
1.052707663514e-03 5.794125902268e-04 0.0 
3.072205325480e-03 4.960899262295e-03 0.0 
8.407883180927e-04 -1.707328389062e-04 0.0 
3.990824316089e-04 -3.077571855825e-04 0.0 
4.529854212210e-04 -3.715704961639e-04 0.0 
5.239923517174e-04 -3.778273360130e-04 0.0 
2.343153594408e-03 1.484275550367e-03 0.0 
6.102047882908e-04 -2.334536025123e-04 0.0 
5.529026312086e-04 -4.345526744408e-05 0.0 
3.885814143049e-04 3.579607564681e-03 0.0 
1.745332624328e-04 -4.804131541911e-04 0.0 
5.729965748439e-04 -1.666376786733e-05 0.0 
5.980331014010e-04 -1.484533217303e-04 0.0 
1.178594194056e-03 5.801715573623e-03 0.0 
1.326920827100e-03 2.576066146659e-04 0.0 
4.290656702603e-04 -3.520106888643e-04 0.0 
7.489004716826e-04 3.751296024780e-03 0.0 
7.765089155901e-04 1.983279294873e-03 0.0 
1.507558609214e-03 6.812869235369e-03 0.0 
2.090913995180e-04 -4.579004705583e-04 0.0 
8.587973776275e-04 7.255502315432e-03 0.0 
4.283882400633e-04 3.992653750987e-05 0.0 
1.500008939774e-03 3.769059835917e-03 0.0 
2.043150699713e-04 -3.892697712300e-04 0.0 
1.423145841025e-03 8.234405084299e-05 0.0 
2.823894692735e-03 2.632872989576e-03 0.0 
2.225549185578e-03 8.786913902901e-03 0.0 
3.209353975303e-04 2.187802469093e-03 0.0 
2.193412908483e-03 8.514343917444e-04 0.0 
9.711838245193e-04 1.503393612579e-04 0.0 
1.366689373762e-03 1.292189322579e-04 0.0 
1.686332076650e-04 -3.730783580017e-04 0.0 
3.854965867622e-04 -1.239690670352e-05 0.0 
1.774802103095e-03 3.694479535030e-04 0.0 
6.108021540447e-04 2.774428046169e-03 0.0 
2.455990724838e-03 1.769169169024e-03 0.0 
1.383607930133e-03 1.125398399703e-04 0.0 
1.007275031678e-03 3.332021642008e-03 0.0 
1.014061354127e-03 -1.193271004921e-04 0.0 
1.314348472145e-03 3.039767058113e-04 0.0 
3.043709238333e-03 4.566229168251e-03 0.0 
2.857055708208e-03 2.411388700207e-03 0.0 
2.701550222848e-03 3.313603856421e-03 0.0 
2.593378982847e-03 1.540745646756e-03 0.0 
9.796219376348e-05 -1.063055001541e-04 0.0 
4.749811461804e-04 -1.510296396579e-05 0.0 
5.227705620693e-04 -9.674941190246e-05 0.0 
1.936298557328e-03 1.601067494943e-03 0.0 
1.463412613579e-03 5.789176799337e-03 0.0 
1.700347238230e-03 8.646202128778e-04 0.0 
4.352190486941e-04 1.807708276908e-03 0.0 
2.701556260901e-03 2.822552872657e-03 0.0 
3.783560245015e-04 -3.174574441334e-05 0.0 
8.016830793624e-04 2.403802530473e-03 0.0 
5.442803378160e-04 -2.195126282404e-04 0.0 
3.501919674734e-05 -4.175707417013e-04 0.0 
3.871223163748e-04 4.486049296380e-04 0.0 
1.110215853506e-03 8.940501547748e-05 0.0 
2.042355131546e-03 6.771080717110e-04 0.0 
5.385926084732e-04 -1.772586758387e-04 0.0 
8.603539489249e-04 1.451575228356e-03 0.0 
3.025083454418e-04 -2.550698556682e-05 0.0 
8.182330501100e-04 2.215907582728e-05 0.0 
-6.917851962729e-05 8.991782068855e-04 0.0 
2.506017864154e-03 7.917653971170e-03 0.0 
2.346950047578e-04 -1.946616475863e-05 0.0 
1.313567145848e-03 3.148885362746e-05 0.0 
1.120647764985e-03 2.323465869002e-04 0.0 
8.064427072269e-05 -1.992552842215e-04 0.0 
1.021896266954e-03 5.036507811471e-04 0.0 
2.494155871145e-03 6.743777252519e-03 0.0 
1.750592891715e-04 -1.378897821952e-05 0.0 
9.749583316231e-04 7.585169337342e-05 0.0 
1.449828093585e-03 7.323775466988e-04 0.0 
2.815912665171e-04 9.074002523929e-03 0.0 
1.092326861573e-04 1.173586927050e-06 0.0 
8.238981669523e-04 8.830390072193e-05 0.0 
2.506986775789e-03 1.391409263911e-03 0.0 
1.207241294457e-03 -3.877338782093e-05 0.0 
2.263866598955e-03 8.901253739375e-03 0.0 
4.662794790537e-04 -1.623462100139e-04 0.0 
2.834730789020e-03 2.587887326738e-03 0.0 
3.245143559466e-04 6.899576167259e-04 0.0 
8.107015227709e-04 1.159423677720e-04 0.0 
2.211604662541e-03 4.888316754869e-03 0.0 
4.113258745319e-04 -1.871659107240e-04 0.0 
1.900781333933e-03 5.768524250459e-04 0.0 
1.108461606992e-04 -4.598820412076e-04 0.0 
2.595710463917e-03 7.763522475664e-03 0.0 
3.456804934429e-04 -1.702652742957e-04 0.0 
1.107020348058e-03 -6.329758028390e-06 0.0 
1.107940367736e-03 -6.486079302399e-05 0.0 
8.528485769864e-04 2.585941495806e-04 0.0 
2.820306069343e-04 -1.533982925008e-04 0.0 
1.231098196562e-03 9.910160646369e-06 0.0 
2.207313984382e-04 -1.369621788822e-04 0.0 
2.139708375119e-03 8.361263290160e-03 0.0 
2.279257068729e-03 4.263745361160e-03 0.0 
1.601113794009e-04 -1.211637844924e-04 0.0 
2.623200440790e-03 2.198623329857e-03 0.0 
1.699657875384e-04 -4.645979989148e-04 0.0 
2.325142359144e-03 1.096681503794e-03 0.0 
5.930141049481e-05 -2.253450497745e-05 0.0 
6.115757414299e-04 -3.216041448654e-04 0.0 
1.007991000742e-03 -8.013304714762e-05 0.0 
2.057412170496e-03 3.419817808193e-03 0.0 
1.756791564031e-03 6.818406344695e-03 0.0 
9.743371151205e-04 -4.200955353139e-05 0.0 
2.338517829322e-03 1.808843464445e-03 0.0 
2.135490681591e-03 8.611100852794e-04 0.0 
2.054358774584e-03 6.527690726685e-04 0.0 
9.111936201495e-04 -7.122896216008e-06 0.0 
2.011476752327e-03 4.932703741864e-03 0.0 
4.073963945623e-04 -4.010942179272e-04 0.0 
3.630018809701e-04 -4.242688179476e-04 0.0 
1.187022259790e-03 -5.654561845614e-05 0.0 
2.168626105660e-03 1.791807370124e-03 0.0 
7.426433676231e-05 -4.425491193153e-04 0.0 
2.289248045148e-03 3.109656442764e-03 0.0 
3.184773422236e-04 -4.416738894486e-04 0.0 
1.054863077177e-03 -1.326972961427e-04 0.0 
1.704002615953e-03 5.807320174487e-04 0.0 
8.206361178334e-05 6.322771425839e-03 0.0 
1.009413818404e-03 -1.704247067207e-04 0.0 
3.692281029595e-05 -3.937128435560e-04 0.0 
8.940509406940e-04 -2.273336831420e-04 0.0 
2.007038808915e-03 6.194709939543e-04 0.0 
8.485584226250e-04 -2.438488874426e-04 0.0 
7.473132886610e-04 -2.866213039207e-04 0.0 
2.151835548343e-04 1.663380978524e-03 0.0 
7.015537190038e-04 -2.886686082402e-04 0.0 
2.976307166146e-05 7.804254938583e-04 0.0 
1.739485928698e-05 2.108830163464e-06 0.0 
1.062943037208e-04 8.307603280637e-03 0.0 
1.384325175885e-03 4.731842267781e-03 0.0 
-2.611561025662e-05 9.207898375933e-05 0.0 
1.445863734483e-03 3.267503480775e-03 0.0 
5.648213864867e-04 -3.537728721262e-04 0.0 
2.449073808363e-03 2.714970479312e-03 0.0 
2.206647396142e-04 8.262574285865e-03 0.0 
4.831462011307e-04 -3.794840038727e-04 0.0 
1.064979332777e-03 1.036827910838e-03 0.0 
4.826538465930e-04 1.978260564578e-04 0.0 
1.486760850469e-04 4.801599573671e-03 0.0 
9.490643514203e-04 1.801549165657e-04 0.0 
1.932675052109e-03 6.703470821784e-04 0.0 
4.319020322305e-05 2.465238722317e-03 0.0 
6.454421594142e-04 9.160140168418e-03 0.0 
2.184282388089e-04 -4.528144180953e-04 0.0 
4.673646843697e-05 -8.900573013975e-05 0.0 
7.289568383281e-04 3.100773416022e-03 0.0 
7.460836101240e-04 2.082070750232e-03 0.0 
3.606127334936e-04 1.356111884691e-03 0.0 
1.284204005873e-04 -3.597068804908e-04 0.0 
2.826569665210e-04 -3.824788728189e-04 0.0 
3.314521556341e-04 2.054324450148e-03 0.0 
6.201664466242e-04 1.440340484270e-04 0.0 
1.088720519151e-03 8.229291653169e-03 0.0 
1.679672268583e-03 6.370086682125e-04 0.0 
7.712254645626e-05 1.366488424896e-03 0.0 
5.596023342776e-04 1.534810319256e-03 0.0 
8.884633140834e-04 3.217242578793e-04 0.0 
9.458097371816e-05 9.690041999875e-06 0.0 
1.325282606445e-03 4.883176308103e-04 0.0 
1.375908089510e-04 8.712537771337e-04 0.0 
1.653869060783e-03 7.147043505962e-03 0.0 
1.072393657973e-03 6.576501928735e-04 0.0 
2.022665287179e-04 4.010904229282e-03 0.0 
6.688572117445e-05 6.179748883382e-06 0.0 
1.371729110067e-03 8.248363690369e-03 0.0 
1.294156896133e-04 1.552723417272e-03 0.0 
4.347344172091e-04 -1.693485103099e-04 0.0 
6.570755614739e-05 1.508420737190e-03 0.0 
2.109890905698e-03 2.122586764774e-03 0.0 
4.529452384898e-04 7.051513737000e-03 0.0 
2.006177830335e-03 6.904282919197e-03 0.0 
4.863812419213e-05 -1.094669653847e-06 0.0 
9.708813268392e-04 1.210555694336e-03 0.0 
5.965474343206e-05 6.497576455762e-04 0.0 
2.333789681897e-04 4.904221633964e-03 0.0 
1.975270367506e-04 -3.071163888482e-04 0.0 
1.402464709178e-04 -1.201370157019e-04 0.0 
2.459017334929e-04 2.157616682271e-05 0.0 
1.704252943196e-03 1.564034802222e-03 0.0 
8.225305668778e-05 2.646899605440e-07 0.0 
2.189857370832e-05 -4.551725999560e-04 0.0 
1.977003685404e-04 -4.735985287486e-04 0.0 
2.890205574201e-04 3.476778914305e-05 0.0 
1.029581212500e-03 7.941715036192e-04 0.0 
4.935098282807e-04 -2.584010283449e-04 0.0 
1.860400422123e-04 6.122280458440e-04 0.0 
-4.042441037668e-05 5.072313827921e-04 0.0 
8.725848646250e-04 9.265160520485e-03 0.0 
1.605753915662e-04 -4.773605608608e-04 0.0 
5.227449008580e-05 4.603187028107e-06 0.0 
3.206050770100e-04 1.469230546048e-03 0.0 
1.364552517057e-04 -2.723961082918e-04 0.0 
1.922614432506e-03 8.444115939826e-03 0.0 
7.992294317044e-05 -3.769491300348e-04 0.0 
1.337345053577e-03 6.449815572152e-04 0.0 
2.629462946161e-04 -4.391264519331e-04 0.0 
2.155884605054e-04 1.395375446113e-03 0.0 
3.560700153366e-04 5.535052772558e-05 0.0 
6.831437014447e-04 1.259663249941e-03 0.0 
2.785551172147e-04 8.045309575243e-05 0.0 
5.156789541932e-05 1.810448908523e-04 0.0 
8.148456394908e-04 3.222673776441e-04 0.0 
6.366456678370e-04 1.032537059080e-04 0.0 
4.872668551253e-04 9.199158816063e-03 0.0 
8.551716431692e-04 1.269157629193e-03 0.0 
1.299563131298e-04 -3.337750072397e-04 0.0 
1.613855359848e-04 -4.513908300531e-04 0.0 
1.254641612200e-05 6.914075474469e-04 0.0 
2.115115325468e-05 -4.797574846235e-04 0.0 
8.290915395525e-05 9.188988246204e-03 0.0 
6.740564151401e-06 1.339334215010e-06 0.0 
1.012165596765e-04 -4.479741867204e-04 0.0 
1.754369270870e-04 7.568683695591e-03 0.0 
9.788178445575e-04 8.417831125953e-04 0.0 
3.544372666353e-05 -1.925416495624e-04 0.0 
9.957767836984e-05 3.098849009118e-03 0.0 
3.488032162026e-04 -3.585670011782e-04 0.0 
3.057642922105e-06 -5.151505380279e-05 0.0 
1.414502323751e-04 5.821561900806e-03 0.0 
7.509955058042e-04 2.481342902188e-04 0.0 
5.257185989296e-04 1.259350893054e-03 0.0 
3.643676963911e-04 6.501368770652e-03 0.0 
2.254101667062e-04 5.097929369582e-04 0.0 
1.343557587715e-03 1.156490947897e-03 0.0 
1.440018478411e-04 -2.441981900253e-04 0.0 
1.406982188504e-03 8.472813707056e-04 0.0 
7.664517009035e-04 1.568010885279e-04 0.0 
-1.457127645439e-04 5.619450055671e-04 0.0 
3.067204336302e-05 -1.560950700734e-04 0.0 
1.750011307006e-04 -4.781944530868e-04 0.0 
1.564532850790e-04 9.846012593030e-06 0.0 
9.512912062877e-05 -2.261518087001e-04 0.0 
6.762844388884e-04 9.875291103513e-03 0.0 
6.940795113520e-05 1.350581304889e-02 0.0 
1.474400674320e-03 1.037020450966e-02 0.0 
5.868172600303e-05 1.248269044302e-02 0.0 
1.784357314336e-03 1.027984378010e-02 0.0 
5.683758658481e-05 1.146261062551e-02 0.0 
1.835784605173e-03 9.827736690244e-03 0.0 
5.584394491506e-05 1.044354914287e-02 0.0 

VECTORS node_materi_displacement float
0.0 6.480513733070e-02 0.0 
0.0 1.244163309830e-01 0.0 
0.0 0.0 0.0 
0.0 0.0 0.0 
0.0 6.572225414366e-02 0.0 
0.0 6.593823778406e-02 0.0 
0.0 6.549509778808e-02 0.0 
0.0 6.439113619394e-02 0.0 
0.0 6.265111821910e-02 0.0 
0.0 6.042161207635e-02 0.0 
0.0 5.778863198534e-02 0.0 
0.0 5.481733647454e-02 0.0 
0.0 5.157034456057e-02 0.0 
0.0 4.808707143257e-02 0.0 
0.0 4.437839307716e-02 0.0 
0.0 4.045766673083e-02 0.0 
0.0 3.631618799434e-02 0.0 
0.0 3.194665403844e-02 0.0 
0.0 2.732024364730e-02 0.0 
0.0 2.242110148613e-02 0.0 
0.0 1.724212170134e-02 0.0 
0.0 1.177338217760e-02 0.0 
0.0 6.023584756381e-03 0.0 
0.0 0.0 0.0 
0.0 0.0 0.0 
0.0 0.0 0.0 
0.0 0.0 0.0 
0.0 0.0 0.0 
0.0 0.0 0.0 
0.0 0.0 0.0 
0.0 0.0 0.0 
0.0 0.0 0.0 
0.0 0.0 0.0 
0.0 0.0 0.0 
0.0 0.0 0.0 
0.0 0.0 0.0 
0.0 0.0 0.0 
0.0 0.0 0.0 
0.0 0.0 0.0 
0.0 0.0 0.0 
0.0 0.0 0.0 
0.0 0.0 0.0 
0.0 0.0 0.0 
0.0 0.0 0.0 
0.0 0.0 0.0 
0.0 0.0 0.0 
0.0 0.0 0.0 
0.0 0.0 0.0 
0.0 0.0 0.0 
0.0 0.0 0.0 
0.0 0.0 0.0 
0.0 0.0 0.0 
0.0 0.0 0.0 
0.0 0.0 0.0 
0.0 0.0 0.0 
0.0 0.0 0.0 
0.0 0.0 0.0 
0.0 0.0 0.0 
0.0 0.0 0.0 
0.0 0.0 0.0 
0.0 0.0 0.0 
0.0 0.0 0.0 
0.0 0.0 0.0 
0.0 0.0 0.0 
0.0 0.0 0.0 
0.0 0.0 0.0 
0.0 0.0 0.0 
0.0 0.0 0.0 
0.0 0.0 0.0 
0.0 0.0 0.0 
0.0 0.0 0.0 
0.0 0.0 0.0 
0.0 1.134987714453e-01 0.0 
0.0 1.021814888457e-01 0.0 
0.0 9.048239734737e-02 0.0 
0.0 7.843051653054e-02 0.0 
0.0 6.604569295125e-02 0.0 
0.0 5.335516710805e-02 0.0 
0.0 4.038310425279e-02 0.0 
0.0 2.715223891522e-02 0.0 
0.0 1.368993597007e-02 0.0 
-8.651095825753e-03 -7.615871563974e-03 0.0 
2.861187690172e-02 1.146948931131e-01 0.0 
-9.080443341560e-04 2.150786314277e-02 0.0 
6.664145690479e-03 4.554325748020e-02 0.0 
1.377559009235e-02 6.725208992294e-02 0.0 
2.022362664393e-02 8.653743902606e-02 0.0 
2.584966562313e-02 1.029865964222e-01 0.0 
2.946752134877e-02 1.154560672781e-01 0.0 
3.204054812009e-02 1.215927545316e-01 0.0 
3.254275138561e-02 1.226195677644e-01 0.0 
3.124134453239e-02 1.200306929670e-01 0.0 
0.0 1.637298035947e-01 0.0 
0.0 1.545805984605e-01 0.0 
0.0 1.449540875702e-01 0.0 
0.0 1.349172864213e-01 0.0 
1.613631126586e-03 1.244118176459e-01 0.0 
3.222338622292e-03 1.243937242904e-01 0.0 
4.853271749220e-03 1.243557220376e-01 0.0 
6.509586081366e-03 1.242869737000e-01 0.0 
8.197760139083e-03 1.241852776484e-01 0.0 
9.919639831280e-03 1.240133175311e-01 0.0 
1.169486535070e-02 1.237802849499e-01 0.0 
1.352120617331e-02 1.234332219461e-01 0.0 
1.542141659618e-02 1.229734055729e-01 0.0 
1.740088593550e-02 1.223362294379e-01 0.0 
1.946023011253e-02 1.214869147426e-01 0.0 
2.161549653754e-02 1.203651117039e-01 0.0 
2.385963777169e-02 1.189120064894e-01 0.0 
2.618775451241e-02 1.170445993401e-01 0.0 
-5.338436385212e-03 -2.274797350621e-02 0.0 
-3.975682557378e-04 -3.083864584966e-02 0.0 
5.027455337869e-03 -3.374651954701e-02 0.0 
1.094457657883e-02 -3.108982149654e-02 0.0 
1.537621595899e-02 -2.043290662330e-02 0.0 
1.799982620437e-02 -6.838921577137e-03 0.0 
1.899593536022e-02 3.702922477845e-03 0.0 
1.927224487584e-02 1.255956581690e-02 0.0 
1.936975236222e-02 2.042237607027e-02 0.0 
1.918474029991e-02 2.770405642487e-02 0.0 
1.863122802038e-02 3.439439657975e-02 0.0 
1.777227180762e-02 4.042699472277e-02 0.0 
1.654106143390e-02 4.594990690106e-02 0.0 
1.487232361637e-02 5.088353197471e-02 0.0 
1.287070509129e-02 5.512273400168e-02 0.0 
1.062930140870e-02 5.857077205987e-02 0.0 
8.185135193106e-03 6.130816120063e-02 0.0 
5.577152565428e-03 6.330573792877e-02 0.0 
2.803956959239e-03 6.444309331500e-02 0.0 
1.528903303151e-03 1.637653906909e-01 0.0 
2.986227630666e-03 1.637284631056e-01 0.0 
4.446715671200e-03 1.636932301818e-01 0.0 
5.910796598571e-03 1.636313145880e-01 0.0 
7.374758117165e-03 1.635306782291e-01 0.0 
8.835401016786e-03 1.633749618877e-01 0.0 
1.028846694811e-02 1.631416336846e-01 0.0 
1.172928075037e-02 1.628052906787e-01 0.0 
1.315293220281e-02 1.623305662470e-01 0.0 
1.455524034670e-02 1.616718300808e-01 0.0 
1.593304550908e-02 1.607779968743e-01 0.0 
1.728393251534e-02 1.595870161445e-01 0.0 
1.860785978011e-02 1.580223399629e-01 0.0 
1.990896535045e-02 1.559869776928e-01 0.0 
2.114047118550e-02 1.533605794441e-01 0.0 
2.230359379578e-02 1.500253775377e-01 0.0 
2.341821795825e-02 1.458268807744e-01 0.0 
2.452368056664e-02 1.405865452780e-01 0.0 
2.571938557910e-02 1.341147809316e-01 0.0 
2.691302959194e-02 1.260616909486e-01 0.0 
3.004377062553e-02 1.286555363222e-01 0.0 
2.827478954339e-02 1.343214015053e-01 0.0 
2.653775707836e-02 1.388754032859e-01 0.0 
2.485420966290e-02 1.425426047661e-01 0.0 
2.319489241941e-02 1.454514424827e-01 0.0 
2.154250000924e-02 1.477420640939e-01 0.0 
1.990895759971e-02 1.495287119661e-01 0.0 
1.830378411195e-02 1.509076446914e-01 0.0 
1.671960389476e-02 1.519588843981e-01 0.0 
1.515128651717e-02 1.527485538518e-01 0.0 
1.359485654136e-02 1.533300100262e-01 0.0 
1.205012486099e-02 1.537496589754e-01 0.0 
1.051635467744e-02 1.540484865693e-01 0.0 
8.991319018997e-03 1.542567424906e-01 0.0 
7.478417796687e-03 1.543975728844e-01 0.0 
5.976199668427e-03 1.544893795149e-01 0.0 
4.481358025215e-03 1.545458441828e-01 0.0 
2.990044526201e-03 1.545740779516e-01 0.0 
1.495594563364e-03 1.545520275511e-01 0.0 
1.570121496924e-03 1.449849496531e-01 0.0 
3.145491784897e-03 1.449572093244e-01 0.0 
4.726420194816e-03 1.449259854546e-01 0.0 
6.318684981647e-03 1.448657664874e-01 0.0 
7.926983492308e-03 1.447659695785e-01 0.0 
9.558395449466e-03 1.446110706462e-01 0.0 
1.121675993331e-02 1.443835048281e-01 0.0 
1.291001929022e-02 1.440555285094e-01 0.0 
1.464490290026e-02 1.435953836513e-01 0.0 
1.641833164601e-02 1.429590180231e-01 0.0 
1.823487715499e-02 1.420911773905e-01 0.0 
2.010254227202e-02 1.409349478272e-01 0.0 
2.203073179939e-02 1.394156061804e-01 0.0 
2.402868578234e-02 1.374519321636e-01 0.0 
2.608098133621e-02 1.349269722629e-01 0.0 
2.818077470888e-02 1.317317597716e-01 0.0 
3.030202093658e-02 1.276903258912e-01 0.0 
2.892060076525e-02 1.234515922837e-01 0.0 
2.669715581297e-02 1.261639904337e-01 0.0 
2.449494631794e-02 1.282982833886e-01 0.0 
2.237881933388e-02 1.299920664479e-01 0.0 
2.034231466773e-02 1.313083312773e-01 0.0 
1.838066247464e-02 1.323162731382e-01 0.0 
1.648215889660e-02 1.330786883800e-01 0.0 
1.465500348185e-02 1.336436615666e-01 0.0 
1.288629666666e-02 1.340567751833e-01 0.0 
1.117257340535e-02 1.343595621501e-01 0.0 
9.500444273360e-03 1.345681418619e-01 0.0 
7.866647141728e-03 1.347155389333e-01 0.0 
6.259596197118e-03 1.348075800597e-01 0.0 
4.675894591265e-03 1.348650369311e-01 0.0 
3.109924611032e-03 1.348926091600e-01 0.0 
1.551405940973e-03 1.348784441131e-01 0.0 
-4.339336709576e-03 8.300597113780e-03 0.0 
2.864052846810e-03 3.376272374702e-02 0.0 
1.028109995686e-02 5.667114292207e-02 0.0 
1.708776913085e-02 7.721278682050e-02 0.0 
2.322068122307e-02 9.523449167530e-02 0.0 
2.809369866230e-02 1.098818826193e-01 0.0 
3.101670331688e-02 1.192026287059e-01 0.0 
3.255948787199e-02 1.226101605571e-01 0.0 
3.209321034600e-02 1.217064225981e-01 0.0 
3.006745481333e-02 1.176585913666e-01 0.0 
1.176265344292e-02 3.259154219303e-02 0.0 
2.798790985760e-03 3.951734407441e-03 0.0 
1.330225635050e-02 2.393984356313e-02 0.0 
7.561886537661e-03 -2.477833762261e-02 0.0 
1.071978494367e-04 3.999565239496e-03 0.0 
2.486925780517e-02 7.421272424732e-02 0.0 
-1.112352038681e-03 4.598688520578e-02 0.0 
5.278375108494e-03 4.840293660431e-03 0.0 
3.377881176392e-02 1.028412323106e-01 0.0 
6.753808234987e-03 6.192257428404e-03 0.0 
3.559217995553e-02 1.139568395071e-01 0.0 
-7.558358119128e-04 4.213292667284e-03 0.0 
1.179610789648e-02 4.938859014223e-02 0.0 
7.100196702196e-03 8.108618773122e-03 0.0 
3.082891667614e-02 1.081362316303e-01 0.0 
-8.071196813463e-04 5.879671391541e-02 0.0 
-9.536924650734e-04 3.491152297626e-02 0.0 
6.695689740227e-03 9.742670137062e-03 0.0 
4.856044543989e-03 1.050251934850e-02 0.0 
1.527230584026e-03 1.162004057921e-02 0.0 
2.750751776271e-03 1.240759381698e-02 0.0 
3.559190027245e-03 1.079839712693e-02 0.0 
2.508353594327e-02 1.085492320164e-01 0.0 
1.646832278128e-02 1.128120628847e-01 0.0 
1.080206525439e-02 1.137752161908e-01 0.0 
1.043700476117e-03 7.208284782773e-02 0.0 
-7.660551164917e-04 4.962779751333e-03 0.0 
2.668934487123e-03 -2.415266498049e-02 0.0 
7.189266491833e-03 6.070808108181e-02 0.0 
-5.949173930338e-04 2.020441877257e-02 0.0 
5.551078888745e-03 1.149421036881e-01 0.0 
3.648620645139e-04 6.471314418980e-02 0.0 
6.517335778150e-03 1.153682145568e-02 0.0 
5.705894170920e-03 5.032456563232e-03 0.0 
7.015589955979e-03 7.039776662104e-03 0.0 
4.397978170131e-03 4.574744356640e-03 0.0 
1.476699971981e-03 3.639125138357e-03 0.0 
1.063756410929e-02 -1.658003898081e-03 0.0 
2.061622805523e-02 1.118053009192e-01 0.0 
-5.959974461559e-04 4.855723245578e-03 0.0 
7.849453707510e-04 4.745164687825e-02 0.0 
1.326574127813e-02 3.756153144619e-02 0.0 
-1.106434986451e-03 5.297874199893e-02 0.0 
7.741243905346e-04 9.491947871520e-03 0.0 
3.030016384896e-02 8.929760678659e-02 0.0 
1.854282985365e-02 5.472464729229e-02 0.0 
3.566732595923e-02 1.109835071360e-01 0.0 
3.384649173753e-02 1.126354592479e-01 0.0 
3.966555308465e-03 7.926089368574e-03 0.0 
1.268184429115e-03 9.497461099071e-02 0.0 
-3.932026998499e-04 4.072912988836e-03 0.0 
3.344436793940e-03 6.472842652935e-02 0.0 
4.302924836229e-04 2.144648270800e-02 0.0 
2.933153374809e-02 1.044729166564e-01 0.0 
3.097288745162e-02 9.819625333793e-02 0.0 
2.840951569455e-02 9.569185164658e-02 0.0 
3.021190542711e-02 8.826720179493e-02 0.0 
2.773475387051e-02 8.435994327040e-02 0.0 
2.892798809890e-02 7.782108137598e-02 0.0 
3.160043499277e-02 8.131954677205e-02 0.0 
2.984499605146e-02 7.117270876839e-02 0.0 
3.264958728197e-02 7.437460113160e-02 0.0 
2.619126949458e-02 7.360394410324e-02 0.0 
3.039912109106e-02 6.449383176176e-02 0.0 
3.329580303147e-02 6.739506993530e-02 0.0 
3.055355151482e-02 5.787520507518e-02 0.0 
3.348422425367e-02 6.047933559138e-02 0.0 
3.606327897734e-02 6.952348167693e-02 0.0 
3.625330072364e-02 6.230996530335e-02 0.0 
3.859810157436e-02 7.076558641813e-02 0.0 
3.877628719637e-02 6.321800604725e-02 0.0 
3.592672900400e-02 5.532862663834e-02 0.0 
3.837698870445e-02 5.598354352307e-02 0.0 
4.090724700095e-02 6.314949120100e-02 0.0 
4.041965290346e-02 5.566867717464e-02 0.0 
4.258023045990e-02 6.204842163626e-02 0.0 
4.196383417131e-02 5.433909429534e-02 0.0 
4.373683429739e-02 5.987759819132e-02 0.0 
4.296474666072e-02 5.201825853491e-02 0.0 
4.071054524342e-02 4.722044679159e-02 0.0 
4.153970529739e-02 4.486082590737e-02 0.0 
4.335576909634e-02 4.875468226733e-02 0.0 
4.174088744832e-02 4.162627760714e-02 0.0 
4.310316170533e-02 4.463105994229e-02 0.0 
4.128655876535e-02 3.763802236585e-02 0.0 
3.949759791937e-02 3.538521962342e-02 0.0 
3.883134170874e-02 3.163653431051e-02 0.0 
4.014069304728e-02 3.297631583508e-02 0.0 
3.738426024787e-02 2.718190611751e-02 0.0 
3.823401637149e-02 2.755779939632e-02 0.0 
3.515621469072e-02 2.210237661443e-02 0.0 
3.559532727510e-02 2.160832026373e-02 0.0 
3.219743738838e-02 1.671216330497e-02 0.0 
3.151065052090e-02 1.787587664961e-02 0.0 
2.829048213299e-02 1.318347750669e-02 0.0 
2.862650736711e-02 1.135354746633e-02 0.0 
2.454923565317e-02 8.753497938977e-03 0.0 
2.408318934671e-02 1.100158507099e-02 0.0 
2.028747870871e-02 7.551390021500e-03 0.0 
1.977878731648e-02 1.003231133613e-02 0.0 
1.604019345263e-02 7.571714170811e-03 0.0 
1.629079334123e-02 4.825533232476e-03 0.0 
1.222344291349e-02 5.924824241080e-03 0.0 
1.203844637308e-02 8.578304538928e-03 0.0 
8.496159965986e-03 7.873738898915e-03 0.0 
8.501891542056e-03 5.217091159716e-03 0.0 
5.181404529061e-03 8.093612052780e-03 0.0 
5.355825254409e-03 1.016925502229e-02 0.0 
2.474483817288e-03 1.103989698686e-02 0.0 
2.206843519256e-03 9.225307299363e-03 0.0 
-4.685834236190e-05 1.272593067988e-02 0.0 
2.611669647105e-04 1.403585818994e-02 0.0 
-1.928221245187e-03 1.627730968997e-02 0.0 
-2.186982921234e-03 1.523987818903e-02 0.0 
-3.706703038289e-03 1.921128377785e-02 0.0 
-3.413585194290e-03 1.971875740424e-02 0.0 
-4.852648689527e-03 2.294517224711e-02 0.0 
-4.466027474411e-03 2.284367439618e-02 0.0 
-5.059462716490e-03 2.282024052312e-02 0.0 
-5.864213054695e-03 2.668579775295e-02 0.0 
-5.923665668545e-03 2.697195320017e-02 0.0 
-6.429127111697e-03 3.083214528148e-02 0.0 
3.668732189793e-02 3.005712836576e-02 0.0 
-6.259907483047e-03 3.148771672381e-02 0.0 
-5.654895435100e-03 2.708311381020e-02 0.0 
-6.537295243789e-03 3.525190722160e-02 0.0 
-6.595744693475e-03 3.409038878080e-02 0.0 
-6.100110143592e-03 3.625502026706e-02 0.0 
-6.221280056910e-03 3.981752101960e-02 0.0 
-5.499032318599e-03 4.111032460581e-02 0.0 
3.830488481167e-02 2.781295172009e-02 0.0 
3.507596116323e-02 4.867705138639e-02 0.0 
-5.534499834275e-03 4.437585088594e-02 0.0 
-4.541106621507e-03 4.588900309296e-02 0.0 
-4.219646251365e-03 4.223415875015e-02 0.0 
-2.959724393159e-03 4.718157623008e-02 0.0 
2.512892641370e-02 8.005660362405e-02 0.0 
2.339749385820e-02 6.888712631557e-02 0.0 
2.250812180021e-02 7.526329159231e-02 0.0 
2.057904163709e-02 6.377791006754e-02 0.0 
1.986153175359e-02 6.997800694021e-02 0.0 
-3.339953507674e-03 5.043364534089e-02 0.0 
2.746297662044e-02 5.425499896128e-02 0.0 
2.102714678949e-02 5.745004163479e-02 0.0 
4.254997986750e-02 7.025159553901e-02 0.0 
4.423927136944e-02 5.257998622984e-02 0.0 
2.321705052982e-02 1.305523618809e-02 0.0 
-6.036094763517e-03 4.265748396390e-02 0.0 
-5.271090867376e-03 4.688907183618e-02 0.0 
-5.569009697479e-03 4.475834543351e-02 0.0 
-2.964472290200e-03 1.993215087286e-02 0.0 
-3.903415182818e-03 2.240956236162e-02 0.0 
-2.369725966333e-03 1.975351531027e-02 0.0 
-3.231027484024e-03 2.156431140389e-02 0.0 
-1.729604922617e-03 1.909616882367e-02 0.0 
-2.575974245693e-03 2.024622352902e-02 0.0 
-3.754737489981e-03 2.293082485906e-02 0.0 
-3.105886645680e-03 2.097948182087e-02 0.0 
-3.991056320378e-03 2.382197992052e-02 0.0 
-1.219274752546e-03 1.788769147555e-02 0.0 
-3.656160574197e-05 1.702747636051e-02 0.0 
-3.352592586892e-03 2.127943848636e-02 0.0 
-3.981816183394e-03 2.422630220474e-02 0.0 
-3.361579610746e-03 2.113671667744e-02 0.0 
-3.766886291976e-03 2.415509362762e-02 0.0 
-4.379331803818e-03 2.735630190206e-02 0.0 
-3.948289434179e-03 2.730212017347e-02 0.0 
-4.534138427999e-03 3.061557256995e-02 0.0 
1.898080194516e-02 1.220649603672e-02 0.0 
2.196523624585e-02 1.470039460497e-02 0.0 
1.792116633288e-02 1.383434595707e-02 0.0 
2.025750048504e-02 1.556046235526e-02 0.0 
1.654047666008e-02 1.445058025983e-02 0.0 
1.823706999732e-02 1.544416088207e-02 0.0 
1.474490679143e-02 1.419898683983e-02 0.0 
1.310289522431e-02 1.375162328060e-02 0.0 
3.028723439378e-02 5.128713258245e-02 0.0 
2.462474381500e-02 6.344779850485e-03 0.0 
2.848430298612e-02 9.404737195836e-03 0.0 
2.422295286814e-02 3.726750910183e-03 0.0 
2.769819282552e-02 7.356454332101e-03 0.0 
2.327634630817e-02 1.000055396210e-03 0.0 
2.630430338797e-02 5.271488554427e-03 0.0 
2.187072883207e-02 -1.833483997778e-03 0.0 
1.874917606359e-02 -4.473222463910e-03 0.0 
1.733927775925e-02 -7.999265813480e-03 0.0 
1.429544471367e-02 -8.642923008299e-03 0.0 
1.305818681611e-02 -1.263680382604e-02 0.0 
1.018014220250e-02 -1.108594359775e-02 0.0 
3.884588054378e-02 4.078372735547e-02 0.0 
2.194349457763e-02 1.712504131024e-02 0.0 
1.930553074139e-02 1.621647280623e-02 0.0 
2.292808459206e-02 1.836650499849e-02 0.0 
-2.294707897363e-03 4.319803875657e-02 0.0 
-3.379239086146e-03 2.362918031834e-02 0.0 
2.178291170696e-04 1.584380333522e-02 0.0 
1.705360016141e-03 1.534744020074e-02 0.0 
1.152453421861e-02 1.326587729562e-02 0.0 
-1.524651627149e-03 5.178947227254e-02 0.0 
2.431879461019e-02 3.227854507992e-03 0.0 
2.853210114522e-02 1.163436131810e-02 0.0 
1.778505974909e-02 5.818552539978e-02 0.0 
1.724876786881e-02 6.429326356660e-02 0.0 
1.637338839669e-03 1.408722200471e-02 0.0 
-2.032556705698e-03 5.460682540876e-02 0.0 
-2.571366829492e-03 1.852864453713e-02 0.0 
1.539369859183e-02 -1.168564659109e-02 0.0 
-3.384516168103e-03 2.677309460487e-02 0.0 
-2.856124060893e-03 2.268141733956e-02 0.0 
-4.674837148910e-03 2.591555333887e-02 0.0 
1.972028080972e-02 1.664516646752e-02 0.0 
2.328310687065e-02 1.919744838677e-02 0.0 
1.101139418696e-02 -7.142382665111e-03 0.0 
7.166762826181e-03 -7.684059339354e-03 0.0 
6.584069917488e-03 -1.148030965044e-02 0.0 
3.892990903772e-03 -6.072422441277e-03 0.0 
4.282865672299e-03 -3.020104186024e-03 0.0 
1.592760232487e-03 -4.369425267344e-04 0.0 
1.630483835364e-03 -2.884223035993e-03 0.0 
-1.731300884736e-04 3.724034959679e-03 0.0 
-4.722201610504e-04 5.621666992033e-03 0.0 
-1.740487923842e-03 1.022512215018e-02 0.0 
-7.984071722393e-04 9.076149533572e-03 0.0 
-1.956943990814e-03 1.567829503756e-02 0.0 
-2.812532783021e-03 1.957038674975e-02 0.0 
1.148126324294e-02 -1.676090160239e-02 0.0 
3.786906597846e-02 7.847618319175e-02 0.0 
2.690729127206e-04 1.400441504296e-02 0.0 
1.260436175800e-02 1.314361897931e-02 0.0 
1.505318256224e-02 5.222046033788e-02 0.0 
1.469675343003e-02 5.826240464704e-02 0.0 
1.649028730462e-02 7.038990313079e-02 0.0 
1.411007836608e-02 6.426994180724e-02 0.0 
1.223819115842e-02 5.192759909672e-02 0.0 
1.182453900564e-02 5.790064537980e-02 0.0 
1.333260846906e-02 7.022466014880e-02 0.0 
1.120782081417e-02 6.381852359280e-02 0.0 
1.239663740336e-02 7.609014144601e-02 0.0 
1.042042084403e-02 6.965738863097e-02 0.0 
9.195028572492e-03 5.719940018637e-02 0.0 
8.548299092503e-03 6.304696619562e-02 0.0 
9.492741640579e-03 7.541542352243e-02 0.0 
7.746504599730e-03 6.881895383225e-02 0.0 
8.449449043372e-03 8.107360709220e-02 0.0 
6.813312586227e-03 7.450461227044e-02 0.0 
6.118165315945e-03 6.207481991132e-02 0.0 
-1.664852228889e-04 5.579839201573e-02 0.0 
9.986854402631e-03 1.334703496005e-02 0.0 
8.625409818683e-03 1.254749280635e-02 0.0 
-4.755905412108e-03 4.855530695790e-02 0.0 
-4.898517311484e-03 4.604405981232e-02 0.0 
-5.571406566017e-03 4.238148125701e-02 0.0 
-4.764140074455e-03 4.335745043193e-02 0.0 
5.267357576600e-03 6.785604585061e-02 0.0 
4.628253951898e-03 5.521166367319e-02 0.0 
2.583237556283e-02 1.063726818042e-02 0.0 
2.970563224420e-02 1.998253890207e-02 0.0 
1.513836494308e-02 4.616513792509e-02 0.0 
-2.725852729433e-03 2.580609699941e-02 0.0 
-3.182051361958e-03 2.993361255162e-02 0.0 
4.354380981540e-02 4.758442055086e-02 0.0 
4.413703388495e-02 5.633749540332e-02 0.0 
4.303318100645e-02 5.056185049389e-02 0.0 
4.296389401383e-02 6.015390026665e-02 0.0 
4.396278641329e-02 6.592828343240e-02 0.0 
4.141388151978e-02 5.357436368361e-02 0.0 
1.504211965337e-03 1.589676214360e-02 0.0 
7.321905698005e-03 5.040986740036e-02 0.0 
-3.630914233534e-03 3.787404570968e-02 0.0 
-1.376074079972e-03 3.859115600186e-02 0.0 
-2.265653722051e-03 2.135566217719e-02 0.0 
1.096494911057e-02 1.331570792283e-02 0.0 
3.761506693985e-02 4.223774737366e-02 0.0 
3.539818138631e-02 3.642217591265e-02 0.0 
3.385113039318e-02 3.696712049810e-02 0.0 
3.140027039808e-02 3.169451439827e-02 0.0 
2.951842596920e-02 3.134958077302e-02 0.0 
2.684759320579e-02 2.657789214561e-02 0.0 
2.858227767945e-02 2.701143236159e-02 0.0 
1.945058130877e-02 1.660945671983e-02 0.0 
2.387211389887e-02 2.230553808554e-02 0.0 
5.863066747087e-03 8.020274751291e-02 0.0 
2.579654054084e-02 1.933142709433e-02 0.0 
-2.219807837882e-03 1.156545580948e-02 0.0 
8.209088249569e-04 5.263828223441e-02 0.0 
5.197431107209e-05 1.524433870206e-02 0.0 
-7.988575394527e-04 5.823524672526e-02 0.0 
-2.203102822156e-03 5.662854853371e-02 0.0 
1.361974741307e-03 1.212308716746e-02 0.0 
2.455909103710e-02 2.534944410002e-02 0.0 
2.713597710120e-02 3.018176855617e-02 0.0 
4.208400487305e-02 7.071453594893e-02 0.0 
4.301426956055e-02 7.623370242484e-02 0.0 
1.607958519352e-02 1.417376765485e-02 0.0 
2.138418477633e-02 8.165312852551e-02 0.0 
1.445024415527e-02 8.231546035558e-02 0.0 
1.323801542525e-02 8.809336743104e-02 0.0 
1.248419150518e-03 5.911237570868e-02 0.0 
1.048432287029e-03 8.285047501894e-03 0.0 
9.913532821803e-03 4.535106939302e-02 0.0 
3.236338449065e-02 2.015335633664e-02 0.0 
3.320270882604e-02 2.907294871567e-02 0.0 
1.310846013169e-02 -1.548417294494e-02 0.0 
9.609547705277e-03 -2.120649179135e-02 0.0 
3.912861715456e-03 6.089273538747e-02 0.0 
3.331442646360e-03 4.821162336296e-02 0.0 
-5.322690653025e-03 3.978726727323e-02 0.0 
-4.469291444216e-03 4.036273159931e-02 0.0 
2.938707621293e-03 1.253824562341e-02 0.0 
-1.109700120693e-03 2.163296364784e-02 0.0 
3.802902283517e-03 4.232500641394e-02 0.0 
8.028956849187e-03 1.349034516269e-02 0.0 
8.432694439370e-03 1.305652977710e-02 0.0 
-3.974267783203e-03 4.680753011261e-02 0.0 
2.612947693546e-02 2.010332516551e-02 0.0 
2.235798225384e-02 9.919044556686e-03 0.0 
-5.569751516856e-04 7.646882228026e-03 0.0 
-2.990667678010e-03 2.172608295346e-02 0.0 
-1.101878311180e-03 5.980532022095e-02 0.0 
2.264510963041e-03 1.035699455566e-02 0.0 
9.918682304901e-03 3.937545899414e-02 0.0 
2.550540770099e-02 2.295398377515e-02 0.0 
2.976941802678e-02 2.676196508283e-02 0.0 
2.069873388339e-02 1.856432501179e-02 0.0 
1.697675637260e-03 2.170841209779e-02 0.0 
1.820946980528e-04 1.148957864616e-02 0.0 
-2.015584769240e-03 2.446150235197e-02 0.0 
2.201078895914e-02 2.370359449660e-02 0.0 
2.429280633268e-02 2.823999321298e-02 0.0 
3.577715890357e-02 2.848686868589e-02 0.0 
3.640887803116e-02 3.791409035580e-02 0.0 
3.292556921119e-02 3.947673913668e-02 0.0 
3.588757634457e-02 4.842271734979e-02 0.0 
3.420388609587e-02 8.420739752270e-02 0.0 
3.875666345913e-02 3.651119028907e-02 0.0 
4.005696127565e-02 7.914664363173e-02 0.0 
3.879965807721e-02 8.732149648551e-02 0.0 
4.058715455928e-02 8.747323872574e-02 0.0 
4.433628260195e-02 7.073796036439e-02 0.0 
4.328367768837e-02 8.081038604648e-02 0.0 
3.176367753488e-02 1.417124758671e-02 0.0 
2.617268595334e-02 1.632705909708e-02 0.0 
-5.997657588509e-03 3.856412979314e-02 0.0 
-5.015059869619e-03 3.016864601613e-02 0.0 
-1.107660075063e-03 1.755673104458e-02 0.0 
7.645223258683e-03 4.449396629110e-02 0.0 
5.809107785246e-03 3.752963318899e-02 0.0 
1.016876549215e-02 8.748966495032e-02 0.0 
8.926010036897e-03 9.301433945223e-02 0.0 
3.937948900032e-04 4.397732371403e-02 0.0 
1.666776926209e-03 3.913075392079e-02 0.0 
-5.094348660237e-03 2.550234103083e-02 0.0 
-7.242841470057e-04 1.366246126981e-02 0.0 
1.232029459657e-02 3.993896073714e-02 0.0 
1.190413947670e-02 3.395110778639e-02 0.0 
1.490851101569e-02 4.010610945811e-02 0.0 
4.001633439573e-03 1.111682516135e-02 0.0 
2.032444500440e-02 1.951983670629e-03 0.0 
1.500237934899e-02 1.211091149540e-02 0.0 
8.112087415021e-03 -1.973233027799e-02 0.0 
3.687220947882e-02 3.291684592564e-02 0.0 
3.877949463222e-03 4.454808874035e-02 0.0 
3.244252538082e-02 4.733784826030e-02 0.0 
-1.640204892828e-03 1.969517956113e-02 0.0 
-1.804548867048e-03 1.655571707432e-02 0.0 
1.523393713350e-02 1.337507638748e-02 0.0 
3.303143323780e-02 1.011224351291e-01 0.0 
3.376347132618e-02 2.817551997612e-02 0.0 
3.337947086499e-02 2.564557155704e-02 0.0 
3.881486447728e-02 9.601934318846e-02 0.0 
4.015643498532e-02 9.569921081380e-02 0.0 
4.196609730724e-02 8.655893553071e-02 0.0 
4.105049105422e-02 9.430463051390e-02 0.0 
-2.408103701894e-03 1.292863441388e-02 0.0 
-3.631220548725e-03 1.706538064548e-02 0.0 
1.872971951581e-02 1.877794438004e-02 0.0 
1.871912997554e-02 1.724227355842e-02 0.0 
1.890009897394e-02 2.116508695196e-02 0.0 
2.101943167720e-02 2.544386604426e-02 0.0 
1.200239627856e-02 1.097486678135e-02 0.0 
1.282889335132e-02 1.205589761238e-02 0.0 
-2.034002768576e-03 5.786630742427e-02 0.0 
4.134289244862e-02 8.696035290780e-02 0.0 
7.590789007613e-03 3.258262269070e-02 0.0 
3.711766875614e-02 9.537693173321e-02 0.0 
-6.226913128790e-04 1.070108126625e-02 0.0 
-1.365208752576e-03 1.301664516276e-02 0.0 
6.779660046042e-03 -2.453646278835e-02 0.0 
5.222268432252e-03 -1.956822494969e-02 0.0 
2.609894324739e-03 3.545661132045e-02 0.0 
3.153681423476e-02 5.087268760951e-02 0.0 
3.431350842826e-02 5.965958895917e-02 0.0 
2.842510258043e-02 4.124189876942e-02 0.0 
-2.832312895550e-04 8.931246933921e-03 0.0 
2.399704692690e-03 1.151726129070e-01 0.0 
-1.248073727287e-03 1.460762683116e-02 0.0 
4.407428249445e-02 7.466702501033e-02 0.0 
2.792647870176e-03 2.896377457843e-02 0.0 
3.036507047039e-02 2.429078432643e-02 0.0 
4.222567226939e-02 4.188843845507e-02 0.0 
4.928856335801e-03 1.281701057953e-02 0.0 
2.135919144443e-03 4.246166647162e-02 0.0 
1.574655633310e-03 2.793433345896e-02 0.0 
1.515312123530e-02 9.393837374593e-02 0.0 
1.375571058542e-02 9.979007820681e-02 0.0 
1.655643070387e-02 8.829229192711e-02 0.0 
1.718728616605e-02 -7.659888191044e-03 0.0 
1.366309280815e-02 -1.011151858727e-02 0.0 
5.614783634372e-03 4.346739781091e-02 0.0 
-4.282897320517e-03 5.090550009582e-02 0.0 
-3.722506268523e-03 5.213245656760e-02 0.0 
-2.040196519658e-03 2.749298687608e-02 0.0 
-3.883962595203e-03 2.735863633419e-02 0.0 
-5.619299784264e-03 3.616801428366e-02 0.0 
-6.119371214045e-03 3.475687444747e-02 0.0 
3.113952226733e-02 4.118223187015e-02 0.0 
2.828903262273e-02 3.921056040219e-02 0.0 
3.587659955951e-02 4.284425392116e-02 0.0 
5.762626282218e-03 1.386066647015e-02 0.0 
5.664617109043e-03 1.314964482433e-02 0.0 
8.476742357615e-03 1.181192679996e-02 0.0 
5.841878405313e-03 3.197422609916e-02 0.0 
3.920523720987e-03 2.376895014824e-02 0.0 
-5.142706649913e-04 9.517699163473e-03 0.0 
1.840452203339e-03 4.687012268049e-03 0.0 
-3.875810192911e-03 1.780537342320e-02 0.0 
7.192311249791e-03 2.684866183641e-02 0.0 
-1.318118771044e-03 1.154908937013e-02 0.0 
-1.810454630617e-03 1.358353766591e-02 0.0 
5.473445350307e-03 3.964118419995e-02 0.0 
2.963705107387e-03 3.377521328534e-02 0.0 
2.147772602365e-02 2.057093359585e-02 0.0 
1.758507761869e-02 9.643184750435e-03 0.0 
1.129866029434e-02 2.846891685592e-02 0.0 
1.435809890641e-02 3.418895787891e-02 0.0 
8.086736807900e-03 2.160331868304e-02 0.0 
-9.940231306497e-04 6.070387256617e-02 0.0 
2.652822234362e-02 2.294015564487e-02 0.0 
3.064227931471e-03 8.764066391077e-03 0.0 
4.929983722612e-03 9.839193990409e-03 0.0 
1.510215048721e-03 7.194114721838e-03 0.0 
1.867240060218e-02 1.618882684818e-02 0.0 
1.387094906973e-02 1.221200133144e-02 0.0 
1.526126826648e-02 1.364886120776e-02 0.0 
7.176007655717e-03 -2.547364202734e-02 0.0 
1.189400854559e-03 3.341764561427e-02 0.0 
1.058932890414e-02 9.925395057003e-02 0.0 
6.010665260054e-03 -2.818439182294e-02 0.0 
9.169628191457e-03 1.050302528700e-01 0.0 
7.664975274712e-03 9.850290213117e-02 0.0 
7.937237643579e-03 1.106065659872e-01 0.0 
-2.635651289946e-04 6.234179886377e-02 0.0 
1.726148241459e-02 1.016080337224e-01 0.0 
1.884363412073e-02 9.441232639655e-02 0.0 
7.960637391504e-03 3.421806622187e-02 0.0 
4.909710180153e-03 2.001355758812e-02 0.0 
7.597907321407e-03 4.454569003717e-02 0.0 
5.730362296016e-03 4.893904126576e-02 0.0 
-1.041839718631e-03 9.476207853967e-03 0.0 
-1.682167191672e-03 1.203022025370e-02 0.0 
-1.198188915303e-03 8.046220229768e-03 0.0 
-1.765199932411e-03 1.094170669085e-02 0.0 
-2.290161087289e-03 1.478809013716e-02 0.0 
-2.228753325408e-03 1.364456685314e-02 0.0 
1.240316448853e-02 1.062733085104e-01 0.0 
-1.506128195610e-03 8.685949967795e-03 0.0 
-1.976170425430e-03 1.205804137621e-02 0.0 
-1.212660854654e-03 6.958282435449e-03 0.0 
3.863141617560e-02 1.041227727764e-01 0.0 
3.824554455875e-02 5.652374184701e-02 0.0 
3.660471021168e-02 6.803127415799e-02 0.0 
3.165383390531e-02 7.231217684623e-02 0.0 
1.407297194017e-02 1.618860922165e-02 0.0 
1.773626968224e-02 2.236040641883e-02 0.0 
-1.291585145157e-03 2.268185943220e-02 0.0 
-1.522266518344e-03 2.742756988573e-02 0.0 
6.343758008925e-03 1.047343288477e-01 0.0 
4.640006222154e-03 1.052990023597e-01 0.0 
5.055237377195e-03 9.470184466861e-02 0.0 
3.655106205881e-03 9.605680239657e-02 0.0 
3.925098830680e-03 8.540802079687e-02 0.0 
2.531798852551e-03 8.682487394732e-02 0.0 
2.986365254814e-03 7.591725539154e-02 0.0 
1.275803758149e-02 1.167648540373e-02 0.0 
2.583180634066e-02 5.262516789856e-02 0.0 
3.660247874746e-02 1.044632718843e-01 0.0 
8.943004522580e-03 8.813892765735e-03 0.0 
1.013100835437e-02 1.047368470523e-02 0.0 
4.153513007988e-02 9.116689272147e-02 0.0 
3.888273771556e-02 9.818431323019e-02 0.0 
-1.463378295606e-06 7.902115078348e-03 0.0 
3.746253389830e-02 2.808919967038e-02 0.0 
3.642631665907e-03 1.267538734098e-02 0.0 
1.378669619276e-03 -1.419530484686e-02 0.0 
8.068035938919e-03 -1.548831211136e-02 0.0 
4.015130228795e-02 3.530778616942e-02 0.0 
4.289349634318e-02 8.439416447929e-02 0.0 
4.039686840209e-02 6.405597668333e-02 0.0 
3.899487415877e-02 7.567081900054e-02 0.0 
5.511454985220e-03 1.376426928304e-02 0.0 
4.484866311459e-03 2.794953449221e-02 0.0 
2.506848277225e-02 3.107893946191e-02 0.0 
4.338395852897e-03 7.463808769481e-02 0.0 
1.918765794031e-02 3.170971740111e-02 0.0 
-7.058530721584e-04 2.513589560709e-02 0.0 
3.531943526575e-02 2.106422228442e-02 0.0 
4.455010735757e-02 6.534288268290e-02 0.0 
2.967550980778e-02 2.992556431592e-02 0.0 
3.928114226717e-02 4.630126691104e-02 0.0 
3.537931494829e-02 7.686403872145e-02 0.0 
3.269363754147e-02 9.136603061098e-02 0.0 
3.495266088695e-02 9.396755517485e-02 0.0 
3.231329379071e-02 1.548155102010e-02 0.0 
4.051233037032e-02 8.184451591892e-02 0.0 
3.654860142743e-02 8.818193376462e-02 0.0 
4.079388311022e-02 7.102574775829e-02 0.0 
1.801017314183e-02 4.587850056302e-02 0.0 
1.759900997133e-02 3.977004288830e-02 0.0 
1.353882663972e-02 2.867698275007e-02 0.0 
1.682337064273e-02 3.388495626139e-02 0.0 
2.090421326076e-02 4.498023964867e-02 0.0 
2.026317024290e-02 3.891838744209e-02 0.0 
1.566931028599e-02 2.829569342017e-02 0.0 
1.922116051817e-02 3.306479056011e-02 0.0 
1.291765942241e-02 2.073290915172e-02 0.0 
1.760022299576e-02 2.722860813788e-02 0.0 
2.278790729927e-02 3.756855178868e-02 0.0 
2.148139651357e-02 3.202895444811e-02 0.0 
1.638074914016e-02 2.312179340206e-02 0.0 
2.639370554716e-02 4.200265463972e-02 0.0 
7.557131752552e-03 7.161548379963e-03 0.0 
4.061763646715e-02 3.418204945912e-02 0.0 
1.017505600591e-02 -1.927853742103e-02 0.0 
1.145919112564e-02 -4.316230086490e-03 0.0 
4.382181232483e-02 6.838403662112e-02 0.0 
6.360081080702e-03 1.017623544946e-02 0.0 
5.409396546748e-03 1.059287284672e-02 0.0 
3.046939457277e-02 1.283765186051e-02 0.0 
7.086794702754e-03 7.550510209862e-03 0.0 
3.661239490165e-02 8.627187309000e-02 0.0 
1.984253390269e-02 -4.741996813367e-03 0.0 
7.012006174589e-03 6.693402644710e-03 0.0 
2.114948208318e-02 5.115333537180e-02 0.0 
2.430266165282e-02 5.618759123559e-02 0.0 
2.400973461431e-02 6.254657275407e-02 0.0 
4.280858300999e-03 1.025664445225e-02 0.0 
1.784637713712e-02 8.239244373039e-02 0.0 
5.343693374925e-03 4.770193237756e-03 0.0 
2.424700457136e-02 1.718683746970e-02 0.0 
2.837156496374e-02 1.944474019076e-02 0.0 
3.026583392029e-02 1.886425891377e-02 0.0 
2.373872323370e-02 4.374437826019e-02 0.0 
3.403237756926e-03 4.008256270584e-03 0.0 
5.729851110266e-03 7.114968985832e-03 0.0 
4.562340049242e-03 6.914431007868e-03 0.0 
7.421346713343e-03 9.728290533480e-03 0.0 
2.132819183407e-03 3.809038704769e-03 0.0 
6.355250814381e-03 8.468493142351e-03 0.0 
6.260775624865e-03 7.684440267133e-03 0.0 
1.707526695950e-03 2.156085602045e-03 0.0 
4.607435480219e-03 4.736570376020e-05 0.0 
4.844008117021e-03 2.903484375043e-03 0.0 
8.105990811875e-03 -7.324332701404e-04 0.0 
7.734740790499e-03 -4.080796063635e-03 0.0 
1.163852100653e-02 -3.495478254100e-03 0.0 
1.204743879468e-02 -1.146983822811e-04 0.0 
1.525940863596e-02 -4.912543419705e-03 0.0 
2.327575910084e-02 3.076558818016e-02 0.0 
9.793544443462e-04 3.660289832463e-03 0.0 
-5.363627107938e-04 1.757523744391e-02 0.0 
1.040010125250e-03 1.576309860222e-02 0.0 
5.972142566674e-04 1.509469164768e-02 0.0 
-6.437848620533e-03 3.666713113541e-02 0.0 
-6.362185611921e-03 3.271211271999e-02 0.0 
-5.904101624635e-03 3.106966776109e-02 0.0 
-6.160567179237e-03 4.072320057601e-02 0.0 
3.275609724902e-02 3.126722918314e-02 0.0 
4.805672941430e-04 3.735031874360e-03 0.0 
1.151712409202e-02 1.243927215035e-02 0.0 
-6.293250063350e-03 3.001272346406e-02 0.0 
2.283237583118e-02 1.103205165843e-01 0.0 
2.374653866956e-02 1.001087145787e-01 0.0 
2.590006508797e-02 9.833289702954e-02 0.0 
2.405848694557e-02 8.823866072366e-02 0.0 
2.122614601330e-02 1.002455921088e-01 0.0 
-4.918480581156e-03 3.694351675620e-02 0.0 
-4.076817352346e-03 3.712072209239e-02 0.0 
-3.496627326445e-03 4.033179728457e-02 0.0 
-3.146248555587e-03 3.674693191820e-02 0.0 
-2.460563190100e-03 3.973932002064e-02 0.0 
-2.726042161025e-03 4.327569894526e-02 0.0 
-2.153268909278e-03 3.588944201334e-02 0.0 
-1.429094985091e-03 3.908586162964e-02 0.0 
1.847818080086e-02 1.125022574278e-01 0.0 
8.722285125618e-03 -1.387000166622e-02 0.0 
5.152393244919e-03 -7.941203806317e-03 0.0 
6.243954661240e-03 2.697239238855e-03 0.0 
3.030848362618e-03 -2.455740676326e-03 0.0 
3.399258317407e-03 -1.125240312978e-02 0.0 
1.864555727648e-03 -5.293504445723e-03 0.0 
3.665393548665e-03 -1.242374271538e-02 0.0 
4.641274362195e-03 -1.822474979367e-02 0.0 
1.189190030935e-02 7.981126453570e-03 0.0 
7.192311887028e-03 1.164438581341e-02 0.0 
1.273634370768e-02 1.633174920946e-02 0.0 
8.030080961197e-03 1.961286590827e-02 0.0 
3.297333724432e-03 1.516972364831e-02 0.0 
-4.105709956491e-04 3.338700215128e-02 0.0 
-7.279742644892e-04 5.766511195214e-03 0.0 
-1.130777442973e-03 4.961938573540e-02 0.0 
-2.181009712397e-03 5.066774943228e-02 0.0 
-2.084358039790e-03 5.370686337534e-02 0.0 
-3.231965203497e-03 5.083400712654e-02 0.0 
-2.097375735063e-03 4.764664411754e-02 0.0 
-1.002714968034e-03 5.604241670473e-02 0.0 
-1.849300790852e-03 5.629009995068e-02 0.0 
5.289720282035e-03 6.311580969516e-02 0.0 
3.039136570143e-03 6.434217227132e-02 0.0 
1.504494508119e-03 6.567382198608e-02 0.0 
1.429557381290e-03 6.487139236133e-02 0.0 
2.367543419656e-03 6.322383539037e-02 0.0 
4.446440566851e-03 6.226631816550e-02 0.0 
5.752094280507e-03 5.942044440450e-02 0.0 
8.950237887362e-03 5.753870742222e-02 0.0 
6.832755409662e-03 5.592098705949e-02 0.0 
3.799158962231e-03 5.765026789386e-02 0.0 
1.047724607003e-02 5.382664539790e-02 0.0 
9.579153002211e-04 5.964797968943e-02 0.0 
1.818102998390e-03 5.332126976552e-02 0.0 
-2.631492009071e-04 4.182685324472e-03 0.0 
1.435149527422e-02 1.128540093193e-01 0.0 
1.339609137188e-02 3.112597850944e-02 0.0 
1.454235275722e-03 1.398931051503e-02 0.0 
2.171328168434e-03 1.150170171333e-02 0.0 
1.765173241894e-03 1.118641390418e-02 0.0 
-4.444537021223e-04 1.470015187255e-02 0.0 
-7.168881140789e-04 1.194336858462e-02 0.0 
7.976694249760e-04 1.364271007533e-02 0.0 
-5.159355450183e-03 3.715032537910e-02 0.0 
1.235557608017e-02 2.343305185687e-02 0.0 
4.094699523418e-03 3.636841844798e-02 0.0 
2.163020563558e-02 1.334230718585e-03 0.0 
-4.118698344715e-03 2.191309035479e-02 0.0 
-2.356399220112e-03 2.889761654387e-02 0.0 
-4.634944733616e-03 2.689169588107e-02 0.0 
-2.345449990171e-03 1.826357193047e-02 0.0 
-3.908511158958e-03 3.051755753529e-02 0.0 
-3.168808569783e-03 2.055590230355e-02 0.0 
3.459723492926e-03 7.030842829601e-03 0.0 
1.717149165643e-04 6.112547677055e-02 0.0 
1.133207080917e-02 8.184598467344e-02 0.0 
7.379114551640e-03 8.667256485100e-02 0.0 
6.804958697460e-03 5.627707439961e-02 0.0 
-4.559008914546e-03 4.878471775696e-02 0.0 
-3.806553397041e-03 4.346806469530e-02 0.0 
-7.328586067945e-04 4.820273021391e-02 0.0 
1.286725187036e-02 1.292865396790e-02 0.0 
4.184390534204e-02 7.888056796300e-02 0.0 
-1.580409152585e-03 1.708759552151e-02 0.0 
-6.497378283840e-03 3.834599676561e-02 0.0 
-5.674949820219e-03 3.203042053479e-02 0.0 
-3.037175625460e-03 1.632447158774e-02 0.0 
4.221301726954e-02 3.977516698096e-02 0.0 
-5.581855464573e-03 2.623032298143e-02 0.0 
-2.053873967886e-03 1.839946624967e-02 0.0 
5.213919454616e-03 4.936934480917e-02 0.0 
1.208404189520e-02 4.411538784476e-02 0.0 
-9.012450572073e-04 1.608186859276e-02 0.0 
-4.450301908918e-03 2.441716398811e-02 0.0 
1.554948623548e-02 7.642038178497e-02 0.0 
1.582962530793e-02 1.450257250319e-02 0.0 
3.841473376562e-04 2.290730003786e-03 0.0 
9.664155662658e-03 5.131386074452e-02 0.0 
9.221100185464e-03 2.822863187009e-02 0.0 
2.013232478987e-02 8.802384706728e-02 0.0 
2.326251155377e-03 4.899876210740e-02 0.0 
1.197505830934e-02 9.390530410720e-02 0.0 
9.510116547180e-04 9.429200628538e-03 0.0 
1.805122908081e-02 5.201466278358e-02 0.0 
-3.405174448986e-03 5.291474878436e-02 0.0 
1.559826172895e-02 1.008215183068e-02 0.0 
4.430088330307e-02 5.668000399714e-02 0.0 
3.253899019277e-02 1.106470853522e-01 0.0 
4.211457979223e-03 3.086122475661e-02 0.0 
3.580460398615e-02 2.660024760174e-02 0.0 
9.634364932819e-03 1.195541476420e-02 0.0 
1.426677959082e-02 1.338913693158e-02 0.0 
-3.179979563741e-03 5.454150975965e-02 0.0 
-2.119898762854e-03 1.555534971653e-02 0.0 
2.745412292283e-02 1.487889577445e-02 0.0 
7.761790659754e-03 3.862626789222e-02 0.0 
3.181931589087e-02 3.665967903439e-02 0.0 
2.048276537969e-02 4.894013495212e-03 0.0 
1.241633553215e-02 4.593829252716e-02 0.0 
2.772114235952e-03 1.255380877630e-02 0.0 
1.627916035976e-02 1.452316783687e-02 0.0 
4.321749922131e-02 7.736834967813e-02 0.0 
3.930918531831e-02 4.867437570762e-02 0.0 
3.323777156459e-02 5.380840666543e-02 0.0 
3.949027903890e-02 3.846991205536e-02 0.0 
-1.723218200630e-03 3.194511981491e-02 0.0 
-1.671487315489e-03 1.599549542348e-02 0.0 
9.381176770260e-03 -1.529828329816e-02 0.0 
4.127922446439e-02 4.403622988615e-02 0.0 
1.892641829743e-02 7.619147444176e-02 0.0 
2.184928028802e-02 2.117997846679e-02 0.0 
5.467627751225e-03 2.563584904283e-02 0.0 
4.465529320168e-02 6.130206534770e-02 0.0 
-2.806935618205e-03 1.827102315942e-02 0.0 
9.715030535773e-03 3.378960865051e-02 0.0 
-5.915725987066e-03 2.895783147592e-02 0.0 
-1.933656112737e-04 6.322356766406e-02 0.0 
1.843026107757e-02 -2.319002360368e-04 0.0 
1.974064894828e-02 -1.177318371163e-03 0.0 
3.405889675784e-02 2.247747421730e-02 0.0 
-5.348429835977e-03 2.760725533469e-02 0.0 
9.781867444489e-03 2.148714554177e-02 0.0 
-2.801425147080e-03 1.761539953192e-02 0.0 
3.386135598645e-03 1.397605066509e-02 0.0 
8.063301897515e-03 2.057929666136e-02 0.0 
3.503288363088e-02 1.030664715544e-01 0.0 
-2.597766153500e-03 1.657079083149e-02 0.0 
1.176992275558e-02 1.077937731107e-02 0.0 
1.305517883417e-02 1.278105429957e-02 0.0 
-1.652797709498e-03 4.255062185685e-02 0.0 
1.272672816589e-02 1.216159506603e-02 0.0 
3.918327992503e-02 1.015025471761e-01 0.0 
-2.245736016550e-03 1.516879770385e-02 0.0 
7.250822356437e-03 1.309332390906e-02 0.0 
3.422208516895e-02 2.052974116635e-02 0.0 
3.979591474813e-03 1.151306462634e-01 0.0 
-1.502823287251e-03 9.580920904894e-03 0.0 
6.129616169743e-03 1.178895025461e-02 0.0 
3.643042208498e-02 3.506616284736e-02 0.0 
8.488858300667e-03 1.010200939824e-02 0.0 
3.495898194412e-02 1.136693412093e-01 0.0 
-5.301349340304e-03 2.915563676486e-02 0.0 
3.741330117213e-02 4.918181680560e-02 0.0 
3.759734417618e-03 1.015898617088e-02 0.0 
7.088109571689e-03 1.093365057464e-02 0.0 
2.698950590322e-02 6.736907044869e-02 0.0 
-5.618406732359e-03 3.259751627372e-02 0.0 
2.672033185693e-02 2.105960219912e-02 0.0 
3.202418589202e-03 6.081509412908e-02 0.0 
3.778872281694e-02 1.047759914487e-01 0.0 
-5.106754604675e-03 3.352620567394e-02 0.0 
1.591207793161e-02 -1.430005459890e-03 0.0 
5.531372487938e-03 1.183181874112e-02 0.0 
1.075948932278e-02 9.643555023701e-03 0.0 
-4.428908769290e-03 3.386380390466e-02 0.0 
1.625459347909e-02 1.862082810614e-03 0.0 
-3.635957222077e-03 3.366332748726e-02 0.0 
3.594984389235e-02 1.127808588389e-01 0.0 
2.738703040200e-02 6.063473440231e-02 0.0 
-2.740011470692e-03 3.300038534501e-02 0.0 
3.370211617671e-02 4.244801641784e-02 0.0 
4.143031827511e-03 5.357985667247e-02 0.0 
3.356301802646e-02 3.009639625968e-02 0.0 
-1.006387187987e-03 1.741642661519e-02 0.0 
-5.067770491362e-03 2.257055206989e-02 0.0 
3.051065263349e-03 1.377509122985e-02 0.0 
2.421173684405e-02 4.987783333778e-02 0.0 
3.489591113279e-02 1.076151399969e-01 0.0 
3.404969807312e-03 1.456602983246e-02 0.0 
2.936730646946e-02 3.550375285800e-02 0.0 
3.039288834378e-02 2.587399158638e-02 0.0 
3.226473104586e-02 2.253953053678e-02 0.0 
3.557002550770e-03 1.466052368762e-02 0.0 
3.821633926714e-02 9.332903578445e-02 0.0 
-4.558693866094e-03 3.269469951544e-02 0.0 
-2.885792600482e-03 3.298037304665e-02 0.0 
1.226662863588e-02 3.051378258265e-03 0.0 
2.648052816532e-02 3.350294323742e-02 0.0 
8.730183423837e-04 6.332497532978e-02 0.0 
2.710008834018e-02 4.788584361707e-02 0.0 
6.493875238061e-04 2.774003030745e-02 0.0 
8.370490697878e-03 2.356397998276e-03 0.0 
2.286335127067e-02 1.944581428143e-02 0.0 
1.148020234862e-03 8.382599145007e-02 0.0 
5.056411929245e-03 5.611397920985e-03 0.0 
-5.409484752034e-04 6.123319239888e-02 0.0 
2.003967212810e-03 7.022809019329e-03 0.0 
2.969669214052e-02 2.213228684220e-02 0.0 
-3.268265504466e-04 1.123029920583e-02 0.0 
-2.387978898576e-03 1.409436080200e-02 0.0 
2.835814889194e-03 2.370572493660e-02 0.0 
-3.883958965637e-03 1.853648803141e-02 0.0 
3.964728888474e-04 1.131467456322e-02 0.0 
-3.316306270775e-04 5.383679410865e-03 0.0 
1.502547691425e-03 1.067742411903e-01 0.0 
3.130292280950e-02 9.872594890755e-02 0.0 
4.501201736735e-03 -3.004743096257e-02 0.0 
3.517187360428e-02 7.877540443627e-02 0.0 
-4.755510678321e-03 2.217031576525e-02 0.0 
2.957316097707e-02 4.514026437786e-02 0.0 
3.121575006904e-03 1.062177142088e-01 0.0 
-4.997171237497e-03 2.721326469829e-02 0.0 
1.204455322881e-02 1.735975172362e-02 0.0 
6.072186759062e-03 5.424172360603e-03 0.0 
2.059142971161e-03 6.518816496602e-02 0.0 
1.026236680171e-02 1.139978193258e-02 0.0 
2.687558298234e-02 2.224066612754e-02 0.0 
5.899696125565e-04 3.474550398533e-02 0.0 
9.228006782143e-03 1.156150123188e-01 0.0 
8.664236271539e-03 2.704635330991e-02 0.0 
-8.251691030549e-04 2.992966464264e-02 0.0 
2.639402814258e-02 8.348416729920e-02 0.0 
2.867746390284e-02 6.229699657747e-02 0.0 
2.237026139920e-02 4.235305295704e-02 0.0 
-2.611970587186e-03 5.565218881191e-02 0.0 
3.481205169134e-03 6.710081774187e-03 0.0 
2.190123131634e-02 6.465094645804e-02 0.0 
6.952096926321e-03 7.603417157340e-03 0.0 
1.542786043309e-02 1.044707319284e-01 0.0 
2.234867484694e-02 1.954206792526e-02 0.0 
1.527807717566e-02 4.380551467612e-02 0.0 
6.684438097987e-03 2.199709880548e-02 0.0 
1.136345205629e-02 1.004051575561e-02 0.0 
-6.365409737784e-04 3.988437374744e-03 0.0 
1.723802606786e-02 1.516783470047e-02 0.0 
1.550416114915e-02 2.034685490160e-02 0.0 
2.219724225449e-02 9.177356142380e-02 0.0 
1.286441455767e-02 1.370513818664e-02 0.0 
2.776097618315e-03 5.510377654717e-02 0.0 
-7.485198793755e-04 4.071231806330e-03 0.0 
1.933936744420e-02 1.041543589578e-01 0.0 
1.739319321293e-03 2.220075023626e-02 0.0 
6.399207732579e-03 -1.573976564194e-02 0.0 
8.872851268280e-04 2.159078035745e-02 0.0 
2.503327271680e-02 3.611424713190e-02 0.0 
6.359169434381e-03 9.216076280367e-02 0.0 
2.633508789766e-02 8.943721727100e-02 0.0 
-8.454021830094e-04 9.260801604364e-03 0.0 
1.089373962924e-02 1.888201977502e-02 0.0 
1.177925006070e-02 6.981394143510e-03 0.0 
3.224564792652e-03 6.641028426289e-02 0.0 
-4.183775254772e-03 4.901710472934e-02 0.0 
5.602357674132e-03 -2.561896432858e-02 0.0 
-5.295047153197e-04 7.530416049847e-03 0.0 
1.991340992991e-02 2.721672965691e-02 0.0 
-1.252475912063e-03 9.155419590273e-03 0.0 
6.813747847612e-04 6.561231956240e-02 0.0 
9.365246880507e-03 4.024127918402e-02 0.0 
5.987665403502e-04 6.537840282928e-03 0.0 
1.189195820769e-02 1.459835111247e-02 0.0 
3.411832082148e-03 -8.425095158112e-03 0.0 
2.269146403385e-03 8.900687416472e-03 0.0 
6.356669956967e-03 -5.137359470753e-03 0.0 
1.259324708699e-02 1.162831034789e-01 0.0 
7.947027545382e-03 5.217646040148e-02 0.0 
-7.265045568786e-04 4.284806523509e-03 0.0 
4.068170376258e-03 2.097174438429e-02 0.0 
-2.957854042549e-03 4.835999197421e-02 0.0 
2.712748736656e-02 1.060149122242e-01 0.0 
-1.464118454730e-03 5.877326524379e-02 0.0 
1.696259614093e-02 1.609419996435e-02 0.0 
4.896331072581e-03 2.234795576007e-02 0.0 
2.811328983698e-03 1.995442263046e-02 0.0 
2.162325043342e-03 6.139739348755e-03 0.0 
7.808749052050e-03 1.852187881721e-02 0.0 
3.378813950143e-03 3.291856799850e-03 0.0 
6.521441110043e-03 -2.372299874229e-02 0.0 
1.036559654659e-02 9.245529077558e-03 0.0 
5.494580600549e-03 8.954604321968e-03 0.0 
6.927616018193e-03 1.162826914850e-01 0.0 
9.641245396797e-03 1.915669687356e-02 0.0 
-2.827395428671e-03 5.363828098203e-02 0.0 
1.802021284450e-03 5.608961036362e-02 0.0 
1.692027728286e-04 1.003395955953e-02 0.0 
1.671122393312e-03 6.527630423356e-02 0.0 
1.168211855670e-03 1.164582709758e-01 0.0 
-1.283854367431e-04 4.420973945850e-03 0.0 
1.534820530190e-03 6.173720229841e-02 0.0 
2.476046929966e-03 9.837832660430e-02 0.0 
1.114486242300e-02 1.473865738614e-02 0.0 
-7.180522988028e-04 4.224211581696e-02 0.0 
1.367235898671e-03 4.321659967136e-02 0.0 
1.668649552159e-03 2.114343508465e-03 0.0 
6.582700192165e-03 -3.108377534333e-02 0.0 
1.975041821079e-03 7.777181127371e-02 0.0 
9.544163088909e-03 8.491232012746e-03 0.0 
6.177486728867e-03 1.821682366525e-02 0.0 
5.095527832668e-03 8.577636974578e-02 0.0 
1.518415296920e-02 4.763360757804e-04 0.0 
1.553712275681e-02 2.044941519671e-02 0.0 
-3.034920419165e-03 4.568659839993e-02 0.0 
1.723354844358e-02 1.818512808835e-02 0.0 
8.237038991118e-03 9.447536779792e-03 0.0 
6.302095878984e-04 -2.814290356159e-03 0.0 
-6.011434279700e-04 3.834879757863e-02 0.0 
8.916180009066e-03 4.814121891641e-02 0.0 
-1.229286013182e-03 7.428382433171e-03 0.0 
-1.997822993703e-03 4.497826965031e-02 0.0 
2.919869930476e-02 1.250858875331e-01 0.0 
7.373439794830e-04 1.592123141504e-01 0.0 
3.098026212450e-02 1.268763263059e-01 0.0 
7.652807696713e-04 1.498276066313e-01 0.0 
3.055724103803e-02 1.249317088085e-01 0.0 
7.586911337434e-04 1.399921765851e-01 0.0 
2.858375101986e-02 1.202088138536e-01 0.0 
7.847016446561e-04 1.297129437975e-01 0.0 

TENSORS node_materi_stress float
-1.013512171044e+01 3.317808888668e-02 0.0 
3.317808888668e-02 -8.501823518529e+00 0.0 
0.0 0.0 -4.356815145993e+00 
-4.818005541942e+01 4.610869610350e-01 0.0 
4.610869610350e-01 -7.901800581341e+01 0.0 
0.0 0.0 -3.775941836985e+01 
-1.669404401317e+02 -1.430995394676e-01 0.0 
-1.430995394676e-01 -3.921171007374e+02 0.0 
0.0 0.0 -1.673172622607e+02 
-1.165212574006e+02 8.087814318133e-01 0.0 
8.087814318133e-01 -2.707152712935e+02 0.0 
0.0 0.0 -1.157709586082e+02 
-9.730924283050e+00 -1.528765133330e-01 0.0 
-1.528765133330e-01 -2.075841706833e+01 0.0 
0.0 0.0 -6.925910138401e+00 
-1.237242770351e+01 -5.378788896245e-01 0.0 
-5.378788896245e-01 -4.029983608098e+01 0.0 
0.0 0.0 -1.312392112459e+01 
-1.552201553280e+01 -6.208597146223e-01 0.0 
-6.208597146223e-01 -5.850745980498e+01 0.0 
0.0 0.0 -2.101644024744e+01 
-2.606599535521e+01 -7.685972576356e-01 0.0 
-7.685972576356e-01 -7.961564623429e+01 0.0 
0.0 0.0 -3.055114515719e+01 
-4.166574640047e+01 -7.424992092332e-01 0.0 
-7.424992092332e-01 -1.002414792024e+02 0.0 
0.0 0.0 -3.974263823832e+01 
-5.534546313207e+01 -7.519971629567e-01 0.0 
-7.519971629567e-01 -1.208090653824e+02 0.0 
0.0 0.0 -4.884344093190e+01 
-6.735541507999e+01 -7.892151922210e-01 0.0 
-7.892151922210e-01 -1.414994552750e+02 0.0 
0.0 0.0 -5.787899486514e+01 
-7.788230490502e+01 -7.583582803179e-01 0.0 
-7.583582803179e-01 -1.622233748583e+02 0.0 
0.0 0.0 -6.683757620950e+01 
-8.703727647636e+01 -7.226169636268e-01 0.0 
-7.226169636268e-01 -1.829469925113e+02 0.0 
0.0 0.0 -7.574978744721e+01 
-9.519559486739e+01 -7.181862302943e-01 0.0 
-7.181862302943e-01 -2.037684840836e+02 0.0 
0.0 0.0 -8.463397151747e+01 
-1.024338814553e+02 -7.759415039515e-01 0.0 
-7.759415039515e-01 -2.249821812189e+02 0.0 
0.0 0.0 -9.362770966195e+01 
-1.089954239569e+02 -6.720975140360e-01 0.0 
-6.720975140360e-01 -2.453392884875e+02 0.0 
0.0 0.0 -1.024137021298e+02 
-1.146725183344e+02 -8.000217714841e-01 0.0 
-8.000217714841e-01 -2.636778650955e+02 0.0 
0.0 0.0 -1.103793451350e+02 
-1.201977111628e+02 -3.490387615817e-01 0.0 
-3.490387615817e-01 -2.836869442859e+02 0.0 
0.0 0.0 -1.189976914709e+02 
-1.257180429179e+02 -2.478149620379e-01 0.0 
-2.478149620379e-01 -3.039712185309e+02 0.0 
0.0 0.0 -1.278605508927e+02 
-1.326957699620e+02 -1.942742190929e-01 0.0 
-1.942742190929e-01 -3.234513186717e+02 0.0 
0.0 0.0 -1.364379711369e+02 
-1.419940846257e+02 -1.185061432752e-01 0.0 
-1.185061432752e-01 -3.429074708403e+02 0.0 
0.0 0.0 -1.450704666398e+02 
-1.516356482608e+02 -1.323266005524e-01 0.0 
-1.323266005524e-01 -3.624154056800e+02 0.0 
0.0 0.0 -1.538153161822e+02 
-1.610131834526e+02 -1.978348167427e-01 0.0 
-1.978348167427e-01 -3.809656199150e+02 0.0 
0.0 0.0 -1.621936410103e+02 
-1.168340745875e+02 1.116468626241e+00 0.0 
1.116468626241e+00 -2.719257556255e+02 0.0 
0.0 0.0 -1.162279490639e+02 
-1.163113011266e+02 2.002271188704e+00 0.0 
2.002271188704e+00 -2.709372844250e+02 0.0 
0.0 0.0 -1.157745756655e+02 
-1.164935445774e+02 3.211676441441e+00 0.0 
3.211676441441e+00 -2.713188117191e+02 0.0 
0.0 0.0 -1.159437068890e+02 
-1.165186497343e+02 3.844107434454e+00 0.0 
3.844107434454e+00 -2.715321488933e+02 0.0 
0.0 0.0 -1.160152395883e+02 
-1.165600926544e+02 5.002566553617e+00 0.0 
5.002566553617e+00 -2.711955231737e+02 0.0 
0.0 0.0 -1.159266847484e+02 
-1.169976830859e+02 6.120209790238e+00 0.0 
6.120209790238e+00 -2.722268413472e+02 0.0 
0.0 0.0 -1.163673573299e+02 
-1.176559367081e+02 7.347876765662e+00 0.0 
7.347876765662e+00 -2.731236865409e+02 0.0 
0.0 0.0 -1.168338869747e+02 
-1.176617521063e+02 8.741335361003e+00 0.0 
8.741335361003e+00 -2.735294109871e+02 0.0 
0.0 0.0 -1.169573489280e+02 
-1.185206074560e+02 1.021797596081e+01 0.0 
1.021797596081e+01 -2.752542132552e+02 0.0 
0.0 0.0 -1.177324462134e+02 
-1.188650836714e+02 1.136906609828e+01 0.0 
1.136906609828e+01 -2.763451475868e+02 0.0 
0.0 0.0 -1.181630693774e+02 
-1.194793958201e+02 1.297141318523e+01 0.0 
1.297141318523e+01 -2.770951422991e+02 0.0 
0.0 0.0 -1.185723614357e+02 
-1.203674028801e+02 1.461415732600e+01 0.0 
1.461415732600e+01 -2.793851855992e+02 0.0 
0.0 0.0 -1.195257765438e+02 
-1.218093344264e+02 1.630298255086e+01 0.0 
1.630298255086e+01 -2.820879076614e+02 0.0 
0.0 0.0 -1.207691726264e+02 
-1.223984324375e+02 1.800368667516e+01 0.0 
1.800368667516e+01 -2.840662532404e+02 0.0 
0.0 0.0 -1.215394057034e+02 
-1.237876176069e+02 1.972962850789e+01 0.0 
1.972962850789e+01 -2.866573514011e+02 0.0 
0.0 0.0 -1.227334907024e+02 
-1.246098235270e+02 2.127394229240e+01 0.0 
2.127394229240e+01 -2.891838603337e+02 0.0 
0.0 0.0 -1.237381051582e+02 
-1.262410993683e+02 2.297011029387e+01 0.0 
2.297011029387e+01 -2.928634731941e+02 0.0 
0.0 0.0 -1.253313717687e+02 
-1.286230696853e+02 2.460224608912e+01 0.0 
2.460224608912e+01 -2.981248956540e+02 0.0 
0.0 0.0 -1.276243896018e+02 
-1.305159680384e+02 2.606097419284e+01 0.0 
2.606097419284e+01 -3.032814137151e+02 0.0 
0.0 0.0 -1.297392145260e+02 
-1.325918294352e+02 2.731271950831e+01 0.0 
2.731271950831e+01 -3.087683289590e+02 0.0 
0.0 0.0 -1.320080475183e+02 
-1.346035655323e+02 2.817307494297e+01 0.0 
2.817307494297e+01 -3.141611400474e+02 0.0 
0.0 0.0 -1.342294116739e+02 
-1.369755376619e+02 2.894393958311e+01 0.0 
2.894393958311e+01 -3.197593164674e+02 0.0 
0.0 0.0 -1.366204562388e+02 
-1.391285496612e+02 2.930512718994e+01 0.0 
2.930512718994e+01 -3.256182714207e+02 0.0 
0.0 0.0 -1.390240463246e+02 
-1.414065511662e+02 2.936876618682e+01 0.0 
2.936876618682e+01 -3.314935495167e+02 0.0 
0.0 0.0 -1.414700302049e+02 
-1.437985758809e+02 2.911997472150e+01 0.0 
2.911997472150e+01 -3.375558929223e+02 0.0 
0.0 0.0 -1.440063406410e+02 
-1.462114092949e+02 2.864855068107e+01 0.0 
2.864855068107e+01 -3.434994877770e+02 0.0 
0.0 0.0 -1.465132691216e+02 
-1.483282762591e+02 2.785134307014e+01 0.0 
2.785134307014e+01 -3.490731080699e+02 0.0 
0.0 0.0 -1.488204152987e+02 
-1.504666068401e+02 2.683848069529e+01 0.0 
2.683848069529e+01 -3.542895026961e+02 0.0 
0.0 0.0 -1.510268328609e+02 
-1.522708841211e+02 2.562709457444e+01 0.0 
2.562709457444e+01 -3.589517156688e+02 0.0 
0.0 0.0 -1.529667799370e+02 
-1.546226344486e+02 2.449408222212e+01 0.0 
2.449408222212e+01 -3.640781717225e+02 0.0 
0.0 0.0 -1.552102418513e+02 
-1.560140845686e+02 2.273391544688e+01 0.0 
2.273391544688e+01 -3.682065565047e+02 0.0 
0.0 0.0 -1.568661923220e+02 
-1.572163122144e+02 2.129321909276e+01 0.0 
2.129321909276e+01 -3.712691926200e+02 0.0 
0.0 0.0 -1.581456514503e+02 
-1.588740947329e+02 1.958506281171e+01 0.0 
1.958506281171e+01 -3.751206560810e+02 0.0 
0.0 0.0 -1.597984252442e+02 
-1.603634227822e+02 1.795005210959e+01 0.0 
1.795005210959e+01 -3.786167307890e+02 0.0 
0.0 0.0 -1.612940460714e+02 
-1.616731368332e+02 1.622750835607e+01 0.0 
1.622750835607e+01 -3.817133620065e+02 0.0 
0.0 0.0 -1.626159496519e+02 
-1.628708617453e+02 1.452999788112e+01 0.0 
1.452999788112e+01 -3.843366565591e+02 0.0 
0.0 0.0 -1.637622554913e+02 
-1.637871800580e+02 1.285501983059e+01 0.0 
1.285501983059e+01 -3.864907966364e+02 0.0 
0.0 0.0 -1.646833930083e+02 
-1.644903684643e+02 1.120790537275e+01 0.0 
1.120790537275e+01 -3.880148858778e+02 0.0 
0.0 0.0 -1.653515763026e+02 
-1.649818235765e+02 9.744608381949e+00 0.0 
9.744608381949e+00 -3.890866749693e+02 0.0 
0.0 0.0 -1.658205495637e+02 
-1.652897100423e+02 8.271545077717e+00 0.0 
8.271545077717e+00 -3.897548942790e+02 0.0 
0.0 0.0 -1.661133812964e+02 
-1.659385586496e+02 7.126673314082e+00 0.0 
7.126673314082e+00 -3.908292089087e+02 0.0 
0.0 0.0 -1.666303302675e+02 
-1.667375200204e+02 5.886958228559e+00 0.0 
5.886958228559e+00 -3.921870664136e+02 0.0 
0.0 0.0 -1.672773759302e+02 
-1.670999871267e+02 4.993387244250e+00 0.0 
4.993387244250e+00 -3.927829463546e+02 0.0 
0.0 0.0 -1.675648800444e+02 
-1.658692462440e+02 3.967094393155e+00 0.0 
3.967094393155e+00 -3.906407593851e+02 0.0 
0.0 0.0 -1.665530016887e+02 
-1.672090536108e+02 3.062084704243e+00 0.0 
3.062084704243e+00 -3.927486116301e+02 0.0 
0.0 0.0 -1.675872995723e+02 
-1.668106844706e+02 2.373848532064e+00 0.0 
2.373848532064e+00 -3.920329605434e+02 0.0 
0.0 0.0 -1.672530935042e+02 
-1.671765874514e+02 1.936473823762e+00 0.0 
1.936473823762e+00 -3.925821104242e+02 0.0 
0.0 0.0 -1.675276093627e+02 
-1.675016572269e+02 1.092687934863e+00 0.0 
1.092687934863e+00 -3.932173586217e+02 0.0 
0.0 0.0 -1.678157047546e+02 
-1.674381366075e+02 6.451033563037e-01 0.0 
6.451033563037e-01 -3.931203078015e+02 0.0 
0.0 0.0 -1.677675333227e+02 
-5.657390298622e+01 3.539798071780e-01 0.0 
3.539798071780e-01 -9.889593498009e+01 0.0 
0.0 0.0 -4.624095138989e+01 
-6.435865955447e+01 4.322624259733e-01 0.0 
4.322624259733e-01 -1.187697842145e+02 0.0 
0.0 0.0 -5.453853313070e+01 
-7.206329646007e+01 4.515716278246e-01 0.0 
4.515716278246e-01 -1.385354542382e+02 0.0 
0.0 0.0 -6.277962520947e+01 
-7.933453998547e+01 5.177704677972e-01 0.0 
5.177704677972e-01 -1.579786420247e+02 0.0 
0.0 0.0 -7.079395460306e+01 
-8.654489874920e+01 5.094245034743e-01 0.0 
5.094245034743e-01 -1.779676571533e+02 0.0 
0.0 0.0 -7.895376677076e+01 
-9.379558903002e+01 5.894733474380e-01 0.0 
5.894733474380e-01 -1.981626242520e+02 0.0 
0.0 0.0 -8.718746398460e+01 
-1.004500273173e+02 5.721507432825e-01 0.0 
5.721507432825e-01 -2.181901369771e+02 0.0 
0.0 0.0 -9.519204928833e+01 
-1.067780921229e+02 6.856243128326e-01 0.0 
6.856243128326e-01 -2.381052734583e+02 0.0 
0.0 0.0 -1.030650096744e+02 
-1.134545874058e+02 7.476712908126e-01 0.0 
7.476712908126e-01 -2.588103327642e+02 0.0 
0.0 0.0 -1.112794760510e+02 
-6.817122283093e+01 3.205729083495e+01 0.0 
3.205729083495e+01 -6.962969258357e+01 0.0 
0.0 0.0 -4.176365878026e+01 
-6.012380656833e+01 5.832352092404e+00 0.0 
5.832352092404e+00 -8.269351909964e+01 0.0 
0.0 0.0 -4.194313824931e+01 
-4.810499644972e+01 3.384024834598e+01 0.0 
3.384024834598e+01 -3.207070533133e+01 0.0 
0.0 0.0 -2.264904002068e+01 
-4.423359167232e+01 3.026211582796e+01 0.0 
3.026211582796e+01 -3.017444038531e+01 0.0 
0.0 0.0 -1.845141823233e+01 
-4.238922398476e+01 2.888670865309e+01 0.0 
2.888670865309e+01 -2.824573863257e+01 0.0 
0.0 0.0 -1.758809612556e+01 
-4.007679231360e+01 2.763006131992e+01 0.0 
2.763006131992e+01 -2.663287010200e+01 0.0 
0.0 0.0 -1.696850182787e+01 
-4.005827799135e+01 2.654022003004e+01 0.0 
2.654022003004e+01 -2.658796589208e+01 0.0 
0.0 0.0 -1.659967953967e+01 
-4.419552045407e+01 1.837003310071e+01 0.0 
1.837003310071e+01 -2.178895881724e+01 0.0 
0.0 0.0 -1.484628292741e+01 
-3.830374701230e+01 9.634527910630e+00 0.0 
9.634527910630e+00 -2.377203815266e+01 0.0 
0.0 0.0 -1.376590435176e+01 
-4.565096502544e+01 7.377937893184e+00 0.0 
7.377937893184e+00 -4.297165731322e+01 0.0 
0.0 0.0 -2.330440737751e+01 
-5.317683342225e+01 6.257299597238e+00 0.0 
6.257299597238e+00 -6.229947729127e+01 0.0 
0.0 0.0 -3.266043722741e+01 
-1.920851117520e+01 8.615430211129e-01 0.0 
8.615430211129e-01 -7.371825989600e+00 0.0 
0.0 0.0 -7.574101149439e+00 
-2.363956433459e+01 6.599508524120e-01 0.0 
6.599508524120e-01 -1.970339395801e+01 0.0 
0.0 0.0 -1.260288748778e+01 
-3.177288519614e+01 7.645747520722e-01 0.0 
7.645747520722e-01 -3.925885362701e+01 0.0 
0.0 0.0 -2.090952164695e+01 
-4.002114988725e+01 5.495875165167e-01 0.0 
5.495875165167e-01 -5.868620527014e+01 0.0 
0.0 0.0 -2.921220654722e+01 
-4.736370495248e+01 -1.692100271292e-01 0.0 
-1.692100271292e-01 -7.637950254984e+01 0.0 
0.0 0.0 -3.672296225070e+01 
-4.806930371263e+01 9.618878243883e-02 0.0 
9.618878243883e-02 -7.755579251208e+01 0.0 
0.0 0.0 -3.728752886741e+01 
-4.816788395143e+01 1.617116243624e-01 0.0 
1.617116243624e-01 -7.758619825517e+01 0.0 
0.0 0.0 -3.732622466198e+01 
-4.833554275935e+01 2.757697867145e-01 0.0 
2.757697867145e-01 -7.737071663929e+01 0.0 
0.0 0.0 -3.731187781959e+01 
-4.985447770288e+01 3.713305034480e-01 0.0 
3.713305034480e-01 -8.004263851288e+01 0.0 
0.0 0.0 -3.856913486473e+01 
-4.914945834884e+01 4.217942428942e-01 0.0 
4.217942428942e-01 -7.768426264361e+01 0.0 
0.0 0.0 -3.765011629774e+01 
-4.969413722954e+01 5.902772443626e-01 0.0 
5.902772443626e-01 -7.754538421495e+01 0.0 
0.0 0.0 -3.777185643335e+01 
-5.023350326320e+01 6.914228774203e-01 0.0 
6.914228774203e-01 -7.776857038101e+01 0.0 
0.0 0.0 -3.800062209326e+01 
-5.103685323559e+01 9.865281351704e-01 0.0 
9.865281351704e-01 -7.828254955234e+01 0.0 
0.0 0.0 -3.839582083638e+01 
-5.181585619438e+01 1.278175974668e+00 0.0 
1.278175974668e+00 -7.835410994543e+01 0.0 
0.0 0.0 -3.865098984194e+01 
-5.282145716546e+01 1.774261004609e+00 0.0 
1.774261004609e+00 -7.852850588698e+01 0.0 
0.0 0.0 -3.900498891573e+01 
-5.387244850531e+01 2.394409132978e+00 0.0 
2.394409132978e+00 -7.880646314845e+01 0.0 
0.0 0.0 -3.938076840883e+01 
-5.536320258245e+01 3.153688839729e+00 0.0 
3.153688839729e+00 -7.945663105530e+01 0.0 
0.0 0.0 -3.994802918305e+01 
-5.707675849891e+01 4.187770834271e+00 0.0 
4.187770834271e+00 -8.052787749299e+01 0.0 
0.0 0.0 -4.065980304558e+01 
-9.412429342195e+01 1.567114770942e+01 0.0 
1.567114770942e+01 -9.623077612047e+01 0.0 
0.0 0.0 -5.746765387929e+01 
-1.119555214118e+02 3.524083961726e+00 0.0 
3.524083961726e+00 -1.042165146904e+02 0.0 
0.0 0.0 -6.521868561918e+01 
-1.187213033312e+02 -2.152740514186e+00 0.0 
-2.152740514186e+00 -1.038712502912e+02 0.0 
0.0 0.0 -6.711193643557e+01 
-1.081151175650e+02 -1.026071842857e+01 0.0 
-1.026071842857e+01 -9.502737719844e+01 0.0 
0.0 0.0 -6.127636599385e+01 
-7.224860014417e+01 -2.138014653080e+01 0.0 
-2.138014653080e+01 -5.665120323348e+01 0.0 
0.0 0.0 -3.904883125673e+01 
-3.941681873787e+01 -1.518571232784e+01 0.0 
-1.518571232784e+01 -1.984998975216e+01 0.0 
0.0 0.0 -1.750590160649e+01 
-2.242052919381e+01 -4.045617606325e+00 0.0 
-4.045617606325e+00 -1.081988761552e+01 0.0 
0.0 0.0 -9.403943718372e+00 
-1.604066381554e+01 -9.270754852842e-01 0.0 
-9.270754852842e-01 -9.225045785790e+00 0.0 
0.0 0.0 -6.953132579963e+00 
-1.333148926121e+01 1.001580603123e-01 0.0 
1.001580603123e-01 -8.557322768424e+00 0.0 
0.0 0.0 -6.195945560481e+00 
-1.247794212783e+01 4.194428007740e-01 0.0 
4.194428007740e-01 -7.898905110279e+00 0.0 
0.0 0.0 -5.680759924213e+00 
-1.193159713439e+01 2.098678021893e-01 0.0 
2.098678021893e-01 -7.973234945369e+00 0.0 
0.0 0.0 -5.317429384623e+00 
-1.189807738605e+01 -8.174241428583e-02 0.0 
-8.174241428583e-02 -8.742368593121e+00 0.0 
0.0 0.0 -5.330339801466e+00 
-1.152607152441e+01 -2.271244617256e-01 0.0 
-2.271244617256e-01 -8.541924376544e+00 0.0 
0.0 0.0 -4.699355295043e+00 
-1.090875423582e+01 -1.490418584842e-01 0.0 
-1.490418584842e-01 -7.875669781072e+00 0.0 
0.0 0.0 -4.321060691171e+00 
-1.031496757859e+01 -1.014566356450e-01 0.0 
-1.014566356450e-01 -7.949668902291e+00 0.0 
0.0 0.0 -4.155756525202e+00 
-1.004361523790e+01 -7.041544871856e-02 0.0 
-7.041544871856e-02 -8.212553039161e+00 0.0 
0.0 0.0 -4.134396953532e+00 
-9.851222042817e+00 2.870471828897e-04 0.0 
2.870471828897e-04 -8.258865182142e+00 0.0 
0.0 0.0 -4.064371016508e+00 
-9.807160783895e+00 -3.502783154839e-02 0.0 
-3.502783154839e-02 -7.799672070988e+00 0.0 
0.0 0.0 -3.952817865385e+00 
-1.009052457997e+01 -1.302776375683e-01 0.0 
-1.302776375683e-01 -7.128817478124e+00 0.0 
0.0 0.0 -3.918520371905e+00 
-1.925254335319e+01 -1.819856458593e-01 0.0 
-1.819856458593e-01 -9.512237065624e+00 0.0 
0.0 0.0 -8.229434125645e+00 
-1.902204846825e+01 -9.756713499553e-03 0.0 
-9.756713499553e-03 -9.746488225787e+00 0.0 
0.0 0.0 -8.230561008211e+00 
-1.898243069993e+01 -2.346625974813e-02 0.0 
-2.346625974813e-02 -9.686526464740e+00 0.0 
0.0 0.0 -8.200687149401e+00 
-1.891826351138e+01 -8.272134868506e-02 0.0 
-8.272134868506e-02 -9.681048812844e+00 0.0 
0.0 0.0 -8.179793697268e+00 
-1.878768177200e+01 -1.387577931300e-01 0.0 
-1.387577931300e-01 -9.670065785463e+00 0.0 
0.0 0.0 -8.137324267239e+00 
-1.860771535634e+01 -2.009877028252e-01 0.0 
-2.009877028252e-01 -9.660695583527e+00 0.0 
0.0 0.0 -8.070686859680e+00 
-1.840475356289e+01 -2.703000158164e-01 0.0 
-2.703000158164e-01 -9.647013040442e+00 0.0 
0.0 0.0 -7.966776064762e+00 
-1.813285637720e+01 -3.436850593566e-01 0.0 
-3.436850593566e-01 -9.629417380520e+00 0.0 
0.0 0.0 -7.834883905736e+00 
-1.777969846313e+01 -4.183313879790e-01 0.0 
-4.183313879790e-01 -9.614593621498e+00 0.0 
0.0 0.0 -7.673721986781e+00 
-1.734003328919e+01 -4.938008808762e-01 0.0 
-4.938008808762e-01 -9.596531055307e+00 0.0 
0.0 0.0 -7.474367488036e+00 
-1.684096036420e+01 -5.642701759060e-01 0.0 
-5.642701759060e-01 -9.578547898560e+00 0.0 
0.0 0.0 -7.247717072367e+00 
-1.630953261035e+01 -6.162934054166e-01 0.0 
-6.162934054166e-01 -9.567093727110e+00 0.0 
0.0 0.0 -7.004213021602e+00 
-1.580666357051e+01 -6.224880705046e-01 0.0 
-6.224880705046e-01 -9.583439898311e+00 0.0 
0.0 0.0 -6.765344483238e+00 
-1.531312312593e+01 -5.551313421732e-01 0.0 
-5.551313421732e-01 -9.596037224472e+00 0.0 
0.0 0.0 -6.407140120554e+00 
-1.495521604297e+01 -4.029821008198e-01 0.0 
-4.029821008198e-01 -9.578298256885e+00 0.0 
0.0 0.0 -5.889240137999e+00 
-1.502358772322e+01 -1.376717159159e-01 0.0 
-1.376717159159e-01 -9.664461960941e+00 0.0 
0.0 0.0 -5.451029560518e+00 
-1.590591398230e+01 4.556694446031e-01 0.0 
4.556694446031e-01 -9.805659704901e+00 0.0 
0.0 0.0 -5.119681566825e+00 
-1.780724624170e+01 1.522905590134e+00 0.0 
1.522905590134e+00 -1.029248660343e+01 0.0 
0.0 0.0 -5.183587816210e+00 
-2.217580534060e+01 3.685717387805e+00 0.0 
3.685717387805e+00 -1.016880626733e+01 0.0 
0.0 0.0 -5.331997464693e+00 
-2.966920500349e+01 5.949472509022e+00 0.0 
5.949472509022e+00 -5.692005396097e+00 0.0 
0.0 0.0 -5.423886574536e+00 
-3.046504274440e+01 4.568451990043e+00 0.0 
4.568451990043e+00 -1.904313538688e+01 0.0 
0.0 0.0 -1.105081008068e+01 
-2.937267362532e+01 3.138289960083e+00 0.0 
3.138289960083e+00 -2.236690408320e+01 0.0 
0.0 0.0 -1.240448643436e+01 
-2.609314872107e+01 1.344095674313e+00 0.0 
1.344095674313e+00 -2.061486829497e+01 0.0 
0.0 0.0 -1.156198874365e+01 
-2.481277528484e+01 5.175606032441e-01 0.0 
5.175606032441e-01 -2.010169839239e+01 0.0 
0.0 0.0 -1.151914026822e+01 
-2.403847514672e+01 2.013992753261e-02 0.0 
2.013992753261e-02 -1.990333516805e+01 0.0 
0.0 0.0 -1.170106860720e+01 
-2.360920152001e+01 -2.364653540497e-01 0.0 
-2.364653540497e-01 -1.975398281244e+01 0.0 
0.0 0.0 -1.186102309242e+01 
-2.331051481913e+01 -3.698530799503e-01 0.0 
-3.698530799503e-01 -1.965914309109e+01 0.0 
0.0 0.0 -1.193003378585e+01 
-2.316044346977e+01 -4.193983438231e-01 0.0 
-4.193983438231e-01 -1.959702209921e+01 0.0 
0.0 0.0 -1.200100447512e+01 
-2.310255118041e+01 -4.128611974725e-01 0.0 
-4.128611974725e-01 -1.956244049833e+01 0.0 
0.0 0.0 -1.209099710085e+01 
-2.309313582321e+01 -3.736942919261e-01 0.0 
-3.736942919261e-01 -1.954223118404e+01 0.0 
0.0 0.0 -1.218798477484e+01 
-2.310507724840e+01 -3.068940388753e-01 0.0 
-3.068940388753e-01 -1.954144760589e+01 0.0 
0.0 0.0 -1.227477552619e+01 
-2.314447059976e+01 -2.445642082730e-01 0.0 
-2.445642082730e-01 -1.955378457626e+01 0.0 
0.0 0.0 -1.233820048390e+01 
-2.319078685202e+01 -1.979417588345e-01 0.0 
-1.979417588345e-01 -1.956532772706e+01 0.0 
0.0 0.0 -1.239753920447e+01 
-2.323239889914e+01 -1.547446540855e-01 0.0 
-1.547446540855e-01 -1.956688301951e+01 0.0 
0.0 0.0 -1.243486636445e+01 
-2.327264385268e+01 -1.117515115854e-01 0.0 
-1.117515115854e-01 -1.956929450856e+01 0.0 
0.0 0.0 -1.245258150837e+01 
-2.330439159884e+01 -6.575293812457e-02 0.0 
-6.575293812457e-02 -1.956541462652e+01 0.0 
0.0 0.0 -1.246094186761e+01 
-2.333086641202e+01 -4.590562020983e-03 0.0 
-4.590562020983e-03 -1.956158129089e+01 0.0 
0.0 0.0 -1.246773431087e+01 
-2.336541727109e+01 7.038794587630e-02 0.0 
7.038794587630e-02 -1.956304013591e+01 0.0 
0.0 0.0 -1.247853722210e+01 
-2.358456069003e+01 -3.901274677812e-01 0.0 
-3.901274677812e-01 -1.966286471363e+01 0.0 
0.0 0.0 -1.257422762110e+01 
-3.176034487276e+01 -3.308840748273e-01 0.0 
-3.308840748273e-01 -3.924444280885e+01 0.0 
0.0 0.0 -2.090143630448e+01 
-3.179078453805e+01 -7.437884750386e-02 0.0 
-7.437884750386e-02 -3.912777706785e+01 0.0 
0.0 0.0 -2.087556848177e+01 
-3.182254883775e+01 -5.127291436733e-02 0.0 
-5.127291436733e-02 -3.911621279268e+01 0.0 
0.0 0.0 -2.088162848913e+01 
-3.187266835721e+01 -8.435430860461e-02 0.0 
-8.435430860461e-02 -3.914127779312e+01 0.0 
0.0 0.0 -2.090418384510e+01 
-3.197016001659e+01 -1.219946864221e-01 0.0 
-1.219946864221e-01 -3.914271798299e+01 0.0 
0.0 0.0 -2.093386339987e+01 
-3.206620572026e+01 -1.584092591989e-01 0.0 
-1.584092591989e-01 -3.914779572526e+01 0.0 
0.0 0.0 -2.096420043366e+01 
-3.218215134021e+01 -1.850594509591e-01 0.0 
-1.850594509591e-01 -3.915999944815e+01 0.0 
0.0 0.0 -2.100264523651e+01 
-3.234235329326e+01 -1.880280592702e-01 0.0 
-1.880280592702e-01 -3.914956312613e+01 0.0 
0.0 0.0 -2.104757492582e+01 
-3.260323144784e+01 -2.212474099649e-01 0.0 
-2.212474099649e-01 -3.912961062197e+01 0.0 
0.0 0.0 -2.109281102057e+01 
-3.294915675731e+01 -2.312409180214e-01 0.0 
-2.312409180214e-01 -3.919449691527e+01 0.0 
0.0 0.0 -2.114992270952e+01 
-3.349872862411e+01 -1.667795292674e-01 0.0 
-1.667795292674e-01 -3.927498824263e+01 0.0 
0.0 0.0 -2.121612335804e+01 
-3.421576834496e+01 -1.683523629625e-02 0.0 
-1.683523629625e-02 -3.939610850619e+01 0.0 
0.0 0.0 -2.133401368309e+01 
-3.511785066933e+01 2.601635382890e-01 0.0 
2.601635382890e-01 -3.961480252621e+01 0.0 
0.0 0.0 -2.151224593930e+01 
-3.635543075893e+01 7.171758791547e-01 0.0 
7.171758791547e-01 -3.986638755958e+01 0.0 
0.0 0.0 -2.169254686451e+01 
-3.774346826976e+01 1.433392923794e+00 0.0 
1.433392923794e+00 -4.042104614321e+01 0.0 
0.0 0.0 -2.190863851681e+01 
-4.046702297784e+01 3.062366661854e+00 0.0 
3.062366661854e+00 -4.230444337285e+01 0.0 
0.0 0.0 -2.279886094369e+01 
-4.096065266900e+01 4.300098832364e+00 0.0 
4.300098832364e+00 -3.911539590589e+01 0.0 
0.0 0.0 -2.148473227605e+01 
-4.952539249353e+01 4.040487523855e+00 0.0 
4.040487523855e+00 -5.885732556457e+01 0.0 
0.0 0.0 -3.108624750680e+01 
-4.907738325614e+01 3.193277797933e+00 0.0 
3.193277797933e+00 -6.182124191037e+01 0.0 
0.0 0.0 -3.217739875576e+01 
-4.665992386598e+01 2.008302142498e+00 0.0 
2.008302142498e+00 -6.000517849228e+01 0.0 
0.0 0.0 -3.117421326888e+01 
-4.523396584391e+01 1.375859254122e+00 0.0 
1.375859254122e+00 -5.950684087855e+01 0.0 
0.0 0.0 -3.077348845546e+01 
-4.405393910766e+01 9.679424578654e-01 0.0 
9.679424578654e-01 -5.923166192172e+01 0.0 
0.0 0.0 -3.045746400023e+01 
-4.312979633593e+01 6.369994504463e-01 0.0 
6.369994504463e-01 -5.907448866806e+01 0.0 
0.0 0.0 -3.021920564363e+01 
-4.240947739880e+01 4.036718731297e-01 0.0 
4.036718731297e-01 -5.888520064776e+01 0.0 
0.0 0.0 -2.998840341397e+01 
-4.185735043338e+01 2.959660690615e-01 0.0 
2.959660690615e-01 -5.880508897410e+01 0.0 
0.0 0.0 -2.979873182225e+01 
-4.149281789839e+01 1.709062788796e-01 0.0 
1.709062788796e-01 -5.886098098630e+01 0.0 
0.0 0.0 -2.970613966541e+01 
-4.107543720121e+01 1.116975500891e-01 0.0 
1.116975500891e-01 -5.881130841467e+01 0.0 
0.0 0.0 -2.956602368477e+01 
-4.078154342703e+01 6.656346303777e-02 0.0 
6.656346303777e-02 -5.878409892909e+01 0.0 
0.0 0.0 -2.946969270683e+01 
-4.055985974420e+01 7.866382201443e-02 0.0 
7.866382201443e-02 -5.877733096410e+01 0.0 
0.0 0.0 -2.940115721249e+01 
-4.035043248797e+01 3.802614500523e-02 0.0 
3.802614500523e-02 -5.877978991787e+01 0.0 
0.0 0.0 -2.933906672175e+01 
-4.020575509063e+01 5.027390943057e-02 0.0 
5.027390943057e-02 -5.870432461195e+01 0.0 
0.0 0.0 -2.927302391078e+01 
-4.013131916940e+01 1.270358374656e-01 0.0 
1.270358374656e-01 -5.885745471214e+01 0.0 
0.0 0.0 -2.929663216446e+01 
-4.000622176244e+01 -4.637904854797e-01 0.0 
-4.637904854797e-01 -5.895966458733e+01 0.0 
0.0 0.0 -2.928976590493e+01 
-5.098036362178e+01 3.778726134438e+01 0.0 
3.778726134438e+01 -4.020939669716e+01 0.0 
0.0 0.0 -2.794533607711e+01 
-4.561294391528e+01 3.186373600589e+01 0.0 
3.186373600589e+01 -3.144084869434e+01 0.0 
0.0 0.0 -1.986409855884e+01 
-4.308831583605e+01 2.934816504586e+01 0.0 
2.934816504586e+01 -2.885229487535e+01 0.0 
0.0 0.0 -1.773005956001e+01 
-4.159379099240e+01 2.837129499234e+01 0.0 
2.837129499234e+01 -2.786355298088e+01 0.0 
0.0 0.0 -1.759289112940e+01 
-4.029918681620e+01 2.783785920780e+01 0.0 
2.783785920780e+01 -2.708903408813e+01 0.0 
0.0 0.0 -1.709951843839e+01 
-4.384889619216e+01 2.605855375307e+01 0.0 
2.605855375307e+01 -2.658528943489e+01 0.0 
0.0 0.0 -1.698908973504e+01 
-4.002909289875e+01 1.202021190902e+01 0.0 
1.202021190902e+01 -1.765629825896e+01 0.0 
0.0 0.0 -1.182929434010e+01 
-4.332462498819e+01 8.651798889198e+00 0.0 
8.651798889198e+00 -3.528916262296e+01 0.0 
0.0 0.0 -1.961375901946e+01 
-5.093782674744e+01 6.913684791213e+00 0.0 
6.913684791213e+00 -5.459608873640e+01 0.0 
0.0 0.0 -2.911362998731e+01 
-5.769578606163e+01 6.043072961114e+00 0.0 
6.043072961114e+00 -7.404923473407e+01 0.0 
0.0 0.0 -3.823879162767e+01 
-4.571612767232e+01 3.241012805930e+01 0.0 
3.241012805930e+01 -4.172789117857e+01 0.0 
0.0 0.0 -2.259199055422e+01 
-1.536816543944e+02 1.836344926580e+01 0.0 
1.836344926580e+01 -3.690629835398e+02 0.0 
0.0 0.0 -1.564233913803e+02 
-1.593088392439e+01 -1.144660035969e+00 0.0 
-1.144660035969e+00 -1.721042026117e+01 0.0 
0.0 0.0 -9.061120983046e+00 
-6.546162020506e+01 -2.119684168113e+01 0.0 
-2.119684168113e+01 -8.560967873106e+01 0.0 
0.0 0.0 -4.614243617736e+01 
-1.590161128952e+02 1.011603195169e+01 0.0 
1.011603195169e+01 -3.806470402561e+02 0.0 
0.0 0.0 -1.614989459454e+02 
-4.247609340161e+01 2.910640181664e+01 0.0 
2.910640181664e+01 -3.733709654919e+01 0.0 
0.0 0.0 -2.074853231130e+01 
-9.917178456657e+01 -7.991125122388e-01 0.0 
-7.991125122388e-01 -2.152361729911e+02 0.0 
0.0 0.0 -8.946943870394e+01 
-1.472239605561e+02 2.428326805304e+01 0.0 
2.428326805304e+01 -3.524680917309e+02 0.0 
0.0 0.0 -1.495076156861e+02 
-4.696388758926e+01 2.554613439150e+01 0.0 
2.554613439150e+01 -3.705840428807e+01 0.0 
0.0 0.0 -2.082734981757e+01 
-1.406845095273e+02 2.832779966347e+01 0.0 
2.832779966347e+01 -3.325104046693e+02 0.0 
0.0 0.0 -1.415584742590e+02 
-5.434565151273e+01 1.242968337571e+01 0.0 
1.242968337571e+01 -5.645733815834e+01 0.0 
0.0 0.0 -2.941886071546e+01 
-1.622289750643e+02 5.158822371729e+00 0.0 
5.158822371729e+00 -3.849719906798e+02 0.0 
0.0 0.0 -1.637602897232e+02 
-1.129229842976e+01 -3.596164042743e-01 0.0 
-3.596164042743e-01 -1.622981045598e+01 0.0 
0.0 0.0 -6.495278313388e+00 
-1.332472097805e+02 2.810539248655e+01 0.0 
2.810539248655e+01 -3.086975932561e+02 0.0 
0.0 0.0 -1.321834409110e+02 
-6.574498296697e+01 8.240427297818e+00 0.0 
8.240427297818e+00 -9.283257645446e+01 0.0 
0.0 0.0 -4.658470836639e+01 
-6.214000469745e+01 -1.040635796278e+00 0.0 
-1.040635796278e+00 -1.322158208336e+02 0.0 
0.0 0.0 -5.378134807149e+01 
-1.164293288329e+02 -3.825267437497e-01 0.0 
-3.825267437497e-01 -2.706863481226e+02 0.0 
0.0 0.0 -1.133156961376e+02 
-1.280669292206e+02 2.491369620627e+01 0.0 
2.491369620627e+01 -2.918673650085e+02 0.0 
0.0 0.0 -1.255802882687e+02 
-1.220426227211e+02 1.830774455260e+01 0.0 
1.830774455260e+01 -2.769880445869e+02 0.0 
0.0 0.0 -1.193092001924e+02 
-1.151210634196e+02 5.541716609591e+00 0.0 
5.541716609591e+00 -2.638268226378e+02 0.0 
0.0 0.0 -1.132843658172e+02 
-1.162045564800e+02 9.092141623224e+00 0.0 
9.092141623224e+00 -2.642034387125e+02 0.0 
0.0 0.0 -1.137223985577e+02 
-1.189557580750e+02 1.363078290841e+01 0.0 
1.363078290841e+01 -2.705508650022e+02 0.0 
0.0 0.0 -1.164519869232e+02 
-6.454952705654e+01 5.206530744893e+00 0.0 
5.206530744893e+00 -9.886474174705e+01 0.0 
0.0 0.0 -4.861399742045e+01 
-5.951791668914e+01 1.978125403295e+00 0.0 
1.978125403295e+00 -9.651170804406e+01 0.0 
0.0 0.0 -4.640888741996e+01 
-5.786733089712e+01 1.132829465492e+00 0.0 
1.132829465492e+00 -9.741431030231e+01 0.0 
0.0 0.0 -4.618449235983e+01 
-8.308454635452e+01 5.626388860831e-01 0.0 
5.626388860831e-01 -1.680722951334e+02 0.0 
0.0 0.0 -7.494705244637e+01 
-1.624324774284e+02 2.762181621484e+00 0.0 
2.762181621484e+00 -3.843870926255e+02 0.0 
0.0 0.0 -1.636458710162e+02 
-7.599530128997e+01 1.232694902878e+01 0.0 
1.232694902878e+01 -1.057757317302e+02 0.0 
0.0 0.0 -5.535083854320e+01 
-9.980532111859e+00 -1.800305237379e-01 0.0 
-1.800305237379e-01 -1.726761748750e+01 0.0 
0.0 0.0 -6.082537955194e+00 
-1.369189387871e+02 2.793059452083e-01 0.0 
2.793059452083e-01 -3.325233059104e+02 0.0 
0.0 0.0 -1.404326734092e+02 
-5.537784158319e+01 3.500391616835e-01 0.0 
3.500391616835e-01 -9.497055667304e+01 0.0 
0.0 0.0 -4.470451947687e+01 
-2.053931868042e+01 -6.218521308503e-01 0.0 
-6.218521308503e-01 -6.899745587013e+01 0.0 
0.0 0.0 -2.569828071157e+01 
-1.237463081543e+02 2.143705245479e+01 0.0 
2.143705245479e+01 -2.799091390656e+02 0.0 
0.0 0.0 -1.206966341660e+02 
-1.447152690417e+02 2.679715302867e+01 0.0 
2.679715302867e+01 -3.442644177924e+02 0.0 
0.0 0.0 -1.462939060502e+02 
-1.369133696574e+02 2.883706096851e+01 0.0 
2.883706096851e+01 -3.205522413374e+02 0.0 
0.0 0.0 -1.368396832984e+02 
-1.496047893848e+02 2.161202771426e+01 0.0 
2.161202771426e+01 -3.597825811908e+02 0.0 
0.0 0.0 -1.524162111727e+02 
-1.565699658954e+02 1.505215708479e+01 0.0 
1.505215708479e+01 -3.755064231403e+02 0.0 
0.0 0.0 -1.592229167107e+02 
-3.471478045143e+01 -1.323423821771e+01 0.0 
-1.323423821771e+01 -2.555350195454e+01 0.0 
0.0 0.0 -1.594363106956e+01 
-6.146579087949e+01 3.163424540828e+00 0.0 
3.163424540828e+00 -9.660357508876e+01 0.0 
0.0 0.0 -4.702080979047e+01 
-1.587977407211e+02 7.258465690195e+00 0.0 
7.258465690195e+00 -3.799443312721e+02 0.0 
0.0 0.0 -1.612226215980e+02 
-9.687806678275e+01 7.417696802195e-01 0.0 
7.417696802195e-01 -2.076982072625e+02 0.0 
0.0 0.0 -9.097288221359e+01 
-1.254078074914e+01 -2.894935223436e-01 0.0 
-2.894935223436e-01 -1.680238473228e+01 0.0 
0.0 0.0 -7.916209130779e+00 
-8.261919402589e+01 -1.022862801126e+00 0.0 
-1.022862801126e+00 -1.728054771754e+02 0.0 
0.0 0.0 -7.131866974218e+01 
-1.155132657886e+02 3.436940509649e+00 0.0 
3.436940509649e+00 -2.661173443131e+02 0.0 
0.0 0.0 -1.140891830305e+02 
-4.279115190017e+01 2.859437079614e+01 0.0 
2.859437079614e+01 -3.936358224675e+01 0.0 
0.0 0.0 -2.118220599516e+01 
-4.378789722511e+01 3.025085109913e+01 0.0 
3.025085109913e+01 -3.874165477877e+01 0.0 
0.0 0.0 -2.097834442120e+01 
-4.898991755969e+01 1.772626374530e+01 0.0 
1.772626374530e+01 -4.232593688344e+01 0.0 
0.0 0.0 -2.180680025110e+01 
-6.023142824075e+01 9.748106428853e+00 0.0 
9.748106428853e+00 -7.390176160501e+01 0.0 
0.0 0.0 -3.793117458675e+01 
-4.958242738105e+01 3.748850527202e+01 0.0 
3.748850527202e+01 -4.815357253666e+01 0.0 
0.0 0.0 -2.909681683881e+01 
-6.899081771375e+01 2.831015290391e-01 0.0 
2.831015290391e-01 -1.302128809502e+02 0.0 
0.0 0.0 -5.936110959920e+01 
-1.642592357113e+02 1.480014134755e+00 0.0 
1.480014134755e+00 -3.875486491131e+02 0.0 
0.0 0.0 -1.651423654473e+02 
-9.584711942688e+00 -1.148331148700e-01 0.0 
-1.148331148700e-01 -1.637714744514e+01 0.0 
0.0 0.0 -5.741558229421e+00 
-1.096782133824e+02 8.553079209215e-01 0.0 
8.553079209215e-01 -2.472542447899e+02 0.0 
0.0 0.0 -1.066797374517e+02 
-6.849818879001e+01 7.965966421490e+00 0.0 
7.965966421490e+00 -1.016660220810e+02 0.0 
0.0 0.0 -5.046451115138e+01 
-7.298015921607e+01 1.038040786042e+01 0.0 
1.038040786042e+01 -1.120957024607e+02 0.0 
0.0 0.0 -5.493545556454e+01 
-7.512427163821e+01 9.319548124296e+00 0.0 
9.319548124296e+00 -1.202918668404e+02 0.0 
0.0 0.0 -5.822468897960e+01 
-8.022198163377e+01 1.230211940906e+01 0.0 
1.230211940906e+01 -1.330855895877e+02 0.0 
0.0 0.0 -6.359227136644e+01 
-8.312333917153e+01 1.133397734935e+01 0.0 
1.133397734935e+01 -1.420724621544e+02 0.0 
0.0 0.0 -6.715874039777e+01 
-8.739012127054e+01 1.375274818845e+01 0.0 
1.375274818845e+01 -1.539179819290e+02 0.0 
0.0 0.0 -7.199243095986e+01 
-8.458992944424e+01 1.492290102272e+01 0.0 
1.492290102272e+01 -1.453979083695e+02 0.0 
0.0 0.0 -6.859635134412e+01 
-9.149572124899e+01 1.615886105601e+01 0.0 
1.615886105601e+01 -1.664483990399e+02 0.0 
0.0 0.0 -7.698323608667e+01 
-8.845016991476e+01 1.748145793584e+01 0.0 
1.748145793584e+01 -1.583688548027e+02 0.0 
0.0 0.0 -7.364570741525e+01 
-9.048985589392e+01 1.286916350050e+01 0.0 
1.286916350050e+01 -1.630813496159e+02 0.0 
0.0 0.0 -7.567136165296e+01 
-9.521362453823e+01 1.843892015397e+01 0.0 
1.843892015397e+01 -1.795461985898e+02 0.0 
0.0 0.0 -8.202794693842e+01 
-9.196715810274e+01 1.982586349303e+01 0.0 
1.982586349303e+01 -1.720247449518e+02 0.0 
0.0 0.0 -7.879757091635e+01 
-9.865754998239e+01 2.048599817461e+01 0.0 
2.048599817461e+01 -1.931701510287e+02 0.0 
0.0 0.0 -8.714831030332e+01 
-9.520265433387e+01 2.184960355833e+01 0.0 
2.184960355833e+01 -1.862421519094e+02 0.0 
0.0 0.0 -8.403344187297e+01 
-8.880617470185e+01 2.140375768300e+01 0.0 
2.140375768300e+01 -1.651840431061e+02 0.0 
0.0 0.0 -7.562328454968e+01 
-9.167534893321e+01 2.334243226153e+01 0.0 
2.334243226153e+01 -1.800221429195e+02 0.0 
0.0 0.0 -8.100829234570e+01 
-8.601967449642e+01 2.296495379268e+01 0.0 
2.296495379268e+01 -1.590752093536e+02 0.0 
0.0 0.0 -7.246982938914e+01 
-8.849766281032e+01 2.478695843197e+01 0.0 
2.478695843197e+01 -1.745604467533e+02 0.0 
0.0 0.0 -7.800654238740e+01 
-9.441659207603e+01 2.473810168516e+01 0.0 
2.473810168516e+01 -1.951275841165e+02 0.0 
0.0 0.0 -8.642317662119e+01 
-9.075422709912e+01 2.596032273417e+01 0.0 
2.596032273417e+01 -1.901660658907e+02 0.0 
0.0 0.0 -8.353854812898e+01 
-8.544752229817e+01 2.607225415473e+01 0.0 
2.607225415473e+01 -1.698192189548e+02 0.0 
0.0 0.0 -7.497962267443e+01 
-8.735525546251e+01 2.692822632705e+01 0.0 
2.692822632705e+01 -1.858422074352e+02 0.0 
0.0 0.0 -8.065359740195e+01 
-8.237454493805e+01 2.727536604010e+01 0.0 
2.727536604010e+01 -1.658290694261e+02 0.0 
0.0 0.0 -7.198655610258e+01 
-8.407166371285e+01 2.767949628997e+01 0.0 
2.767949628997e+01 -1.821168575982e+02 0.0 
0.0 0.0 -7.776066790642e+01 
-7.898095879464e+01 2.830354676783e+01 0.0 
2.830354676783e+01 -1.624495157747e+02 0.0 
0.0 0.0 -6.923733530571e+01 
-8.065845872645e+01 2.827553463145e+01 0.0 
2.827553463145e+01 -1.788540007620e+02 0.0 
0.0 0.0 -7.534959398934e+01 
-8.568085280414e+01 2.750623270438e+01 0.0 
2.750623270438e+01 -1.979632811612e+02 0.0 
0.0 0.0 -8.347644834115e+01 
-8.209824119229e+01 2.765655326516e+01 0.0 
2.765655326516e+01 -1.946078902463e+02 0.0 
0.0 0.0 -8.132078824448e+01 
-7.684316826068e+01 2.871460737554e+01 0.0 
2.871460737554e+01 -1.758852169776e+02 0.0 
0.0 0.0 -7.360292395200e+01 
-7.829640327326e+01 2.767612824269e+01 0.0 
2.767612824269e+01 -1.914106527791e+02 0.0 
0.0 0.0 -7.967139559195e+01 
-7.265815657425e+01 2.895137554706e+01 0.0 
2.895137554706e+01 -1.731067301599e+02 0.0 
0.0 0.0 -7.233963292746e+01 
-7.388858624707e+01 2.754313470341e+01 0.0 
2.754313470341e+01 -1.881942697440e+02 0.0 
0.0 0.0 -7.832202491652e+01 
-7.958171540806e+01 2.617178506488e+01 0.0 
2.617178506488e+01 -2.059622802760e+02 0.0 
0.0 0.0 -8.549287475798e+01 
-7.528429562642e+01 2.567115674278e+01 0.0 
2.567115674278e+01 -2.019818903492e+02 0.0 
0.0 0.0 -8.400361676680e+01 
-6.942453858253e+01 2.696143763460e+01 0.0 
2.696143763460e+01 -1.844134896615e+02 0.0 
0.0 0.0 -7.660200726159e+01 
-7.109491805521e+01 2.470846753543e+01 0.0 
2.470846753543e+01 -1.978254623291e+02 0.0 
0.0 0.0 -8.217936561648e+01 
-6.530458093016e+01 2.593621602869e+01 0.0 
2.593621602869e+01 -1.809418621438e+02 0.0 
0.0 0.0 -7.451642577744e+01 
-6.704224292321e+01 2.314911561876e+01 0.0 
2.314911561876e+01 -1.942501153886e+02 0.0 
0.0 0.0 -7.976907183129e+01 
-6.152242996150e+01 2.405198972452e+01 0.0 
2.405198972452e+01 -1.780972272868e+02 0.0 
0.0 0.0 -7.156437674651e+01 
-6.344266210168e+01 2.069225763999e+01 0.0 
2.069225763999e+01 -1.910403885690e+02 0.0 
0.0 0.0 -7.653727641894e+01 
-6.900598316313e+01 2.004904830196e+01 0.0 
2.004904830196e+01 -2.066889969528e+02 0.0 
0.0 0.0 -8.498857069079e+01 
-6.567430482221e+01 1.718800149766e+01 0.0 
1.718800149766e+01 -2.029667039613e+02 0.0 
0.0 0.0 -8.166221032123e+01 
-6.029379117620e+01 1.747823613366e+01 0.0 
1.747823613366e+01 -1.877372927868e+02 0.0 
0.0 0.0 -7.332426763079e+01 
-6.283491953632e+01 1.357510829028e+01 0.0 
1.357510829028e+01 -1.987989238487e+02 0.0 
0.0 0.0 -7.822829927476e+01 
-6.825076641479e+01 1.371921074740e+01 0.0 
1.371921074740e+01 -2.138767656463e+02 0.0 
0.0 0.0 -8.690592468841e+01 
-6.574668781100e+01 9.856595336105e+00 0.0 
9.856595336105e+00 -2.087072198110e+02 0.0 
0.0 0.0 -8.333379289748e+01 
-7.126491779690e+01 1.042685939857e+01 0.0 
1.042685939857e+01 -2.237734785361e+02 0.0 
0.0 0.0 -9.211216303044e+01 
-6.908610244713e+01 6.471177071610e+00 0.0 
6.471177071610e+00 -2.177524161986e+02 0.0 
0.0 0.0 -8.862541949748e+01 
-6.375039205261e+01 5.484029471737e+00 0.0 
5.484029471737e+00 -2.029622240135e+02 0.0 
0.0 0.0 -8.005004844693e+01 
-6.740341078920e+01 2.192872640808e+00 0.0 
2.192872640808e+00 -2.108744634019e+02 0.0 
0.0 0.0 -8.518977989783e+01 
-7.299202883188e+01 3.738460038341e+00 0.0 
3.738460038341e+00 -2.259971766346e+02 0.0 
0.0 0.0 -9.353579567491e+01 
-7.163969118877e+01 -3.248858310760e-01 0.0 
-3.248858310760e-01 -2.184188984181e+02 0.0 
0.0 0.0 -8.998439065927e+01 
-6.608896212871e+01 -2.228831198606e+00 0.0 
-2.228831198606e+00 -2.030855137801e+02 0.0 
0.0 0.0 -8.181445421665e+01 
-7.053639386231e+01 -4.317640414095e+00 0.0 
-4.317640414095e+00 -2.100402810806e+02 0.0 
0.0 0.0 -8.622172211012e+01 
-7.662895091315e+01 -1.826028363395e+00 0.0 
-1.826028363395e+00 -2.268182813221e+02 0.0 
0.0 0.0 -9.411787814314e+01 
-7.565153502822e+01 -5.348487671709e+00 0.0 
-5.348487671709e+00 -2.176851781260e+02 0.0 
0.0 0.0 -9.000979837869e+01 
-6.942336434192e+01 -8.126767663048e+00 0.0 
-8.126767663048e+00 -2.007877388185e+02 0.0 
0.0 0.0 -8.221754896050e+01 
-7.472769749825e+01 -8.363558874512e+00 0.0 
-8.363558874512e+00 -2.073737856391e+02 0.0 
0.0 0.0 -8.551654038841e+01 
-8.176023389529e+01 -5.008890391688e+00 0.0 
-5.008890391688e+00 -2.252274181154e+02 0.0 
0.0 0.0 -9.363193716490e+01 
-8.077143078929e+01 -7.431255784381e+00 0.0 
-7.431255784381e+00 -2.144898054533e+02 0.0 
0.0 0.0 -8.892733672118e+01 
-7.381508421520e+01 -1.064105715364e+01 0.0 
-1.064105715364e+01 -1.958999555156e+02 0.0 
0.0 0.0 -8.073410589298e+01 
-7.951403876410e+01 -9.262234031335e+00 0.0 
-9.262234031335e+00 -2.030694084353e+02 0.0 
0.0 0.0 -8.396215594010e+01 
-8.656247025439e+01 -6.275390367789e+00 0.0 
-6.275390367789e+00 -2.221934676130e+02 0.0 
0.0 0.0 -9.214315285495e+01 
-8.501532264629e+01 -7.784214248853e+00 0.0 
-7.784214248853e+00 -2.106585637721e+02 0.0 
0.0 0.0 -8.705377004571e+01 
-9.186252351143e+01 -5.183796214170e+00 0.0 
-5.183796214170e+00 -2.299682549501e+02 0.0 
0.0 0.0 -9.497051065046e+01 
-7.781175724316e+01 -1.047922032207e+01 0.0 
-1.047922032207e+01 -1.909861843696e+02 0.0 
0.0 0.0 -7.875374028178e+01 
-8.302737705029e+01 -8.751892416303e+00 0.0 
-8.751892416303e+00 -1.986156635064e+02 0.0 
0.0 0.0 -8.176759267576e+01 
-7.551378654877e+01 -1.101701892210e+01 0.0 
-1.101701892210e+01 -1.784354999299e+02 0.0 
0.0 0.0 -7.332314861768e+01 
-8.051309416926e+01 -9.175512762381e+00 0.0 
-9.175512762381e+00 -1.862596086149e+02 0.0 
0.0 0.0 -7.635122011882e+01 
-8.106406365796e+01 2.447681088345e+01 0.0 
2.447681088345e+01 -2.195115992156e+02 0.0 
0.0 0.0 -9.103981556241e+01 
-7.252033849599e+01 -1.095852722627e+01 0.0 
-1.095852722627e+01 -1.657273662210e+02 0.0 
0.0 0.0 -6.781034461891e+01 
-6.780274437045e+01 -1.301670883662e+01 0.0 
-1.301670883662e+01 -1.581278159278e+02 0.0 
0.0 0.0 -6.488204171307e+01 
-7.735637875404e+01 -9.082822380128e+00 0.0 
-9.082822380128e+00 -1.738103956903e+02 0.0 
0.0 0.0 -7.085664887391e+01 
-8.528793428554e+01 -7.546333589504e+00 0.0 
-7.546333589504e+00 -1.943393917094e+02 0.0 
0.0 0.0 -7.927366113947e+01 
-6.874646250861e+01 -1.040024623497e+01 0.0 
-1.040024623497e+01 -1.530015266447e+02 0.0 
0.0 0.0 -6.222483075481e+01 
-7.347525897820e+01 -8.593723179413e+00 0.0 
-8.593723179413e+00 -1.613451485475e+02 0.0 
0.0 0.0 -6.530569941760e+01 
-6.415518121467e+01 -9.451440911974e+00 0.0 
-9.451440911974e+00 -1.403693551043e+02 0.0 
0.0 0.0 -5.656048008443e+01 
-5.970195700147e+01 2.701817278673e+01 0.0 
2.701817278673e+01 -1.637913094871e+02 0.0 
0.0 0.0 -6.642601687574e+01 
-9.714553498899e+01 2.560984737887e+01 0.0 
2.560984737887e+01 -2.102973771486e+02 0.0 
0.0 0.0 -9.183142460408e+01 
-6.882341260308e+01 -7.793142930568e+00 0.0 
-7.793142930568e+00 -1.489099329636e+02 0.0 
0.0 0.0 -5.970612305105e+01 
-5.871868555423e+01 -8.218887270295e+00 0.0 
-8.218887270295e+00 -1.278606511413e+02 0.0 
0.0 0.0 -5.086013018045e+01 
-5.438338901562e+01 -9.674937501492e+00 0.0 
-9.674937501492e+00 -1.192168771498e+02 0.0 
0.0 0.0 -4.767279952554e+01 
-4.799758652836e+01 -7.993346176732e+00 0.0 
-7.993346176732e+00 -1.067787334746e+02 0.0 
0.0 0.0 -4.189482379432e+01 
-8.631408953782e+01 1.076634944369e+01 0.0 
1.076634944369e+01 -1.517007212519e+02 0.0 
0.0 0.0 -7.100444323693e+01 
-9.315944919445e+01 1.208064191452e+01 0.0 
1.208064191452e+01 -1.724231141508e+02 0.0 
0.0 0.0 -7.927476900359e+01 
-8.867121649223e+01 1.002067602080e+01 0.0 
1.002067602080e+01 -1.606357326840e+02 0.0 
0.0 0.0 -7.439208475287e+01 
-9.574429754591e+01 1.148995618327e+01 0.0 
1.148995618327e+01 -1.818648756158e+02 0.0 
0.0 0.0 -8.288275194851e+01 
-9.151639396554e+01 9.570615752687e+00 0.0 
9.570615752687e+00 -1.708080703339e+02 0.0 
0.0 0.0 -7.829733928984e+01 
-5.237917893788e+01 -6.769622831623e+00 0.0 
-6.769622831623e+00 -1.155092493674e+02 0.0 
0.0 0.0 -4.515368671654e+01 
-1.018809519731e+02 1.933090888362e+01 0.0 
1.933090888362e+01 -2.008373296213e+02 0.0 
0.0 0.0 -9.041548447834e+01 
-9.985005858753e+01 1.347703785585e+01 0.0 
1.347703785585e+01 -1.933599510396e+02 0.0 
0.0 0.0 -8.756300288815e+01 
-8.035139251913e+01 2.615046772333e+01 0.0 
2.615046772333e+01 -1.492209737848e+02 0.0 
0.0 0.0 -6.615058885596e+01 
-7.106107319989e+01 2.981584484578e+01 0.0 
2.981584484578e+01 -1.569253974702e+02 0.0 
0.0 0.0 -6.597482623236e+01 
-7.416645115758e+01 1.378855847225e+01 0.0 
1.378855847225e+01 -2.293948376733e+02 0.0 
0.0 0.0 -9.550716833263e+01 
-7.809825968742e+01 -7.028554918196e+00 0.0 
-7.028554918196e+00 -1.696987350768e+02 0.0 
0.0 0.0 -6.836048034877e+01 
-7.345194745858e+01 -6.340681848524e+00 0.0 
-6.340681848524e+00 -1.574590572770e+02 0.0 
0.0 0.0 -6.285544654292e+01 
-8.249772711923e+01 -5.666810528247e+00 0.0 
-5.666810528247e+00 -1.781171795933e+02 0.0 
0.0 0.0 -7.176032361817e+01 
-9.317251745886e+01 -3.421597337951e+00 0.0 
-3.421597337951e+00 -2.410941134700e+02 0.0 
0.0 0.0 -9.986776174287e+01 
-9.791604096859e+01 -2.756384686392e+00 0.0 
-2.756384686392e+00 -2.489644555050e+02 0.0 
0.0 0.0 -1.024307681244e+02 
-9.880565273371e+01 -7.961411104938e-01 0.0 
-7.961411104938e-01 -2.597128180441e+02 0.0 
0.0 0.0 -1.070318321533e+02 
-1.032517598395e+02 -4.603417033511e-01 0.0 
-4.603417033511e-01 -2.677143791717e+02 0.0 
0.0 0.0 -1.099539687918e+02 
-1.044468974212e+02 1.547416878953e+00 0.0 
1.547416878953e+00 -2.781485510620e+02 0.0 
0.0 0.0 -1.142790993091e+02 
-1.091658171023e+02 1.649275228612e+00 0.0 
1.649275228612e+00 -2.862973569647e+02 0.0 
0.0 0.0 -1.178709327268e+02 
-1.075462776040e+02 -1.017779367162e-01 0.0 
-1.017779367162e-01 -2.756984142778e+02 0.0 
0.0 0.0 -1.134301284276e+02 
-1.138490747762e+02 1.767115352677e+00 0.0 
1.767115352677e+00 -2.944244318808e+02 0.0 
0.0 0.0 -1.218317205437e+02 
-1.117677200872e+02 2.505034956950e-01 0.0 
2.505034956950e-01 -2.837021978387e+02 0.0 
0.0 0.0 -1.173257166461e+02 
-1.121563263501e+02 3.346017104190e+00 0.0 
3.346017104190e+00 -2.965695685548e+02 0.0 
0.0 0.0 -1.221472213395e+02 
-1.069296592941e+02 3.479557516152e+00 0.0 
3.479557516152e+00 -2.881619521364e+02 0.0 
0.0 0.0 -1.182881722374e+02 
-1.184966793099e+02 1.862236176803e+00 0.0 
1.862236176803e+00 -3.025312370533e+02 0.0 
0.0 0.0 -1.257465646983e+02 
-1.158726691711e+02 5.703242592124e-01 0.0 
5.703242592124e-01 -2.917148461892e+02 0.0 
0.0 0.0 -1.211715893404e+02 
-1.231248896291e+02 1.904152450214e+00 0.0 
1.904152450214e+00 -3.106197290904e+02 0.0 
0.0 0.0 -1.296200080205e+02 
-1.198881737088e+02 8.274035212166e-01 0.0 
8.274035212166e-01 -2.997648890735e+02 0.0 
0.0 0.0 -1.250172678654e+02 
-1.139960970888e+02 -5.478425960414e-01 0.0 
-5.478425960414e-01 -2.806105722045e+02 0.0 
0.0 0.0 -1.165322688921e+02 
-1.176633617590e+02 -1.289475728669e-01 0.0 
-1.289475728669e-01 -2.886590353864e+02 0.0 
0.0 0.0 -1.203446781356e+02 
-1.121058122777e+02 -1.418088545940e+00 0.0 
-1.418088545940e+00 -2.693729662835e+02 0.0 
0.0 0.0 -1.118350944544e+02 
-7.758503865351e+01 1.101505180754e+01 0.0 
1.101505180754e+01 -2.395008482551e+02 0.0 
0.0 0.0 -1.004592529594e+02 
-8.100456221840e+01 1.396083371523e+01 0.0 
1.396083371523e+01 -2.458196830860e+02 0.0 
0.0 0.0 -1.030781365340e+02 
-8.510753124871e+01 1.196453255524e+01 0.0 
1.196453255524e+01 -2.562714496237e+02 0.0 
0.0 0.0 -1.072463908674e+02 
-8.921541391016e+01 1.463512364871e+01 0.0 
1.463512364871e+01 -2.625670706326e+02 0.0 
0.0 0.0 -1.089333799962e+02 
-9.476934371264e+01 1.323064149473e+01 0.0 
1.323064149473e+01 -2.735473033035e+02 0.0 
0.0 0.0 -1.130135954424e+02 
-9.971680599176e+01 1.557595800710e+01 0.0 
1.557595800710e+01 -2.799795800642e+02 0.0 
0.0 0.0 -1.150048833076e+02 
-1.054900538685e+02 1.448710772519e+01 0.0 
1.448710772519e+01 -2.911365308775e+02 0.0 
0.0 0.0 -1.194263500356e+02 
-1.007900532640e+02 1.216785260487e+01 0.0 
1.216785260487e+01 -2.843114061367e+02 0.0 
0.0 0.0 -1.169999120658e+02 
-1.018809788660e+02 2.226244685098e+01 0.0 
2.226244685098e+01 -2.071811543999e+02 0.0 
0.0 0.0 -9.231863997977e+01 
-5.751754678945e+01 1.353775621027e+01 0.0 
1.353775621027e+01 -1.841878421003e+02 0.0 
0.0 0.0 -7.054880834072e+01 
-5.502357965793e+01 1.786297459443e+01 0.0 
1.786297459443e+01 -1.728805237708e+02 0.0 
0.0 0.0 -6.589384777199e+01 
-5.233615392881e+01 1.350485780114e+01 0.0 
1.350485780114e+01 -1.701586282329e+02 0.0 
0.0 0.0 -6.356843030997e+01 
-5.013998717931e+01 1.831900213924e+01 0.0 
1.831900213924e+01 -1.584813150227e+02 0.0 
0.0 0.0 -5.894365115794e+01 
-4.747378719479e+01 1.376937656059e+01 0.0 
1.376937656059e+01 -1.566068235215e+02 0.0 
0.0 0.0 -5.723406026851e+01 
-4.583712555797e+01 1.916832222338e+01 0.0 
1.916832222338e+01 -1.443705303936e+02 0.0 
0.0 0.0 -5.265669429591e+01 
-4.315925544033e+01 1.446726478179e+01 0.0 
1.446726478179e+01 -1.436036237722e+02 0.0 
0.0 0.0 -5.195960914067e+01 
-4.523611934873e+01 8.197320070433e+00 0.0 
8.197320070433e+00 -1.540148740350e+02 0.0 
0.0 0.0 -5.604056920373e+01 
-4.093166763153e+01 8.315763615770e+00 0.0 
8.315763615770e+00 -1.422095239936e+02 0.0 
0.0 0.0 -5.199758961295e+01 
-4.365188714766e+01 1.616997470956e+00 0.0 
1.616997470956e+00 -1.498874644342e+02 0.0 
0.0 0.0 -5.488292558883e+01 
-3.913508651210e+01 9.326835460654e-01 0.0 
9.326835460654e-01 -1.389339826792e+02 0.0 
0.0 0.0 -5.170741534497e+01 
-4.266846758711e+01 -5.490764444687e+00 0.0 
-5.490764444687e+00 -1.429574518391e+02 0.0 
0.0 0.0 -5.263533747291e+01 
-8.744671239400e+01 2.686393006302e+01 0.0 
2.686393006302e+01 -2.132405002998e+02 0.0 
0.0 0.0 -8.914306772973e+01 
-9.409049630320e+01 1.697261151167e+01 0.0 
1.697261151167e+01 -2.685868673988e+02 0.0 
0.0 0.0 -1.104924499931e+02 
-1.049601214545e+02 1.760139505985e+01 0.0 
1.760139505985e+01 -2.862584514522e+02 0.0 
0.0 0.0 -1.174892811334e+02 
-9.957926800795e+01 1.882452233727e+01 0.0 
1.882452233727e+01 -2.744007245548e+02 0.0 
0.0 0.0 -1.125894031629e+02 
-4.419188109316e+01 -8.968851454070e+00 0.0 
-8.968851454070e+00 -9.810497646012e+01 0.0 
0.0 0.0 -3.871520936300e+01 
-1.238775982709e+02 9.851195151430e-01 0.0 
9.851195151430e-01 -3.078694318284e+02 0.0 
0.0 0.0 -1.288783833303e+02 
-1.159394102874e+02 5.118835091155e+00 0.0 
5.118835091155e+00 -3.064868084684e+02 0.0 
0.0 0.0 -1.263278656268e+02 
-1.103383773313e+02 5.494298564253e+00 0.0 
5.494298564253e+00 -2.976697360539e+02 0.0 
0.0 0.0 -1.220991989706e+02 
-1.112939010881e+02 1.350731356615e+01 0.0 
1.350731356615e+01 -3.020115713282e+02 0.0 
0.0 0.0 -1.238671073181e+02 
-4.074178538538e+01 -6.110484915857e+00 0.0 
-6.110484915857e+00 -9.467161063061e+01 0.0 
0.0 0.0 -3.635685935711e+01 
-4.220222067016e+01 2.054948615266e+01 0.0 
2.054948615266e+01 -1.305256625873e+02 0.0 
0.0 0.0 -4.725297323156e+01 
-4.504234204127e+01 2.408578208909e+01 0.0 
2.408578208909e+01 -1.301367052160e+02 0.0 
0.0 0.0 -4.790683268092e+01 
-9.829492326673e+01 1.098049518486e+01 0.0 
1.098049518486e+01 -1.915560339176e+02 0.0 
0.0 0.0 -8.655528715531e+01 
-9.416003925178e+01 9.182466027413e+00 0.0 
9.182466027413e+00 -1.807380656439e+02 0.0 
0.0 0.0 -8.206943146871e+01 
-1.201623427584e+02 6.992695435380e+00 0.0 
6.992695435380e+00 -3.159826764835e+02 0.0 
0.0 0.0 -1.304435057726e+02 
-4.501159798820e+01 -5.118286936307e+00 0.0 
-5.118286936307e+00 -1.034699175207e+02 0.0 
0.0 0.0 -3.995776591627e+01 
-1.223486614594e+02 3.156856564857e+00 0.0 
3.156856564857e+00 -3.130964412520e+02 0.0 
0.0 0.0 -1.302265427527e+02 
-3.696600425756e+01 9.141620900723e+00 0.0 
9.141620900723e+00 -1.316570791490e+02 0.0 
0.0 0.0 -4.925798180205e+01 
-1.211510027082e+02 1.772990527847e-01 0.0 
1.772990527847e-01 -2.967690625327e+02 0.0 
0.0 0.0 -1.241460320294e+02 
-1.279341020038e+02 1.039623477295e+00 0.0 
1.039623477295e+00 -3.159854006823e+02 0.0 
0.0 0.0 -1.326795637989e+02 
-1.062615134093e+02 -1.584476236088e+00 0.0 
-1.584476236088e+00 -2.647432638587e+02 0.0 
0.0 0.0 -1.088396182499e+02 
-1.102184199315e+02 1.935806260559e+01 0.0 
1.935806260559e+01 -2.924290834618e+02 0.0 
0.0 0.0 -1.204158554472e+02 
-1.049458092145e+02 2.039128770479e+01 0.0 
2.039128770479e+01 -2.801703322799e+02 0.0 
0.0 0.0 -1.152476684050e+02 
-4.717925623198e+01 -3.846814844375e+00 0.0 
-3.846814844375e+00 -1.553036166592e+02 0.0 
0.0 0.0 -5.728071301557e+01 
-4.675448989460e+01 -1.007929137262e+01 0.0 
-1.007929137262e+01 -1.456346670800e+02 0.0 
0.0 0.0 -5.367496571156e+01 
-4.250717417716e+01 -1.235172581906e+01 0.0 
-1.235172581906e+01 -1.322440725332e+02 0.0 
0.0 0.0 -4.828454516432e+01 
-4.733419022210e+01 -1.533622138648e+01 0.0 
-1.533622138648e+01 -1.334528060003e+02 0.0 
0.0 0.0 -4.938377182428e+01 
-5.106413882082e+01 -1.273481612098e+01 0.0 
-1.273481612098e+01 -1.485680819945e+02 0.0 
0.0 0.0 -5.583385986781e+01 
-5.116051061041e+01 -1.643281359880e+01 0.0 
-1.643281359880e+01 -1.354229191657e+02 0.0 
0.0 0.0 -5.132255220383e+01 
-4.802022817858e+01 -1.892174029384e+01 0.0 
-1.892174029384e+01 -1.185642719738e+02 0.0 
0.0 0.0 -4.432368910152e+01 
-5.108474952038e+01 -1.850069624295e+01 0.0 
-1.850069624295e+01 -1.198317332098e+02 0.0 
0.0 0.0 -4.570534900503e+01 
-5.450792445246e+01 -1.673598096460e+01 0.0 
-1.673598096460e+01 -1.380319611861e+02 0.0 
0.0 0.0 -5.375783660986e+01 
-5.352421426846e+01 -1.758838348205e+01 0.0 
-1.758838348205e+01 -1.226449079773e+02 0.0 
0.0 0.0 -4.836512586251e+01 
-5.036240697040e+01 -1.817139432851e+01 0.0 
-1.817139432851e+01 -1.026396383147e+02 0.0 
0.0 0.0 -4.041332277553e+01 
-5.125572550640e+01 -1.650915355828e+01 0.0 
-1.650915355828e+01 -1.062449054733e+02 0.0 
0.0 0.0 -4.281577663260e+01 
-1.323748526063e+02 1.792879492943e+00 0.0 
1.792879492943e+00 -3.268494180464e+02 0.0 
0.0 0.0 -1.373672811958e+02 
-3.468956944853e+01 5.903119354171e-01 0.0 
5.903119354171e-01 -1.295558713175e+02 0.0 
0.0 0.0 -4.966104719140e+01 
-8.316007420891e+01 2.057234033910e+01 0.0 
2.057234033910e+01 -1.439588049084e+02 0.0 
0.0 0.0 -6.695245591557e+01 
-1.257866914396e+02 6.474722787361e+00 0.0 
6.474722787361e+00 -3.248129873029e+02 0.0 
0.0 0.0 -1.347799036228e+02 
-1.161118557190e+02 1.559413819507e+01 0.0 
1.559413819507e+01 -3.087420763516e+02 0.0 
0.0 0.0 -1.270892894351e+02 
-1.008051128268e+02 1.051652951729e+01 0.0 
1.051652951729e+01 -2.014610972779e+02 0.0 
0.0 0.0 -9.027986303143e+01 
-9.678811477106e+01 8.819334463553e+00 0.0 
8.819334463553e+00 -1.909058597544e+02 0.0 
0.0 0.0 -8.590819235765e+01 
-8.984564525893e+01 7.476467095977e+00 0.0 
7.476467095977e+00 -1.702505872855e+02 0.0 
0.0 0.0 -7.762886976334e+01 
-9.265938058984e+01 7.232493862052e+00 0.0 
7.232493862052e+00 -1.807242671707e+02 0.0 
0.0 0.0 -8.161509432816e+01 
-9.939460310275e+01 8.473119682197e+00 0.0 
8.473119682197e+00 -2.013254544958e+02 0.0 
0.0 0.0 -8.981601727955e+01 
-9.545035962253e+01 6.972276235705e+00 0.0 
6.972276235705e+00 -1.912788030361e+02 0.0 
0.0 0.0 -8.561874879760e+01 
-8.846208755096e+01 5.827357827145e+00 0.0 
5.827357827145e+00 -1.708032352572e+02 0.0 
0.0 0.0 -7.737959684244e+01 
-9.146169624735e+01 5.633042672068e+00 0.0 
5.633042672068e+00 -1.814339478198e+02 0.0 
0.0 0.0 -8.146869322013e+01 
-8.427074097993e+01 4.594080233677e+00 0.0 
4.594080233677e+00 -1.610687352733e+02 0.0 
0.0 0.0 -7.320184287596e+01 
-8.744930090945e+01 4.455352581007e+00 0.0 
4.455352581007e+00 -1.717995690887e+02 0.0 
0.0 0.0 -7.737466099945e+01 
-9.445964366004e+01 5.397298790525e+00 0.0 
5.397298790525e+00 -1.921465648047e+02 0.0 
0.0 0.0 -8.558186253943e+01 
-9.062847393044e+01 4.289400905843e+00 0.0 
4.289400905843e+00 -1.826351833263e+02 0.0 
0.0 0.0 -8.157909717702e+01 
-8.341982876734e+01 3.435596423946e+00 0.0 
3.435596423946e+00 -1.624005474065e+02 0.0 
0.0 0.0 -7.334611285216e+01 
-8.678172261513e+01 3.328745892697e+00 0.0 
3.328745892697e+00 -1.732556223771e+02 0.0 
0.0 0.0 -7.761120349767e+01 
-7.940299378850e+01 2.597113827108e+00 0.0 
2.597113827108e+00 -1.530951515842e+02 0.0 
0.0 0.0 -6.934944361181e+01 
-8.296099374155e+01 2.529265962476e+00 0.0 
2.529265962476e+00 -1.638955370453e+02 0.0 
0.0 0.0 -7.365695923607e+01 
-9.016057317006e+01 3.103505173794e+00 0.0 
3.103505173794e+00 -1.841844760715e+02 0.0 
0.0 0.0 -8.190351477246e+01 
-3.223533582729e+01 -4.164898727965e+00 0.0 
-4.164898727965e+00 -8.332914282204e+01 0.0 
0.0 0.0 -3.158425050008e+01 
-1.066863386484e+02 1.123743368878e+01 0.0 
1.123743368878e+01 -2.947980570896e+02 0.0 
0.0 0.0 -1.208202554526e+02 
-1.172084976241e+02 1.257789315036e+01 0.0 
1.257789315036e+01 -3.126735795002e+02 0.0 
0.0 0.0 -1.285646231373e+02 
-7.811762480264e+01 -5.003589179874e+00 0.0 
-5.003589179874e+00 -1.665649278871e+02 0.0 
0.0 0.0 -6.698680486499e+01 
-8.665986174865e+01 -4.443928033262e+00 0.0 
-4.443928033262e+00 -1.862902211200e+02 0.0 
0.0 0.0 -7.580908534115e+01 
-9.047515780581e+01 -4.900896971449e+00 0.0 
-4.900896971449e+00 -1.984503283211e+02 0.0 
0.0 0.0 -8.069919922228e+01 
-9.441608549566e+01 -3.804104917625e+00 0.0 
-3.804104917625e+00 -2.068925585256e+02 0.0 
0.0 0.0 -8.497470817047e+01 
-8.646915986761e+01 2.316909048565e+00 0.0 
2.316909048565e+00 -1.747380904711e+02 0.0 
0.0 0.0 -7.796217510161e+01 
-9.346219498147e+01 2.777732779621e+00 0.0 
2.777732779621e+00 -1.951561060446e+02 0.0 
0.0 0.0 -8.618549030783e+01 
-4.247278159031e+01 2.588097502487e+01 0.0 
2.588097502487e+01 -1.153604564536e+02 0.0 
0.0 0.0 -4.236324131466e+01 
-4.490039281449e+01 2.814679348884e+01 0.0 
2.814679348884e+01 -1.141520323611e+02 0.0 
0.0 0.0 -4.310103945459e+01 
-1.046871541813e+02 1.231994156562e+01 0.0 
1.231994156562e+01 -2.123896873820e+02 0.0 
0.0 0.0 -9.472305246900e+01 
-1.245418903677e+02 3.872381376225e-01 0.0 
3.872381376225e-01 -3.049930468573e+02 0.0 
0.0 0.0 -1.279498749473e+02 
-1.188874063199e+02 -4.306560480681e-01 0.0 
-4.306560480681e-01 -2.856144666117e+02 0.0 
0.0 0.0 -1.194254204978e+02 
-6.673095171841e+01 3.019859617888e+01 0.0 
3.019859617888e+01 -1.546420586108e+02 0.0 
0.0 0.0 -6.481223081348e+01 
-6.504814270463e+01 3.081194340046e+01 0.0 
3.081194340046e+01 -1.377109834420e+02 0.0 
0.0 0.0 -5.830401958215e+01 
-6.084100546620e+01 3.126843839355e+01 0.0 
3.126843839355e+01 -1.358564230408e+02 0.0 
0.0 0.0 -5.714868803194e+01 
-5.897138081565e+01 3.152238827425e+01 0.0 
3.152238827425e+01 -1.179126766597e+02 0.0 
0.0 0.0 -5.042689739036e+01 
-6.297587012061e+01 3.063955536005e+01 0.0 
3.063955536005e+01 -1.199935382041e+02 0.0 
0.0 0.0 -5.146340694602e+01 
-5.513281515980e+01 3.214210042704e+01 0.0 
3.214210042704e+01 -1.164715293024e+02 0.0 
0.0 0.0 -4.947157259628e+01 
-1.015479170185e+02 3.675994556797e+00 0.0 
3.675994556797e+00 -2.794431059067e+02 0.0 
0.0 0.0 -1.149604150088e+02 
-9.746940031678e+01 5.121196191261e+00 0.0 
5.121196191261e+00 -2.030085216889e+02 0.0 
0.0 0.0 -8.974337660170e+01 
-5.071248253115e+01 -1.100434358735e+01 0.0 
-1.100434358735e+01 -1.106499110216e+02 0.0 
0.0 0.0 -4.455133632148e+01 
-4.151719446712e+01 -9.673190347770e+00 0.0 
-9.673190347770e+00 -8.956140200600e+01 0.0 
0.0 0.0 -3.569370195353e+01 
-1.320973405444e+02 1.005433011397e+00 0.0 
1.005433011397e+00 -3.242030648879e+02 0.0 
0.0 0.0 -1.364708841035e+02 
-9.655944998732e+01 9.625275717486e+00 0.0 
9.625275717486e+00 -2.771178912684e+02 0.0 
0.0 0.0 -1.146887840195e+02 
-9.139956201391e+01 2.685704201162e+01 0.0 
2.685704201162e+01 -2.169187623821e+02 0.0 
0.0 0.0 -9.177480584372e+01 
-9.390664976920e+01 2.608265546477e+01 0.0 
2.608265546477e+01 -2.316782246621e+02 0.0 
0.0 0.0 -9.715035773128e+01 
-9.852243121024e+01 2.617879008414e+01 0.0 
2.617879008414e+01 -2.357898158123e+02 0.0 
0.0 0.0 -9.989367410676e+01 
-1.018555773246e+02 2.555155528735e+01 0.0 
2.555155528735e+01 -2.502398025472e+02 0.0 
0.0 0.0 -1.052286139616e+02 
-1.066531864376e+02 2.590663555977e+01 0.0 
2.590663555977e+01 -2.548078063769e+02 0.0 
0.0 0.0 -1.080382978444e+02 
-1.103694215072e+02 2.547105407030e+01 0.0 
2.547105407030e+01 -2.689232717436e+02 0.0 
0.0 0.0 -1.133878079752e+02 
-1.055649555481e+02 2.476128746736e+01 0.0 
2.476128746736e+01 -2.641725276880e+02 0.0 
0.0 0.0 -1.105212449708e+02 
-1.153683865493e+02 2.097010464452e+01 0.0 
2.097010464452e+01 -2.984538386890e+02 0.0 
0.0 0.0 -1.237466675715e+02 
-1.144930939713e+02 2.494749572971e+01 0.0 
2.494749572971e+01 -2.826015956197e+02 0.0 
0.0 0.0 -1.187284068773e+02 
-7.915459515042e+01 1.773554964467e+00 0.0 
1.773554964467e+00 -1.543103966827e+02 0.0 
0.0 0.0 -6.963949754993e+01 
-8.930384255524e+01 1.864157197792e+01 0.0 
1.864157197792e+01 -2.567684203575e+02 0.0 
0.0 0.0 -1.059664546233e+02 
-5.718743910463e+01 -1.659984253512e+01 0.0 
-1.659984253512e+01 -1.414206591937e+02 0.0 
0.0 0.0 -5.677087981781e+01 
-2.843575980564e+01 -4.646936044962e+00 0.0 
-4.646936044962e+00 -7.424684494797e+01 0.0 
0.0 0.0 -2.776837843441e+01 
-4.595883931680e+01 -1.489912118702e+01 0.0 
-1.489912118702e+01 -8.424258787447e+01 0.0 
0.0 0.0 -3.388671905735e+01 
-3.661577154901e+01 -3.551464998473e+00 0.0 
-3.551464998473e+00 -9.122635136220e+01 0.0 
0.0 0.0 -3.506852725163e+01 
-4.997411017093e+01 -4.166819894715e+00 0.0 
-4.166819894715e+00 -1.120573679290e+02 0.0 
0.0 0.0 -4.391790814886e+01 
-1.304753719178e+02 8.315566949076e+00 0.0 
8.315566949076e+00 -3.342237789841e+02 0.0 
0.0 0.0 -1.390097452706e+02 
-1.149200306664e+02 2.601122928809e+01 0.0 
2.601122928809e+01 -2.737868765560e+02 0.0 
0.0 0.0 -1.162120721667e+02 
-1.110920463911e+02 2.605166592480e+01 0.0 
2.605166592480e+01 -2.594337570564e+02 0.0 
0.0 0.0 -1.107577410342e+02 
-5.670649859761e+01 3.091480616142e+01 0.0 
3.091480616142e+01 -9.961534258776e+01 0.0 
0.0 0.0 -4.344907356305e+01 
-6.050583204811e+01 2.965161167357e+01 0.0 
2.965161167357e+01 -1.017187906285e+02 0.0 
0.0 0.0 -4.444625385317e+01 
-1.208623882051e+02 2.016446536082e+01 0.0 
2.016446536082e+01 -3.105647877730e+02 0.0 
0.0 0.0 -1.290281527934e+02 
-8.433594148141e+01 8.087011546816e+00 0.0 
8.087011546816e+00 -1.500597032838e+02 0.0 
0.0 0.0 -6.991869342955e+01 
-8.111170391228e+01 4.673553236719e+00 0.0 
4.673553236719e+00 -1.504853680734e+02 0.0 
0.0 0.0 -6.907912159571e+01 
-7.663932032961e+01 3.547649171928e+00 0.0 
3.547649171928e+00 -1.407816248386e+02 0.0 
0.0 0.0 -6.482628355047e+01 
-2.251988549660e+01 -2.334659723452e+00 0.0 
-2.334659723452e+00 -6.905295132720e+01 0.0 
0.0 0.0 -2.572263742695e+01 
-4.632510309433e+01 -1.734096826845e+01 0.0 
-1.734096826845e+01 -8.112441320605e+01 0.0 
0.0 0.0 -3.211540539612e+01 
-1.020283737145e+02 8.083791446732e+00 0.0 
8.083791446732e+00 -2.118768193905e+02 0.0 
0.0 0.0 -9.377155793151e+01 
-4.764887010656e+01 2.679830567228e+01 0.0 
2.679830567228e+01 -1.300111231966e+02 0.0 
0.0 0.0 -4.939036299809e+01 
-4.717564241874e+01 2.985133719291e+01 0.0 
2.985133719291e+01 -1.138927162576e+02 0.0 
0.0 0.0 -4.457455455540e+01 
-3.348742318073e+01 1.141868209506e+01 0.0 
1.141868209506e+01 -1.224617538430e+02 0.0 
0.0 0.0 -4.794040268097e+01 
-3.074167986530e+01 6.526399450153e-01 0.0 
6.526399450153e-01 -1.228754030095e+02 0.0 
0.0 0.0 -4.836766975296e+01 
-8.995842784096e+01 1.925935079887e+00 0.0 
1.925935079887e+00 -1.854166830363e+02 0.0 
0.0 0.0 -8.221253326317e+01 
-9.682964950138e+01 2.347425575317e+00 0.0 
2.347425575317e+00 -2.057271535116e+02 0.0 
0.0 0.0 -9.036704090390e+01 
-9.769992531088e+01 -3.987198837238e+00 0.0 
-3.987198837238e+00 -2.186722448377e+02 0.0 
0.0 0.0 -8.977867304803e+01 
-1.013638653991e+02 -3.010330987701e+00 0.0 
-3.010330987701e+00 -2.269939123781e+02 0.0 
0.0 0.0 -9.381683529575e+01 
-1.247049863086e+02 8.982497433801e+00 0.0 
8.982497433801e+00 -3.250319074837e+02 0.0 
0.0 0.0 -1.345210681377e+02 
-4.650344881609e+01 -1.368669179069e+01 0.0 
-1.368669179069e+01 -9.006402328009e+01 0.0 
0.0 0.0 -3.666240216887e+01 
-1.003059090307e+02 3.291875281593e+00 0.0 
3.291875281593e+00 -2.155782924880e+02 0.0 
0.0 0.0 -9.436526045562e+01 
-1.024641648922e+02 8.821384141971e+00 0.0 
8.821384141971e+00 -2.871522843445e+02 0.0 
0.0 0.0 -1.180326380604e+02 
-9.302281903453e+01 7.017760948079e+00 0.0 
7.017760948079e+00 -2.694778939710e+02 0.0 
0.0 0.0 -1.122557147815e+02 
-9.054281045674e+01 -3.388075326793e+00 0.0 
-3.388075326793e+00 -1.946225612115e+02 0.0 
0.0 0.0 -8.002948661067e+01 
-4.365372896915e+01 2.997567849706e+01 0.0 
2.997567849706e+01 -9.806999048012e+01 0.0 
0.0 0.0 -3.777438399256e+01 
-4.167223309350e+01 2.847991656181e+01 0.0 
2.847991656181e+01 -1.005249277405e+02 0.0 
0.0 0.0 -3.820174433158e+01 
-5.840541053440e+01 -1.503089755546e+01 0.0 
-1.503089755546e+01 -1.556000650160e+02 0.0 
0.0 0.0 -6.208132811625e+01 
-5.218337161677e+01 -1.547750054051e+01 0.0 
-1.547750054051e+01 -1.111687037421e+02 0.0 
0.0 0.0 -4.541527021129e+01 
-4.178832267885e+01 -2.764179222285e+00 0.0 
-2.764179222285e+00 -9.982721560870e+01 0.0 
0.0 0.0 -3.911572218064e+01 
-1.353682428997e+02 1.023958418197e+01 0.0 
1.023958418197e+01 -3.431176158607e+02 0.0 
0.0 0.0 -1.431457576281e+02 
-1.057053911176e+02 9.609680910332e+00 0.0 
9.609680910332e+00 -2.219325567606e+02 0.0 
0.0 0.0 -9.789138436346e+01 
-1.097702403336e+02 2.396139534259e+01 0.0 
2.396139534259e+01 -2.775682473757e+02 0.0 
0.0 0.0 -1.158015463128e+02 
-1.005183897525e+02 2.388333496958e+01 0.0 
2.388333496958e+01 -2.593011897993e+02 0.0 
0.0 0.0 -1.075458738655e+02 
-1.193294705755e+02 2.437530893744e+01 0.0 
2.437530893744e+01 -2.960316163035e+02 0.0 
0.0 0.0 -1.242083260637e+02 
-4.002685593201e+01 -1.083853929113e+01 0.0 
-1.083853929113e+01 -6.852204965767e+01 0.0 
0.0 0.0 -2.792718539795e+01 
-1.362457922009e+02 7.684554144289e+00 0.0 
7.684554144289e+00 -3.433512825015e+02 0.0 
0.0 0.0 -1.434791224107e+02 
-1.279840799162e+02 4.725379138732e-01 0.0 
4.725379138732e-01 -3.133670038400e+02 0.0 
0.0 0.0 -1.317865836101e+02 
-1.187259767871e+02 2.631192949618e+01 0.0 
2.631192949618e+01 -2.779151592474e+02 0.0 
0.0 0.0 -1.185923408103e+02 
-1.152122884778e+02 2.603506636309e+01 0.0 
2.603506636309e+01 -2.644057061190e+02 0.0 
0.0 0.0 -1.134853983790e+02 
-5.020227181464e+01 2.887025923435e+01 0.0 
2.887025923435e+01 -1.304002561597e+02 0.0 
0.0 0.0 -5.130697919084e+01 
-4.937115750069e+01 3.121607049639e+01 0.0 
3.121607049639e+01 -1.142779317069e+02 0.0 
0.0 0.0 -4.651848240423e+01 
-4.687007170801e+01 3.177338163178e+01 0.0 
3.177338163178e+01 -9.659072927907e+01 0.0 
0.0 0.0 -3.968793634503e+01 
-4.835824931384e+01 3.236446111019e+01 0.0 
3.236446111019e+01 -9.671486284232e+01 0.0 
0.0 0.0 -4.086546052060e+01 
-8.184640361507e+01 1.623996897452e+01 0.0 
1.623996897452e+01 -1.370915719664e+02 0.0 
0.0 0.0 -6.504371934247e+01 
-5.310430541779e+01 3.039875913120e+01 0.0 
3.039875913120e+01 -1.315319196832e+02 0.0 
0.0 0.0 -5.367870338221e+01 
-8.068514487174e+01 2.230948175172e+01 0.0 
2.230948175172e+01 -1.377678542060e+02 0.0 
0.0 0.0 -6.356910320539e+01 
-7.738911260448e+01 1.941051705012e+01 0.0 
1.941051705012e+01 -1.223946757666e+02 0.0 
0.0 0.0 -5.792859073309e+01 
-7.480575273376e+01 2.140496278493e+01 0.0 
2.140496278493e+01 -1.162141257636e+02 0.0 
0.0 0.0 -5.445332638630e+01 
-6.703353568480e+01 2.943633428367e+01 0.0 
2.943633428367e+01 -1.222060453631e+02 0.0 
0.0 0.0 -5.247308441748e+01 
-6.445980251997e+01 2.803628482736e+01 0.0 
2.803628482736e+01 -1.039556089473e+02 0.0 
0.0 0.0 -4.555604616730e+01 
-5.300403692044e+01 2.203106152135e+01 0.0 
2.203106152135e+01 -1.600461344210e+02 0.0 
0.0 0.0 -6.114515862074e+01 
-7.770505457849e+01 1.652497887866e+01 0.0 
1.652497887866e+01 -2.347487550384e+02 0.0 
0.0 0.0 -9.824314188816e+01 
-9.382762689028e+01 -5.025969812898e+00 0.0 
-5.025969812898e+00 -2.105188641992e+02 0.0 
0.0 0.0 -8.568469264403e+01 
-1.084971433914e+02 -2.043760943496e+00 0.0 
-2.043760943496e+00 -2.613879522873e+02 0.0 
0.0 0.0 -1.080159783782e+02 
-9.402417654665e+01 -1.156151342841e+00 0.0 
-1.156151342841e+00 -2.516045799273e+02 0.0 
0.0 0.0 -1.044616800932e+02 
-1.010335698283e+02 6.314914415383e+00 0.0 
6.314914415383e+00 -2.124979239143e+02 0.0 
0.0 0.0 -9.365944812278e+01 
-1.039242816343e+02 5.921156647977e+00 0.0 
5.921156647977e+00 -2.234993298204e+02 0.0 
0.0 0.0 -9.782708343643e+01 
-7.587503272263e+01 2.604475926107e+00 0.0 
2.604475926107e+00 -1.422705472709e+02 0.0 
0.0 0.0 -6.504367399806e+01 
-7.183586372054e+01 1.903284560542e+00 0.0 
1.903284560542e+00 -1.329698441487e+02 0.0 
0.0 0.0 -6.104171236078e+01 
-3.404482152472e+01 -7.097646053059e+00 0.0 
-7.097646053059e+00 -7.712323073177e+01 0.0 
0.0 0.0 -2.990705394304e+01 
-3.248831240055e+01 -7.114735420031e+00 0.0 
-7.114735420031e+00 -6.868378041901e+01 0.0 
0.0 0.0 -2.699677920851e+01 
-9.656167227530e+01 -4.257948817415e+00 0.0 
-4.257948817415e+00 -2.377585449285e+02 0.0 
0.0 0.0 -9.758200253603e+01 
-1.312824859607e+02 5.990316832246e+00 0.0 
5.990316832246e+00 -3.334116772212e+02 0.0 
0.0 0.0 -1.390082489546e+02 
-1.068782944147e+02 1.173800349434e+01 0.0 
1.173800349434e+01 -2.220149593648e+02 0.0 
0.0 0.0 -9.826797613387e+01 
-1.105270930072e+02 1.360133684530e+01 0.0 
1.360133684530e+01 -2.330748421242e+02 0.0 
0.0 0.0 -1.026805805394e+02 
-1.084145101904e+02 1.421875086668e+01 0.0 
1.421875086668e+01 -2.235593213595e+02 0.0 
0.0 0.0 -9.919214946497e+01 
-1.294091086576e+02 1.102476110343e+01 0.0 
1.102476110343e+01 -3.333878589258e+02 0.0 
0.0 0.0 -1.384390902750e+02 
-5.519511095235e+01 8.818720373558e+00 0.0 
8.818720373558e+00 -1.801607234530e+02 0.0 
0.0 0.0 -6.810576014653e+01 
-8.186594632620e+01 8.979822913078e+00 0.0 
8.979822913078e+00 -2.494229699219e+02 0.0 
0.0 0.0 -1.048764176021e+02 
-3.436798447739e+01 -9.752306377962e+00 0.0 
-9.752306377962e+00 -1.225957389763e+02 0.0 
0.0 0.0 -4.800352614815e+01 
-8.533960849080e+01 2.517220271392e+01 0.0 
2.517220271392e+01 -2.237790120615e+02 0.0 
0.0 0.0 -9.272381649775e+01 
-2.422359931655e+01 -4.208243114456e+00 0.0 
-4.208243114456e+00 -5.667640833796e+01 0.0 
0.0 0.0 -2.153293239294e+01 
-1.012221940420e+02 2.462446051056e+01 0.0 
2.462446051056e+01 -2.154552755016e+02 0.0 
0.0 0.0 -9.460324086308e+01 
-1.365639142435e+02 8.655025735334e-01 0.0 
8.655025735334e-01 -3.325970760241e+02 0.0 
0.0 0.0 -1.403482970803e+02 
-1.414708010693e+02 1.413989852667e+00 0.0 
1.413989852667e+00 -3.431881211321e+02 0.0 
0.0 0.0 -1.449976766604e+02 
-1.257585159092e+02 2.183131285513e+01 0.0 
2.183131285513e+01 -3.165483661525e+02 0.0 
0.0 0.0 -1.322920646185e+02 
-7.090484665475e+01 1.123546419155e+01 0.0 
1.123546419155e+01 -1.037540948878e+02 0.0 
0.0 0.0 -5.126389235849e+01 
-8.740864429482e+01 2.350866384918e+01 0.0 
2.350866384918e+01 -2.368991908336e+02 0.0 
0.0 0.0 -9.787627296820e+01 
-8.296742790435e+01 2.254479322688e+01 0.0 
2.254479322688e+01 -2.321697713451e+02 0.0 
0.0 0.0 -9.627884464666e+01 
-7.090865931112e+01 1.786298803924e+01 0.0 
1.786298803924e+01 -1.007472250096e+02 0.0 
0.0 0.0 -4.873132393476e+01 
-6.808406487752e+01 2.011949521087e+01 0.0 
2.011949521087e+01 -9.430798981412e+01 0.0 
0.0 0.0 -4.506496198436e+01 
-7.176816445359e+01 2.360090439616e+01 0.0 
2.360090439616e+01 -1.110004245676e+02 0.0 
0.0 0.0 -5.102255548759e+01 
-6.498843293530e+01 2.279232440584e+01 0.0 
2.279232440584e+01 -8.921604072780e+01 0.0 
0.0 0.0 -4.154915981333e+01 
-6.155347589637e+01 -1.540661518668e+01 0.0 
-1.540661518668e+01 -1.597575947143e+02 0.0 
0.0 0.0 -6.492418275666e+01 
-5.992068545869e+01 -1.629761965671e+01 0.0 
-1.629761965671e+01 -1.458321006415e+02 0.0 
0.0 0.0 -5.945567968091e+01 
-1.239541634910e+02 2.664872154443e+01 0.0 
2.664872154443e+01 -2.940688346948e+02 0.0 
0.0 0.0 -1.250068994558e+02 
-1.235227873543e+02 2.548621851746e+01 0.0 
2.548621851746e+01 -3.008904189224e+02 0.0 
0.0 0.0 -1.269239618830e+02 
-1.225747880801e+02 2.669316631479e+01 0.0 
2.669316631479e+01 -2.834292818329e+02 0.0 
0.0 0.0 -1.214012209739e+02 
-1.192735790750e+02 2.600946090807e+01 0.0 
2.600946090807e+01 -2.702439083529e+02 0.0 
0.0 0.0 -1.164552462284e+02 
-1.315925160971e+02 2.117543962165e+01 0.0 
2.117543962165e+01 -3.286212310978e+02 0.0 
0.0 0.0 -1.376641241585e+02 
-1.264121370576e+02 1.938258039636e+01 0.0 
1.938258039636e+01 -3.221447923217e+02 0.0 
0.0 0.0 -1.341670788138e+02 
-5.470448050353e+01 -3.120005053793e+00 0.0 
-3.120005053793e+00 -1.199741409940e+02 0.0 
0.0 0.0 -4.782229273281e+01 
-5.771234485953e+01 2.780683634034e+01 0.0 
2.780683634034e+01 -8.296263238962e+01 0.0 
0.0 0.0 -3.732067012834e+01 
-1.082895228105e+02 9.123353876725e+00 0.0 
9.123353876725e+00 -2.324376956386e+02 0.0 
0.0 0.0 -1.018181655347e+02 
-7.333195976816e+01 1.598591662116e+01 0.0 
1.598591662116e+01 -1.079065411162e+02 0.0 
0.0 0.0 -5.240696006663e+01 
-1.416438803694e+02 7.032666298744e+00 0.0 
7.032666298744e+00 -3.515427886008e+02 0.0 
0.0 0.0 -1.475560006911e+02 
-1.367068702269e+02 5.546998702594e+00 0.0 
5.546998702594e+00 -3.418938909024e+02 0.0 
0.0 0.0 -1.431802283388e+02 
-3.392043981611e+01 -1.140312229531e+01 0.0 
-1.140312229531e+01 -1.183404811408e+02 0.0 
0.0 0.0 -4.779097262875e+01 
-3.725068323149e+01 -2.050851129667e+01 0.0 
-2.050851129667e+01 -1.072376086928e+02 0.0 
0.0 0.0 -4.284734245127e+01 
-1.035738698475e+02 2.779565272589e+00 0.0 
2.779565272589e+00 -2.264760225114e+02 0.0 
0.0 0.0 -9.861496770765e+01 
-4.602853741849e+01 3.207246643867e+01 0.0 
3.207246643867e+01 -7.772637768064e+01 0.0 
0.0 0.0 -3.389433856694e+01 
-4.668834109928e+01 3.192087781785e+01 0.0 
3.192087781785e+01 -7.708074721192e+01 0.0 
0.0 0.0 -3.426715153528e+01 
-4.524345121362e+01 3.205139600819e+01 0.0 
3.205139600819e+01 -7.840188368485e+01 0.0 
0.0 0.0 -3.331202522554e+01 
-1.562410954214e+02 4.142979445095e-01 0.0 
4.142979445095e-01 -3.713875633628e+02 0.0 
0.0 0.0 -1.578885976353e+02 
-5.491167676735e+01 1.835066957672e-01 0.0 
1.835066957672e-01 -9.449955369155e+01 0.0 
0.0 0.0 -4.442336913767e+01 
-1.461214383702e+02 1.127207161610e+00 0.0 
1.127207161610e+00 -3.517193389249e+02 0.0 
0.0 0.0 -1.489522331885e+02 
-7.105090044608e+01 2.790784130020e+01 0.0 
2.790784130020e+01 -1.248917100909e+02 0.0 
0.0 0.0 -5.422250257400e+01 
-1.070244295936e+02 3.754514615632e+00 0.0 
3.754514615632e+00 -2.364561970610e+02 0.0 
0.0 0.0 -1.026441879964e+02 
-9.037823207315e+01 2.181269045308e+01 0.0 
2.181269045308e+01 -2.494279838952e+02 0.0 
0.0 0.0 -1.027390216755e+02 
-6.201485480129e+01 3.023902170865e+01 0.0 
3.023902170865e+01 -1.521881735681e+02 0.0 
0.0 0.0 -6.321376235620e+01 
-1.188099798484e+02 9.704235412121e+00 0.0 
9.704235412121e+00 -3.154444888552e+02 0.0 
0.0 0.0 -1.298763406111e+02 
-9.987257316043e+01 1.897033069970e+00 0.0 
1.897033069970e+00 -2.154931501706e+02 0.0 
0.0 0.0 -9.420971699932e+01 
-1.068593743091e+02 2.126758220062e+00 0.0 
2.126758220062e+00 -2.378757040410e+02 0.0 
0.0 0.0 -1.030205235050e+02 
-7.335105605885e+01 3.516876049091e+00 0.0 
3.516876049091e+00 -1.302071738490e+02 0.0 
0.0 0.0 -6.066746897235e+01 
-6.844991827175e+01 2.648725082612e+00 0.0 
2.648725082612e+00 -1.200892029467e+02 0.0 
0.0 0.0 -5.616173636555e+01 
-7.767324953615e+01 4.699431753700e+00 0.0 
4.699431753700e+00 -1.393904759257e+02 0.0 
0.0 0.0 -6.471911763855e+01 
-3.648113880039e+01 1.805090110105e+01 0.0 
1.805090110105e+01 -1.194244187267e+02 0.0 
0.0 0.0 -4.453905463322e+01 
-3.526136340528e+01 2.327933422954e+01 0.0 
2.327933422954e+01 -1.059364502820e+02 0.0 
0.0 0.0 -4.250002907837e+01 
-1.004262511868e+02 4.735151162352e+00 0.0 
4.735151162352e+00 -2.138381151972e+02 0.0 
0.0 0.0 -9.387930991519e+01 
-6.825086879207e+01 -5.410668631894e+00 0.0 
-5.410668631894e+00 -1.453281644780e+02 0.0 
0.0 0.0 -5.780596258663e+01 
-7.378115799678e+01 -4.179745676821e+00 0.0 
-4.179745676821e+00 -1.558405394403e+02 0.0 
0.0 0.0 -6.292552560918e+01 
-4.696231641083e+01 -1.294182305670e+01 0.0 
-1.294182305670e+01 -9.605139584227e+01 0.0 
0.0 0.0 -3.912707680381e+01 
-5.369348875627e+01 -1.432403263910e+01 0.0 
-1.432403263910e+01 -1.170221419804e+02 0.0 
0.0 0.0 -4.784282424574e+01 
-1.004990704703e+02 -3.886651593738e+00 0.0 
-3.886651593738e+00 -2.304452381249e+02 0.0 
0.0 0.0 -9.459193409346e+01 
-9.663296057381e+01 -4.845256142697e+00 0.0 
-4.845256142697e+00 -2.224327008297e+02 0.0 
0.0 0.0 -9.072833365422e+01 
-1.043505254217e+02 2.541456228913e+01 0.0 
2.541456228913e+01 -2.303086258352e+02 0.0 
0.0 0.0 -9.999774537709e+01 
-1.082384311109e+02 2.474272142798e+01 0.0 
2.474272142798e+01 -2.357028828059e+02 0.0 
0.0 0.0 -1.027823941750e+02 
-9.564350951877e+01 2.656570047795e+01 0.0 
2.656570047795e+01 -2.208851787517e+02 0.0 
0.0 0.0 -9.448867902528e+01 
-9.877775200089e+01 6.386675413840e+00 0.0 
6.386675413840e+00 -2.790097704775e+02 0.0 
0.0 0.0 -1.152472150647e+02 
-9.058762577946e+01 4.385591314489e+00 0.0 
4.385591314489e+00 -2.612046879035e+02 0.0 
0.0 0.0 -1.093294782922e+02 
-8.468110493844e+01 4.737734042390e+00 0.0 
4.737734042390e+00 -2.519052346419e+02 0.0 
0.0 0.0 -1.057335107457e+02 
-1.069832804072e+02 7.166569526910e+00 0.0 
7.166569526910e+00 -2.325771364026e+02 0.0 
0.0 0.0 -1.014681250429e+02 
-1.105799106572e+02 6.633040910600e+00 0.0 
6.633040910600e+00 -2.459426518977e+02 0.0 
0.0 0.0 -1.065567687665e+02 
-6.285053863234e+01 -1.336197666697e+01 0.0 
-1.336197666697e+01 -1.728160046421e+02 0.0 
0.0 0.0 -7.003999767527e+01 
-5.913044461516e+01 -1.222736255712e+01 0.0 
-1.222736255712e+01 -1.682976847096e+02 0.0 
0.0 0.0 -6.680743910831e+01 
-6.564638955906e+01 -1.465598009686e+01 0.0 
-1.465598009686e+01 -1.648109927921e+02 0.0 
0.0 0.0 -6.757395916191e+01 
-1.116795394524e+02 1.067690948744e+01 0.0 
1.067690948744e+01 -2.426334700357e+02 0.0 
0.0 0.0 -1.058939028464e+02 
-1.509182746524e+02 1.647627266393e+00 0.0 
1.647627266393e+00 -3.619040545543e+02 0.0 
0.0 0.0 -1.534466987620e+02 
-1.463880583914e+02 2.085994563843e+00 0.0 
2.085994563843e+00 -3.536444180998e+02 0.0 
0.0 0.0 -1.496097429474e+02 
-2.332273583621e+01 -3.730177957463e+00 0.0 
-3.730177957463e+00 -4.860040783968e+01 0.0 
0.0 0.0 -1.882211779265e+01 
-3.140678193392e+01 -6.780766534243e+00 0.0 
-6.780766534243e+00 -6.031179534602e+01 0.0 
0.0 0.0 -2.387083840801e+01 
-4.336072968480e+01 3.178914643491e+01 0.0 
3.178914643491e+01 -8.124187363624e+01 0.0 
0.0 0.0 -3.248077114208e+01 
-4.182124922469e+01 3.138709049805e+01 0.0 
3.138709049805e+01 -8.523145518910e+01 0.0 
0.0 0.0 -3.389364213835e+01 
-1.137856780762e+02 1.547128720852e+01 0.0 
1.547128720852e+01 -2.439478778884e+02 0.0 
0.0 0.0 -1.069200667894e+02 
-1.121411887691e+02 1.620165036169e+01 0.0 
1.620165036169e+01 -2.354217108193e+02 0.0 
0.0 0.0 -1.038688698765e+02 
-1.164115232488e+02 1.490366401481e+01 0.0 
1.490366401481e+01 -2.553091833315e+02 0.0 
0.0 0.0 -1.111162119741e+02 
-4.560668907017e+01 -1.930363396765e+00 0.0 
-1.930363396765e+00 -1.065290365272e+02 0.0 
0.0 0.0 -4.231229943353e+01 
-1.048261406743e+02 2.277119527881e+01 0.0 
2.277119527881e+01 -2.724112083216e+02 0.0 
0.0 0.0 -1.127712046988e+02 
-1.400213196510e+02 1.225232610778e+01 0.0 
1.225232610778e+01 -3.505117914042e+02 0.0 
0.0 0.0 -1.467599333166e+02 
-1.337907827747e+02 1.310665466744e+01 0.0 
1.310665466744e+01 -3.405759810297e+02 0.0 
0.0 0.0 -1.419100291413e+02 
-1.473851431816e+02 1.153307201230e+01 0.0 
1.153307201230e+01 -3.624668695493e+02 0.0 
0.0 0.0 -1.525556038193e+02 
-1.201527732722e+02 2.251512521383e+01 0.0 
2.251512521383e+01 -3.040369963923e+02 0.0 
0.0 0.0 -1.268569308994e+02 
-1.302015628099e+02 2.333809773220e+01 0.0 
2.333809773220e+01 -3.218712838734e+02 0.0 
0.0 0.0 -1.352218540050e+02 
-1.289589857707e+02 2.509915689287e+01 0.0 
2.509915689287e+01 -3.141842630901e+02 0.0 
0.0 0.0 -1.325429746582e+02 
-3.918249464692e+01 1.287390318591e+00 0.0 
1.287390318591e+00 -1.206800463598e+02 0.0 
0.0 0.0 -4.983153482216e+01 
-1.044301589430e+02 1.453515101320e+00 0.0 
1.453515101320e+00 -2.306039304090e+02 0.0 
0.0 0.0 -1.001102268056e+02 
-6.764753002004e+01 1.851176588786e+00 0.0 
1.851176588786e+00 -1.212687821972e+02 0.0 
0.0 0.0 -5.627489366518e+01 
-5.084754000910e+01 -7.093950522818e+00 0.0 
-7.093950522818e+00 -1.156350776129e+02 0.0 
0.0 0.0 -5.138708382051e+01 
-6.356420288984e+01 1.282564597584e+00 0.0 
1.282564597584e+00 -1.122240169197e+02 0.0 
0.0 0.0 -5.233646594286e+01 
-6.765610520375e+01 1.342640960722e+00 0.0 
1.342640960722e+00 -1.236266540495e+02 0.0 
0.0 0.0 -5.698482777599e+01 
-5.895453846893e+01 8.558262971075e-01 0.0 
8.558262971075e-01 -1.020268742610e+02 0.0 
0.0 0.0 -4.789442381897e+01 
-3.164596951436e+01 -1.638247071952e+00 0.0 
-1.638247071952e+00 -8.645602140691e+01 0.0 
0.0 0.0 -3.345362558813e+01 
-6.841595738870e+01 3.427916666264e+00 0.0 
3.427916666264e+00 -1.160313104020e+02 0.0 
0.0 0.0 -5.493418033721e+01 
-7.450270844585e+01 4.918399524981e+00 0.0 
4.918399524981e+00 -1.288539879315e+02 0.0 
0.0 0.0 -6.060700891322e+01 
-2.076184351196e+01 -3.036205784439e+00 0.0 
-3.036205784439e+00 -3.673574539731e+01 0.0 
0.0 0.0 -1.502190288710e+01 
-1.136689133742e+02 9.920159613280e+00 0.0 
9.920159613280e+00 -2.526733002060e+02 0.0 
0.0 0.0 -1.095026640741e+02 
-1.629247775387e+01 -1.353037315718e+00 0.0 
-1.353037315718e+00 -3.778320493174e+01 0.0 
0.0 0.0 -1.449324808023e+01 
-1.764121545818e+01 -1.651071304889e+00 0.0 
-1.651071304889e+00 -4.559919201537e+01 0.0 
0.0 0.0 -1.697266051200e+01 
-1.470800370846e+02 6.408079296592e+00 0.0 
6.408079296592e+00 -3.602030627945e+02 0.0 
0.0 0.0 -1.517849299637e+02 
-1.419200541130e+02 5.080577689235e+00 0.0 
5.080577689235e+00 -3.501395253346e+02 0.0 
0.0 0.0 -1.472178738343e+02 
-1.519552440222e+02 5.825496868763e+00 0.0 
5.825496868763e+00 -3.679533908046e+02 0.0 
0.0 0.0 -1.555725904480e+02 
-1.467222673442e+02 4.576742988186e+00 0.0 
4.576742988186e+00 -3.577170535481e+02 0.0 
0.0 0.0 -1.509317962677e+02 
-1.370121214882e+02 3.905773928761e+00 0.0 
3.905773928761e+00 -3.397929921637e+02 0.0 
0.0 0.0 -1.426415340956e+02 
-1.421390237476e+02 3.569032745401e+00 0.0 
3.569032745401e+00 -3.482566555233e+02 0.0 
0.0 0.0 -1.467187037813e+02 
-6.368673001320e+01 1.845634887543e+00 0.0 
1.845634887543e+00 -1.100937177384e+02 0.0 
0.0 0.0 -5.173413432549e+01 
-1.532653013483e+02 4.255564227733e+00 0.0 
4.255564227733e+00 -3.687498606303e+02 0.0 
0.0 0.0 -1.562045485936e+02 
-1.473517944966e+02 3.195223022947e+00 0.0 
3.195223022947e+00 -3.569322111972e+02 0.0 
0.0 0.0 -1.508852017082e+02 
-1.581634717124e+02 3.677588179742e+00 0.0 
3.677588179742e+00 -3.775150555180e+02 0.0 
0.0 0.0 -1.603035581691e+02 
-6.061333334202e+01 1.813998400369e+01 0.0 
1.813998400369e+01 -7.215609944613e+01 0.0 
0.0 0.0 -3.550892404083e+01 
-5.026328734354e+01 3.243496323542e+01 0.0 
3.243496323542e+01 -9.663384864443e+01 0.0 
0.0 0.0 -4.165321117065e+01 
-4.820622259184e+01 3.159092121354e+01 0.0 
3.159092121354e+01 -7.729517923599e+01 0.0 
0.0 0.0 -3.487188130274e+01 
-4.433522461339e+01 3.049876422081e+01 0.0 
3.049876422081e+01 -5.578853841906e+01 0.0 
0.0 0.0 -2.699486560898e+01 
-1.271885379891e+02 2.700997612146e+01 0.0 
2.700997612146e+01 -2.922209483443e+02 0.0 
0.0 0.0 -1.254228459000e+02 
-1.219925796717e+02 2.573019256510e+01 0.0 
2.573019256510e+01 -2.749408104869e+02 0.0 
0.0 0.0 -1.186800170476e+02 
-1.319692610274e+02 4.238036768491e-01 0.0 
4.238036768491e-01 -3.223413949835e+02 0.0 
0.0 0.0 -1.358538258390e+02 
-1.249615534973e+02 8.048599217678e-02 0.0 
8.048599217678e-02 -3.028285695031e+02 0.0 
0.0 0.0 -1.272409945589e+02 
-6.306307263631e+01 8.120382677475e-01 0.0 
8.120382677475e-01 -1.132915955222e+02 0.0 
0.0 0.0 -5.250640044756e+01 
-6.229754761177e+01 6.214463742292e-01 0.0 
6.214463742292e-01 -1.122055721519e+02 0.0 
0.0 0.0 -5.195093592911e+01 
-6.949096794747e+01 8.171358078366e-01 0.0 
8.171358078366e-01 -1.302205885441e+02 0.0 
0.0 0.0 -5.951346694747e+01 
-6.823337600777e+01 6.841383818584e-01 0.0 
6.841383818584e-01 -1.277440818023e+02 0.0 
0.0 0.0 -5.839323734303e+01 
-7.528286332211e+01 8.843183219442e-01 0.0 
8.843183219442e-01 -1.459276463284e+02 0.0 
0.0 0.0 -6.596315289516e+01 
-7.410768962718e+01 6.942123687133e-01 0.0 
6.942123687133e-01 -1.431412588880e+02 0.0 
0.0 0.0 -6.477468455457e+01 
-8.114303182718e+01 1.137275597237e+00 0.0 
1.137275597237e+00 -1.617350216669e+02 0.0 
0.0 0.0 -7.246341604824e+01 
-1.330555564867e+02 2.654511423414e+01 0.0 
2.654511423414e+01 -3.192742954221e+02 0.0 
0.0 0.0 -1.352989555726e+02 
-4.443686782043e+01 3.138682429134e+01 0.0 
3.138682429134e+01 -5.849520468348e+01 0.0 
0.0 0.0 -2.722141074666e+01 
-6.610839398128e+01 1.380293058434e+01 0.0 
1.380293058434e+01 -8.655073040034e+01 0.0 
0.0 0.0 -4.321551632301e+01 
-1.372824748094e+02 2.045750107207e+01 0.0 
2.045750107207e+01 -3.400492159106e+02 0.0 
0.0 0.0 -1.427995072160e+02 
-1.313096081254e+02 1.851082271131e+01 0.0 
1.851082271131e+01 -3.320785064853e+02 0.0 
0.0 0.0 -1.386164343832e+02 
-6.126984652962e+01 2.547267810435e+01 0.0 
2.547267810435e+01 -8.512982349736e+01 0.0 
0.0 0.0 -3.856908007327e+01 
-5.416951360821e+01 2.415821328565e+01 0.0 
2.415821328565e+01 -6.305299078882e+01 0.0 
0.0 0.0 -2.969360914113e+01 
-1.483074298466e+02 8.705143912887e+00 0.0 
8.705143912887e+00 -3.636175701811e+02 0.0 
0.0 0.0 -1.531775000083e+02 
-5.446646167195e+01 2.797700794626e+01 0.0 
2.797700794626e+01 -1.468595071883e+02 0.0 
0.0 0.0 -5.854679553038e+01 
-1.174479417694e+02 1.174896225994e+01 0.0 
1.174896225994e+01 -2.658609006818e+02 0.0 
0.0 0.0 -1.145926527354e+02 
-6.346387226119e+01 2.817668449654e+01 0.0 
2.817668449654e+01 -8.597975850399e+01 0.0 
0.0 0.0 -4.564829532170e+01 
-4.258182272712e+01 2.609779560734e+01 0.0 
2.609779560734e+01 -1.005073219633e+02 0.0 
0.0 0.0 -4.445407493622e+01 
-5.798138581616e+01 2.941767572872e+01 0.0 
2.941767572872e+01 -1.488723819008e+02 0.0 
0.0 0.0 -6.113191473876e+01 
-6.838095625537e+01 2.592618432018e+01 0.0 
2.592618432018e+01 -1.069653257425e+02 0.0 
0.0 0.0 -4.779613502590e+01 
-5.301290589175e+01 3.188279971333e+01 0.0 
3.188279971333e+01 -9.738129070997e+01 0.0 
0.0 0.0 -4.241492606534e+01 
-5.105896057097e+01 3.095631545602e+01 0.0 
3.095631545602e+01 -7.921993959078e+01 0.0 
0.0 0.0 -3.575196423741e+01 
-1.084022060884e+02 8.132033606748e+00 0.0 
8.132033606748e+00 -2.970861518942e+02 0.0 
0.0 0.0 -1.217647999232e+02 
-3.112071152261e+01 -6.834126236738e+00 0.0 
-6.834126236738e+00 -5.329932830834e+01 0.0 
0.0 0.0 -2.147822537021e+01 
-4.463838731849e+01 3.199153400788e+01 0.0 
3.199153400788e+01 -7.958460127225e+01 0.0 
0.0 0.0 -3.288987444825e+01 
-8.238804268816e+01 1.422408534774e+00 0.0 
1.422408534774e+00 -1.640766184293e+02 0.0 
0.0 0.0 -7.353939833524e+01 
-4.507647656873e+01 3.268621905659e+01 0.0 
3.268621905659e+01 -6.128483044319e+01 0.0 
0.0 0.0 -2.749907389348e+01 
-1.285316744011e+02 1.158419390034e-01 0.0 
1.158419390034e-01 -3.129691620528e+02 0.0 
0.0 0.0 -1.317801435333e+02 
-5.620375103620e+01 2.490691075485e+01 0.0 
2.490691075485e+01 -1.617380197699e+02 0.0 
0.0 0.0 -6.358507805602e+01 
-7.328294978854e+01 2.891923210769e+01 0.0 
2.891923210769e+01 -1.424626562103e+02 0.0 
0.0 0.0 -6.077417471733e+01 
-4.535387493960e+01 3.100140527876e+01 0.0 
3.100140527876e+01 -9.701777457818e+01 0.0 
0.0 0.0 -3.853337087740e+01 
-5.190808545169e+01 3.223728766743e+01 0.0 
3.223728766743e+01 -1.155427466695e+02 0.0 
0.0 0.0 -4.834550292130e+01 
-8.556625803043e+01 1.899299906402e+01 0.0 
1.899299906402e+01 -1.507976196392e+02 0.0 
0.0 0.0 -7.028659165430e+01 
-7.762350488885e+01 1.335731064095e+01 0.0 
1.335731064095e+01 -1.243090351433e+02 0.0 
0.0 0.0 -5.995046685425e+01 
-7.555734168002e+01 1.449137088484e+01 0.0 
1.449137088484e+01 -1.160106992732e+02 0.0 
0.0 0.0 -5.624703079628e+01 
-5.811687521393e+01 2.133676176594e+01 0.0 
2.133676176594e+01 -1.753828360376e+02 0.0 
0.0 0.0 -6.849070442690e+01 
-5.414983315339e+01 2.943757119663e+01 0.0 
2.943757119663e+01 -8.086230336450e+01 0.0 
0.0 0.0 -3.641304332382e+01 
-4.800030016730e+01 2.883264906000e+01 0.0 
2.883264906000e+01 -5.748005895445e+01 0.0 
0.0 0.0 -2.793652070595e+01 
-8.330683198227e+01 2.454739582511e+01 0.0 
2.454739582511e+01 -1.536926287209e+02 0.0 
0.0 0.0 -6.926393493674e+01 
-1.061717004846e+02 1.481133080018e+01 0.0 
1.481133080018e+01 -2.143552577270e+02 0.0 
0.0 0.0 -9.575808746348e+01 
-1.098057306200e+02 1.678456783849e+01 0.0 
1.678456783849e+01 -2.262993603237e+02 0.0 
0.0 0.0 -1.004315272831e+02 
-1.153797692760e+02 1.809839927237e+01 0.0 
1.809839927237e+01 -2.467142528631e+02 0.0 
0.0 0.0 -1.082282066417e+02 
-1.134465728860e+02 1.876046448923e+01 0.0 
1.876046448923e+01 -2.386871374438e+02 0.0 
0.0 0.0 -1.052401130989e+02 
-1.075081326485e+02 1.753934746461e+01 0.0 
1.753934746461e+01 -2.177620843732e+02 0.0 
0.0 0.0 -9.718106510653e+01 
-1.111383912672e+02 1.952376491957e+01 0.0 
1.952376491957e+01 -2.304688096501e+02 0.0 
0.0 0.0 -1.020821602752e+02 
-1.167956044227e+02 2.059474382543e+01 0.0 
2.059474382543e+01 -2.512267268044e+02 0.0 
0.0 0.0 -1.100066993681e+02 
-1.149453039237e+02 2.138058866936e+01 0.0 
2.138058866936e+01 -2.442286604134e+02 0.0 
0.0 0.0 -1.073521893011e+02 
-1.216310087098e+02 2.281562437597e+01 0.0 
2.281562437597e+01 -2.683814900603e+02 0.0 
0.0 0.0 -1.166037496310e+02 
-1.183489691569e+02 2.319557999807e+01 0.0 
2.319557999807e+01 -2.576517328251e+02 0.0 
0.0 0.0 -1.124002105946e+02 
-1.118619635814e+02 2.205403416990e+01 0.0 
2.205403416990e+01 -2.360533381220e+02 0.0 
0.0 0.0 -1.039745905110e+02 
-1.150403507008e+02 2.355274218847e+01 0.0 
2.355274218847e+01 -2.492389007350e+02 0.0 
0.0 0.0 -1.088837754307e+02 
-1.213057292600e+02 2.464900236971e+01 0.0 
2.464900236971e+01 -2.691983957730e+02 0.0 
0.0 0.0 -1.167512375099e+02 
-1.085800993410e+02 2.283894723999e+01 0.0 
2.283894723999e+01 -2.283045362672e+02 0.0 
0.0 0.0 -1.006653906825e+02 
-1.424508778903e+02 2.227644584657e+01 0.0 
2.227644584657e+01 -3.463043180470e+02 0.0 
0.0 0.0 -1.462265587812e+02 
-6.356398008781e+01 2.822205882324e+01 0.0 
2.822205882324e+01 -1.666758400126e+02 0.0 
0.0 0.0 -6.895658053030e+01 
-3.331253456021e+01 1.365190722681e+01 0.0 
1.365190722681e+01 -1.169403790209e+02 0.0 
0.0 0.0 -4.739060741204e+01 
-4.021272232493e+01 3.256309779084e+01 0.0 
3.256309779084e+01 -8.874825553785e+01 0.0 
0.0 0.0 -3.897227363693e+01 
-7.699923641299e+01 2.762884827591e+01 0.0 
2.762884827591e+01 -1.455295966402e+02 0.0 
0.0 0.0 -6.308509558629e+01 
-1.260712960800e+02 2.340787751163e+01 0.0 
2.340787751163e+01 -2.868573115276e+02 0.0 
0.0 0.0 -1.234785822823e+02 
-1.233129671222e+02 1.990958486427e+01 0.0 
1.990958486427e+01 -2.793294103692e+02 0.0 
0.0 0.0 -1.203927132474e+02 
-4.860261019378e+01 2.288054453816e+01 0.0 
2.288054453816e+01 -1.450260959301e+02 0.0 
0.0 0.0 -5.423384115237e+01 
-1.350474198175e+02 2.864679728737e+01 0.0 
2.864679728737e+01 -3.142730437172e+02 0.0 
0.0 0.0 -1.343961390604e+02 
-7.969567931009e+01 1.768540178077e+01 0.0 
1.768540178077e+01 -1.294586359550e+02 0.0 
0.0 0.0 -6.150516365782e+01 
-3.945433622682e+01 1.568293740538e+01 0.0 
1.568293740538e+01 -1.312306701616e+02 0.0 
0.0 0.0 -4.778326694215e+01 
-1.388493301750e+02 2.877785258327e+01 0.0 
2.877785258327e+01 -3.265377097641e+02 0.0 
0.0 0.0 -1.392161119817e+02 
-1.037790843844e+02 1.549675313544e+01 0.0 
1.549675313544e+01 -2.053154773753e+02 0.0 
0.0 0.0 -9.232836852790e+01 
-1.011354953285e+02 1.631055165816e+01 0.0 
1.631055165816e+01 -1.963615489901e+02 0.0 
0.0 0.0 -8.884911329558e+01 
-9.726586265953e+01 1.418559095443e+01 0.0 
1.418559095443e+01 -1.841103610268e+02 0.0 
0.0 0.0 -8.401286710591e+01 
-1.212687302290e+02 1.680535334237e+01 0.0 
1.680535334237e+01 -2.749313392063e+02 0.0 
0.0 0.0 -1.184600208306e+02 
-8.229588783349e+01 6.119137248759e+00 0.0 
6.119137248759e+00 -1.495356592303e+02 0.0 
0.0 0.0 -6.914946411915e+01 
-1.463455503789e+02 2.584678135743e+01 0.0 
2.584678135743e+01 -3.487667109063e+02 0.0 
0.0 0.0 -1.481336783856e+02 
-8.481753868427e+01 1.660631598193e+01 0.0 
1.660631598193e+01 -2.514485879235e+02 0.0 
0.0 0.0 -1.047368455032e+02 
-8.150583960288e+01 1.878196772078e+01 0.0 
1.878196772078e+01 -2.396568631566e+02 0.0 
0.0 0.0 -1.000482771312e+02 
-7.502018078952e+01 1.931369438978e+01 0.0 
1.931369438978e+01 -2.228932648987e+02 0.0 
0.0 0.0 -9.296480668619e+01 
-1.084141234926e+02 2.028976727330e+01 0.0 
2.028976727330e+01 -2.223653157167e+02 0.0 
0.0 0.0 -9.883383176277e+01 
-1.521288359857e+02 1.993731443598e+01 0.0 
1.993731443598e+01 -3.654147033131e+02 0.0 
0.0 0.0 -1.548630617896e+02 
-1.431871182123e+02 1.799019812407e+01 0.0 
1.799019812407e+01 -3.527887761950e+02 0.0 
0.0 0.0 -1.483927683222e+02 
-1.445273881402e+02 1.651861622835e+01 0.0 
1.651861622835e+01 -3.559690165027e+02 0.0 
0.0 0.0 -1.497489213928e+02 
-1.335822722336e+02 1.608169177535e+01 0.0 
1.608169177535e+01 -3.385066589862e+02 0.0 
0.0 0.0 -1.412266793659e+02 
-1.549931793947e+02 1.663358241847e+01 0.0 
1.663358241847e+01 -3.722966009252e+02 0.0 
0.0 0.0 -1.577869340960e+02 
-1.299820266195e+02 2.626834395358e+01 0.0 
2.626834395358e+01 -2.982944218881e+02 0.0 
0.0 0.0 -1.280829345523e+02 
-1.318034660165e+02 2.739155121050e+01 0.0 
2.739155121050e+01 -3.041017476785e+02 0.0 
0.0 0.0 -1.303715641085e+02 
-5.496682040790e+01 -1.426530766510e+01 0.0 
-1.426530766510e+01 -1.520663585320e+02 0.0 
0.0 0.0 -5.891711198090e+01 
-5.529258413328e+01 -1.044112940635e+01 0.0 
-1.044112940635e+01 -1.639884179491e+02 0.0 
0.0 0.0 -6.315433865675e+01 
-5.988514345684e+01 -8.436202080056e+00 0.0 
-8.436202080056e+00 -1.791532020916e+02 0.0 
0.0 0.0 -7.075694932143e+01 
-5.589524541648e+01 -5.719471614580e+00 0.0 
-5.719471614580e+00 -1.740974177943e+02 0.0 
0.0 0.0 -6.681093528962e+01 
-5.123512012766e+01 -7.773110357135e+00 0.0 
-7.773110357135e+00 -1.597386542247e+02 0.0 
0.0 0.0 -5.987704118299e+01 
-5.192190868970e+01 -2.127681894767e+00 0.0 
-2.127681894767e+00 -1.685218423982e+02 0.0 
0.0 0.0 -6.310624172869e+01 
-5.700806164611e+01 -6.094155360879e-01 0.0 
-6.094155360879e-01 -1.822215549325e+02 0.0 
0.0 0.0 -6.984836046534e+01 
-4.822441684869e+01 2.509212893103e+00 0.0 
2.509212893103e+00 -1.620392620219e+02 0.0 
0.0 0.0 -5.959322219461e+01 
-1.153167779637e+02 2.512539881999e+01 0.0 
2.512539881999e+01 -2.557593793196e+02 0.0 
0.0 0.0 -1.109228471850e+02 
-1.576218774300e+02 1.328746570340e+01 0.0 
1.328746570340e+01 -3.779074646847e+02 0.0 
0.0 0.0 -1.602588026344e+02 
-9.967937914860e+01 1.466371271500e+00 0.0 
1.466371271500e+00 -2.698893300272e+02 0.0 
0.0 0.0 -1.112472157886e+02 
-9.474257037528e+01 1.375846739224e+00 0.0 
1.375846739224e+00 -2.614023881037e+02 0.0 
0.0 0.0 -1.085947804266e+02 
-8.860831656598e+01 -1.609636182018e+00 0.0 
-1.609636182018e+00 -2.433439294146e+02 0.0 
0.0 0.0 -1.015185778711e+02 
-8.972396191284e+01 -6.175712551327e+00 0.0 
-6.175712551327e+00 -2.024398909216e+02 0.0 
0.0 0.0 -8.222494112417e+01 
-9.248731806204e+01 -5.929808094258e+00 0.0 
-5.929808094258e+00 -2.144560564469e+02 0.0 
0.0 0.0 -8.744690099373e+01 
-9.894889951804e+01 -4.330140606558e+00 0.0 
-4.330140606558e+00 -2.341634192740e+02 0.0 
0.0 0.0 -9.571697537590e+01 
-8.639898986722e+01 -6.065595214343e+00 0.0 
-6.065595214343e+00 -1.902938950140e+02 0.0 
0.0 0.0 -7.694494837067e+01 
-9.686837514758e+01 2.499314965582e+01 0.0 
2.499314965582e+01 -2.457839347709e+02 0.0 
0.0 0.0 -1.023867995056e+02 
-1.585240900009e+02 1.178107508056e+01 0.0 
1.178107508056e+01 -3.796165744279e+02 0.0 
0.0 0.0 -1.610421993286e+02 
-8.711881937275e+01 7.734511753886e+00 0.0 
7.734511753886e+00 -2.596542151569e+02 0.0 
0.0 0.0 -1.088154681145e+02 
-8.795426729974e+01 -7.220777870832e+00 0.0 
-7.220777870832e+00 -2.064739231807e+02 0.0 
0.0 0.0 -8.462275225600e+01 
-6.298017122772e+01 4.163590366211e+00 0.0 
4.163590366211e+00 -9.766131672505e+01 0.0 
0.0 0.0 -4.779244638583e+01 
-7.133919199214e+01 6.006697208608e+00 0.0 
6.006697208608e+00 -1.161179728842e+02 0.0 
0.0 0.0 -5.583714946291e+01 
-7.320144835054e+01 7.598223169604e+00 0.0 
7.598223169604e+00 -1.177138374076e+02 0.0 
0.0 0.0 -5.687458572743e+01 
-8.019987050625e+01 8.388660301604e+00 0.0 
8.388660301604e+00 -1.368284862879e+02 0.0 
0.0 0.0 -6.470850703825e+01 
-7.069378503228e+01 5.103931565552e+00 0.0 
5.103931565552e+00 -1.169723377520e+02 0.0 
0.0 0.0 -5.589983683528e+01 
-1.041424151566e+02 -3.004227176999e+00 0.0 
-3.004227176999e+00 -2.385656296116e+02 0.0 
0.0 0.0 -9.857586108360e+01 
-1.075840917148e+02 -2.188461305980e+00 0.0 
-2.188461305980e+00 -2.467753508629e+02 0.0 
0.0 0.0 -1.024588418977e+02 
-1.048022506515e+02 -2.157736475515e+00 0.0 
-2.157736475515e+00 -2.354181711881e+02 0.0 
0.0 0.0 -9.776735432657e+01 
-1.108471210703e+02 -1.454905424608e+00 0.0 
-1.454905424608e+00 -2.550680582389e+02 0.0 
0.0 0.0 -1.062932702190e+02 
-1.078809559367e+02 -1.327004107870e+00 0.0 
-1.327004107870e+00 -2.433988546351e+02 0.0 
0.0 0.0 -1.014332653519e+02 
-1.020104295009e+02 -1.828362365640e+00 0.0 
-1.828362365640e+00 -2.250370925067e+02 0.0 
0.0 0.0 -9.351602680484e+01 
-1.138364893455e+02 -8.041406939706e-01 0.0 
-8.041406939706e-01 -2.630733938795e+02 0.0 
0.0 0.0 -1.099463312729e+02 
-1.103038615541e+02 -7.542436045475e-01 0.0 
-7.542436045475e-01 -2.502146047736e+02 0.0 
0.0 0.0 -1.044824188094e+02 
-6.050336837554e+01 2.598295294763e+00 0.0 
2.598295294763e+00 -9.634338047069e+01 0.0 
0.0 0.0 -4.665402465387e+01 
-4.810766462505e+01 -2.413231272894e+01 0.0 
-2.413231272894e+01 -4.726049127781e+01 0.0 
0.0 0.0 -2.857294886042e+01 
-4.399965605751e+01 -2.442230464074e+01 0.0 
-2.442230464074e+01 -5.892437931288e+01 0.0 
0.0 0.0 -2.707570033180e+01 
-3.875977980863e+01 -1.559831489751e+01 0.0 
-1.559831489751e+01 -4.466861034875e+01 0.0 
0.0 0.0 -1.972865761942e+01 
-4.535828243168e+01 -2.195884674921e+01 0.0 
-2.195884674921e+01 -7.229613632712e+01 0.0 
0.0 0.0 -2.879214652978e+01 
-4.308120596309e+01 -2.448108425742e+01 0.0 
-2.448108425742e+01 -8.849464802256e+01 0.0 
0.0 0.0 -3.577242992954e+01 
-4.582907535471e+01 -2.154614748069e+01 0.0 
-2.154614748069e+01 -9.917146128817e+01 0.0 
0.0 0.0 -3.785720036728e+01 
-4.173509238215e+01 -2.078080582036e+01 0.0 
-2.078080582036e+01 -1.081374932961e+02 0.0 
0.0 0.0 -4.057559991626e+01 
-4.298081061850e+01 -2.818510140902e+01 0.0 
-2.818510140902e+01 -8.219206536111e+01 0.0 
0.0 0.0 -3.759147017992e+01 
-2.556795706314e+01 -6.174054677461e+00 0.0 
-6.174054677461e+00 -2.017137890029e+01 0.0 
0.0 0.0 -1.199989485630e+01 
-3.241269775476e+01 -9.574515944269e+00 0.0 
-9.574515944269e+00 -3.905591189806e+01 0.0 
0.0 0.0 -1.740909556807e+01 
-1.947438165132e+01 -2.889876078416e+00 0.0 
-2.889876078416e+00 -1.836428190334e+01 0.0 
0.0 0.0 -9.927868093172e+00 
-2.692048291026e+01 -5.971870034882e+00 0.0 
-5.971870034882e+00 -3.604085649264e+01 0.0 
0.0 0.0 -1.556292815216e+01 
-3.867364598697e+01 -1.163445904685e+01 0.0 
-1.163445904685e+01 -5.913873663313e+01 0.0 
0.0 0.0 -2.418544341023e+01 
-4.016587627478e+01 -1.000616349077e+01 0.0 
-1.000616349077e+01 -8.171099580107e+01 0.0 
0.0 0.0 -3.282704145793e+01 
-1.612987590861e+02 1.899338556486e+00 0.0 
1.899338556486e+00 -3.820232636446e+02 0.0 
0.0 0.0 -1.625966068192e+02 
-9.110506009907e+01 -9.689114402633e-01 0.0 
-9.689114402633e-01 -1.932964726081e+02 0.0 
0.0 0.0 -8.010419105999e+01 
-8.685568766275e+01 -2.031904870683e+00 0.0 
-2.031904870683e+00 -1.835698320090e+02 0.0 
0.0 0.0 -7.573424908073e+01 
-7.832189063570e+01 -2.160031937921e+00 0.0 
-2.160031937921e+00 -1.636828992176e+02 0.0 
0.0 0.0 -6.719839363394e+01 
-8.279596682717e+01 -3.060347731581e+00 0.0 
-3.060347731581e+00 -1.748918904174e+02 0.0 
0.0 0.0 -7.166458720805e+01 
-9.410004252899e+01 -1.789723065864e+00 0.0 
-1.789723065864e+00 -2.016463741263e+02 0.0 
0.0 0.0 -8.352781722372e+01 
-7.304333480426e+01 -1.108807985229e+00 0.0 
-1.108807985229e+00 -1.524126269724e+02 0.0 
0.0 0.0 -6.252727037566e+01 
-6.890458268721e+01 -2.174292518278e+00 0.0 
-2.174292518278e+00 -1.452419740296e+02 0.0 
0.0 0.0 -5.921404926933e+01 
-9.746037636629e+00 -2.914674959033e-02 0.0 
-2.914674959033e-02 -1.722384269664e+01 0.0 
0.0 0.0 -6.021777306845e+00 
-1.164557165159e+01 -1.739059662898e-01 0.0 
-1.739059662898e-01 -3.366899390170e+01 0.0 
0.0 0.0 -1.090669535861e+01 
-1.134816640254e+01 -2.272761056897e-01 0.0 
-2.272761056897e-01 -3.197754687430e+01 0.0 
0.0 0.0 -1.034161442257e+01 
-1.432682903012e+01 -4.565078292784e-01 0.0 
-4.565078292784e-01 -5.042044837520e+01 0.0 
0.0 0.0 -1.736857625355e+01 
-1.475853535250e+01 -5.925178134716e-01 0.0 
-5.925178134716e-01 -5.017741267162e+01 0.0 
0.0 0.0 -1.739264884154e+01 
-1.224062584111e+01 -3.786702351299e-01 0.0 
-3.786702351299e-01 -3.410778833826e+01 0.0 
0.0 0.0 -1.119192096072e+01 
-1.256228363838e+01 -6.460238898880e-01 0.0 
-6.460238898880e-01 -3.412718857715e+01 0.0 
0.0 0.0 -1.137145104810e+01 
-1.023238682418e+01 -2.742290821016e-01 0.0 
-2.742290821016e-01 -1.705380293324e+01 0.0 
0.0 0.0 -6.110855449745e+00 
-1.305495909716e+01 -7.647481340313e-01 0.0 
-7.647481340313e-01 -3.387551829551e+01 0.0 
0.0 0.0 -1.160796021520e+01 
-1.640631468391e+01 -1.378301996575e+00 0.0 
-1.378301996575e+00 -5.109039809533e+01 0.0 
0.0 0.0 -1.818068899151e+01 
-1.052341816143e+01 -3.404185348077e-01 0.0 
-3.404185348077e-01 -1.645052114054e+01 0.0 
0.0 0.0 -6.095958330529e+00 
-9.030228731585e+01 6.503744888528e-01 0.0 
6.503744888528e-01 -1.882519627533e+02 0.0 
0.0 0.0 -8.316627502073e+01 
-9.401496081738e+01 1.249101672121e+00 0.0 
1.249101672121e+00 -1.992222636460e+02 0.0 
0.0 0.0 -8.757116733901e+01 
-1.594015064892e+02 8.838881284720e+00 0.0 
8.838881284720e+00 -3.812524251707e+02 0.0 
0.0 0.0 -1.617961794980e+02 
-5.939831893160e+01 1.770124776700e+00 0.0 
1.770124776700e+00 -9.799493444260e+01 0.0 
0.0 0.0 -4.681797601226e+01 
-1.391671331896e+01 -5.522850639810e-01 0.0 
-5.522850639810e-01 -1.691526156455e+01 0.0 
0.0 0.0 -8.565463811620e+00 
-1.139011306103e+02 4.259379146844e+00 0.0 
4.259379146844e+00 -2.601387010879e+02 0.0 
0.0 0.0 -1.118119495095e+02 
-1.161724158150e+02 7.805637903197e+00 0.0 
7.805637903197e+00 -2.650701985684e+02 0.0 
0.0 0.0 -1.139727843150e+02 
-1.157844237046e+02 6.555624706649e+00 0.0 
6.555624706649e+00 -2.647578986123e+02 0.0 
0.0 0.0 -1.137626966951e+02 
-1.465576952287e+02 3.394849062005e-01 0.0 
3.394849062005e-01 -3.521889907223e+02 0.0 
0.0 0.0 -1.492240057853e+02 
-1.512884632420e+02 7.902956146791e-01 0.0 
7.902956146791e-01 -3.617571053234e+02 0.0 
0.0 0.0 -1.535136705696e+02 
-1.135552441150e+02 2.374264175561e+00 0.0 
2.374264175561e+00 -2.602206708632e+02 0.0 
0.0 0.0 -1.117327744935e+02 
-5.977038132575e+01 -1.116028973768e+01 0.0 
-1.116028973768e+01 -1.318474745962e+02 0.0 
0.0 0.0 -5.340970526700e+01 
-1.192379303851e+02 2.004779302925e+01 0.0 
2.004779302925e+01 -2.590731677955e+02 0.0 
0.0 0.0 -1.130933294542e+02 
-1.034489411467e+02 4.270083519333e+00 0.0 
4.270083519333e+00 -2.247873677207e+02 0.0 
0.0 0.0 -9.807089266021e+01 
-3.971045468114e+01 2.277023665455e+01 0.0 
2.277023665455e+01 -1.170206469941e+02 0.0 
0.0 0.0 -4.256125689976e+01 
-5.755643731890e+01 -1.585564887577e+01 0.0 
-1.585564887577e+01 -1.315149160128e+02 0.0 
0.0 0.0 -5.379392081400e+01 
-1.220341527189e+02 -9.353120234487e-02 0.0 
-9.353120234487e-02 -2.940053818743e+02 0.0 
0.0 0.0 -1.232683394572e+02 
-1.101919332711e+02 -1.040506539746e+00 0.0 
-1.040506539746e+00 -2.726680412584e+02 0.0 
0.0 0.0 -1.127201132384e+02 
-1.369011320981e+02 1.633069259213e+00 0.0 
1.633069259213e+00 -3.349302016081e+02 0.0 
0.0 0.0 -1.411494001119e+02 
-1.155744434411e+02 -8.681023269401e-01 0.0 
-8.681023269401e-01 -2.774669716019e+02 0.0 
0.0 0.0 -1.156371071362e+02 
-1.277497452493e+02 1.882440836856e+00 0.0 
1.882440836856e+00 -3.187235710141e+02 0.0 
0.0 0.0 -1.334972443684e+02 
-1.450413622879e+02 1.449758334596e+01 0.0 
1.449758334596e+01 -3.580617296301e+02 0.0 
0.0 0.0 -1.505309275754e+02 
-2.762399388168e+01 -2.209714163402e+00 0.0 
-2.209714163402e+00 -7.992045166636e+01 0.0 
0.0 0.0 -3.047881253848e+01 
-8.003796886833e+01 3.499541269948e+00 0.0 
3.499541269948e+00 -1.514997713416e+02 0.0 
0.0 0.0 -6.906132206297e+01 
-7.548821776786e+01 1.872206728308e+00 0.0 
1.872206728308e+00 -1.437859931885e+02 0.0 
0.0 0.0 -6.538226328692e+01 
-9.381159561703e+01 4.044390498020e+00 0.0 
4.044390498020e+00 -1.935351090571e+02 0.0 
0.0 0.0 -8.580401140225e+01 
-6.338832957069e+01 -6.748789266180e+00 0.0 
-6.748789266180e+00 -1.365568259439e+02 0.0 
0.0 0.0 -5.406591627644e+01 
-9.835886510594e+01 -2.744785396229e+00 0.0 
-2.744785396229e+00 -2.161169060120e+02 0.0 
0.0 0.0 -8.937853465394e+01 
-3.668435065452e+01 -6.809790902602e+00 0.0 
-6.809790902602e+00 -8.588981801665e+01 0.0 
0.0 0.0 -3.300230249308e+01 
-1.311824066799e+02 2.760294905895e+01 0.0 
2.760294905895e+01 -3.082727367471e+02 0.0 
0.0 0.0 -1.314365430281e+02 
-7.787823215872e+01 2.418815049534e+01 0.0 
2.418815049534e+01 -1.325070602676e+02 0.0 
0.0 0.0 -6.027789644643e+01 
-8.775181662542e+01 -4.208599830402e+00 0.0 
-4.208599830402e+00 -2.331581093494e+02 0.0 
0.0 0.0 -9.699137872411e+01 
-8.202102134675e+01 -7.455934828425e+00 0.0 
-7.455934828425e+00 -1.820402526541e+02 0.0 
0.0 0.0 -7.383947609579e+01 
-6.423632128178e+01 -1.234603332450e+01 0.0 
-1.234603332450e+01 -1.448878894412e+02 0.0 
0.0 0.0 -5.917881582463e+01 
-5.528137739094e+01 -1.687470485796e+01 0.0 
-1.687470485796e+01 -1.264227458408e+02 0.0 
0.0 0.0 -5.118544802846e+01 
-6.792583403704e+01 2.890418240365e+01 0.0 
2.890418240365e+01 -1.702447145351e+02 0.0 
0.0 0.0 -7.082957396572e+01 
-9.012325591643e+01 -6.444501162090e+00 0.0 
-6.444501162090e+00 -2.183774244981e+02 0.0 
0.0 0.0 -8.986654816976e+01 
-1.172886618896e+02 3.246805428625e+00 0.0 
3.246805428625e+00 -3.048597815830e+02 0.0 
0.0 0.0 -1.262051909222e+02 
-9.697742076588e+01 3.721557372749e+00 0.0 
3.721557372749e+00 -2.044953995326e+02 0.0 
0.0 0.0 -9.004184608954e+01 
-1.242669159662e+01 -4.564729569839e-01 0.0 
-4.564729569839e-01 -1.888833788128e+01 0.0 
0.0 0.0 -8.062787344977e+00 
-1.213891605729e+02 4.784976043064e+00 0.0 
4.784976043064e+00 -3.150308177848e+02 0.0 
0.0 0.0 -1.305259935073e+02 
-1.022040572231e+02 -2.159981414783e+00 0.0 
-2.159981414783e+00 -2.568308060109e+02 0.0 
0.0 0.0 -1.053659502010e+02 
-8.544238968124e+01 5.966279089204e+00 0.0 
5.966279089204e+00 -1.602189003680e+02 0.0 
0.0 0.0 -7.329838701477e+01 
-1.104823208989e+02 1.654907692443e+01 0.0 
1.654907692443e+01 -2.977151316908e+02 0.0 
0.0 0.0 -1.222793052828e+02 
-4.907628050069e+01 -2.009387727175e+01 0.0 
-2.009387727175e+01 -1.011547391001e+02 0.0 
0.0 0.0 -3.896544859406e+01 
-9.826366602492e+01 6.648175900429e+00 0.0 
6.648175900429e+00 -2.019020850103e+02 0.0 
0.0 0.0 -8.964972531056e+01 
-1.121736460526e+02 1.281512733414e+01 0.0 
1.281512733414e+01 -2.418177223918e+02 0.0 
0.0 0.0 -1.057974105333e+02 
-7.922831235524e+01 6.452439864206e+00 0.0 
6.452439864206e+00 -1.390327491010e+02 0.0 
0.0 0.0 -6.507831843686e+01 
-2.564267931396e+01 -4.419312780125e+00 0.0 
-4.419312780125e+00 -6.528606238083e+01 0.0 
0.0 0.0 -2.444531727058e+01 
-7.207952322692e+01 2.585325727443e+00 0.0 
2.585325727443e+00 -1.310659707850e+02 0.0 
0.0 0.0 -6.054364820357e+01 
-1.413207146047e+02 9.433414575850e+00 0.0 
9.433414575850e+00 -3.523072187689e+02 0.0 
0.0 0.0 -1.476883800121e+02 
-1.022958848850e+02 1.286519410076e+01 0.0 
1.286519410076e+01 -2.027355122929e+02 0.0 
0.0 0.0 -9.110941915336e+01 
-5.717820997555e+01 -5.495529432987e+00 0.0 
-5.495529432987e+00 -1.243260770709e+02 0.0 
0.0 0.0 -4.882360236432e+01 
-7.490518491015e+01 7.584752693233e+00 0.0 
7.584752693233e+00 -2.330332134798e+02 0.0 
0.0 0.0 -9.704367221888e+01 
-7.519562170999e+01 2.914826074834e+01 0.0 
2.914826074834e+01 -1.595245326397e+02 0.0 
0.0 0.0 -6.728428007393e+01 
-6.299325714474e+01 8.890293543842e+00 0.0 
8.890293543842e+00 -8.310817481312e+01 0.0 
0.0 0.0 -4.224400420779e+01 
-1.064369396646e+02 5.274551737237e+00 0.0 
5.274551737237e+00 -2.337465213913e+02 0.0 
0.0 0.0 -1.016550383168e+02 
-7.693348512928e+01 2.348019756973e+01 0.0 
2.348019756973e+01 -2.148737718246e+02 0.0 
0.0 0.0 -8.949907214307e+01 
-1.219778437588e+02 1.471467664614e+01 0.0 
1.471467664614e+01 -3.197850421948e+02 0.0 
0.0 0.0 -1.321288657861e+02 
-9.052887510301e+01 1.058351936464e+01 0.0 
1.058351936464e+01 -2.667935974814e+02 0.0 
0.0 0.0 -1.110776363099e+02 
-6.213506060456e+01 -4.341950130519e+00 0.0 
-4.341950130519e+00 -1.330442289040e+02 0.0 
0.0 0.0 -5.295955501085e+01 
-1.319587246613e+02 4.214729043437e+00 0.0 
4.214729043437e+00 -3.317472767882e+02 0.0 
0.0 0.0 -1.387118004348e+02 
-7.136059519498e+01 1.685619500442e+01 0.0 
1.685619500442e+01 -2.184870606912e+02 0.0 
0.0 0.0 -9.028771173656e+01 
-1.046969192520e+02 7.634550254257e+00 0.0 
7.634550254257e+00 -2.224613183124e+02 0.0 
0.0 0.0 -9.774747126932e+01 
-1.032231940583e+02 2.611959128166e+01 0.0 
2.611959128166e+01 -2.402025456013e+02 0.0 
0.0 0.0 -1.026277218979e+02 
-6.043795039426e+01 9.318850386444e+00 0.0 
9.318850386444e+00 -1.940964699559e+02 0.0 
0.0 0.0 -7.520866137856e+01 
-1.031947753363e+02 1.006538456311e+01 0.0 
1.006538456311e+01 -2.114913964051e+02 0.0 
0.0 0.0 -9.400585152242e+01 
-8.242317084612e+01 -2.098652459857e+00 0.0 
-2.098652459857e+00 -2.350841069596e+02 0.0 
0.0 0.0 -9.796996289579e+01 
-1.156514391118e+02 1.841008275052e+01 0.0 
1.841008275052e+01 -3.041993428352e+02 0.0 
0.0 0.0 -1.255552345841e+02 
-7.466473307926e+01 2.609551465693e+01 0.0 
2.609551465693e+01 -1.282580007522e+02 0.0 
0.0 0.0 -5.702809044697e+01 
-8.929285277269e+01 2.718057097328e+01 0.0 
2.718057097328e+01 -2.015955243861e+02 0.0 
0.0 0.0 -8.626545803613e+01 
-9.821960957049e+01 2.345299158403e+01 0.0 
2.345299158403e+01 -2.007471737600e+02 0.0 
0.0 0.0 -8.929003499914e+01 
-8.357332097637e+01 2.657890828234e+01 0.0 
2.657890828234e+01 -2.096238408293e+02 0.0 
0.0 0.0 -8.714069386130e+01 
-1.195500506826e+02 -3.971764292851e-01 0.0 
-3.971764292851e-01 -2.830509946987e+02 0.0 
0.0 0.0 -1.186045017951e+02 
-1.267251646435e+02 4.500051745599e+00 0.0 
4.500051745599e+00 -3.234462476046e+02 0.0 
0.0 0.0 -1.346514236744e+02 
-3.833564551506e+01 -7.341274409041e+00 0.0 
-7.341274409041e+00 -1.322249824039e+02 0.0 
0.0 0.0 -4.973663305926e+01 
-5.657369467977e+01 3.140941788174e+01 0.0 
3.140941788174e+01 -1.339959558052e+02 0.0 
0.0 0.0 -5.574373312238e+01 
-8.698587599707e+01 7.761703799403e+00 0.0 
7.761703799403e+00 -1.599697107580e+02 0.0 
0.0 0.0 -7.368667602652e+01 
-1.188135463243e+02 2.578204702466e+01 0.0 
2.578204702466e+01 -2.872188151132e+02 0.0 
0.0 0.0 -1.214097084312e+02 
-1.107465733087e+02 8.455801685961e+00 0.0 
8.455801685961e+00 -2.428898243873e+02 0.0 
0.0 0.0 -1.056909193088e+02 
-6.920869242298e+01 2.999930309777e+01 0.0 
2.999930309777e+01 -1.399280284126e+02 0.0 
0.0 0.0 -5.932535348832e+01 
-1.273655122553e+02 3.031963455262e+00 0.0 
3.031963455262e+00 -3.212519936802e+02 0.0 
0.0 0.0 -1.341852517806e+02 
-1.089517505011e+02 1.117217310435e+01 0.0 
1.117217310435e+01 -2.317133561187e+02 0.0 
0.0 0.0 -1.017995319859e+02 
-9.475564720769e+01 -5.302549803237e+00 0.0 
-5.302549803237e+00 -2.262360098447e+02 0.0 
0.0 0.0 -9.257721032261e+01 
-3.549537487047e+01 -8.351250542276e-01 0.0 
-8.351250542276e-01 -9.154342305114e+01 0.0 
0.0 0.0 -3.585232329511e+01 
-3.920838136747e+01 2.642699108951e+01 0.0 
2.642699108951e+01 -1.039120890066e+02 0.0 
0.0 0.0 -3.987500486308e+01 
-4.998721365100e+01 8.388577449007e+00 0.0 
8.388577449007e+00 -1.667170204545e+02 0.0 
0.0 0.0 -6.150119922183e+01 
-7.286809587775e+01 2.211992924573e+01 0.0 
2.211992924573e+01 -2.106309825893e+02 0.0 
0.0 0.0 -8.759709402588e+01 
-1.008015702521e+02 -3.450506675118e+00 0.0 
-3.450506675118e+00 -2.456256230494e+02 0.0 
0.0 0.0 -1.006011348548e+02 
-1.180663150111e+02 1.771470801914e+01 0.0 
1.771470801914e+01 -2.584731016441e+02 0.0 
0.0 0.0 -1.125618249966e+02 
-1.323196454170e+02 2.860363302842e+00 0.0 
2.860363302842e+00 -3.293791738329e+02 0.0 
0.0 0.0 -1.381096457750e+02 
-1.143879095638e+02 7.557355038383e+00 0.0 
7.557355038383e+00 -3.067848392262e+02 0.0 
0.0 0.0 -1.259518246370e+02 
-4.711563458037e+01 3.462788293579e+01 0.0 
3.462788293579e+01 -4.392013955744e+01 0.0 
0.0 0.0 -2.481428361799e+01 
-6.851845859885e+01 1.233972215148e+01 0.0 
1.233972215148e+01 -9.486351096673e+01 0.0 
0.0 0.0 -4.719873434037e+01 
-1.372106761283e+02 2.645360752262e+00 0.0 
2.645360752262e+00 -3.375856749528e+02 0.0 
0.0 0.0 -1.420389053243e+02 
-7.936849244135e+01 5.649742751238e+00 0.0 
5.649742751238e+00 -2.422435403791e+02 0.0 
0.0 0.0 -1.015352263187e+02 
-1.210667873003e+02 1.750005582289e+01 0.0 
1.750005582289e+01 -3.153053178677e+02 0.0 
0.0 0.0 -1.305116315504e+02 
-1.043509784880e+02 -1.099708326624e+00 0.0 
-1.099708326624e+00 -2.311924683503e+02 0.0 
0.0 0.0 -9.632826985415e+01 
-1.323563377783e+02 2.736666705267e+01 0.0 
2.736666705267e+01 -3.138876258747e+02 0.0 
0.0 0.0 -1.334731890959e+02 
-5.731393181383e+01 2.112993629499e+01 0.0 
2.112993629499e+01 -6.665520612926e+01 0.0 
0.0 0.0 -3.188435385454e+01 
-1.420499168446e+02 2.360663263509e+00 0.0 
2.360663263509e+00 -3.461008605079e+02 0.0 
0.0 0.0 -1.460452332058e+02 
-1.126612980486e+02 1.041145752628e+01 0.0 
1.041145752628e+01 -3.052049366087e+02 0.0 
0.0 0.0 -1.251277948080e+02 
-5.140497398038e+01 2.576781164665e+01 0.0 
2.576781164665e+01 -1.457782640084e+02 0.0 
0.0 0.0 -5.624576645431e+01 
-5.532054114991e+01 2.852865357165e-01 0.0 
2.852865357165e-01 -9.510481127894e+01 0.0 
0.0 0.0 -4.472760572865e+01 
-1.532716666320e+02 2.768626490065e+00 0.0 
2.768626490065e+00 -3.675300408390e+02 0.0 
0.0 0.0 -1.558405122413e+02 
-1.233622722393e+02 1.181185905277e+01 0.0 
1.181185905277e+01 -3.233082876884e+02 0.0 
0.0 0.0 -1.336011679783e+02 
-8.948467035714e+01 2.574040661701e+01 0.0 
2.574040661701e+01 -2.277478841896e+02 0.0 
0.0 0.0 -9.464745434156e+01 
-7.771295089976e+01 1.928633184846e+00 0.0 
1.928633184846e+00 -2.348646628816e+02 0.0 
0.0 0.0 -9.788642906600e+01 
-5.727543586842e+01 1.085191327750e+01 0.0 
1.085191327750e+01 -6.483348743196e+01 0.0 
0.0 0.0 -3.362649088202e+01 
-1.047462931493e+02 -2.718424906810e+00 0.0 
-2.718424906810e+00 -2.535196875057e+02 0.0 
0.0 0.0 -1.041440087464e+02 
-9.308999231274e+01 2.654588382010e+01 0.0 
2.654588382010e+01 -2.056372420239e+02 0.0 
0.0 0.0 -8.901788807525e+01 
-1.201605791164e+02 1.515083704746e+01 0.0 
1.515083704746e+01 -2.729472977028e+02 0.0 
0.0 0.0 -1.175323630458e+02 
-1.278740434862e+02 1.384921000473e+01 0.0 
1.384921000473e+01 -3.301197648652e+02 0.0 
0.0 0.0 -1.369981425054e+02 
-9.444854606665e+01 1.507678351396e+01 0.0 
1.507678351396e+01 -1.749628445275e+02 0.0 
0.0 0.0 -8.042341717825e+01 
-1.028275929145e+02 -3.475345323689e+00 0.0 
-3.475345323689e+00 -2.420530878015e+02 0.0 
0.0 0.0 -9.937669719472e+01 
-9.445409050891e+01 2.022447076827e+01 0.0 
2.022447076827e+01 -2.619620898329e+02 0.0 
0.0 0.0 -1.076194473400e+02 
-1.535646996607e+01 -8.586765601945e-01 0.0 
-8.586765601945e-01 -5.039993339522e+01 0.0 
0.0 0.0 -1.764110554820e+01 
-6.341474616788e+01 1.565171667032e+01 0.0 
1.565171667032e+01 -7.884871950040e+01 0.0 
0.0 0.0 -3.930540101926e+01 
-1.064969688214e+02 -2.686051138303e+00 0.0 
-2.686051138303e+00 -2.500280346436e+02 0.0 
0.0 0.0 -1.033032746822e+02 
-5.328778809018e+01 3.530657763274e+00 0.0 
3.530657763274e+00 -1.751116754807e+02 0.0 
0.0 0.0 -6.564542290802e+01 
-8.332689922397e+01 1.282512402047e+00 0.0 
1.282512402047e+00 -2.438774841369e+02 0.0 
0.0 0.0 -1.020023279113e+02 
-1.360221369365e+02 2.287777832172e+01 0.0 
2.287777832172e+01 -3.342152126060e+02 0.0 
0.0 0.0 -1.406712048627e+02 
-1.100021861888e+02 -1.958696873771e+00 0.0 
-1.958696873771e+00 -2.581271033655e+02 0.0 
0.0 0.0 -1.071597435012e+02 
-5.851403300858e+01 4.504033138979e+00 0.0 
4.504033138979e+00 -1.888359402760e+02 0.0 
0.0 0.0 -7.257675755180e+01 
-1.133393952131e+02 -1.312191277895e+00 0.0 
-1.312191277895e+00 -2.662907530719e+02 0.0 
0.0 0.0 -1.109653233990e+02 
-5.120295149754e+01 1.471797615888e+01 0.0 
1.471797615888e+01 -4.825320571250e+01 0.0 
0.0 0.0 -2.514044272414e+01 
-9.829262408566e+01 1.729340989822e+01 0.0 
1.729340989822e+01 -1.877076234047e+02 0.0 
0.0 0.0 -8.540007424710e+01 
-1.165133716568e+02 -7.559440104743e-01 0.0 
-7.559440104743e-01 -2.744928677133e+02 0.0 
0.0 0.0 -1.147470820737e+02 
-1.000474471165e+02 2.604327499043e+01 0.0 
2.604327499043e+01 -2.253281739205e+02 0.0 
0.0 0.0 -9.721268631109e+01 
-1.828020121409e+01 -1.839051441580e+00 0.0 
-1.839051441580e+00 -5.281406905515e+01 0.0 
0.0 0.0 -1.920236602015e+01 
-9.208143478730e+01 2.432671557852e+01 0.0 
2.432671557852e+01 -2.413890349524e+02 0.0 
0.0 0.0 -9.986292860287e+01 
-1.413919245533e+02 6.293228767989e-01 0.0 
6.293228767989e-01 -3.419074635909e+02 0.0 
0.0 0.0 -1.445898164433e+02 
-7.045861299588e+01 -1.296910451397e+01 0.0 
-1.296910451397e+01 -1.711247005197e+02 0.0 
0.0 0.0 -7.038417640496e+01 
-8.934625861718e+01 1.318674917780e+00 0.0 
1.318674917780e+00 -2.526884445125e+02 0.0 
0.0 0.0 -1.056459048714e+02 
-1.048452525913e+02 1.839057839067e+01 0.0 
1.839057839067e+01 -2.091818190239e+02 0.0 
0.0 0.0 -9.380812148456e+01 
-4.702477222865e+01 2.096102764127e+01 0.0 
2.096102764127e+01 -3.793710326211e+01 0.0 
0.0 0.0 -2.022978855185e+01 
-9.610798898540e+01 3.994746904735e+00 0.0 
3.994746904735e+00 -2.704073325004e+02 0.0 
0.0 0.0 -1.121985026751e+02 
-1.076279274231e+02 2.587242695808e+01 0.0 
2.587242695808e+01 -2.450069343733e+02 0.0 
0.0 0.0 -1.053904585389e+02 
-9.541899095772e+01 2.283841217672e+01 0.0 
2.283841217672e+01 -2.543723320550e+02 0.0 
0.0 0.0 -1.048571909813e+02 
-7.896018367786e+01 2.119789814118e+01 0.0 
2.119789814118e+01 -2.274751478551e+02 0.0 
0.0 0.0 -9.487192266541e+01 
-1.045557040877e+02 5.894522031643e+00 0.0 
5.894522031643e+00 -2.884450929889e+02 0.0 
0.0 0.0 -1.183689394124e+02 
-5.152576795025e+01 2.680054741444e+01 0.0 
2.680054741444e+01 -6.149888970100e+01 0.0 
0.0 0.0 -2.927829872897e+01 
-5.615044961842e+01 -1.283842364848e+01 0.0 
-1.283842364848e+01 -1.238014149185e+02 0.0 
0.0 0.0 -5.042557166359e+01 
-4.813641803342e+01 -1.211363793909e+01 0.0 
-1.211363793909e+01 -1.027909419549e+02 0.0 
0.0 0.0 -4.168684786803e+01 
-6.212753905313e+01 7.626432943133e-01 0.0 
7.626432943133e-01 -1.962890176265e+02 0.0 
0.0 0.0 -7.706062520315e+01 
-1.117181134340e+02 2.550996689087e+01 0.0 
2.550996689087e+01 -2.502246281056e+02 0.0 
0.0 0.0 -1.081828224619e+02 
-1.945144325844e+01 -1.081075219454e+00 0.0 
-1.081075219454e+00 -6.700328289959e+01 0.0 
0.0 0.0 -2.479037382663e+01 
-1.053353327327e+02 2.123055750682e+01 0.0 
2.123055750682e+01 -2.145170531538e+02 0.0 
0.0 0.0 -9.555571576594e+01 
-3.963678625712e+01 -1.012169412021e+01 0.0 
-1.012169412021e+01 -7.466741504077e+01 0.0 
0.0 0.0 -3.013450985610e+01 
-6.090425940580e+01 -4.043345602769e+00 0.0 
-4.043345602769e+00 -1.884984411623e+02 0.0 
0.0 0.0 -7.408810725991e+01 
-1.100149734416e+02 2.183649126417e+01 0.0 
2.183649126417e+01 -2.857683167266e+02 0.0 
0.0 0.0 -1.183349870504e+02 
-7.635878878621e+01 5.314075197296e-01 0.0 
5.314075197296e-01 -1.494600668423e+02 0.0 
0.0 0.0 -6.734565668857e+01 
-6.504065601382e+01 -6.497765412033e+00 0.0 
-6.497765412033e+00 -1.942794744276e+02 0.0 
0.0 0.0 -7.842959892449e+01 
-4.968561485912e+01 -9.720422241490e-01 0.0 
-9.720422241490e-01 -1.119315087450e+02 0.0 
0.0 0.0 -4.489061355744e+01 
-6.402780876552e+01 -1.026258000735e+01 0.0 
-1.026258000735e+01 -1.842308526539e+02 0.0 
0.0 0.0 -7.459167897158e+01 
-8.561677176613e+01 2.055887710020e+01 0.0 
2.055887710020e+01 -2.445275378607e+02 0.0 
0.0 0.0 -1.012852765944e+02 
-6.840767826471e+01 -1.124232063449e+01 0.0 
-1.124232063449e+01 -1.899992607473e+02 0.0 
0.0 0.0 -7.775262098414e+01 
-6.718479943667e+01 -1.347615709995e+01 0.0 
-1.347615709995e+01 -1.778469308976e+02 0.0 
0.0 0.0 -7.281992471101e+01 
-1.096410885478e+02 4.833011808774e+00 0.0 
4.833011808774e+00 -2.450757322362e+02 0.0 
0.0 0.0 -1.060150462352e+02 
-7.248176038301e+01 -1.218481029952e+01 0.0 
-1.218481029952e+01 -1.838259304769e+02 0.0 
0.0 0.0 -7.571314922968e+01 
-1.148555067461e+02 1.449594426540e+00 0.0 
1.449594426540e+00 -2.636419359757e+02 0.0 
0.0 0.0 -1.131492328165e+02 
-1.621202475086e+02 8.932328484330e-01 0.0 
8.932328484330e-01 -3.831619003463e+02 0.0 
0.0 0.0 -1.631846443565e+02 
-6.115525121599e+01 3.250762288409e-01 0.0 
3.250762288409e-01 -1.101538021707e+02 0.0 
0.0 0.0 -5.099271601602e+01 
-4.275955170321e+01 2.731547704060e+01 0.0 
2.731547704060e+01 -3.380392893773e+01 0.0 
0.0 0.0 -1.904097563762e+01 
-7.872443696029e+01 2.320233463541e+00 0.0 
2.320233463541e+00 -1.112425576572e+02 0.0 
0.0 0.0 -5.786984694844e+01 
-4.693325405721e+01 3.054341442192e+01 0.0 
3.054341442192e+01 -6.183962599930e+01 0.0 
0.0 0.0 -2.956879494082e+01 
-6.358784843726e+01 -1.489733263327e+01 0.0 
-1.489733263327e+01 -1.513816131517e+02 0.0 
0.0 0.0 -6.212300764475e+01 
-1.050083397731e+02 2.368377542928e+01 0.0 
2.368377542928e+01 -2.213651102574e+02 0.0 
0.0 0.0 -9.751203500913e+01 
-6.161572976488e+01 3.536314972873e-01 0.0 
3.536314972873e-01 -1.109001485593e+02 0.0 
0.0 0.0 -5.135476349727e+01 
-6.054194941256e+01 -1.427156091329e+01 0.0 
-1.427156091329e+01 -1.376589525973e+02 0.0 
0.0 0.0 -5.640239872442e+01 
-1.244901451218e+02 2.454769790279e+01 0.0 
2.454769790279e+01 -2.788232427522e+02 0.0 
0.0 0.0 -1.205940163622e+02 
-1.428916724705e+02 2.780622550524e+01 0.0 
2.780622550524e+01 -3.386938012272e+02 0.0 
0.0 0.0 -1.440756421093e+02 
-8.693209816904e+01 1.016958861833e+00 0.0 
1.016958861833e+00 -1.784268187064e+02 0.0 
0.0 0.0 -7.920767506262e+01 
-1.264792437995e+02 1.660377171710e+01 0.0 
1.660377171710e+01 -3.255724301811e+02 0.0 
0.0 0.0 -1.352155021942e+02 
-9.985997570058e+01 2.155082208908e+01 0.0 
2.155082208908e+01 -2.674110326924e+02 0.0 
0.0 0.0 -1.100086446789e+02 
-1.028192243625e+02 7.746935170610e-01 0.0 
7.746935170610e-01 -2.261783146860e+02 0.0 
0.0 0.0 -9.829926171456e+01 
-5.589090667091e+01 1.014326611434e+00 0.0 
1.014326611434e+00 -9.376298303739e+01 0.0 
0.0 0.0 -4.449616691249e+01 
-2.306329088333e+01 -3.948134106073e+00 0.0 
-3.948134106073e+00 -3.430271355613e+01 0.0 
0.0 0.0 -1.492708898291e+01 
-1.226338626113e+02 -1.017654947304e-01 0.0 
-1.017654947304e-01 -2.929940453657e+02 0.0 
0.0 0.0 -1.230232371509e+02 
-4.130176592840e+01 2.852161191487e+01 0.0 
2.852161191487e+01 -3.402876751882e+01 0.0 
0.0 0.0 -1.943541056065e+01 
-4.437639816714e+01 3.093878193368e+01 0.0 
3.093878193368e+01 -5.758655376725e+01 0.0 
0.0 0.0 -2.738556019197e+01 
-4.471102527696e+01 3.200314208095e+01 0.0 
3.200314208095e+01 -5.952817916296e+01 0.0 
0.0 0.0 -2.718328999115e+01 
-6.593802242755e+01 -3.202077705933e+00 0.0 
-3.202077705933e+00 -1.397964545696e+02 0.0 
0.0 0.0 -5.642383322982e+01 
-4.232136639867e+01 -1.605274126668e+01 0.0 
-1.605274126668e+01 -6.114723590809e+01 0.0 
0.0 0.0 -2.460065934856e+01 
-4.304282556516e+01 2.959704801127e+01 0.0 
2.959704801127e+01 -3.813538393583e+01 0.0 
0.0 0.0 -2.093147126765e+01 
-1.413749566143e+02 1.938829397635e+01 0.0 
1.938829397635e+01 -3.482738532212e+02 0.0 
0.0 0.0 -1.464946429506e+02 
-6.601404663193e+01 2.822063465440e+00 0.0 
2.822063465440e+00 -1.121067393284e+02 0.0 
0.0 0.0 -5.303623578810e+01 
-1.146254372302e+02 2.318612641837e+01 0.0 
2.318612641837e+01 -2.906820535711e+02 0.0 
0.0 0.0 -1.211922472404e+02 
-4.460265987036e+01 3.103748535893e+01 0.0 
3.103748535893e+01 -3.980234004470e+01 0.0 
0.0 0.0 -2.134221580172e+01 
-1.143334846514e+02 1.233195825402e+01 0.0 
1.233195825402e+01 -2.518020826804e+02 0.0 
0.0 0.0 -1.094406701995e+02 
-1.358016072064e+02 2.501836872799e+01 0.0 
2.501836872799e+01 -3.295972481011e+02 0.0 
0.0 0.0 -1.392196565923e+02 
-1.615037788280e+02 6.247692220518e+00 0.0 
6.247692220518e+00 -3.842399361333e+02 0.0 
0.0 0.0 -1.633231144884e+02 
-1.247049502350e+02 2.385988872025e+01 0.0 
2.385988872025e+01 -3.093852074889e+02 0.0 
0.0 0.0 -1.298270473172e+02 
-4.513729504644e+01 3.390665629676e+01 0.0 
3.390665629676e+01 -6.362353530351e+01 0.0 
0.0 0.0 -2.822463411022e+01 
-7.735751269078e+01 6.938363852580e+00 0.0 
6.938363852580e+00 -1.315573795162e+02 0.0 
0.0 0.0 -6.227446766209e+01 
-1.296615566774e+02 2.762057779777e+01 0.0 
2.762057779777e+01 -3.019942974469e+02 0.0 
0.0 0.0 -1.290967562373e+02 
-9.288606350445e+01 1.628528860049e+00 0.0 
1.628528860049e+00 -1.944153573448e+02 0.0 
0.0 0.0 -8.579042625478e+01 
-1.629417965164e+02 4.288735741548e+00 0.0 
4.288735741548e+00 -3.859280525170e+02 0.0 
0.0 0.0 -1.642609547100e+02 
-6.717668125714e+01 3.746833441914e+00 0.0 
3.746833441914e+00 -1.104423257425e+02 0.0 
0.0 0.0 -5.288570209990e+01 
-1.098066533782e+02 3.081878573042e+00 0.0 
3.081878573042e+00 -2.472298220138e+02 0.0 
0.0 0.0 -1.067109426176e+02 
-3.885437994414e+01 -1.532020310709e+01 0.0 
-1.532020310709e+01 -1.207908922926e+02 0.0 
0.0 0.0 -4.484655974752e+01 
-1.095677073804e+02 1.531606875361e+00 0.0 
1.531606875361e+00 -2.472026101979e+02 0.0 
0.0 0.0 -1.066310952735e+02 
-1.118448850933e+02 2.414935126964e+01 0.0 
2.414935126964e+01 -2.420551906255e+02 0.0 
0.0 0.0 -1.057700227156e+02 
-7.189290473897e+01 1.221848985041e+00 0.0 
1.221848985041e+00 -1.351914301386e+02 0.0 
0.0 0.0 -6.172530046327e+01 
-7.968748043742e+01 9.373892661267e+00 0.0 
9.373892661267e+00 -1.333455543116e+02 0.0 
0.0 0.0 -6.350991042472e+01 
-1.557839935698e+02 1.290810331829e+00 0.0 
1.290810331829e+00 -3.707626712228e+02 0.0 
0.0 0.0 -1.575639994378e+02 
-1.215175525596e+02 2.178765451126e+01 0.0 
2.178765451126e+01 -2.690620030437e+02 0.0 
0.0 0.0 -1.167738666810e+02 
-4.451319162282e+01 3.541648574314e+01 0.0 
3.541648574314e+01 -7.067283543727e+01 0.0 
0.0 0.0 -3.224074239289e+01 
-8.700626485091e+01 1.272066079425e+00 0.0 
1.272066079425e+00 -1.773976825192e+02 0.0 
0.0 0.0 -7.892118421102e+01 
-8.263014399140e+01 -4.025783512109e+00 0.0 
-4.025783512109e+00 -1.756407131821e+02 0.0 
0.0 0.0 -7.149304192234e+01 
-4.261739553882e+01 -2.019472948635e+01 0.0 
-2.019472948635e+01 -1.048658162072e+02 0.0 
0.0 0.0 -4.558187875397e+01 
-1.509344427849e+02 7.556713274626e+00 0.0 
7.556713274626e+00 -3.673383165121e+02 0.0 
0.0 0.0 -1.550818277891e+02 
-1.180968934889e+02 2.475250848178e+01 0.0 
2.475250848178e+01 -2.614768941578e+02 0.0 
0.0 0.0 -1.134721362940e+02 
-1.546685426308e+02 2.127225630464e+00 0.0 
2.127225630464e+00 -3.696208793517e+02 0.0 
0.0 0.0 -1.568868265948e+02 
-1.381104289114e+01 -2.885333882209e-01 0.0 
-2.885333882209e-01 -4.968519642752e+01 0.0 
0.0 0.0 -1.696893029068e+01 
-1.604876020828e+01 -1.302688620248e+00 0.0 
-1.302688620248e+00 -3.122906589013e+01 0.0 
0.0 0.0 -1.268778870570e+01 
-1.507542235792e+02 1.031989772962e+01 0.0 
1.031989772962e+01 -3.678865132716e+02 0.0 
0.0 0.0 -1.551922210552e+02 
-1.276652366201e+02 2.659968585628e+01 0.0 
2.659968585628e+01 -2.911777675931e+02 0.0 
0.0 0.0 -1.252529012640e+02 
-4.423052535426e+01 -1.812346124299e+01 0.0 
-1.812346124299e+01 -1.186173965394e+02 0.0 
0.0 0.0 -4.331461476924e+01 
-1.183677056464e+02 1.063191968247e+01 0.0 
1.063191968247e+01 -2.708649561966e+02 0.0 
0.0 0.0 -1.163697985529e+02 
-4.647917125819e+01 3.786149248510e+01 0.0 
3.786149248510e+01 -7.671181525603e+01 0.0 
0.0 0.0 -3.788792857946e+01 
-5.615792790318e+01 1.105893429915e+00 0.0 
1.105893429915e+00 -9.176448358622e+01 0.0 
0.0 0.0 -4.397672344682e+01 
-1.364126776441e+01 -7.359833349730e-01 0.0 
-7.359833349730e-01 -3.225739909390e+01 0.0 
0.0 0.0 -1.153926260644e+01 
-1.631074392458e+02 3.484565411644e+00 0.0 
3.484565411644e+00 -3.857595208769e+02 0.0 
0.0 0.0 -1.642600880368e+02 
-1.120309266844e+02 7.712394353355e+00 0.0 
7.712394353355e+00 -2.501293208115e+02 0.0 
0.0 0.0 -1.082480742488e+02 
-9.047576789151e+01 -2.649116206773e+00 0.0 
-2.649116206773e+00 -1.928472712391e+02 0.0 
0.0 0.0 -7.958701252806e+01 
-6.650953295143e+01 6.515604507088e+00 0.0 
6.515604507088e+00 -1.006615761549e+02 0.0 
0.0 0.0 -4.968928787684e+01 
-5.806488813779e+01 -2.103272086433e+00 0.0 
-2.103272086433e+00 -1.260779684136e+02 0.0 
0.0 0.0 -5.085640680081e+01 
-1.263157864124e+02 2.622748129658e+01 0.0 
2.622748129658e+01 -3.034765100814e+02 0.0 
0.0 0.0 -1.285376889481e+02 
-3.264816374792e+01 -7.912017831345e+00 0.0 
-7.912017831345e+00 -4.975416004574e+01 0.0 
0.0 0.0 -2.059511775262e+01 
-1.116716061911e+02 5.813241186778e+00 0.0 
5.813241186778e+00 -2.510864623144e+02 0.0 
0.0 0.0 -1.084274205516e+02 
-1.491612883742e+02 1.342925060977e+01 0.0 
1.342925060977e+01 -3.650490314891e+02 0.0 
0.0 0.0 -1.538630959590e+02 
-1.184654735166e+02 1.662938091450e+01 0.0 
1.662938091450e+01 -2.619481490662e+02 0.0 
0.0 0.0 -1.137240867749e+02 
-1.516267839623e+02 2.347033624701e+01 0.0 
2.347033624701e+01 -3.614065447277e+02 0.0 
0.0 0.0 -1.535099986070e+02 
-4.951119953335e+01 1.238376257314e+01 0.0 
1.238376257314e+01 -1.151605838135e+02 0.0 
0.0 0.0 -5.093281135733e+01 
-1.371366959122e+02 2.635169139603e+01 0.0 
2.635169139603e+01 -3.295880251662e+02 0.0 
0.0 0.0 -1.396174163235e+02 
-1.369443348841e+02 1.475302321761e+01 0.0 
1.475302321761e+01 -3.449373301449e+02 0.0 
0.0 0.0 -1.441644995087e+02 
-5.516607123247e+01 3.421277946047e-01 0.0 
3.421277946047e-01 -9.352378035003e+01 0.0 
0.0 0.0 -4.420695547475e+01 
-1.198600629859e+02 1.918305725753e+01 0.0 
1.918305725753e+01 -2.644194309637e+02 0.0 
0.0 0.0 -1.148838481849e+02 
-7.436379300065e+01 -3.095430115071e+00 0.0 
-3.095430115071e+00 -1.562461814695e+02 0.0 
0.0 0.0 -6.367418302684e+01 
-2.221433610397e+01 -2.633710308389e+00 0.0 
-2.633710308389e+00 -6.628294702491e+01 0.0 
0.0 0.0 -2.455448727049e+01 
-1.153524321051e+02 8.111757033489e-01 0.0 
8.111757033489e-01 -2.656476610916e+02 0.0 
0.0 0.0 -1.139000279590e+02 
-9.916196365067e+00 -6.901503741336e-02 0.0 
-6.901503741336e-02 -1.412801641244e+01 0.0 
0.0 0.0 -5.377062854306e+00 
-5.392810735697e+01 1.676817254866e-01 0.0 
1.676817254866e-01 -9.242503960412e+01 0.0 
0.0 0.0 -4.350594408833e+01 
-1.643093696285e+02 2.361946886817e-01 0.0 
2.361946886817e-01 -3.872973429231e+02 0.0 
0.0 0.0 -1.650820137655e+02 
-1.806564388150e+01 -1.437782737474e+00 0.0 
-1.437782737474e+00 -6.311871133132e+01 0.0 
0.0 0.0 -2.313525199947e+01 
-6.701658809777e+01 5.288899333176e-01 0.0 
5.288899333176e-01 -1.246203391240e+02 0.0 
0.0 0.0 -5.709107816653e+01 
-1.267284030855e+02 2.585022382414e+01 0.0 
2.585022382414e+01 -2.868613159822e+02 0.0 
0.0 0.0 -1.236769157203e+02 
-1.061865805782e+02 -5.172686488075e-01 0.0 
-5.172686488075e-01 -2.362971428584e+02 0.0 
0.0 0.0 -9.853824288234e+01 
-9.911356166501e+01 1.428347562886e+00 0.0 
1.428347562886e+00 -2.145994628036e+02 0.0 
0.0 0.0 -9.371390734058e+01 
-4.686071695885e+01 -2.037582619596e+01 0.0 
-2.037582619596e+01 -8.224270741224e+01 0.0 
0.0 0.0 -3.215835671941e+01 
-8.207509203132e+01 -6.904976000542e+00 0.0 
-6.904976000542e+00 -1.073567024617e+02 0.0 
0.0 0.0 -5.757506126561e+01 
-8.032023291497e+01 8.600449772435e-01 0.0 
8.600449772435e-01 -1.599095956219e+02 0.0 
0.0 0.0 -7.166894856107e+01 
-1.389622683264e+02 2.413203215980e+01 0.0 
2.413203215980e+01 -3.375668306765e+02 0.0 
0.0 0.0 -1.425587297009e+02 
-1.166412266273e+02 1.382188200509e+01 0.0 
1.382188200509e+01 -2.588486003708e+02 0.0 
0.0 0.0 -1.122469480994e+02 
-7.581616978831e+01 1.144272626822e+00 0.0 
1.144272626822e+00 -1.461169054677e+02 0.0 
0.0 0.0 -6.617992257679e+01 
-4.023598907487e+01 3.056776740987e+01 0.0 
3.056776740987e+01 -9.082316464111e+01 0.0 
0.0 0.0 -3.709163411077e+01 
-1.233980075540e+02 2.551919283712e+01 0.0 
2.551919283712e+01 -2.773892944533e+02 0.0 
0.0 0.0 -1.198361906022e+02 
-9.632068974853e+01 -2.291534483042e+00 0.0 
-2.291534483042e+00 -2.084544194065e+02 0.0 
0.0 0.0 -8.636350177975e+01 
-1.252579578471e+02 2.711036949364e+01 0.0 
2.711036949364e+01 -2.931805352043e+02 0.0 
0.0 0.0 -1.251315479154e+02 
-1.349868822281e+02 1.773440364435e+01 0.0 
1.773440364435e+01 -3.393196526489e+02 0.0 
0.0 0.0 -1.418919604631e+02 
-5.487992129983e+01 3.803505165731e+01 0.0 
3.803505165731e+01 -6.033334850298e+01 0.0 
0.0 0.0 -3.539846666654e+01 
-1.116138851018e+02 -3.806085630197e-01 0.0 
-3.806085630197e-01 -2.538315763473e+02 0.0 
0.0 0.0 -1.060595827616e+02 
-1.394942917995e+01 -5.682751840571e-01 0.0 
-5.682751840571e-01 -3.020856082241e+01 0.0 
0.0 0.0 -1.141992451060e+01 
-1.549734124431e+02 5.293961192455e+00 0.0 
5.293961192455e+00 -3.726534701567e+02 0.0 
0.0 0.0 -1.578880647799e+02 
-9.957472657056e+01 -1.490278795931e+00 0.0 
-1.490278795931e+00 -2.169728936236e+02 0.0 
0.0 0.0 -9.015037257426e+01 
-2.803749472467e+01 5.885696426523e+00 0.0 
5.885696426523e+00 -7.890086384165e+00 0.0 
0.0 0.0 -5.688590883422e+00 
-2.001210929541e+01 8.483404807242e-02 0.0 
8.483404807242e-02 -1.044997277057e+01 0.0 
0.0 0.0 -8.738624619792e+00 
-3.798286134619e+01 6.129571370350e+00 0.0 
6.129571370350e+00 -3.032402005332e+01 0.0 
0.0 0.0 -1.700579229104e+01 
-2.741397570843e+01 -2.048132618828e-02 0.0 
-2.048132618828e-02 -2.893203392287e+01 0.0 
0.0 0.0 -1.650380288939e+01 
-4.705974470166e+01 5.325354433638e+00 0.0 
5.325354433638e+00 -5.027451404813e+01 0.0 
0.0 0.0 -2.699652821305e+01 
-3.615851218715e+01 -6.172209275810e-02 0.0 
-6.172209275810e-02 -4.960447774731e+01 0.0 
0.0 0.0 -2.532889698034e+01 
-5.464317855087e+01 4.974556118025e+00 0.0 
4.974556118025e+00 -7.011552149404e+01 0.0 
0.0 0.0 -3.636989709735e+01 
-4.373135308434e+01 -1.407648966601e-01 0.0 
-1.407648966601e-01 -6.799872419931e+01 0.0 
0.0 0.0 -3.311902318510e+01 

TENSORS node_materi_strain_total float
2.543376300668e-03 -2.859338819601e-05 0.0 
-2.859338819601e-05 -9.613933936994e-04 0.0 
0.0 0.0 0.0 
-1.610007572433e-03 -1.395387867120e-05 0.0 
-1.395387867120e-05 1.072062999859e-02 0.0 
0.0 0.0 0.0 
-8.768888403332e-05 -3.994995123489e-05 0.0 
-3.994995123489e-05 6.031373737936e-03 0.0 
0.0 0.0 0.0 
-1.155676430374e-04 5.360689932425e-05 0.0 
5.360689932425e-05 1.369828981446e-02 0.0 
0.0 0.0 0.0 
1.990716231205e-03 -4.483388215178e-05 0.0 
-4.483388215178e-05 -5.546283645934e-04 0.0 
0.0 0.0 0.0 
1.355902803016e-03 -2.945867659965e-05 0.0 
-2.945867659965e-05 1.335723014975e-04 0.0 
0.0 0.0 0.0 
6.838390923500e-04 -5.381400207418e-05 0.0 
-5.381400207418e-05 7.787446796860e-04 0.0 
0.0 0.0 0.0 
8.906298600719e-05 -7.299571353588e-05 0.0 
-7.299571353588e-05 1.437670884096e-03 0.0 
0.0 0.0 0.0 
-4.315737809073e-04 -9.913893580276e-05 0.0 
-9.913893580276e-05 1.988992276780e-03 0.0 
0.0 0.0 0.0 
-8.046669919592e-04 -1.087040504616e-04 0.0 
-1.087040504616e-04 2.434900535261e-03 0.0 
0.0 0.0 0.0 
-1.065178807364e-03 -1.172181284716e-04 0.0 
-1.172181284716e-04 2.804059857457e-03 0.0 
0.0 0.0 0.0 
-1.223899036651e-03 -1.250591353123e-04 0.0 
-1.250591353123e-04 3.105434116325e-03 0.0 
0.0 0.0 0.0 
-1.291768913802e-03 -1.262747398517e-04 0.0 
-1.262747398517e-04 3.359486746610e-03 0.0 
0.0 0.0 0.0 
-1.295967973968e-03 -1.195004072527e-04 0.0 
-1.195004072527e-04 3.587391436761e-03 0.0 
0.0 0.0 0.0 
-1.249349429328e-03 -9.972877396897e-05 0.0 
-9.972877396897e-05 3.804208029846e-03 0.0 
0.0 0.0 0.0 
-1.176355541711e-03 -6.878539149100e-05 0.0 
-6.878539149100e-05 4.026577470491e-03 0.0 
0.0 0.0 0.0 
-1.082914937961e-03 -7.100697654724e-05 0.0 
-7.100697654724e-05 4.247435192233e-03 0.0 
0.0 0.0 0.0 
-9.692491927599e-04 -7.873029334112e-05 0.0 
-7.873029334112e-05 4.479677847052e-03 0.0 
0.0 0.0 0.0 
-8.470742534096e-04 -6.479082062753e-05 0.0 
-6.479082062753e-05 4.747640516416e-03 0.0 
0.0 0.0 0.0 
-7.191457022836e-04 -5.317927977804e-05 0.0 
-5.317927977804e-05 5.024149589192e-03 0.0 
0.0 0.0 0.0 
-5.791936651486e-04 -4.294433848631e-05 0.0 
-4.294433848631e-05 5.312462655093e-03 0.0 
0.0 0.0 0.0 
-4.203051060958e-04 -3.651154967253e-05 0.0 
-3.651154967253e-05 5.604444776247e-03 0.0 
0.0 0.0 0.0 
-2.486024107737e-04 -3.143637673780e-05 0.0 
-3.143637673780e-05 5.873839836138e-03 0.0 
0.0 0.0 0.0 
-8.430627487913e-05 1.767999085812e-04 0.0 
1.767999085812e-04 1.369470486964e-02 0.0 
0.0 0.0 0.0 
-9.093583021595e-05 3.234863873310e-04 0.0 
3.234863873310e-04 1.366772491717e-02 0.0 
0.0 0.0 0.0 
-9.077905899450e-05 4.705562179486e-04 0.0 
4.705562179486e-04 1.365669950542e-02 0.0 
0.0 0.0 0.0 
-8.786809350040e-05 6.472258178001e-04 0.0 
6.472258178001e-04 1.362416792752e-02 0.0 
0.0 0.0 0.0 
-1.086892369054e-04 8.016278924292e-04 0.0 
8.016278924292e-04 1.358176478540e-02 0.0 
0.0 0.0 0.0 
-9.974801543470e-05 9.860403401326e-04 0.0 
9.860403401326e-04 1.354221842232e-02 0.0 
0.0 0.0 0.0 
-1.128833406032e-04 1.179700504157e-03 0.0 
1.179700504157e-03 1.347476675313e-02 0.0 
0.0 0.0 0.0 
-1.141213883359e-04 1.385616340106e-03 0.0 
1.385616340106e-03 1.338446028758e-02 0.0 
0.0 0.0 0.0 
-1.179750835222e-04 1.586166075536e-03 0.0 
1.586166075536e-03 1.329406457786e-02 0.0 
0.0 0.0 0.0 
-1.080152273247e-04 1.813576961387e-03 0.0 
1.813576961387e-03 1.316840249250e-02 0.0 
0.0 0.0 0.0 
-1.393101175952e-04 2.027190378957e-03 0.0 
2.027190378957e-03 1.302708667763e-02 0.0 
0.0 0.0 0.0 
-1.274866268807e-04 2.272093473320e-03 0.0 
2.272093473320e-03 1.286231564749e-02 0.0 
0.0 0.0 0.0 
-1.382722272799e-04 2.522713285678e-03 0.0 
2.522713285678e-03 1.265406541491e-02 0.0 
0.0 0.0 0.0 
-1.282490661245e-04 2.766544759163e-03 0.0 
2.766544759163e-03 1.241841748846e-02 0.0 
0.0 0.0 0.0 
-1.427958079502e-04 3.007977223712e-03 0.0 
3.007977223712e-03 1.215316755855e-02 0.0 
0.0 0.0 0.0 
-1.306259545497e-04 3.240596523442e-03 0.0 
3.240596523442e-03 1.183743328774e-02 0.0 
0.0 0.0 0.0 
-1.368689951939e-04 3.468982190403e-03 0.0 
3.468982190403e-03 1.148982817982e-02 0.0 
0.0 0.0 0.0 
-1.276015571395e-04 3.697373081847e-03 0.0 
3.697373081847e-03 1.109240092642e-02 0.0 
0.0 0.0 0.0 
-1.035078024951e-04 3.890178666292e-03 0.0 
3.890178666292e-03 1.066844718910e-02 0.0 
0.0 0.0 0.0 
-7.485894581782e-05 4.053247201825e-03 0.0 
4.053247201825e-03 1.021236176252e-02 0.0 
0.0 0.0 0.0 
-4.287476149597e-05 4.172293385142e-03 0.0 
4.172293385142e-03 9.713090792779e-03 0.0 
0.0 0.0 0.0 
-2.888129371433e-05 4.242659845228e-03 0.0 
4.242659845228e-03 9.198578335518e-03 0.0 
0.0 0.0 0.0 
6.072909915907e-06 4.263395466441e-03 0.0 
4.263395466441e-03 8.663769608183e-03 0.0 
0.0 0.0 0.0 
3.590416960090e-05 4.224211261162e-03 0.0 
4.224211261162e-03 8.127040714618e-03 0.0 
0.0 0.0 0.0 
6.235155992607e-05 4.132516142552e-03 0.0 
4.132516142552e-03 7.605858383859e-03 0.0 
0.0 0.0 0.0 
9.588299231737e-05 3.990858062451e-03 0.0 
3.990858062451e-03 7.102283411772e-03 0.0 
0.0 0.0 0.0 
1.109653113636e-04 3.789532971224e-03 0.0 
3.789532971224e-03 6.621586108243e-03 0.0 
0.0 0.0 0.0 
1.513447779840e-04 3.540333326346e-03 0.0 
3.540333326346e-03 6.180807274700e-03 0.0 
0.0 0.0 0.0 
1.604615367301e-04 3.245360996318e-03 0.0 
3.245360996318e-03 5.777628445692e-03 0.0 
0.0 0.0 0.0 
1.556913041265e-04 2.929542016959e-03 0.0 
2.929542016959e-03 5.460178781552e-03 0.0 
0.0 0.0 0.0 
1.795692653414e-04 2.588920883322e-03 0.0 
2.588920883322e-03 5.134606344152e-03 0.0 
0.0 0.0 0.0 
2.144927585374e-04 2.228415881049e-03 0.0 
2.228415881049e-03 4.839844871903e-03 0.0 
0.0 0.0 0.0 
2.118619325864e-04 1.822997758226e-03 0.0 
1.822997758226e-03 4.633207532943e-03 0.0 
0.0 0.0 0.0 
2.053348512446e-04 1.448969747333e-03 0.0 
1.448969747333e-03 4.529802539262e-03 0.0 
0.0 0.0 0.0 
2.009185021952e-04 1.087864708867e-03 0.0 
1.087864708867e-03 4.456531658667e-03 0.0 
0.0 0.0 0.0 
1.626719903380e-04 7.406816703850e-04 0.0 
7.406816703850e-04 4.448667486062e-03 0.0 
0.0 0.0 0.0 
1.686659898602e-04 4.386090900274e-04 0.0 
4.386090900274e-04 4.498638619345e-03 0.0 
0.0 0.0 0.0 
1.293836888388e-04 1.618459441244e-04 0.0 
1.618459441244e-04 4.570092704598e-03 0.0 
0.0 0.0 0.0 
1.269167038123e-04 -6.359416430610e-05 0.0 
-6.359416430610e-05 4.680680743146e-03 0.0 
0.0 0.0 0.0 
8.752924554504e-05 -2.482859023301e-04 0.0 
-2.482859023301e-04 4.819751796921e-03 0.0 
0.0 0.0 0.0 
6.121053619227e-05 -3.812247226161e-04 0.0 
-3.812247226161e-04 4.996499394090e-03 0.0 
0.0 0.0 0.0 
3.590501216610e-05 -4.647872337775e-04 0.0 
-4.647872337775e-04 5.200870806727e-03 0.0 
0.0 0.0 0.0 
1.566666913407e-05 -5.090825496125e-04 0.0 
-5.090825496125e-04 5.363422501195e-03 0.0 
0.0 0.0 0.0 
-1.139355574745e-05 -5.107553942327e-04 0.0 
-5.107553942327e-04 5.481299235376e-03 0.0 
0.0 0.0 0.0 
-2.360730960715e-05 -4.772508370151e-04 0.0 
-4.772508370151e-04 5.678921725077e-03 0.0 
0.0 0.0 0.0 
-4.369105917083e-05 -4.200364715842e-04 0.0 
-4.200364715842e-04 5.782012469136e-03 0.0 
0.0 0.0 0.0 
-4.685566113527e-05 -3.480795380717e-04 0.0 
-3.480795380717e-04 5.889239339271e-03 0.0 
0.0 0.0 0.0 
-5.572688925803e-05 -2.375816903815e-04 0.0 
-2.375816903815e-04 5.977412652575e-03 0.0 
0.0 0.0 0.0 
-6.328121042561e-05 -1.384449155416e-04 0.0 
-1.384449155416e-04 6.020191007942e-03 0.0 
0.0 0.0 0.0 
-1.583644615115e-03 -4.168109676072e-06 0.0 
-4.168109676072e-06 1.113378920184e-02 0.0 
0.0 0.0 0.0 
-1.542059908426e-03 2.955089583612e-07 0.0 
2.955089583612e-07 1.152511835880e-02 0.0 
0.0 0.0 0.0 
-1.466081073168e-03 5.210110452957e-06 0.0 
5.210110452957e-06 1.188925672885e-02 0.0 
0.0 0.0 0.0 
-1.358122314980e-03 1.117996878861e-05 0.0 
1.117996878861e-05 1.222367010343e-02 0.0 
0.0 0.0 0.0 
-1.216699701715e-03 1.844232562696e-05 0.0 
1.844232562696e-05 1.253976254770e-02 0.0 
0.0 0.0 0.0 
-1.042563792529e-03 2.486185235192e-05 0.0 
2.486185235192e-05 1.283156034878e-02 0.0 
0.0 0.0 0.0 
-8.368468069089e-04 2.974637708392e-05 0.0 
2.974637708392e-05 1.309764581383e-02 0.0 
0.0 0.0 0.0 
-5.904759862777e-04 3.823908254030e-05 0.0 
3.823908254030e-05 1.334162210097e-02 0.0 
0.0 0.0 0.0 
-3.393187068742e-04 4.068686603821e-05 0.0 
4.068686603821e-05 1.356552879482e-02 0.0 
0.0 0.0 0.0 
-2.279877473394e-03 3.024000008768e-03 0.0 
3.024000008768e-03 -2.056901405499e-03 0.0 
0.0 0.0 0.0 
-2.471915814113e-03 1.050668630280e-03 0.0 
1.050668630280e-03 1.047982096361e-02 0.0 
0.0 0.0 0.0 
-2.023791818679e-03 3.693884998996e-03 0.0 
3.693884998996e-03 8.716734115591e-04 0.0 
0.0 0.0 0.0 
-1.581507880805e-03 3.480041711238e-03 0.0 
3.480041711238e-03 2.099457600624e-03 0.0 
0.0 0.0 0.0 
-1.492104558611e-03 3.439597818675e-03 0.0 
3.439597818675e-03 3.271900586012e-03 0.0 
0.0 0.0 0.0 
-1.516500878979e-03 3.281030653679e-03 0.0 
3.281030653679e-03 4.482043474403e-03 0.0 
0.0 0.0 0.0 
-1.685120524511e-03 3.163804932094e-03 0.0 
3.163804932094e-03 5.853481821389e-03 0.0 
0.0 0.0 0.0 
-2.292468205488e-03 2.454732654039e-03 0.0 
2.454732654039e-03 7.802621910268e-03 0.0 
0.0 0.0 0.0 
-2.107489563232e-03 1.607917484231e-03 0.0 
1.607917484231e-03 8.762532245333e-03 0.0 
0.0 0.0 0.0 
-2.254910277260e-03 1.335693046991e-03 0.0 
1.335693046991e-03 9.341178135884e-03 0.0 
0.0 0.0 0.0 
-2.400541198636e-03 1.155878151687e-03 0.0 
1.155878151687e-03 9.919711816627e-03 0.0 
0.0 0.0 0.0 
-1.520701886953e-03 -3.418736451004e-05 0.0 
-3.418736451004e-05 9.109440720851e-03 0.0 
0.0 0.0 0.0 
-1.537548365392e-03 -2.975492298963e-05 0.0 
-2.975492298963e-05 9.386282765683e-03 0.0 
0.0 0.0 0.0 
-1.568353312288e-03 -3.693654555553e-05 0.0 
-3.693654555553e-05 9.833508993844e-03 0.0 
0.0 0.0 0.0 
-1.594290249339e-03 -2.293142169592e-05 0.0 
-2.293142169592e-05 1.027405554059e-02 0.0 
0.0 0.0 0.0 
-1.606570930684e-03 1.527226315672e-05 0.0 
1.527226315672e-05 1.066310090581e-02 0.0 
0.0 0.0 0.0 
-1.617210563732e-03 1.700621471278e-05 0.0 
1.700621471278e-05 1.069262256261e-02 0.0 
0.0 0.0 0.0 
-1.639515900681e-03 2.749559387786e-05 0.0 
2.749559387786e-05 1.069923301498e-02 0.0 
0.0 0.0 0.0 
-1.668670177596e-03 3.839583690715e-05 0.0 
3.839583690715e-05 1.069780543463e-02 0.0 
0.0 0.0 0.0 
-1.702073870928e-03 6.781840949599e-05 0.0 
6.781840949599e-05 1.075744107841e-02 0.0 
0.0 0.0 0.0 
-1.745478526458e-03 8.108164135918e-05 0.0 
8.108164135918e-05 1.071487285314e-02 0.0 
0.0 0.0 0.0 
-1.800691804461e-03 1.074000751301e-04 0.0 
1.074000751301e-04 1.071452422754e-02 0.0 
0.0 0.0 0.0 
-1.855103963534e-03 1.481177993239e-04 0.0 
1.481177993239e-04 1.071912567894e-02 0.0 
0.0 0.0 0.0 
-1.933383411531e-03 2.012024998807e-04 0.0 
2.012024998807e-04 1.073093364906e-02 0.0 
0.0 0.0 0.0 
-2.014779480455e-03 2.707665546779e-04 0.0 
2.707665546779e-04 1.072270854974e-02 0.0 
0.0 0.0 0.0 
-2.098481564255e-03 3.619885602648e-04 0.0 
3.619885602648e-04 1.070513040359e-02 0.0 
0.0 0.0 0.0 
-2.187350325062e-03 4.765116204068e-04 0.0 
4.765116204068e-04 1.067635094553e-02 0.0 
0.0 0.0 0.0 
-2.274227100374e-03 6.252675045034e-04 0.0 
6.252675045034e-04 1.062761220297e-02 0.0 
0.0 0.0 0.0 
-2.358016700871e-03 8.102670281024e-04 0.0 
8.102670281024e-04 1.056445103774e-02 0.0 
0.0 0.0 0.0 
-3.176908760364e-03 1.358166134817e-03 0.0 
1.358166134817e-03 -3.046488646542e-03 0.0 
0.0 0.0 0.0 
-4.050525768696e-03 3.054206100162e-04 0.0 
3.054206100162e-04 -3.061680369448e-03 0.0 
0.0 0.0 0.0 
-4.472811797624e-03 -1.865708445628e-04 0.0 
-1.865708445628e-04 -2.896192898507e-03 0.0 
0.0 0.0 0.0 
-4.059358469504e-03 -8.892622638093e-04 0.0 
-8.892622638093e-04 -2.635952414901e-03 0.0 
0.0 0.0 0.0 
-2.877313303578e-03 -1.852946032670e-03 0.0 
-1.852946032670e-03 -1.197167360341e-03 0.0 
0.0 0.0 0.0 
-1.790240390228e-03 -1.393940199764e-03 0.0 
-1.393940199764e-03 2.148829026368e-04 0.0 
0.0 0.0 0.0 
-8.355082886169e-04 -4.419091343459e-04 0.0 
-4.419091343459e-04 2.868179302708e-04 0.0 
0.0 0.0 0.0 
-3.944618676017e-04 -1.550970531255e-04 0.0 
-1.550970531255e-04 2.604338122006e-04 0.0 
0.0 0.0 0.0 
-1.375613132556e-04 -1.049285996203e-04 0.0 
-1.049285996203e-04 2.161183882787e-04 0.0 
0.0 0.0 0.0 
1.821698222152e-04 -1.535824000950e-04 0.0 
-1.535824000950e-04 1.052021106693e-04 0.0 
0.0 0.0 0.0 
5.125245201577e-04 -1.671441814379e-04 0.0 
-1.671441814379e-04 -4.719834943097e-05 0.0 
0.0 0.0 0.0 
8.900523052343e-04 -1.871209029414e-04 0.0 
-1.871209029414e-04 -2.237545787228e-04 0.0 
0.0 0.0 0.0 
1.299339205986e-03 -1.764714869049e-04 0.0 
-1.764714869049e-04 -4.137615631288e-04 0.0 
0.0 0.0 0.0 
1.657826050805e-03 -1.675386965213e-04 0.0 
-1.675386965213e-04 -5.724677779616e-04 0.0 
0.0 0.0 0.0 
1.920262118906e-03 -1.332753281103e-04 0.0 
-1.332753281103e-04 -6.805225628319e-04 0.0 
0.0 0.0 0.0 
2.148469293498e-03 -1.008580191131e-04 0.0 
-1.008580191131e-04 -7.743434413336e-04 0.0 
0.0 0.0 0.0 
2.324236215020e-03 -7.958686799308e-05 0.0 
-7.958686799308e-05 -8.491203591021e-04 0.0 
0.0 0.0 0.0 
2.473616640089e-03 -4.837119534969e-05 0.0 
-4.837119534969e-05 -9.280545722821e-04 0.0 
0.0 0.0 0.0 
2.585148717057e-03 1.758658379679e-05 0.0 
1.758658379679e-05 -9.722383198879e-04 0.0 
0.0 0.0 0.0 
-1.517201682733e-03 1.849675543190e-06 0.0 
1.849675543190e-06 9.163687244208e-03 0.0 
0.0 0.0 0.0 
-1.482454891590e-03 -3.333972649911e-05 0.0 
-3.333972649911e-05 9.154031013686e-03 0.0 
0.0 0.0 0.0 
-1.485913294686e-03 -5.842654910265e-05 0.0 
-5.842654910265e-05 9.149961511914e-03 0.0 
0.0 0.0 0.0 
-1.489592995937e-03 -7.687169271107e-05 0.0 
-7.687169271107e-05 9.148387553267e-03 0.0 
0.0 0.0 0.0 
-1.492099326533e-03 -9.308275849048e-05 0.0 
-9.308275849048e-05 9.146140753718e-03 0.0 
0.0 0.0 0.0 
-1.492615989283e-03 -1.075145359354e-04 0.0 
-1.075145359354e-04 9.141938389573e-03 0.0 
0.0 0.0 0.0 
-1.488992452592e-03 -1.196999837574e-04 0.0 
-1.196999837574e-04 9.134554230863e-03 0.0 
0.0 0.0 0.0 
-1.482935146576e-03 -1.279147195227e-04 0.0 
-1.279147195227e-04 9.123994353786e-03 0.0 
0.0 0.0 0.0 
-1.474099344369e-03 -1.300239505092e-04 0.0 
-1.300239505092e-04 9.110022634422e-03 0.0 
0.0 0.0 0.0 
-1.462881316656e-03 -1.246283468815e-04 0.0 
-1.246283468815e-04 9.092877484792e-03 0.0 
0.0 0.0 0.0 
-1.451164130455e-03 -1.101570738169e-04 0.0 
-1.101570738169e-04 9.072399420911e-03 0.0 
0.0 0.0 0.0 
-1.440382017766e-03 -8.338268729959e-05 0.0 
-8.338268729959e-05 9.047490624279e-03 0.0 
0.0 0.0 0.0 
-1.433486982462e-03 -3.890165616417e-05 0.0 
-3.890165616417e-05 9.016205145379e-03 0.0 
0.0 0.0 0.0 
-1.409124283892e-03 2.987622038242e-05 0.0 
2.987622038242e-05 8.972838240264e-03 0.0 
0.0 0.0 0.0 
-1.365497428252e-03 1.200504078999e-04 0.0 
1.200504078999e-04 8.912936845573e-03 0.0 
0.0 0.0 0.0 
-1.334820690202e-03 2.407516117681e-04 0.0 
2.407516117681e-04 8.846652611002e-03 0.0 
0.0 0.0 0.0 
-1.333886176609e-03 3.985124432249e-04 0.0 
3.985124432249e-04 8.765229515360e-03 0.0 
0.0 0.0 0.0 
-1.371835730757e-03 6.357949597692e-04 0.0 
6.357949597692e-04 8.678928630682e-03 0.0 
0.0 0.0 0.0 
-1.538341059493e-03 9.597143268469e-04 0.0 
9.597143268469e-04 8.578378005519e-03 0.0 
0.0 0.0 0.0 
-1.994467698515e-03 1.249666940799e-03 0.0 
1.249666940799e-03 8.614257784401e-03 0.0 
0.0 0.0 0.0 
-1.856424766504e-03 1.017553132536e-03 0.0 
1.017553132536e-03 8.894763628122e-03 0.0 
0.0 0.0 0.0 
-1.798184663264e-03 7.812855051571e-04 0.0 
7.812855051571e-04 9.021047969444e-03 0.0 
0.0 0.0 0.0 
-1.708740750659e-03 4.905804033770e-04 0.0 
4.905804033770e-04 9.105579876228e-03 0.0 
0.0 0.0 0.0 
-1.686679042947e-03 3.082934915776e-04 0.0 
3.082934915776e-04 9.179473079848e-03 0.0 
0.0 0.0 0.0 
-1.679508660084e-03 1.769975963702e-04 0.0 
1.769975963702e-04 9.240049878619e-03 0.0 
0.0 0.0 0.0 
-1.673239778431e-03 7.868750484171e-05 0.0 
7.868750484171e-05 9.283652621500e-03 0.0 
0.0 0.0 0.0 
-1.649272763569e-03 9.128994206148e-06 0.0 
9.128994206148e-06 9.313378267595e-03 0.0 
0.0 0.0 0.0 
-1.626802688900e-03 -3.765319508913e-05 0.0 
-3.765319508913e-05 9.333563577984e-03 0.0 
0.0 0.0 0.0 
-1.610168734037e-03 -6.735026977749e-05 0.0 
-6.735026977749e-05 9.348933163779e-03 0.0 
0.0 0.0 0.0 
-1.597579175083e-03 -8.480882997301e-05 0.0 
-8.480882997301e-05 9.361066557584e-03 0.0 
0.0 0.0 0.0 
-1.586648717658e-03 -9.218620312031e-05 0.0 
-9.218620312031e-05 9.370567960793e-03 0.0 
0.0 0.0 0.0 
-1.574824796246e-03 -9.176363263438e-05 0.0 
-9.176363263438e-05 9.376554422091e-03 0.0 
0.0 0.0 0.0 
-1.564317322869e-03 -8.688231846322e-05 0.0 
-8.688231846322e-05 9.380192895299e-03 0.0 
0.0 0.0 0.0 
-1.553953375533e-03 -7.882575961105e-05 0.0 
-7.882575961105e-05 9.382102290795e-03 0.0 
0.0 0.0 0.0 
-1.542853372594e-03 -6.805496573257e-05 0.0 
-6.805496573257e-05 9.382511722158e-03 0.0 
0.0 0.0 0.0 
-1.534026771676e-03 -5.469850745211e-05 0.0 
-5.469850745211e-05 9.383085098514e-03 0.0 
0.0 0.0 0.0 
-1.527810482676e-03 -3.912024974539e-05 0.0 
-3.912024974539e-05 9.384340652453e-03 0.0 
0.0 0.0 0.0 
-1.526222935695e-03 -2.304103814115e-05 0.0 
-2.304103814115e-05 9.387234660517e-03 0.0 
0.0 0.0 0.0 
-1.536398182940e-03 8.345430617775e-06 0.0 
8.345430617775e-06 9.388336910630e-03 0.0 
0.0 0.0 0.0 
-1.571099870289e-03 -3.819969927500e-06 0.0 
-3.819969927500e-06 9.837542781298e-03 0.0 
0.0 0.0 0.0 
-1.575928886404e-03 -2.602140921802e-05 0.0 
-2.602140921802e-05 9.840771003035e-03 0.0 
0.0 0.0 0.0 
-1.585208312197e-03 -3.754011794305e-05 0.0 
-3.754011794305e-05 9.840961636555e-03 0.0 
0.0 0.0 0.0 
-1.599602099139e-03 -4.585800956470e-05 0.0 
-4.585800956470e-05 9.841772897838e-03 0.0 
0.0 0.0 0.0 
-1.619070105428e-03 -5.101100956322e-05 0.0 
-5.101100956322e-05 9.843874651679e-03 0.0 
0.0 0.0 0.0 
-1.644415288429e-03 -5.373707073648e-05 0.0 
-5.373707073648e-05 9.847189653613e-03 0.0 
0.0 0.0 0.0 
-1.673666595808e-03 -5.152284009666e-05 0.0 
-5.152284009666e-05 9.849987974905e-03 0.0 
0.0 0.0 0.0 
-1.710488351716e-03 -4.506361330365e-05 0.0 
-4.506361330365e-05 9.852671509288e-03 0.0 
0.0 0.0 0.0 
-1.749247818168e-03 -3.049582888697e-05 0.0 
-3.049582888697e-05 9.851468200798e-03 0.0 
0.0 0.0 0.0 
-1.790752190450e-03 -4.876794693276e-06 0.0 
-4.876794693276e-06 9.846848087919e-03 0.0 
0.0 0.0 0.0 
-1.835719612290e-03 3.417304374102e-05 0.0 
3.417304374102e-05 9.837890165948e-03 0.0 
0.0 0.0 0.0 
-1.889376333320e-03 9.321248719198e-05 0.0 
9.321248719198e-05 9.822996329216e-03 0.0 
0.0 0.0 0.0 
-1.951327862868e-03 1.773607249662e-04 0.0 
1.773607249662e-04 9.799532463783e-03 0.0 
0.0 0.0 0.0 
-2.010700606018e-03 2.931762430764e-04 0.0 
2.931762430764e-04 9.757762555813e-03 0.0 
0.0 0.0 0.0 
-2.049477294108e-03 4.575791654490e-04 0.0 
4.575791654490e-04 9.695446406476e-03 0.0 
0.0 0.0 0.0 
-2.120149211004e-03 7.149874442351e-04 0.0 
7.149874442351e-04 9.617057463316e-03 0.0 
0.0 0.0 0.0 
-2.150145425527e-03 9.246148447797e-04 0.0 
9.246148447797e-04 9.477192160267e-03 0.0 
0.0 0.0 0.0 
-2.324240369550e-03 8.436475746599e-04 0.0 
8.436475746599e-04 1.002038125759e-02 0.0 
0.0 0.0 0.0 
-2.287783232729e-03 6.781146292069e-04 0.0 
6.781146292069e-04 1.015823148656e-02 0.0 
0.0 0.0 0.0 
-2.204076840738e-03 4.756786450037e-04 0.0 
4.756786450037e-04 1.022631743939e-02 0.0 
0.0 0.0 0.0 
-2.121544784600e-03 3.437507198136e-04 0.0 
3.437507198136e-04 1.026706020001e-02 0.0 
0.0 0.0 0.0 
-2.043592966268e-03 2.431293208043e-04 0.0 
2.431293208043e-04 1.029268090542e-02 0.0 
0.0 0.0 0.0 
-1.971691677177e-03 1.675380174045e-04 0.0 
1.675380174045e-04 1.030621792776e-02 0.0 
0.0 0.0 0.0 
-1.905002264256e-03 1.106453585971e-04 0.0 
1.106453585971e-04 1.031121947739e-02 0.0 
0.0 0.0 0.0 
-1.840791589517e-03 6.791346092691e-05 0.0 
6.791346092691e-05 1.031105827865e-02 0.0 
0.0 0.0 0.0 
-1.782586116785e-03 4.008854217407e-05 0.0 
4.008854217407e-05 1.030722367000e-02 0.0 
0.0 0.0 0.0 
-1.735082994177e-03 1.841067373565e-05 0.0 
1.841067373565e-05 1.030051122692e-02 0.0 
0.0 0.0 0.0 
-1.694250557325e-03 6.923870858747e-06 0.0 
6.923870858747e-06 1.029553122716e-02 0.0 
0.0 0.0 0.0 
-1.662430625940e-03 -2.152268936414e-06 0.0 
-2.152268936414e-06 1.028998289365e-02 0.0 
0.0 0.0 0.0 
-1.637243860369e-03 -5.341227343514e-06 0.0 
-5.341227343514e-06 1.028780758940e-02 0.0 
0.0 0.0 0.0 
-1.617015649319e-03 -6.808346936892e-06 0.0 
-6.808346936892e-06 1.028390229590e-02 0.0 
0.0 0.0 0.0 
-1.603736338771e-03 -1.014847395356e-05 0.0 
-1.014847395356e-05 1.028344492402e-02 0.0 
0.0 0.0 0.0 
-1.601351408340e-03 1.401206147823e-05 0.0 
1.401206147823e-05 1.028404970399e-02 0.0 
0.0 0.0 0.0 
-2.128542832101e-03 4.273745208853e-03 0.0 
4.273745208853e-03 -2.221123069447e-04 0.0 
0.0 0.0 0.0 
-1.701965391418e-03 3.460913566850e-03 0.0 
3.460913566850e-03 1.470974629317e-03 0.0 
0.0 0.0 0.0 
-1.512832944042e-03 3.462735220226e-03 0.0 
3.462735220226e-03 2.694051754195e-03 0.0 
0.0 0.0 0.0 
-1.500116266137e-03 3.375946258753e-03 0.0 
3.375946258753e-03 3.861273115807e-03 0.0 
0.0 0.0 0.0 
-1.586947566278e-03 3.297021286275e-03 0.0 
3.297021286275e-03 5.113061516535e-03 0.0 
0.0 0.0 0.0 
-2.017666047848e-03 3.146505439058e-03 0.0 
3.146505439058e-03 6.713473318605e-03 0.0 
0.0 0.0 0.0 
-2.267020875548e-03 1.867574747947e-03 0.0 
1.867574747947e-03 8.535395830387e-03 0.0 
0.0 0.0 0.0 
-2.211074793175e-03 1.520587740370e-03 0.0 
1.520587740370e-03 9.099038678775e-03 0.0 
0.0 0.0 0.0 
-2.369474724179e-03 1.281117467925e-03 0.0 
1.281117467925e-03 9.680275831475e-03 0.0 
0.0 0.0 0.0 
-2.463644280815e-03 1.130666162893e-03 0.0 
1.130666162893e-03 1.023561897917e-02 0.0 
0.0 0.0 0.0 
-1.247000668841e-03 3.664054051599e-03 0.0 
3.664054051599e-03 1.415965188833e-03 0.0 
0.0 0.0 0.0 
6.184326507367e-04 1.587606408615e-03 0.0 
1.587606408615e-03 4.182919403148e-03 0.0 
0.0 0.0 0.0 
-2.800859678287e-04 -4.106461136852e-04 0.0 
-4.106461136852e-04 3.774437958404e-04 0.0 
0.0 0.0 0.0 
-1.667978005388e-03 -1.888769258099e-03 0.0 
-1.888769258099e-03 -2.715272001344e-03 0.0 
0.0 0.0 0.0 
3.754149368317e-04 3.360674240265e-05 0.0 
3.360674240265e-05 4.317151329461e-03 0.0 
0.0 0.0 0.0 
-1.251886420900e-03 3.511410762120e-03 0.0 
3.511410762120e-03 3.961752160946e-03 0.0 
0.0 0.0 0.0 
-1.258654133185e-03 -2.500516053298e-04 0.0 
-2.500516053298e-04 3.678723114673e-03 0.0 
0.0 0.0 0.0 
5.509255630216e-04 3.023914357109e-03 0.0 
3.023914357109e-03 5.171393494224e-03 0.0 
0.0 0.0 0.0 
-1.917025879451e-03 3.186859275880e-03 0.0 
3.186859275880e-03 6.844510741205e-03 0.0 
0.0 0.0 0.0 
2.452564940947e-04 3.994508328806e-03 0.0 
3.994508328806e-03 7.069343029461e-03 0.0 
0.0 0.0 0.0 
-2.339721612685e-03 1.968759792547e-03 0.0 
1.968759792547e-03 9.107579199367e-03 0.0 
0.0 0.0 0.0 
7.244398938274e-05 -4.994135538432e-04 0.0 
-4.994135538432e-04 5.103931993909e-03 0.0 
0.0 0.0 0.0 
1.150469109455e-03 -2.958283061486e-04 0.0 
-2.958283061486e-04 -2.451459194183e-04 0.0 
0.0 0.0 0.0 
-1.087803246715e-04 4.140267216138e-03 0.0 
4.140267216138e-03 9.317463519455e-03 0.0 
0.0 0.0 0.0 
-2.526253813923e-03 1.417141087810e-03 0.0 
1.417141087810e-03 1.042597786624e-02 0.0 
0.0 0.0 0.0 
-9.528116246976e-04 -2.063917951707e-04 0.0 
-2.063917951707e-04 2.629385659438e-03 0.0 
0.0 0.0 0.0 
-1.017881093467e-03 -2.130378322859e-04 0.0 
-2.130378322859e-04 4.284846941543e-03 0.0 
0.0 0.0 0.0 
-3.266663559279e-04 3.724325999254e-03 0.0 
3.724325999254e-03 1.080042203319e-02 0.0 
0.0 0.0 0.0 
-3.913236558917e-04 2.820761729778e-03 0.0 
2.820761729778e-03 1.225507298026e-02 0.0 
0.0 0.0 0.0 
-2.985681385276e-04 8.793846072004e-04 0.0 
8.793846072004e-04 1.348458459704e-02 0.0 
0.0 0.0 0.0 
-3.783173234990e-04 1.453267640463e-03 0.0 
1.453267640463e-03 1.326199739296e-02 0.0 
0.0 0.0 0.0 
-3.777590347965e-04 2.111533368377e-03 0.0 
2.111533368377e-03 1.289564303218e-02 0.0 
0.0 0.0 0.0 
-2.351696733551e-03 9.284935527021e-04 0.0 
9.284935527021e-04 1.089930213287e-02 0.0 
0.0 0.0 0.0 
-1.992764461307e-03 3.768899158802e-04 0.0 
3.768899158802e-04 1.108911041299e-02 0.0 
0.0 0.0 0.0 
-1.783700537845e-03 1.932946551738e-04 0.0 
1.932946551738e-04 1.112838882880e-02 0.0 
0.0 0.0 0.0 
-1.291547406979e-03 6.449622568518e-05 0.0 
6.449622568518e-05 1.238920773747e-02 0.0 
0.0 0.0 0.0 
-9.227733538566e-05 -4.628584513480e-04 0.0 
-4.628584513480e-04 5.576379048618e-03 0.0 
0.0 0.0 0.0 
-1.789186771387e-03 1.068335582494e-03 0.0 
1.068335582494e-03 -3.659899257364e-03 0.0 
0.0 0.0 0.0 
1.850337294897e-03 -1.531026322219e-04 0.0 
-1.531026322219e-04 -5.218250596082e-04 0.0 
0.0 0.0 0.0 
-6.372909092334e-04 -1.289606937397e-04 0.0 
-1.289606937397e-04 5.135781260351e-03 0.0 
0.0 0.0 0.0 
-1.643232757773e-03 7.661446292804e-05 0.0 
7.661446292804e-05 1.106640054100e-02 0.0 
0.0 0.0 0.0 
3.805856912602e-04 -1.075001125944e-04 0.0 
-1.075001125944e-04 1.116753819846e-03 0.0 
0.0 0.0 0.0 
-4.335856904807e-04 3.251997082607e-03 0.0 
3.251997082607e-03 1.161460257138e-02 0.0 
0.0 0.0 0.0 
3.836276175348e-04 3.615435288229e-03 0.0 
3.615435288229e-03 6.100998938641e-03 0.0 
0.0 0.0 0.0 
5.839972332019e-05 4.178989425420e-03 0.0 
4.178989425420e-03 8.199354212814e-03 0.0 
0.0 0.0 0.0 
6.564278751362e-04 2.381689666161e-03 0.0 
2.381689666161e-03 4.541023489057e-03 0.0 
0.0 0.0 0.0 
5.237661733189e-04 8.782231632303e-04 0.0 
8.782231632303e-04 4.093913006483e-03 0.0 
0.0 0.0 0.0 
-1.314575278136e-03 -1.628936964559e-03 0.0 
-1.628936964559e-03 4.740605064063e-04 0.0 
0.0 0.0 0.0 
-2.170331274292e-03 5.896607652052e-04 0.0 
5.896607652052e-04 1.102445791264e-02 0.0 
0.0 0.0 0.0 
2.501929536269e-04 -3.353744902077e-04 0.0 
-3.353744902077e-04 4.583731695123e-03 0.0 
0.0 0.0 0.0 
-9.536821233366e-04 9.647754498569e-05 0.0 
9.647754498569e-05 1.296096467408e-02 0.0 
0.0 0.0 0.0 
3.949458515597e-04 -3.119034191619e-04 0.0 
-3.119034191619e-04 1.018054257119e-04 0.0 
0.0 0.0 0.0 
-1.253886960952e-03 -2.514485250510e-04 0.0 
-2.514485250510e-04 3.217092183609e-03 0.0 
0.0 0.0 0.0 
-2.412451562324e-04 5.497102984647e-04 0.0 
5.497102984647e-04 1.358494373796e-02 0.0 
0.0 0.0 0.0 
-1.377804132837e-03 3.485143870125e-03 0.0 
3.485143870125e-03 5.223479387184e-03 0.0 
0.0 0.0 0.0 
-1.170444204175e-03 3.628764498230e-03 0.0 
3.628764498230e-03 2.701970208358e-03 0.0 
0.0 0.0 0.0 
-2.139190904726e-03 2.515201684014e-03 0.0 
2.515201684014e-03 8.199470210740e-03 0.0 
0.0 0.0 0.0 
-2.469470761712e-03 1.629770217172e-03 0.0 
1.629770217172e-03 9.807813783386e-03 0.0 
0.0 0.0 0.0 
-1.627366083202e-03 4.096623903780e-03 0.0 
4.096623903780e-03 -2.013907277461e-04 0.0 
0.0 0.0 0.0 
-1.502620856686e-03 4.058046536732e-05 0.0 
4.058046536732e-05 1.174030452102e-02 0.0 
0.0 0.0 0.0 
-1.370374935197e-04 -2.969453465952e-04 0.0 
-2.969453465952e-04 5.857355565176e-03 0.0 
0.0 0.0 0.0 
2.118261149874e-03 -5.582768198961e-05 0.0 
-5.582768198961e-05 -6.595886788839e-04 0.0 
0.0 0.0 0.0 
-4.691441541886e-04 1.389649642663e-04 0.0 
1.389649642663e-04 1.343920332699e-02 0.0 
0.0 0.0 0.0 
-2.515363705757e-03 1.357682951070e-03 0.0 
1.357682951070e-03 1.068289729377e-02 0.0 
0.0 0.0 0.0 
-2.490680889905e-03 1.692728387472e-03 0.0 
1.692728387472e-03 1.061235175925e-02 0.0 
0.0 0.0 0.0 
-2.421077612847e-03 1.538493030227e-03 0.0 
1.538493030227e-03 1.091207322227e-02 0.0 
0.0 0.0 0.0 
-2.363516747494e-03 1.940928119481e-03 0.0 
1.940928119481e-03 1.075422799438e-02 0.0 
0.0 0.0 0.0 
-2.281144132943e-03 1.798753470297e-03 0.0 
1.798753470297e-03 1.107393203321e-02 0.0 
0.0 0.0 0.0 
-2.181492948762e-03 2.138343206722e-03 0.0 
2.138343206722e-03 1.088538907683e-02 0.0 
0.0 0.0 0.0 
-2.244387715196e-03 2.310682847553e-03 0.0 
2.310682847553e-03 1.052228525851e-02 0.0 
0.0 0.0 0.0 
-2.029128631896e-03 2.477502279980e-03 0.0 
2.477502279980e-03 1.062723342377e-02 0.0 
0.0 0.0 0.0 
-2.053556431239e-03 2.671957728412e-03 0.0 
2.671957728412e-03 1.019873547802e-02 0.0 
0.0 0.0 0.0 
-2.102778915266e-03 2.004684303831e-03 0.0 
2.004684303831e-03 1.121983338838e-02 0.0 
0.0 0.0 0.0 
-1.819589807757e-03 2.798479201702e-03 0.0 
2.798479201702e-03 1.029458912103e-02 0.0 
0.0 0.0 0.0 
-1.800469208375e-03 3.003876096996e-03 0.0 
3.003876096996e-03 9.795222702899e-03 0.0 
0.0 0.0 0.0 
-1.560394560918e-03 3.090132876066e-03 0.0 
3.090132876066e-03 9.893956435147e-03 0.0 
0.0 0.0 0.0 
-1.495375959470e-03 3.293991986981e-03 0.0 
3.293991986981e-03 9.325001980801e-03 0.0 
0.0 0.0 0.0 
-1.720123923986e-03 3.233253942562e-03 0.0 
3.233253942562e-03 9.229886429510e-03 0.0 
0.0 0.0 0.0 
-1.368361653760e-03 3.520260915197e-03 0.0 
3.520260915197e-03 8.685425788621e-03 0.0 
0.0 0.0 0.0 
-1.570606541933e-03 3.456677444015e-03 0.0 
3.456677444015e-03 8.589189630254e-03 0.0 
0.0 0.0 0.0 
-1.167161566735e-03 3.734172683835e-03 0.0 
3.734172683835e-03 7.966066031666e-03 0.0 
0.0 0.0 0.0 
-9.807185483413e-04 3.734618590786e-03 0.0 
3.734618590786e-03 8.100619948634e-03 0.0 
0.0 0.0 0.0 
-7.299610339203e-04 3.927147138601e-03 0.0 
3.927147138601e-03 7.309026755039e-03 0.0 
0.0 0.0 0.0 
-8.897483621009e-04 3.920813697338e-03 0.0 
3.920813697338e-03 7.165129135172e-03 0.0 
0.0 0.0 0.0 
-4.121686814065e-04 4.083853364134e-03 0.0 
4.083853364134e-03 6.444308815750e-03 0.0 
0.0 0.0 0.0 
-5.535141239687e-04 4.084386180078e-03 0.0 
4.084386180078e-03 6.294703208444e-03 0.0 
0.0 0.0 0.0 
-3.959888953960e-05 4.197302002284e-03 0.0 
4.197302002284e-03 5.520486168729e-03 0.0 
0.0 0.0 0.0 
-1.618998849029e-04 4.207065383701e-03 0.0 
4.207065383701e-03 5.364675903865e-03 0.0 
0.0 0.0 0.0 
3.818230526310e-04 4.260232715140e-03 0.0 
4.260232715140e-03 4.552208583663e-03 0.0 
0.0 0.0 0.0 
4.717493914808e-04 4.221909285281e-03 0.0 
4.221909285281e-03 4.768174623082e-03 0.0 
0.0 0.0 0.0 
9.162279684287e-04 4.227342463797e-03 0.0 
4.227342463797e-03 3.773422091754e-03 0.0 
0.0 0.0 0.0 
8.437084103227e-04 4.263045032328e-03 0.0 
4.263045032328e-03 3.566271087444e-03 0.0 
0.0 0.0 0.0 
1.390484589804e-03 4.157807420394e-03 0.0 
4.157807420394e-03 2.779589235700e-03 0.0 
0.0 0.0 0.0 
1.318818901838e-03 4.191801036674e-03 0.0 
4.191801036674e-03 2.598105819822e-03 0.0 
0.0 0.0 0.0 
1.889841372086e-03 4.017343833832e-03 0.0 
4.017343833832e-03 1.809537952545e-03 0.0 
0.0 0.0 0.0 
1.901708341359e-03 3.975626838306e-03 0.0 
3.975626838306e-03 2.064024999769e-03 0.0 
0.0 0.0 0.0 
2.440408615982e-03 3.788286351168e-03 0.0 
3.788286351168e-03 1.078409255749e-03 0.0 
0.0 0.0 0.0 
2.462518677639e-03 3.868312725557e-03 0.0 
3.868312725557e-03 8.146353339753e-04 0.0 
0.0 0.0 0.0 
3.057710318959e-03 3.585170220666e-03 0.0 
3.585170220666e-03 5.285563773140e-05 0.0 
0.0 0.0 0.0 
3.074644548048e-03 3.700704157850e-03 0.0 
3.700704157850e-03 -1.809654020121e-04 0.0 
0.0 0.0 0.0 
3.661362297107e-03 3.299795856072e-03 0.0 
3.299795856072e-03 -8.919341368704e-04 0.0 
0.0 0.0 0.0 
3.654766015273e-03 3.403856124767e-03 0.0 
3.403856124767e-03 -1.046485054361e-03 0.0 
0.0 0.0 0.0 
4.187904291043e-03 2.880216467793e-03 0.0 
2.880216467793e-03 -1.670044615402e-03 0.0 
0.0 0.0 0.0 
4.111170879555e-03 2.796297271925e-03 0.0 
2.796297271925e-03 -1.462064253372e-03 0.0 
0.0 0.0 0.0 
4.545992785962e-03 2.278288361426e-03 0.0 
2.278288361426e-03 -2.136627447218e-03 0.0 
0.0 0.0 0.0 
4.587123632286e-03 2.350374659549e-03 0.0 
2.350374659549e-03 -2.327423940435e-03 0.0 
0.0 0.0 0.0 
4.830493118449e-03 1.661293179013e-03 0.0 
1.661293179013e-03 -2.653600111040e-03 0.0 
0.0 0.0 0.0 
4.714076483304e-03 1.645748228464e-03 0.0 
1.645748228464e-03 -2.424207694300e-03 0.0 
0.0 0.0 0.0 
4.866659075452e-03 9.835482045125e-04 0.0 
9.835482045125e-04 -2.794897177595e-03 0.0 
0.0 0.0 0.0 
4.689055215464e-03 1.020247329947e-03 0.0 
1.020247329947e-03 -2.513693315318e-03 0.0 
0.0 0.0 0.0 
4.700434988817e-03 3.495568868666e-04 0.0 
3.495568868666e-04 -2.754247780783e-03 0.0 
0.0 0.0 0.0 
4.832443112081e-03 2.649174826953e-04 0.0 
2.649174826953e-04 -3.008927340117e-03 0.0 
0.0 0.0 0.0 
4.525887751652e-03 -3.377566355945e-04 0.0 
-3.377566355945e-04 -2.813212185961e-03 0.0 
0.0 0.0 0.0 
4.330132486985e-03 -1.934821049479e-04 0.0 
-1.934821049479e-04 -2.465962957533e-03 0.0 
0.0 0.0 0.0 
4.035386572870e-03 -8.099649603276e-04 0.0 
-8.099649603276e-04 -2.394653850522e-03 0.0 
0.0 0.0 0.0 
4.189430396224e-03 -1.016311268733e-03 0.0 
-1.016311268733e-03 -2.715796807877e-03 0.0 
0.0 0.0 0.0 
3.606219789203e-03 -1.369950230621e-03 0.0 
-1.369950230621e-03 -2.161316584777e-03 0.0 
0.0 0.0 0.0 
3.434850332581e-03 -1.121995083222e-03 0.0 
-1.121995083222e-03 -1.787396876897e-03 0.0 
0.0 0.0 0.0 
3.005890132351e-03 -1.571737571217e-03 0.0 
-1.571737571217e-03 -1.515608324961e-03 0.0 
0.0 0.0 0.0 
3.091815621370e-03 -1.837688802790e-03 0.0 
-1.837688802790e-03 -1.812246766385e-03 0.0 
0.0 0.0 0.0 
2.550194468216e-03 -1.956984503800e-03 0.0 
-1.956984503800e-03 -1.171783873413e-03 0.0 
0.0 0.0 0.0 
2.539311562733e-03 -1.737306651560e-03 0.0 
-1.737306651560e-03 -9.782361663313e-04 0.0 
0.0 0.0 0.0 
2.117212119583e-03 -2.053265557088e-03 0.0 
-2.053265557088e-03 -6.488718188546e-04 0.0 
0.0 0.0 0.0 
2.082879111704e-03 -2.263688641340e-03 0.0 
-2.263688641340e-03 -7.838338898709e-04 0.0 
0.0 0.0 0.0 
1.667274851873e-03 -2.284003887374e-03 0.0 
-2.284003887374e-03 -2.624261185959e-04 0.0 
0.0 0.0 0.0 
1.665902086613e-03 -2.078457637909e-03 0.0 
-2.078457637909e-03 -7.930788326715e-05 0.0 
0.0 0.0 0.0 
1.233646495453e-03 -2.231181450063e-03 0.0 
-2.231181450063e-03 2.982318779807e-04 0.0 
0.0 0.0 0.0 
1.214663662737e-03 -2.034804471389e-03 0.0 
-2.034804471389e-03 5.376736446004e-04 0.0 
0.0 0.0 0.0 
1.203822197364e-03 -2.413321754194e-03 0.0 
-2.413321754194e-03 1.571501706018e-04 0.0 
0.0 0.0 0.0 
8.032642382243e-04 -2.294234679594e-03 0.0 
-2.294234679594e-03 6.928619104173e-04 0.0 
0.0 0.0 0.0 
7.529259591065e-04 -2.431513544966e-03 0.0 
-2.431513544966e-03 5.828509634349e-04 0.0 
0.0 0.0 0.0 
3.922991707129e-04 -2.261633971521e-03 0.0 
-2.261633971521e-03 1.081663584745e-03 0.0 
0.0 0.0 0.0 
2.370840429321e-03 3.739399460107e-03 0.0 
3.739399460107e-03 1.430931528084e-03 0.0 
0.0 0.0 0.0 
3.396769051789e-04 -2.336868884850e-03 0.0 
-2.336868884850e-03 9.820387989398e-04 0.0 
0.0 0.0 0.0 
6.578317272863e-04 -2.502847222298e-03 0.0 
-2.502847222298e-03 5.279662656564e-04 0.0 
0.0 0.0 0.0 
2.734510137503e-05 -2.137626393348e-03 0.0 
-2.137626393348e-03 1.433538963417e-03 0.0 
0.0 0.0 0.0 
5.525252582618e-05 -2.057574611960e-03 0.0 
-2.057574611960e-03 1.577615373424e-03 0.0 
0.0 0.0 0.0 
-6.129003850663e-06 -2.147689059140e-03 0.0 
-2.147689059140e-03 1.321524361027e-03 0.0 
0.0 0.0 0.0 
-2.711354883862e-04 -1.938342242642e-03 0.0 
-1.938342242642e-03 1.724906971329e-03 0.0 
0.0 0.0 0.0 
-2.661420961104e-04 -1.889239533696e-03 0.0 
-1.889239533696e-03 1.584855842323e-03 0.0 
0.0 0.0 0.0 
2.985924476389e-03 3.807925721241e-03 0.0 
3.807925721241e-03 -2.869661000289e-04 0.0 
0.0 0.0 0.0 
-5.742324747444e-04 3.870208753375e-03 0.0 
3.870208753375e-03 7.497967372130e-03 0.0 
0.0 0.0 0.0 
-4.898674555612e-04 -1.680594069764e-03 0.0 
-1.680594069764e-03 1.941396680284e-03 0.0 
0.0 0.0 0.0 
-4.272358845061e-04 -1.582295214600e-03 0.0 
-1.582295214600e-03 1.754583896380e-03 0.0 
0.0 0.0 0.0 
-2.494825702572e-04 -1.764414294259e-03 0.0 
-1.764414294259e-03 1.448899864393e-03 0.0 
0.0 0.0 0.0 
-3.288320555258e-04 -1.411642425652e-03 0.0 
-1.411642425652e-03 1.546062934378e-03 0.0 
0.0 0.0 0.0 
-2.189041400306e-03 1.696650021971e-03 0.0 
1.696650021971e-03 1.135491589009e-02 0.0 
0.0 0.0 0.0 
-1.988886602788e-03 1.894033152919e-03 0.0 
1.894033152919e-03 1.152876693837e-02 0.0 
0.0 0.0 0.0 
-2.064951847748e-03 1.589743283535e-03 0.0 
1.589743283535e-03 1.162895738287e-02 0.0 
0.0 0.0 0.0 
-1.861108581009e-03 1.802157767471e-03 0.0 
1.802157767471e-03 1.181942915903e-02 0.0 
0.0 0.0 0.0 
-1.930062923539e-03 1.517624823883e-03 0.0 
1.517624823883e-03 1.189011475420e-02 0.0 
0.0 0.0 0.0 
-4.794708400774e-04 -1.254329184015e-03 0.0 
-1.254329184015e-03 1.820841543465e-03 0.0 
0.0 0.0 0.0 
-1.570676192868e-03 2.922080630178e-03 0.0 
2.922080630178e-03 1.040323409391e-02 0.0 
0.0 0.0 0.0 
-1.758826642042e-03 2.093032297874e-03 0.0 
2.093032297874e-03 1.169138629065e-02 0.0 
0.0 0.0 0.0 
-1.053639781435e-03 3.878102235890e-03 0.0 
3.878102235890e-03 7.071108719173e-03 0.0 
0.0 0.0 0.0 
7.381848236315e-04 4.283035888198e-03 0.0 
4.283035888198e-03 3.441056080710e-03 0.0 
0.0 0.0 0.0 
4.486063580610e-03 1.642406398809e-03 0.0 
1.642406398809e-03 -2.070303598701e-03 0.0 
0.0 0.0 0.0 
-5.201579586244e-04 -1.708142804926e-03 0.0 
-1.708142804926e-03 2.118071185498e-03 0.0 
0.0 0.0 0.0 
-7.018739800094e-04 -1.459087206790e-03 0.0 
-1.459087206790e-03 2.288715612493e-03 0.0 
0.0 0.0 0.0 
-7.389566943380e-04 -1.464028192625e-03 0.0 
-1.464028192625e-03 2.488635944530e-03 0.0 
0.0 0.0 0.0 
1.614930574968e-03 -1.870042294554e-03 0.0 
-1.870042294554e-03 2.153154264275e-04 0.0 
0.0 0.0 0.0 
1.177573949896e-03 -1.822226188984e-03 0.0 
-1.822226188984e-03 8.687798746671e-04 0.0 
0.0 0.0 0.0 
1.549040922365e-03 -1.640729327466e-03 0.0 
-1.640729327466e-03 6.120965664255e-04 0.0 
0.0 0.0 0.0 
1.141633873599e-03 -1.573143243387e-03 0.0 
-1.573143243387e-03 1.273781394747e-03 0.0 
0.0 0.0 0.0 
1.475732972835e-03 -1.357240248710e-03 0.0 
-1.357240248710e-03 1.094864133027e-03 0.0 
0.0 0.0 0.0 
1.089805738776e-03 -1.281565789028e-03 0.0 
-1.281565789028e-03 1.742356341914e-03 0.0 
0.0 0.0 0.0 
7.781909673572e-04 -1.454293973578e-03 0.0 
-1.454293973578e-03 1.903520973078e-03 0.0 
0.0 0.0 0.0 
7.414582823242e-04 -1.176883143633e-03 0.0 
-1.176883143633e-03 2.352247883033e-03 0.0 
0.0 0.0 0.0 
4.585396369668e-04 -1.305945486091e-03 0.0 
-1.305945486091e-03 2.490154123764e-03 0.0 
0.0 0.0 0.0 
1.364232398564e-03 -1.036306546536e-03 0.0 
-1.036306546536e-03 1.643851472600e-03 0.0 
0.0 0.0 0.0 
1.766678930928e-03 -1.056896992176e-03 0.0 
-1.056896992176e-03 9.983552130750e-04 0.0 
0.0 0.0 0.0 
4.376515541979e-04 -1.055479119388e-03 0.0 
-1.055479119388e-03 2.917563390186e-03 0.0 
0.0 0.0 0.0 
1.835389449110e-04 -1.142828138697e-03 0.0 
-1.142828138697e-03 3.029589486619e-03 0.0 
0.0 0.0 0.0 
1.809412409280e-04 -9.253351589193e-04 0.0 
-9.253351589193e-04 3.436554568130e-03 0.0 
0.0 0.0 0.0 
-5.034281693435e-05 -9.762925862842e-04 0.0 
-9.762925862842e-04 3.520677601213e-03 0.0 
0.0 0.0 0.0 
-8.765198712348e-05 -1.174444570949e-03 0.0 
-1.174444570949e-03 3.163746225983e-03 0.0 
0.0 0.0 0.0 
-2.904165147489e-04 -9.780913929047e-04 0.0 
-9.780913929047e-04 3.615767463376e-03 0.0 
0.0 0.0 0.0 
-3.488122935384e-04 -1.155940782340e-03 0.0 
-1.155940782340e-03 3.298196724801e-03 0.0 
0.0 0.0 0.0 
4.378702413260e-03 1.062281870449e-03 0.0 
1.062281870449e-03 -2.046199778100e-03 0.0 
0.0 0.0 0.0 
4.099530680799e-03 1.670292516848e-03 0.0 
1.670292516848e-03 -1.434993021733e-03 0.0 
0.0 0.0 0.0 
3.904555302527e-03 1.137755084469e-03 0.0 
1.137755084469e-03 -1.231625505475e-03 0.0 
0.0 0.0 0.0 
3.590375883642e-03 1.694739383886e-03 0.0 
1.694739383886e-03 -4.761700849316e-04 0.0 
0.0 0.0 0.0 
3.385043096236e-03 1.247231100605e-03 0.0 
1.247231100605e-03 -2.507077846166e-04 0.0 
0.0 0.0 0.0 
3.090457302141e-03 1.729270436671e-03 0.0 
1.729270436671e-03 4.545476879677e-04 0.0 
0.0 0.0 0.0 
2.912923302314e-03 1.363211702680e-03 0.0 
1.363211702680e-03 6.267708084183e-04 0.0 
0.0 0.0 0.0 
3.130537107195e-03 8.782176731855e-04 0.0 
8.782176731855e-04 3.470339412483e-05 0.0 
0.0 0.0 0.0 
-1.263857801017e-03 3.345296437717e-03 0.0 
3.345296437717e-03 9.436821664149e-03 0.0 
0.0 0.0 0.0 
4.851989767272e-03 1.702455828785e-03 0.0 
1.702455828785e-03 -2.900821525850e-03 0.0 
0.0 0.0 0.0 
4.515769796432e-03 2.431166349807e-03 0.0 
2.431166349807e-03 -2.509767774296e-03 0.0 
0.0 0.0 0.0 
4.757791039339e-03 1.741706144729e-03 0.0 
1.741706144729e-03 -3.111193860116e-03 0.0 
0.0 0.0 0.0 
4.335423765290e-03 2.525971750575e-03 0.0 
2.525971750575e-03 -2.636505205578e-03 0.0 
0.0 0.0 0.0 
4.537728854791e-03 1.828673678239e-03 0.0 
1.828673678239e-03 -3.269113809470e-03 0.0 
0.0 0.0 0.0 
4.031003363906e-03 2.689615194051e-03 0.0 
2.689615194051e-03 -2.713578480789e-03 0.0 
0.0 0.0 0.0 
4.197482837390e-03 1.959810849875e-03 0.0 
1.959810849875e-03 -3.432001887927e-03 0.0 
0.0 0.0 0.0 
4.539922326814e-03 9.634193538708e-04 0.0 
9.634193538708e-04 -3.764042091129e-03 0.0 
0.0 0.0 0.0 
4.127155958266e-03 1.013384380010e-03 0.0 
1.013384380010e-03 -4.002218093218e-03 0.0 
0.0 0.0 0.0 
4.320218849407e-03 -3.735936970422e-05 0.0 
-3.735936970422e-05 -4.043173122524e-03 0.0 
0.0 0.0 0.0 
3.804646947745e-03 -5.361292363251e-05 0.0 
-5.361292363251e-05 -4.282861094171e-03 0.0 
0.0 0.0 0.0 
3.937360722953e-03 -1.082112409209e-03 0.0 
-1.082112409209e-03 -4.038921012326e-03 0.0 
0.0 0.0 0.0 
9.634159597339e-04 4.160835797021e-03 0.0 
4.160835797021e-03 4.059561914586e-03 0.0 
0.0 0.0 0.0 
3.197257611919e-03 2.151847126511e-03 0.0 
2.151847126511e-03 3.712231222235e-04 0.0 
0.0 0.0 0.0 
2.736558776562e-03 2.140004587396e-03 0.0 
2.140004587396e-03 1.226009366066e-03 0.0 
0.0 0.0 0.0 
2.776215686613e-03 2.517494681370e-03 0.0 
2.517494681370e-03 1.232336670770e-03 0.0 
0.0 0.0 0.0 
-2.077782390820e-04 -1.549810920569e-03 0.0 
-1.549810920569e-03 1.296036660937e-03 0.0 
0.0 0.0 0.0 
-2.436703061029e-04 -8.134219534991e-04 0.0 
-8.134219534991e-04 3.962673668160e-03 0.0 
0.0 0.0 0.0 
1.577366350318e-03 -7.349553893712e-04 0.0 
-7.349553893712e-04 1.623499250294e-03 0.0 
0.0 0.0 0.0 
1.979706260014e-03 -6.904763526668e-04 0.0 
-6.904763526668e-04 1.002505046552e-03 0.0 
0.0 0.0 0.0 
2.676140743079e-03 1.043586596250e-03 0.0 
1.043586596250e-03 8.930459539384e-04 0.0 
0.0 0.0 0.0 
-2.880825564558e-04 -1.056504840179e-03 0.0 
-1.056504840179e-03 1.530505260390e-03 0.0 
0.0 0.0 0.0 
3.592279706450e-03 2.877353845954e-03 0.0 
2.877353845954e-03 -2.755876717281e-03 0.0 
0.0 0.0 0.0 
3.286184382157e-03 3.404859425807e-03 0.0 
3.404859425807e-03 -1.898392671144e-03 0.0 
0.0 0.0 0.0 
-1.713184211493e-03 1.721816980394e-03 0.0 
1.721816980394e-03 1.208396267651e-02 0.0 
0.0 0.0 0.0 
-1.779167461676e-03 1.455665990732e-03 0.0 
1.455665990732e-03 1.213061342748e-02 0.0 
0.0 0.0 0.0 
1.713175732526e-03 -3.964247110223e-04 0.0 
-3.964247110223e-04 1.692785435246e-03 0.0 
0.0 0.0 0.0 
-4.147191037296e-04 -9.258492131746e-04 0.0 
-9.258492131746e-04 1.783971352931e-03 0.0 
0.0 0.0 0.0 
6.677989677885e-04 -9.135325007820e-04 0.0 
-9.135325007820e-04 2.840524638346e-03 0.0 
0.0 0.0 0.0 
3.511280758807e-03 1.114840272330e-03 0.0 
1.114840272330e-03 -4.187321438519e-03 0.0 
0.0 0.0 0.0 
-4.496522707078e-04 -7.882997490203e-04 0.0 
-7.882997490203e-04 4.016499232237e-03 0.0 
0.0 0.0 0.0 
-3.857195293903e-04 -6.545522818601e-04 0.0 
-6.545522818601e-04 4.350155243901e-03 0.0 
0.0 0.0 0.0 
4.513799469991e-04 -1.553681396402e-03 0.0 
-1.553681396402e-03 2.105486664949e-03 0.0 
0.0 0.0 0.0 
2.356418876612e-03 2.486514701893e-03 0.0 
2.486514701893e-03 2.033124580987e-03 0.0 
0.0 0.0 0.0 
2.354666905817e-03 2.812028147018e-03 0.0 
2.812028147018e-03 2.098127550329e-03 0.0 
0.0 0.0 0.0 
4.265500324733e-03 -9.508774021996e-04 0.0 
-9.508774021996e-04 -3.775584260290e-03 0.0 
0.0 0.0 0.0 
3.760622937089e-03 -1.903257746908e-03 0.0 
-1.903257746908e-03 -3.491902474320e-03 0.0 
0.0 0.0 0.0 
3.444200752931e-03 -2.129587494305e-03 0.0 
-2.129587494305e-03 -3.658196705844e-03 0.0 
0.0 0.0 0.0 
3.030392979990e-03 -2.693518591026e-03 0.0 
-2.693518591026e-03 -2.879148444531e-03 0.0 
0.0 0.0 0.0 
3.364307044242e-03 -2.392741351582e-03 0.0 
-2.392741351582e-03 -2.852014321989e-03 0.0 
0.0 0.0 0.0 
2.584416294776e-03 -2.927941578246e-03 0.0 
-2.927941578246e-03 -2.192679359512e-03 0.0 
0.0 0.0 0.0 
2.137692718931e-03 -3.220858124132e-03 0.0 
-3.220858124132e-03 -2.044144450303e-03 0.0 
0.0 0.0 0.0 
1.730828664505e-03 -3.223027261004e-03 0.0 
-3.223027261004e-03 -1.335344763116e-03 0.0 
0.0 0.0 0.0 
2.132758616892e-03 -2.991489551704e-03 0.0 
-2.991489551704e-03 -1.539616175611e-03 0.0 
0.0 0.0 0.0 
1.323900189023e-03 -3.043903215212e-03 0.0 
-3.043903215212e-03 -7.555383374994e-04 0.0 
0.0 0.0 0.0 
7.745966530261e-04 -3.053163157661e-03 0.0 
-3.053163157661e-03 -4.230106248327e-04 0.0 
0.0 0.0 0.0 
5.709634366956e-04 -2.788511520771e-03 0.0 
-2.788511520771e-03 -1.441790152699e-05 0.0 
0.0 0.0 0.0 
-2.049350984061e-04 -6.662713749171e-04 0.0 
-6.662713749171e-04 4.332704766014e-03 0.0 
0.0 0.0 0.0 
3.149968674666e-03 -3.300911442916e-05 0.0 
-3.300911442916e-05 -4.513316656605e-03 0.0 
0.0 0.0 0.0 
-1.919724154851e-03 3.106787180625e-03 0.0 
3.106787180625e-03 9.154924467429e-03 0.0 
0.0 0.0 0.0 
1.343490602165e-03 -4.669246219082e-04 0.0 
-4.669246219082e-04 2.266099392672e-03 0.0 
0.0 0.0 0.0 
2.439962109129e-03 1.476217535367e-03 0.0 
1.476217535367e-03 1.468252639937e-03 0.0 
0.0 0.0 0.0 
-1.547230619002e-03 1.651031669576e-03 0.0 
1.651031669576e-03 1.232812187659e-02 0.0 
0.0 0.0 0.0 
-1.614588575321e-03 1.398924754305e-03 0.0 
1.398924754305e-03 1.235232571576e-02 0.0 
0.0 0.0 0.0 
-1.814972544915e-03 1.206557734182e-03 0.0 
1.206557734182e-03 1.212664151680e-02 0.0 
0.0 0.0 0.0 
-1.657281538327e-03 1.163317979373e-03 0.0 
1.163317979373e-03 1.233364586356e-02 0.0 
0.0 0.0 0.0 
-1.436017184872e-03 1.342635736615e-03 0.0 
1.342635736615e-03 1.255543143643e-02 0.0 
0.0 0.0 0.0 
-1.489485408386e-03 1.117932869223e-03 0.0 
1.117932869223e-03 1.252695235523e-02 0.0 
0.0 0.0 0.0 
-1.680572406695e-03 9.489404894359e-04 0.0 
9.489404894359e-04 1.227897575406e-02 0.0 
0.0 0.0 0.0 
-1.525591586997e-03 9.136205449626e-04 0.0 
9.136205449626e-04 1.246672689701e-02 0.0 
0.0 0.0 0.0 
-1.688509701530e-03 7.573694780227e-04 0.0 
7.573694780227e-04 1.219416638696e-02 0.0 
0.0 0.0 0.0 
-1.547732553545e-03 7.316895717729e-04 0.0 
7.316895717729e-04 1.237882269243e-02 0.0 
0.0 0.0 0.0 
-1.363893839392e-03 8.726691749751e-04 0.0 
8.726691749751e-04 1.264499235558e-02 0.0 
0.0 0.0 0.0 
-1.400417327716e-03 6.984415806134e-04 0.0 
6.984415806134e-04 1.255418884603e-02 0.0 
0.0 0.0 0.0 
-1.559613663061e-03 5.723453857992e-04 0.0 
5.723453857992e-04 1.226666761994e-02 0.0 
0.0 0.0 0.0 
-1.428144951991e-03 5.447533642607e-04 0.0 
5.447533642607e-04 1.244338239176e-02 0.0 
0.0 0.0 0.0 
-1.565402691915e-03 4.353434149020e-04 0.0 
4.353434149020e-04 1.213588967026e-02 0.0 
0.0 0.0 0.0 
-1.450164338154e-03 4.120449029960e-04 0.0 
4.120449029960e-04 1.231441390245e-02 0.0 
0.0 0.0 0.0 
-1.291536815856e-03 5.068204584640e-04 0.0 
5.068204584640e-04 1.261239098324e-02 0.0 
0.0 0.0 0.0 
-9.988928460863e-05 -7.482656246587e-04 0.0 
-7.482656246587e-04 1.402821214021e-03 0.0 
0.0 0.0 0.0 
2.829445172537e-03 5.703375681581e-04 0.0 
5.703375681581e-04 3.977212150430e-04 0.0 
0.0 0.0 0.0 
2.383599477173e-03 7.701201516430e-04 0.0 
7.701201516430e-04 1.240212338153e-03 0.0 
0.0 0.0 0.0 
-8.856060733374e-04 -1.228376422512e-03 0.0 
-1.228376422512e-03 2.607388657884e-03 0.0 
0.0 0.0 0.0 
-9.188185611631e-04 -1.210434525486e-03 0.0 
-1.210434525486e-03 2.830066104742e-03 0.0 
0.0 0.0 0.0 
-7.396925813732e-04 -1.419025253931e-03 0.0 
-1.419025253931e-03 2.702146936372e-03 0.0 
0.0 0.0 0.0 
-9.167997055883e-04 -1.158570200787e-03 0.0 
-1.158570200787e-03 3.059706511653e-03 0.0 
0.0 0.0 0.0 
-1.331934503301e-03 3.763277074466e-04 0.0 
3.763277074466e-04 1.248497959365e-02 0.0 
0.0 0.0 0.0 
-1.151478331856e-03 4.569217713872e-04 0.0 
4.569217713872e-04 1.277427677344e-02 0.0 
0.0 0.0 0.0 
2.735237998026e-03 3.610054732629e-03 0.0 
3.610054732629e-03 -1.799200570494e-03 0.0 
0.0 0.0 0.0 
2.353602557407e-03 3.887704230389e-03 0.0 
3.887704230389e-03 -8.844883278909e-04 0.0 
0.0 0.0 0.0 
-1.451797637121e-03 1.917593664551e-03 0.0 
1.917593664551e-03 1.225687438749e-02 0.0 
0.0 0.0 0.0 
-5.647342164779e-04 -6.060145258970e-04 0.0 
-6.060145258970e-04 4.363289575473e-03 0.0 
0.0 0.0 0.0 
-6.501068852123e-04 -7.217224149236e-04 0.0 
-7.217224149236e-04 4.064863448126e-03 0.0 
0.0 0.0 0.0 
1.195029487255e-03 4.217828904012e-03 0.0 
4.217828904012e-03 2.504689481775e-03 0.0 
0.0 0.0 0.0 
5.833024442959e-04 4.280937841413e-03 0.0 
4.280937841413e-03 3.396497220718e-03 0.0 
0.0 0.0 0.0 
1.009004763965e-03 4.227410629559e-03 0.0 
4.227410629559e-03 2.486351830877e-03 0.0 
0.0 0.0 0.0 
3.654482959868e-04 4.234204947269e-03 0.0 
4.234204947269e-03 3.419871444821e-03 0.0 
0.0 0.0 0.0 
-2.808758205919e-05 4.230180412223e-03 0.0 
4.230180412223e-03 4.320001914514e-03 0.0 
0.0 0.0 0.0 
7.444829311658e-04 4.188519282313e-03 0.0 
4.188519282313e-03 2.520037739703e-03 0.0 
0.0 0.0 0.0 
2.198005867839e-03 -1.030776078281e-03 0.0 
-1.030776078281e-03 3.299700335000e-04 0.0 
0.0 0.0 0.0 
-1.196051380464e-03 8.232064804319e-04 0.0 
8.232064804319e-04 1.281159995146e-02 0.0 
0.0 0.0 0.0 
-1.049495654607e-04 -1.927201043769e-03 0.0 
-1.927201043769e-03 1.172883018796e-03 0.0 
0.0 0.0 0.0 
-1.466609551651e-04 -1.667739622902e-03 0.0 
-1.667739622902e-03 1.095451387283e-03 0.0 
0.0 0.0 0.0 
-4.802232276611e-04 -5.033656616430e-04 0.0 
-5.033656616430e-04 4.683730623175e-03 0.0 
0.0 0.0 0.0 
3.247217678175e-03 3.380384385638e-04 0.0 
3.380384385638e-04 -4.561411803241e-04 0.0 
0.0 0.0 0.0 
5.374670480119e-04 4.134507390284e-03 0.0 
4.134507390284e-03 5.056156554632e-03 0.0 
0.0 0.0 0.0 
9.712474128971e-04 4.024638931333e-03 0.0 
4.024638931333e-03 4.433723286875e-03 0.0 
0.0 0.0 0.0 
5.638485312410e-04 3.991915702149e-03 0.0 
3.991915702149e-03 5.413180731516e-03 0.0 
0.0 0.0 0.0 
9.297731876486e-04 3.868160660690e-03 0.0 
3.868160660690e-03 4.866662601870e-03 0.0 
0.0 0.0 0.0 
5.498842686543e-04 3.874777212717e-03 0.0 
3.874777212717e-03 5.811078827142e-03 0.0 
0.0 0.0 0.0 
8.408763398522e-04 3.766906603222e-03 0.0 
3.766906603222e-03 5.331305198488e-03 0.0 
0.0 0.0 0.0 
1.229880553721e-03 3.696112758863e-03 0.0 
3.696112758863e-03 4.402925559241e-03 0.0 
0.0 0.0 0.0 
1.973487944138e-03 2.787246530588e-03 0.0 
2.787246530588e-03 2.855952481652e-03 0.0 
0.0 0.0 0.0 
1.064306953341e-03 3.623500691996e-03 0.0 
3.623500691996e-03 4.940509950011e-03 0.0 
0.0 0.0 0.0 
-1.471732764889e-03 3.030318811699e-04 0.0 
3.030318811699e-04 1.216705984174e-02 0.0 
0.0 0.0 0.0 
3.201773676286e-03 2.616114645078e-03 0.0 
2.616114645078e-03 3.816360017831e-04 0.0 
0.0 0.0 0.0 
1.671720764264e-03 -2.880441684307e-03 0.0 
-2.880441684307e-03 -9.380695657852e-04 0.0 
0.0 0.0 0.0 
-1.884784807164e-05 -8.154828922840e-04 0.0 
-8.154828922840e-04 1.187664962563e-03 0.0 
0.0 0.0 0.0 
1.083224689609e-04 -2.564063233187e-03 0.0 
-2.564063233187e-03 3.154677272402e-04 0.0 
0.0 0.0 0.0 
-2.381297145708e-04 -6.301941729545e-04 0.0 
-6.301941729545e-04 1.634077488489e-03 0.0 
0.0 0.0 0.0 
-5.745639177274e-04 -7.825711244863e-04 0.0 
-7.825711244863e-04 2.044843235730e-03 0.0 
0.0 0.0 0.0 
1.404645940975e-03 -1.594069604952e-04 0.0 
-1.594069604952e-04 2.393106435428e-03 0.0 
0.0 0.0 0.0 
4.945575562893e-04 3.822717188892e-03 0.0 
3.822717188892e-03 6.243973382637e-03 0.0 
0.0 0.0 0.0 
2.219990799088e-04 3.866916796019e-03 0.0 
3.866916796019e-03 6.706734375649e-03 0.0 
0.0 0.0 0.0 
-2.543350994660e-04 4.133267756558e-03 0.0 
4.133267756558e-03 4.373649549399e-03 0.0 
0.0 0.0 0.0 
-6.235847288283e-04 4.054096255729e-03 0.0 
4.054096255729e-03 5.261212317838e-03 0.0 
0.0 0.0 0.0 
1.926875523204e-03 2.503267997940e-03 0.0 
2.503267997940e-03 2.813498628128e-03 0.0 
0.0 0.0 0.0 
-2.096947661738e-03 1.312078162603e-03 0.0 
1.312078162603e-03 1.167143493182e-02 0.0 
0.0 0.0 0.0 
-1.823191245533e-03 7.770611831440e-04 0.0 
7.770611831440e-04 1.200116859433e-02 0.0 
0.0 0.0 0.0 
-1.800172051790e-03 6.010928719238e-04 0.0 
6.010928719238e-04 1.188863866294e-02 0.0 
0.0 0.0 0.0 
2.466557596678e-04 -4.740396309466e-04 0.0 
-4.740396309466e-04 1.093056469556e-03 0.0 
0.0 0.0 0.0 
1.592120657724e-04 -2.896843250570e-03 0.0 
-2.896843250570e-03 4.515499630492e-05 0.0 
0.0 0.0 0.0 
-1.249347111091e-03 1.281743683746e-03 0.0 
1.281743683746e-03 1.274443501781e-02 0.0 
0.0 0.0 0.0 
2.883593949106e-03 3.743072175815e-03 0.0 
3.743072175815e-03 -1.052300997824e-03 0.0 
0.0 0.0 0.0 
1.963215625365e-03 4.041142197067e-03 0.0 
4.041142197067e-03 -4.903297816165e-05 0.0 
0.0 0.0 0.0 
2.661289200398e-03 1.294454317089e-03 0.0 
1.294454317089e-03 -4.315776043074e-03 0.0 
0.0 0.0 0.0 
2.326246955969e-03 2.051998560342e-05 0.0 
2.051998560342e-05 -4.661584114062e-03 0.0 
0.0 0.0 0.0 
-1.209425606309e-03 3.313571072172e-04 0.0 
3.313571072172e-04 1.264865666481e-02 0.0 
0.0 0.0 0.0 
-1.014621780100e-03 3.930445154617e-04 0.0 
3.930445154617e-04 1.292514282662e-02 0.0 
0.0 0.0 0.0 
-7.140530733703e-04 -1.336612504827e-03 0.0 
-1.336612504827e-03 2.927025267174e-03 0.0 
0.0 0.0 0.0 
-8.774024634783e-04 -1.074619299473e-03 0.0 
-1.074619299473e-03 3.290578434669e-03 0.0 
0.0 0.0 0.0 
1.761295960864e-03 -3.367951973892e-05 0.0 
-3.367951973892e-05 1.866247597414e-03 0.0 
0.0 0.0 0.0 
7.736251809840e-05 -2.366716034251e-03 0.0 
-2.366716034251e-03 5.292484323187e-04 0.0 
0.0 0.0 0.0 
-9.349622101740e-04 5.344455537210e-04 0.0 
5.344455537210e-04 1.303286439673e-02 0.0 
0.0 0.0 0.0 
2.882798499233e-03 6.292455184060e-05 0.0 
6.292455184060e-05 1.602613899733e-05 0.0 
0.0 0.0 0.0 
3.239026902099e-03 -2.301140761435e-04 0.0 
-2.301140761435e-04 -8.088536133761e-04 0.0 
0.0 0.0 0.0 
-1.081230133395e-03 -9.344766036470e-04 0.0 
-9.344766036470e-04 3.156600591509e-03 0.0 
0.0 0.0 0.0 
1.620766226605e-03 3.999601363187e-03 0.0 
3.999601363187e-03 -6.128787238498e-04 0.0 
0.0 0.0 0.0 
1.920944685506e-03 3.804241019384e-03 0.0 
3.804241019384e-03 -1.581818559980e-03 0.0 
0.0 0.0 0.0 
2.384627504802e-03 -2.720445248512e-03 0.0 
-2.720445248512e-03 -1.621676536529e-03 0.0 
0.0 0.0 0.0 
4.182855606160e-04 -2.586286396401e-03 0.0 
-2.586286396401e-03 3.254264427289e-04 0.0 
0.0 0.0 0.0 
-3.981513558342e-04 -5.139817858955e-04 0.0 
-5.139817858955e-04 1.883268559248e-03 0.0 
0.0 0.0 0.0 
1.384177620171e-03 1.731183999142e-04 0.0 
1.731183999142e-04 2.609166874773e-03 0.0 
0.0 0.0 0.0 
-1.166302513328e-03 1.511929078855e-03 0.0 
1.511929078855e-03 1.274684322940e-02 0.0 
0.0 0.0 0.0 
1.444032870309e-03 3.487483023802e-03 0.0 
3.487483023802e-03 4.039378129386e-03 0.0 
0.0 0.0 0.0 
1.649194775602e-03 3.600190955759e-03 0.0 
3.600190955759e-03 3.449285402716e-03 0.0 
0.0 0.0 0.0 
1.201720612587e-03 3.446449642387e-03 0.0 
3.446449642387e-03 4.635314120506e-03 0.0 
0.0 0.0 0.0 
-2.589157503982e-04 -2.008272950547e-03 0.0 
-2.008272950547e-03 7.281405470937e-04 0.0 
0.0 0.0 0.0 
1.061534716109e-03 -2.624695733907e-04 0.0 
-2.624695733907e-04 2.937625463111e-03 0.0 
0.0 0.0 0.0 
-6.384439137126e-04 -4.351339522188e-04 0.0 
-4.351339522188e-04 4.659023189093e-03 0.0 
0.0 0.0 0.0 
1.972342842201e-04 3.869968371994e-03 0.0 
3.869968371994e-03 7.098051864142e-03 0.0 
0.0 0.0 0.0 
-4.663380757471e-05 3.851221761952e-03 0.0 
3.851221761952e-03 7.542149713610e-03 0.0 
0.0 0.0 0.0 
2.450999625959e-03 3.958457699266e-03 0.0 
3.958457699266e-03 -2.299619598532e-04 0.0 
0.0 0.0 0.0 
1.554379528480e-03 4.120222679753e-03 0.0 
4.120222679753e-03 7.646604012339e-04 0.0 
0.0 0.0 0.0 
1.006724208335e-03 4.114163632861e-03 0.0 
4.114163632861e-03 1.013870891527e-03 0.0 
0.0 0.0 0.0 
7.030057373509e-04 4.119448787279e-03 0.0 
4.119448787279e-03 1.805117419199e-03 0.0 
0.0 0.0 0.0 
-2.252698344699e-03 2.501526167195e-03 0.0 
2.501526167195e-03 1.011332018257e-02 0.0 
0.0 0.0 0.0 
1.959013533680e-03 4.093613370173e-03 0.0 
4.093613370173e-03 6.213454484166e-04 0.0 
0.0 0.0 0.0 
-1.749382162440e-03 3.334245891023e-03 0.0 
3.334245891023e-03 8.528520067564e-03 0.0 
0.0 0.0 0.0 
-2.082678443872e-03 2.925999049888e-03 0.0 
2.925999049888e-03 9.103780039894e-03 0.0 
0.0 0.0 0.0 
-1.914747836073e-03 3.174228866186e-03 0.0 
3.174228866186e-03 8.501011918706e-03 0.0 
0.0 0.0 0.0 
-4.445549615263e-04 4.147581878928e-03 0.0 
4.147581878928e-03 5.235757130300e-03 0.0 
0.0 0.0 0.0 
-1.009794656744e-03 3.907477843525e-03 0.0 
3.907477843525e-03 6.154667220838e-03 0.0 
0.0 0.0 0.0 
3.974021565054e-03 3.081960453708e-03 0.0 
3.081960453708e-03 -1.907968154269e-03 0.0 
0.0 0.0 0.0 
4.104255040603e-03 2.214390583829e-03 0.0 
2.214390583829e-03 -1.375813191258e-03 0.0 
0.0 0.0 0.0 
-5.023760283757e-04 -1.589733900718e-03 0.0 
-1.589733900718e-03 2.514774959954e-03 0.0 
0.0 0.0 0.0 
-1.338934954462e-04 -1.376435832871e-03 0.0 
-1.376435832871e-03 2.837810944334e-03 0.0 
0.0 0.0 0.0 
1.998192552417e-03 -1.633073843709e-03 0.0 
-1.633073843709e-03 -5.795486638617e-05 0.0 
0.0 0.0 0.0 
-1.133346007502e-03 1.010177340725e-03 0.0 
1.010177340725e-03 1.287997475076e-02 0.0 
0.0 0.0 0.0 
-9.473562859681e-04 9.431596232835e-04 0.0 
9.431596232835e-04 1.303985895700e-02 0.0 
0.0 0.0 0.0 
-1.675560237043e-03 4.482175745280e-04 0.0 
4.482175745280e-04 1.194897047573e-02 0.0 
0.0 0.0 0.0 
-1.661544196496e-03 3.259105646300e-04 0.0 
3.259105646300e-04 1.179813739116e-02 0.0 
0.0 0.0 0.0 
-1.440761961340e-04 -1.248060240524e-03 0.0 
-1.248060240524e-03 1.113625190093e-03 0.0 
0.0 0.0 0.0 
-1.657494681092e-04 -1.321527597085e-03 0.0 
-1.321527597085e-03 9.873442855065e-04 0.0 
0.0 0.0 0.0 
8.002292354764e-04 -1.930461280116e-03 0.0 
-1.930461280116e-03 1.162312166938e-03 0.0 
0.0 0.0 0.0 
9.982376834885e-04 -5.099691925415e-04 0.0 
-5.099691925415e-04 2.825169349622e-03 0.0 
0.0 0.0 0.0 
-1.265797280146e-03 1.835056014411e-03 0.0 
1.835056014411e-03 1.249934466827e-02 0.0 
0.0 0.0 0.0 
-1.143726336776e-03 2.107607010461e-03 0.0 
2.107607010461e-03 1.240612826842e-02 0.0 
0.0 0.0 0.0 
-1.329823915474e-03 2.195166991156e-03 0.0 
2.195166991156e-03 1.214041107165e-02 0.0 
0.0 0.0 0.0 
1.725424416277e-03 3.460967426166e-04 0.0 
3.460967426166e-04 2.123274419372e-03 0.0 
0.0 0.0 0.0 
4.942704110730e-03 9.379360693275e-04 0.0 
9.379360693275e-04 -3.336442451052e-03 0.0 
0.0 0.0 0.0 
4.061552295569e-03 5.315983138426e-04 0.0 
5.315983138426e-04 -1.751818198984e-03 0.0 
0.0 0.0 0.0 
2.731809238050e-03 -1.323265336048e-03 0.0 
-1.323265336048e-03 -4.540866243292e-03 0.0 
0.0 0.0 0.0 
1.878368714309e-03 3.914894556147e-03 0.0 
3.914894556147e-03 2.415908343651e-03 0.0 
0.0 0.0 0.0 
1.387270042730e-07 -9.386361033233e-04 0.0 
-9.386361033233e-04 8.620187977932e-04 0.0 
0.0 0.0 0.0 
-7.944216702407e-04 3.701715256606e-03 0.0 
3.701715256606e-03 8.268631077498e-03 0.0 
0.0 0.0 0.0 
-5.339913079943e-04 -3.616627748474e-04 0.0 
-3.616627748474e-04 4.970953850621e-03 0.0 
0.0 0.0 0.0 
-3.970501250963e-04 -4.252163842488e-04 0.0 
-4.252163842488e-04 5.017041492941e-03 0.0 
0.0 0.0 0.0 
1.565667412669e-03 2.806811466068e-03 0.0 
2.806811466068e-03 3.592929860598e-03 0.0 
0.0 0.0 0.0 
-2.496302653150e-03 1.827229292731e-03 0.0 
1.827229292731e-03 1.027320922761e-02 0.0 
0.0 0.0 0.0 
2.265205589414e-03 3.644640363450e-03 0.0 
3.644640363450e-03 1.905309481556e-03 0.0 
0.0 0.0 0.0 
2.777178310888e-03 3.438504124929e-03 0.0 
3.438504124929e-03 9.035027812733e-04 0.0 
0.0 0.0 0.0 
-2.215532743412e-03 2.698742587981e-03 0.0 
2.698742587981e-03 9.067443435398e-03 0.0 
0.0 0.0 0.0 
-2.054521957711e-03 2.963690732208e-03 0.0 
2.963690732208e-03 8.509995659833e-03 0.0 
0.0 0.0 0.0 
-1.680134215160e-03 3.434125203111e-03 0.0 
3.434125203111e-03 7.815493755302e-03 0.0 
0.0 0.0 0.0 
-1.827203244886e-03 3.258388496063e-03 0.0 
3.258388496063e-03 7.838066462527e-03 0.0 
0.0 0.0 0.0 
1.885376087577e-03 -2.655053717866e-03 0.0 
-2.655053717866e-03 -9.707837424138e-04 0.0 
0.0 0.0 0.0 
1.281900594346e-03 -2.729807688351e-03 0.0 
-2.729807688351e-03 -3.808963182872e-04 0.0 
0.0 0.0 0.0 
3.911225270911e-04 3.865111509586e-03 0.0 
3.865111509586e-03 6.749554218150e-03 0.0 
0.0 0.0 0.0 
8.634319050344e-04 3.644185917996e-03 0.0 
3.644185917996e-03 5.488546990446e-03 0.0 
0.0 0.0 0.0 
-8.722886085037e-06 3.913579507558e-03 0.0 
3.913579507558e-03 7.886529010271e-03 0.0 
0.0 0.0 0.0 
-2.367580149699e-04 3.842522796603e-03 0.0 
3.842522796603e-03 8.328471805577e-03 0.0 
0.0 0.0 0.0 
1.474972004757e-03 2.554204577222e-03 0.0 
2.554204577222e-03 3.580002736645e-03 0.0 
0.0 0.0 0.0 
1.824511070421e-03 2.221788739830e-03 0.0 
2.221788739830e-03 2.844772270222e-03 0.0 
0.0 0.0 0.0 
-7.288627907815e-04 -6.153930164009e-04 0.0 
-6.153930164009e-04 2.290378470111e-03 0.0 
0.0 0.0 0.0 
-1.188676038433e-03 3.756208589610e-03 0.0 
3.756208589610e-03 6.200694263469e-03 0.0 
0.0 0.0 0.0 
-9.629235690021e-04 1.436351028151e-03 0.0 
1.436351028151e-03 1.293442266506e-02 0.0 
0.0 0.0 0.0 
-2.323421992221e-03 2.464091973864e-03 0.0 
2.464091973864e-03 9.565181558210e-03 0.0 
0.0 0.0 0.0 
7.429690487949e-04 -3.465970005247e-04 0.0 
-3.465970005247e-04 3.451099111333e-03 0.0 
0.0 0.0 0.0 
6.906501440102e-04 -5.335308128087e-04 0.0 
-5.335308128087e-04 3.371311504555e-03 0.0 
0.0 0.0 0.0 
1.660070902919e-03 -1.175849878270e-03 0.0 
-1.175849878270e-03 -4.565533836311e-03 0.0 
0.0 0.0 0.0 
1.939273841585e-03 -2.736060645730e-03 0.0 
-2.736060645730e-03 -3.825491800222e-03 0.0 
0.0 0.0 0.0 
-7.828736597857e-04 4.520388285258e-04 0.0 
4.520388285258e-04 1.317681999437e-02 0.0 
0.0 0.0 0.0 
1.542238115050e-04 4.019829243345e-03 0.0 
4.019829243345e-03 2.074212044972e-03 0.0 
0.0 0.0 0.0 
-4.644862487888e-05 3.995894083610e-03 0.0 
3.995894083610e-03 2.832863140865e-03 0.0 
0.0 0.0 0.0 
3.570488260030e-04 4.034166847569e-03 0.0 
4.034166847569e-03 1.328151707297e-03 0.0 
0.0 0.0 0.0 
-3.206813618993e-04 -1.016072531387e-04 0.0 
-1.016072531387e-04 5.722139686876e-03 0.0 
0.0 0.0 0.0 
-1.601380009244e-03 2.968588037699e-05 0.0 
2.968588037699e-05 1.104580065127e-02 0.0 
0.0 0.0 0.0 
-4.171807122025e-04 -3.115990437265e-04 0.0 
-3.115990437265e-04 5.287485638075e-03 0.0 
0.0 0.0 0.0 
-8.550764956477e-04 4.000896593333e-03 0.0 
4.000896593333e-03 6.155090086828e-03 0.0 
0.0 0.0 0.0 
-6.809301765278e-04 6.098875275145e-04 0.0 
6.098875275145e-04 1.327056428389e-02 0.0 
0.0 0.0 0.0 
2.556492077084e-03 3.300809438304e-03 0.0 
3.300809438304e-03 1.541326754897e-03 0.0 
0.0 0.0 0.0 
1.686321067157e-03 4.134138179705e-03 0.0 
4.134138179705e-03 1.560296380130e-03 0.0 
0.0 0.0 0.0 
2.124003148738e-03 1.264798802266e-04 0.0 
1.264798802266e-04 1.344946940404e-03 0.0 
0.0 0.0 0.0 
-8.925729801235e-04 2.950772791623e-04 0.0 
2.950772791623e-04 1.305547502711e-02 0.0 
0.0 0.0 0.0 
-6.237335548312e-04 3.554243812015e-04 0.0 
3.554243812015e-04 1.331840027923e-02 0.0 
0.0 0.0 0.0 
-1.912032728137e-03 6.103131592008e-04 0.0 
6.103131592008e-04 1.168916673265e-02 0.0 
0.0 0.0 0.0 
-1.874193037080e-03 4.465855920482e-04 0.0 
4.465855920482e-04 1.154290191150e-02 0.0 
0.0 0.0 0.0 
-1.949340118331e-03 7.926922135244e-04 0.0 
7.926922135244e-04 1.178962959673e-02 0.0 
0.0 0.0 0.0 
3.087160032209e-03 2.363723222890e-03 0.0 
2.363723222890e-03 -3.691891716986e-03 0.0 
0.0 0.0 0.0 
1.918453500932e-03 2.746679661899e-03 0.0 
2.746679661899e-03 -3.502254589754e-03 0.0 
0.0 0.0 0.0 
-1.024845265377e-03 7.611113229431e-04 0.0 
7.611113229431e-04 1.297053640081e-02 0.0 
0.0 0.0 0.0 
-8.049518860468e-04 -1.177270390165e-03 0.0 
-1.177270390165e-03 2.384001142455e-03 0.0 
0.0 0.0 0.0 
-9.868202417990e-04 -9.420760915286e-04 0.0 
-9.420760915286e-04 2.711834442714e-03 0.0 
0.0 0.0 0.0 
4.685536706163e-05 -2.220522349733e-03 0.0 
-2.220522349733e-03 7.393371671315e-04 0.0 
0.0 0.0 0.0 
2.889648283220e-04 -2.427881258554e-03 0.0 
-2.427881258554e-03 6.285832385532e-04 0.0 
0.0 0.0 0.0 
-4.649944039633e-04 -1.472328120082e-03 0.0 
-1.472328120082e-03 2.751202815939e-03 0.0 
0.0 0.0 0.0 
-2.187728878051e-04 -1.710822256761e-03 0.0 
-1.710822256761e-03 2.285698298945e-03 0.0 
0.0 0.0 0.0 
-4.343768222138e-04 3.810630159329e-03 0.0 
3.810630159329e-03 7.727911693287e-03 0.0 
0.0 0.0 0.0 
-6.330291739961e-04 3.698097505883e-03 0.0 
3.698097505883e-03 8.482273201339e-03 0.0 
0.0 0.0 0.0 
1.540496499440e-04 4.052092475658e-03 0.0 
4.052092475658e-03 6.012700222073e-03 0.0 
0.0 0.0 0.0 
2.822551734260e-03 -4.616224044370e-04 0.0 
-4.616224044370e-04 -2.403286087917e-04 0.0 
0.0 0.0 0.0 
3.078408109969e-03 -7.491794497118e-04 0.0 
-7.491794497118e-04 -9.490016186787e-04 0.0 
0.0 0.0 0.0 
3.529946854059e-03 -4.478143753623e-04 0.0 
-4.478143753623e-04 -1.472137441286e-03 0.0 
0.0 0.0 0.0 
-8.562739280377e-04 1.136057367367e-03 0.0 
1.136057367367e-03 1.307691638015e-02 0.0 
0.0 0.0 0.0 
-6.310108714173e-04 1.060700855557e-03 0.0 
1.060700855557e-03 1.324517909736e-02 0.0 
0.0 0.0 0.0 
2.510632183684e-03 -2.442213740023e-03 0.0 
-2.442213740023e-03 -1.552735670099e-03 0.0 
0.0 0.0 0.0 
3.063873071829e-03 -2.351388032468e-03 0.0 
-2.351388032468e-03 -2.211713676463e-03 0.0 
0.0 0.0 0.0 
1.475722635312e-03 -2.598634301922e-03 0.0 
-2.598634301922e-03 -4.036017264012e-04 0.0 
0.0 0.0 0.0 
-8.528510412042e-04 1.674987774543e-03 0.0 
1.674987774543e-03 1.291370813984e-02 0.0 
0.0 0.0 0.0 
-2.984381268680e-04 -3.831886339978e-04 0.0 
-3.831886339978e-04 5.347257319220e-03 0.0 
0.0 0.0 0.0 
-2.602016465465e-04 -4.712145681259e-04 0.0 
-4.712145681259e-04 5.056608505817e-03 0.0 
0.0 0.0 0.0 
-7.177959173571e-05 -9.522457162584e-04 0.0 
-9.522457162584e-04 7.655392856890e-04 0.0 
0.0 0.0 0.0 
-2.151253678778e-04 -1.377235314974e-03 0.0 
-1.377235314974e-03 8.966894939283e-04 0.0 
0.0 0.0 0.0 
7.872911785780e-04 4.070741543364e-03 0.0 
4.070741543364e-03 -2.341050826203e-04 0.0 
0.0 0.0 0.0 
1.024273243084e-03 3.992229478656e-03 0.0 
3.992229478656e-03 -1.230742870570e-03 0.0 
0.0 0.0 0.0 
-9.917141256404e-04 2.383270642135e-03 0.0 
2.383270642135e-03 1.225834209430e-02 0.0 
0.0 0.0 0.0 
-1.182081684825e-03 2.485469290529e-03 0.0 
2.485469290529e-03 1.197322828630e-02 0.0 
0.0 0.0 0.0 
-7.675329906400e-04 2.306479103467e-03 0.0 
2.306479103467e-03 1.252660419228e-02 0.0 
0.0 0.0 0.0 
-5.179940970907e-04 -3.544824842035e-04 0.0 
-3.544824842035e-04 2.081874663521e-03 0.0 
0.0 0.0 0.0 
1.851276420645e-03 3.336429852755e-03 0.0 
3.336429852755e-03 3.144030231768e-03 0.0 
0.0 0.0 0.0 
1.287834521072e-03 5.264199684278e-04 0.0 
5.264199684278e-04 2.885990286599e-03 0.0 
0.0 0.0 0.0 
1.629637577615e-03 7.376283135115e-04 0.0 
7.376283135115e-04 2.470453123527e-03 0.0 
0.0 0.0 0.0 
9.216220706083e-04 3.350120545654e-04 0.0 
3.350120545654e-04 3.453116548912e-03 0.0 
0.0 0.0 0.0 
1.600771834646e-03 3.044687248702e-03 0.0 
3.044687248702e-03 3.662998028479e-03 0.0 
0.0 0.0 0.0 
1.196923939782e-03 3.068433934902e-03 0.0 
3.068433934902e-03 4.350216163999e-03 0.0 
0.0 0.0 0.0 
8.903938937799e-04 3.484132958072e-03 0.0 
3.484132958072e-03 5.262705989722e-03 0.0 
0.0 0.0 0.0 
1.012053836886e-03 1.088955225725e-04 0.0 
1.088955225725e-04 -4.606271837493e-03 0.0 
0.0 0.0 0.0 
-6.909532440404e-04 2.225479063037e-04 0.0 
2.225479063037e-04 1.324960259944e-02 0.0 
0.0 0.0 0.0 
-1.749074573275e-03 3.203006073748e-04 0.0 
3.203006073748e-04 1.158276038901e-02 0.0 
0.0 0.0 0.0 
4.676046365553e-05 -6.148090453109e-04 0.0 
-6.148090453109e-04 -4.318167399302e-03 0.0 
0.0 0.0 0.0 
-1.713123348123e-03 2.239352414831e-04 0.0 
2.239352414831e-04 1.141509962413e-02 0.0 
0.0 0.0 0.0 
-1.646041280183e-03 2.296739513560e-04 0.0 
2.296739513560e-04 1.162907411596e-02 0.0 
0.0 0.0 0.0 
-1.689587381740e-03 1.454498253162e-04 0.0 
1.454498253162e-04 1.121398204397e-02 0.0 
0.0 0.0 0.0 
-8.555265583375e-05 -2.927643421974e-04 0.0 
-2.927643421974e-04 1.592432938317e-03 0.0 
0.0 0.0 0.0 
-2.026408165359e-03 5.905160161583e-04 0.0 
5.905160161583e-04 1.142543148730e-02 0.0 
0.0 0.0 0.0 
-2.075390560758e-03 8.224937985381e-04 0.0 
8.224937985381e-04 1.157327197088e-02 0.0 
0.0 0.0 0.0 
-1.405439614798e-04 -8.271423412917e-04 0.0 
-8.271423412917e-04 6.173548890342e-04 0.0 
0.0 0.0 0.0 
-6.147778204756e-04 1.570058727404e-03 0.0 
1.570058727404e-03 1.308965080300e-02 0.0 
0.0 0.0 0.0 
2.631853193861e-04 -6.586298186944e-04 0.0 
-6.586298186944e-04 4.904160384656e-04 0.0 
0.0 0.0 0.0 
3.441133788571e-04 -6.764658180736e-04 0.0 
-6.764658180736e-04 5.992255025759e-04 0.0 
0.0 0.0 0.0 
5.062997288308e-04 -4.052538921990e-04 0.0 
-4.052538921990e-04 3.953770236196e-03 0.0 
0.0 0.0 0.0 
4.399395096997e-04 -5.480646604109e-04 0.0 
-5.480646604109e-04 3.876176354903e-03 0.0 
0.0 0.0 0.0 
2.892942617725e-04 -4.613701041496e-04 0.0 
-4.613701041496e-04 4.397670125496e-03 0.0 
0.0 0.0 0.0 
2.299089804780e-04 -5.429390104795e-04 0.0 
-5.429390104795e-04 4.318170164025e-03 0.0 
0.0 0.0 0.0 
3.154592081057e-04 -6.599730875166e-04 0.0 
-6.599730875166e-04 3.849671349030e-03 0.0 
0.0 0.0 0.0 
1.162432328945e-04 -6.073215539920e-04 0.0 
-6.073215539920e-04 4.315581293434e-03 0.0 
0.0 0.0 0.0 
-1.835994551918e-03 3.155778467408e-04 0.0 
3.155778467408e-04 1.137007491144e-02 0.0 
0.0 0.0 0.0 
7.873579242049e-05 -5.281782238385e-04 0.0 
-5.281782238385e-04 4.796691664677e-03 0.0 
0.0 0.0 0.0 
-3.112337777111e-05 -5.504067631355e-04 0.0 
-5.504067631355e-04 4.743468125201e-03 0.0 
0.0 0.0 0.0 
-2.734580792400e-05 -5.253682140741e-04 0.0 
-5.253682140741e-04 5.200962643075e-03 0.0 
0.0 0.0 0.0 
-2.173574927722e-03 2.666656779842e-03 0.0 
2.666656779842e-03 8.558605141855e-03 0.0 
0.0 0.0 0.0 
3.982216126343e-04 4.126255369227e-03 0.0 
4.126255369227e-03 2.627850678502e-03 0.0 
0.0 0.0 0.0 
-2.826351765068e-04 3.976261958815e-03 0.0 
3.976261958815e-03 3.638009033624e-03 0.0 
0.0 0.0 0.0 
-7.662567210101e-04 3.756973077704e-03 0.0 
3.756973077704e-03 3.902444989270e-03 0.0 
0.0 0.0 0.0 
-1.423879124495e-04 3.972704803774e-03 0.0 
3.972704803774e-03 8.698659003141e-03 0.0 
0.0 0.0 0.0 
-3.628602461879e-04 3.823595534733e-03 0.0 
3.823595534733e-03 9.018390774754e-03 0.0 
0.0 0.0 0.0 
-6.617555142161e-04 -2.755887078498e-04 0.0 
-2.755887078498e-04 4.913858174662e-03 0.0 
0.0 0.0 0.0 
-7.769699333564e-04 -3.238927420374e-04 0.0 
-3.238927420374e-04 4.624663507576e-03 0.0 
0.0 0.0 0.0 
-1.636563230591e-03 1.466435454049e-04 0.0 
1.466435454049e-04 1.142958510894e-02 0.0 
0.0 0.0 0.0 
-1.600283231801e-03 1.001367759617e-04 0.0 
1.001367759617e-04 1.140613912744e-02 0.0 
0.0 0.0 0.0 
-1.557352509784e-03 1.663803407389e-04 0.0 
1.663803407389e-04 1.174627649738e-02 0.0 
0.0 0.0 0.0 
-1.536423411086e-03 1.108412768432e-04 0.0 
1.108412768432e-04 1.170154356940e-02 0.0 
0.0 0.0 0.0 
-1.468186563883e-03 1.739223248180e-04 0.0 
1.739223248180e-04 1.202441291599e-02 0.0 
0.0 0.0 0.0 
-1.457369600023e-03 1.046024937929e-04 0.0 
1.046024937929e-04 1.197385766979e-02 0.0 
0.0 0.0 0.0 
-1.362805391033e-03 1.652764985713e-04 0.0 
1.652764985713e-04 1.228748790638e-02 0.0 
0.0 0.0 0.0 
5.725387261113e-04 3.745126018831e-03 0.0 
3.745126018831e-03 6.164593294825e-03 0.0 
0.0 0.0 0.0 
-4.585035967110e-04 3.866701849495e-03 0.0 
3.866701849495e-03 2.364135645167e-03 0.0 
0.0 0.0 0.0 
-2.405423074451e-03 2.167070188430e-03 0.0 
2.167070188430e-03 9.504557149866e-03 0.0 
0.0 0.0 0.0 
1.318453468030e-03 2.286789622207e-03 0.0 
2.286789622207e-03 3.631767142582e-03 0.0 
0.0 0.0 0.0 
1.673104838120e-03 1.939798083133e-03 0.0 
1.939798083133e-03 2.910934128606e-03 0.0 
0.0 0.0 0.0 
-1.524961952670e-03 3.534586814081e-03 0.0 
3.534586814081e-03 7.061371841845e-03 0.0 
0.0 0.0 0.0 
-1.710200885173e-03 3.271007745818e-03 0.0 
3.271007745818e-03 7.181475765474e-03 0.0 
0.0 0.0 0.0 
6.952211752331e-04 -1.207811994062e-04 0.0 
-1.207811994062e-04 3.719263624111e-03 0.0 
0.0 0.0 0.0 
2.783423420839e-03 3.883988278024e-03 0.0 
3.883988278024e-03 -3.038405732831e-04 0.0 
0.0 0.0 0.0 
-4.267531622107e-04 1.844605859613e-03 0.0 
1.844605859613e-03 1.304550112490e-02 0.0 
0.0 0.0 0.0 
-1.544016668089e-03 2.441979323033e-03 0.0 
2.441979323033e-03 -2.788881529273e-03 0.0 
0.0 0.0 0.0 
3.264431231161e-04 2.412911650517e-03 0.0 
2.412911650517e-03 -3.449849526214e-03 0.0 
0.0 0.0 0.0 
2.231940158026e-03 4.054834640668e-03 0.0 
4.054834640668e-03 5.883313536013e-04 0.0 
0.0 0.0 0.0 
-1.378047780768e-03 3.691008435282e-03 0.0 
3.691008435282e-03 7.025935235464e-03 0.0 
0.0 0.0 0.0 
8.313739672429e-05 4.134936140549e-03 0.0 
4.134936140549e-03 3.492713143227e-03 0.0 
0.0 0.0 0.0 
-5.473452485185e-04 3.985196007072e-03 0.0 
3.985196007072e-03 4.476903494547e-03 0.0 
0.0 0.0 0.0 
2.498638166590e-03 -1.412697925511e-04 0.0 
-1.412697925511e-04 5.489762377717e-04 0.0 
0.0 0.0 0.0 
-2.971837050200e-04 -1.442360174689e-03 0.0 
-1.442360174689e-03 8.269220736985e-04 0.0 
0.0 0.0 0.0 
5.436917967960e-04 4.045834137126e-03 0.0 
4.045834137126e-03 5.788315079124e-04 0.0 
0.0 0.0 0.0 
-1.380183327621e-03 2.598487411591e-04 0.0 
2.598487411591e-04 1.232273851524e-02 0.0 
0.0 0.0 0.0 
-3.161941733821e-04 3.958329147701e-03 0.0 
3.958329147701e-03 9.883155817336e-04 0.0 
0.0 0.0 0.0 
-7.662776056083e-04 -1.511633029642e-04 0.0 
-1.511633029642e-04 4.848500118227e-03 0.0 
0.0 0.0 0.0 
3.523452091454e-03 3.503948301571e-03 0.0 
3.503948301571e-03 -1.120483858744e-03 0.0 
0.0 0.0 0.0 
-2.959484300489e-04 4.192491814512e-03 0.0 
4.192491814512e-03 5.270732018704e-03 0.0 
0.0 0.0 0.0 
1.308939121723e-03 4.074646183644e-03 0.0 
4.074646183644e-03 2.275583710311e-04 0.0 
0.0 0.0 0.0 
1.133588876726e-03 4.157486579936e-03 0.0 
4.157486579936e-03 1.623109349891e-03 0.0 
0.0 0.0 0.0 
-2.019838252289e-03 2.888350326966e-03 0.0 
2.888350326966e-03 9.711640400256e-03 0.0 
0.0 0.0 0.0 
-2.407070506021e-03 2.099109843927e-03 0.0 
2.099109843927e-03 1.041359470936e-02 0.0 
0.0 0.0 0.0 
-2.388904629266e-03 2.266506232724e-03 0.0 
2.266506232724e-03 1.001079001785e-02 0.0 
0.0 0.0 0.0 
4.141851292540e-03 2.983509301368e-03 0.0 
2.983509301368e-03 -1.808596030832e-03 0.0 
0.0 0.0 0.0 
-8.602515848925e-04 3.891576671492e-03 0.0 
3.891576671492e-03 5.356740286672e-03 0.0 
0.0 0.0 0.0 
-1.196823746427e-03 3.635004160775e-03 0.0 
3.635004160775e-03 5.509596465242e-03 0.0 
0.0 0.0 0.0 
-1.342356280868e-03 3.670245287674e-03 0.0 
3.670245287674e-03 7.869479617128e-03 0.0 
0.0 0.0 0.0 
-1.489350570125e-03 2.285601730404e-03 0.0 
2.285601730404e-03 1.184053850497e-02 0.0 
0.0 0.0 0.0 
-1.330430520612e-03 2.571862875223e-03 0.0 
2.571862875223e-03 1.164316719985e-02 0.0 
0.0 0.0 0.0 
-1.011607129748e-03 2.758504114931e-03 0.0 
2.758504114931e-03 1.175219807140e-02 0.0 
0.0 0.0 0.0 
-1.153179417599e-03 2.851389553347e-03 0.0 
2.851389553347e-03 1.139452650940e-02 0.0 
0.0 0.0 0.0 
-1.449214361941e-03 2.673354212797e-03 0.0 
2.673354212797e-03 1.127119725105e-02 0.0 
0.0 0.0 0.0 
-1.251287060272e-03 2.948778421815e-03 0.0 
2.948778421815e-03 1.098724718964e-02 0.0 
0.0 0.0 0.0 
-9.411673733795e-04 3.116974449486e-03 0.0 
3.116974449486e-03 1.111944661674e-02 0.0 
0.0 0.0 0.0 
-1.023523699430e-03 3.215541581830e-03 0.0 
3.215541581830e-03 1.066095231288e-02 0.0 
0.0 0.0 0.0 
-6.848622101042e-04 3.417034196560e-03 0.0 
3.417034196560e-03 1.084123815041e-02 0.0 
0.0 0.0 0.0 
-7.875852395502e-04 3.458590756876e-03 0.0 
3.458590756876e-03 1.028452770810e-02 0.0 
0.0 0.0 0.0 
-1.049948014094e-03 3.310256462793e-03 0.0 
3.310256462793e-03 1.013642923903e-02 0.0 
0.0 0.0 0.0 
-8.021588093561e-04 3.517311317865e-03 0.0 
3.517311317865e-03 9.737430661968e-03 0.0 
0.0 0.0 0.0 
-5.886572831946e-04 3.665448585711e-03 0.0 
3.665448585711e-03 9.878921950116e-03 0.0 
0.0 0.0 0.0 
-1.032902042909e-03 3.420663978344e-03 0.0 
3.420663978344e-03 9.573026931179e-03 0.0 
0.0 0.0 0.0 
9.260559813494e-04 2.636118800191e-03 0.0 
2.636118800191e-03 4.359162195806e-03 0.0 
0.0 0.0 0.0 
2.395531980382e-03 3.969138301125e-03 0.0 
3.969138301125e-03 6.505733158282e-04 0.0 
0.0 0.0 0.0 
1.546377823239e-03 1.288176324757e-03 0.0 
1.288176324757e-03 -4.276588548907e-03 0.0 
0.0 0.0 0.0 
7.513453607077e-04 3.653267621706e-03 0.0 
3.653267621706e-03 -2.653866425541e-03 0.0 
0.0 0.0 0.0 
-7.007308220188e-04 4.058411118827e-03 0.0 
4.058411118827e-03 6.198673390498e-03 0.0 
0.0 0.0 0.0 
-3.628027912350e-04 3.527032961005e-03 0.0 
3.527032961005e-03 1.120933299944e-02 0.0 
0.0 0.0 0.0 
-4.177306823470e-04 3.036318340512e-03 0.0 
3.036318340512e-03 1.198502211428e-02 0.0 
0.0 0.0 0.0 
3.695409581343e-03 3.220841003248e-03 0.0 
3.220841003248e-03 -1.938785742916e-03 0.0 
0.0 0.0 0.0 
-3.333594932272e-05 4.184732393015e-03 0.0 
4.184732393015e-03 8.765546947225e-03 0.0 
0.0 0.0 0.0 
-2.198206830221e-03 2.700642534356e-03 0.0 
2.700642534356e-03 9.637073433598e-03 0.0 
0.0 0.0 0.0 
3.719861315836e-03 2.111294332725e-03 0.0 
2.111294332725e-03 -3.583850453791e-03 0.0 
0.0 0.0 0.0 
1.476225906229e-04 4.111024716709e-03 0.0 
4.111024716709e-03 7.635884348518e-03 0.0 
0.0 0.0 0.0 
-1.621605314665e-03 2.385436011779e-03 0.0 
2.385436011779e-03 1.150951215795e-02 0.0 
0.0 0.0 0.0 
-1.723949293464e-03 2.496582433795e-03 0.0 
2.496582433795e-03 1.114220138694e-02 0.0 
0.0 0.0 0.0 
-1.878020174942e-03 2.196866535892e-03 0.0 
2.196866535892e-03 1.136696816583e-02 0.0 
0.0 0.0 0.0 
-3.983119976232e-04 2.581807553289e-03 0.0 
2.581807553289e-03 1.250956284721e-02 0.0 
0.0 0.0 0.0 
-1.966053851379e-03 1.009727685337e-03 0.0 
1.009727685337e-03 1.186715705020e-02 0.0 
0.0 0.0 0.0 
4.432403656908e-04 3.361079339407e-03 0.0 
3.361079339407e-03 5.680439203461e-03 0.0 
0.0 0.0 0.0 
3.679945766700e-03 2.206908013434e-03 0.0 
2.206908013434e-03 -5.759259208688e-04 0.0 
0.0 0.0 0.0 
3.600380117248e-03 2.704776126275e-03 0.0 
2.704776126275e-03 -4.611726033579e-04 0.0 
0.0 0.0 0.0 
3.914781166614e-03 2.731580199362e-03 0.0 
2.731580199362e-03 -1.076686381306e-03 0.0 
0.0 0.0 0.0 
-1.304261028999e-03 3.056439564109e-03 0.0 
3.056439564109e-03 1.052102840814e-02 0.0 
0.0 0.0 0.0 
6.190706912383e-04 1.968317518470e-03 0.0 
1.968317518470e-03 4.336563464350e-03 0.0 
0.0 0.0 0.0 
1.155363326172e-03 1.655410110245e-03 0.0 
1.655410110245e-03 3.509688592882e-03 0.0 
0.0 0.0 0.0 
1.131267401621e-03 1.313482456725e-03 0.0 
1.313482456725e-03 3.397620228791e-03 0.0 
0.0 0.0 0.0 
1.648505993126e-03 1.357106067932e-03 0.0 
1.357106067932e-03 2.674696377259e-03 0.0 
0.0 0.0 0.0 
5.930459971886e-04 1.224642600515e-03 0.0 
1.224642600515e-03 4.096662273664e-03 0.0 
0.0 0.0 0.0 
-2.442358762172e-04 3.910783371783e-03 0.0 
3.910783371783e-03 1.035198954975e-02 0.0 
0.0 0.0 0.0 
-1.746928209183e-04 4.053610521294e-03 0.0 
4.053610521294e-03 9.866582844355e-03 0.0 
0.0 0.0 0.0 
2.887878087425e-03 -2.644961061656e-03 0.0 
-2.644961061656e-03 -2.246025520414e-03 0.0 
0.0 0.0 0.0 
3.576865173963e-03 -2.090237707302e-03 0.0 
-2.090237707302e-03 -2.783934478804e-03 0.0 
0.0 0.0 0.0 
3.688985450029e-03 -1.839103694196e-03 0.0 
-1.839103694196e-03 -2.662437472203e-03 0.0 
0.0 0.0 0.0 
4.163530985013e-03 -1.395855280969e-03 0.0 
-1.395855280969e-03 -3.161513385401e-03 0.0 
0.0 0.0 0.0 
4.004477188785e-03 -1.643330010910e-03 0.0 
-1.643330010910e-03 -3.321720281741e-03 0.0 
0.0 0.0 0.0 
4.491322015258e-03 -7.756435658574e-04 0.0 
-7.756435658574e-04 -3.550793855425e-03 0.0 
0.0 0.0 0.0 
4.621310175184e-03 -6.275914008430e-04 0.0 
-6.275914008430e-04 -3.348856620964e-03 0.0 
0.0 0.0 0.0 
4.630399503796e-03 1.806567919392e-05 0.0 
1.806567919392e-05 -3.777171339101e-03 0.0 
0.0 0.0 0.0 
-4.909454425110e-04 3.733141341890e-03 0.0 
3.733141341890e-03 8.740384292689e-03 0.0 
0.0 0.0 0.0 
4.859306097171e-04 5.609044134813e-04 0.0 
5.609044134813e-04 4.137192968333e-03 0.0 
0.0 0.0 0.0 
1.899461816914e-03 -1.381573478042e-03 0.0 
-1.381573478042e-03 4.194217582049e-04 0.0 
0.0 0.0 0.0 
2.354052903429e-03 -1.326425223972e-03 0.0 
-1.326425223972e-03 -2.614309889625e-04 0.0 
0.0 0.0 0.0 
2.470999682471e-03 -1.535117208844e-03 0.0 
-1.535117208844e-03 -6.937861934277e-04 0.0 
0.0 0.0 0.0 
-2.458411994882e-04 -1.831058756480e-03 0.0 
-1.831058756480e-03 2.061209845905e-03 0.0 
0.0 0.0 0.0 
7.619816282017e-05 -1.931818018493e-03 0.0 
-1.931818018493e-03 1.777798610824e-03 0.0 
0.0 0.0 0.0 
9.868071611041e-05 -1.774923715072e-03 0.0 
-1.774923715072e-03 2.029949346408e-03 0.0 
0.0 0.0 0.0 
-5.217594633327e-04 -1.670810163824e-03 0.0 
-1.670810163824e-03 2.303751480414e-03 0.0 
0.0 0.0 0.0 
1.349707976831e-03 3.837120189787e-03 0.0 
3.837120189787e-03 3.890745341714e-03 0.0 
0.0 0.0 0.0 
4.313411676172e-04 2.776011735101e-04 0.0 
2.776011735101e-04 4.207579077809e-03 0.0 
0.0 0.0 0.0 
3.647336264571e-03 9.651652380530e-05 0.0 
9.651652380530e-05 -1.306241150255e-03 0.0 
0.0 0.0 0.0 
4.202059163005e-04 -2.128753612397e-03 0.0 
-2.128753612397e-03 1.239951215968e-03 0.0 
0.0 0.0 0.0 
-2.271732920195e-03 7.426080916288e-04 0.0 
7.426080916288e-04 1.098241913570e-02 0.0 
0.0 0.0 0.0 
-2.280936896821e-03 1.032384977665e-03 0.0 
1.032384977665e-03 1.120395353102e-02 0.0 
0.0 0.0 0.0 
-2.378188666845e-03 1.250643824845e-03 0.0 
1.250643824845e-03 1.110223967418e-02 0.0 
0.0 0.0 0.0 
-2.237623286384e-03 1.352554038324e-03 0.0 
1.352554038324e-03 1.139361883372e-02 0.0 
0.0 0.0 0.0 
-2.194540771918e-03 8.528655298958e-04 0.0 
8.528655298958e-04 1.132422549716e-02 0.0 
0.0 0.0 0.0 
-6.619228653494e-04 -1.222027674464e-03 0.0 
-1.222027674464e-03 3.166419959438e-03 0.0 
0.0 0.0 0.0 
-8.110646523214e-04 -9.673041949949e-04 0.0 
-9.673041949949e-04 3.526262294496e-03 0.0 
0.0 0.0 0.0 
-9.952968167702e-04 -8.098376058153e-04 0.0 
-8.098376058153e-04 3.597683719353e-03 0.0 
0.0 0.0 0.0 
-9.163953554536e-04 -7.167164695007e-04 0.0 
-7.167164695007e-04 3.832020537923e-03 0.0 
0.0 0.0 0.0 
-1.069310632836e-03 -5.553932234476e-04 0.0 
-5.553932234476e-04 3.846306858676e-03 0.0 
0.0 0.0 0.0 
-1.133334974917e-03 -6.279538530231e-04 0.0 
-6.279538530231e-04 3.634481702162e-03 0.0 
0.0 0.0 0.0 
-9.869828891627e-04 -4.700182651481e-04 0.0 
-4.700182651481e-04 4.087859880378e-03 0.0 
0.0 0.0 0.0 
-1.111996646262e-03 -3.195110786162e-04 0.0 
-3.195110786162e-04 4.026156170422e-03 0.0 
0.0 0.0 0.0 
-2.090970907411e-03 4.676939335056e-04 0.0 
4.676939335056e-04 1.106251394752e-02 0.0 
0.0 0.0 0.0 
-1.585607890277e-03 -2.382293795104e-03 0.0 
-2.382293795104e-03 -7.093723826656e-04 0.0 
0.0 0.0 0.0 
-6.579939803062e-04 -3.195274379492e-03 0.0 
-3.195274379492e-03 -4.681758204322e-04 0.0 
0.0 0.0 0.0 
-8.668236075444e-04 -2.365541507238e-03 0.0 
-2.365541507238e-03 5.580710176846e-04 0.0 
0.0 0.0 0.0 
1.872994202246e-05 -3.335532913553e-03 0.0 
-3.335532913553e-03 -4.199842301846e-04 0.0 
0.0 0.0 0.0 
8.938016645042e-04 -3.459627932463e-03 0.0 
-3.459627932463e-03 -2.028700563090e-03 0.0 
0.0 0.0 0.0 
1.331691849096e-03 -3.386131667860e-03 0.0 
-3.386131667860e-03 -1.684989695150e-03 0.0 
0.0 0.0 0.0 
2.213297993088e-03 -3.204783785040e-03 0.0 
-3.204783785040e-03 -3.040046070898e-03 0.0 
0.0 0.0 0.0 
1.257699928639e-04 -3.186476556807e-03 0.0 
-3.186476556807e-03 -2.464728659791e-03 0.0 
0.0 0.0 0.0 
-8.815835389636e-04 -8.589571349178e-04 0.0 
-8.589571349178e-04 5.355743989184e-04 0.0 
0.0 0.0 0.0 
-7.574370612182e-04 -1.603689030668e-03 0.0 
-1.603689030668e-03 7.220599973992e-04 0.0 
0.0 0.0 0.0 
-5.651744923415e-04 -5.315743200068e-04 0.0 
-5.315743200068e-04 4.704274616804e-04 0.0 
0.0 0.0 0.0 
-5.450563580465e-04 -1.179457931054e-03 0.0 
-1.179457931054e-03 6.926075176321e-04 0.0 
0.0 0.0 0.0 
-3.914413511597e-04 -2.097362374619e-03 0.0 
-2.097362374619e-03 6.684904339259e-04 0.0 
0.0 0.0 0.0 
-1.404694125613e-04 -1.781415915959e-03 0.0 
-1.781415915959e-03 9.551612773199e-04 0.0 
0.0 0.0 0.0 
-1.538282282611e-04 -3.775644201315e-04 0.0 
-3.775644201315e-04 5.678837212136e-03 0.0 
0.0 0.0 0.0 
-1.285705242659e-03 -2.542903407750e-04 0.0 
-2.542903407750e-04 3.451448954311e-03 0.0 
0.0 0.0 0.0 
-1.237104229928e-03 -5.017936079175e-04 0.0 
-5.017936079175e-04 3.276153083556e-03 0.0 
0.0 0.0 0.0 
-1.179365459993e-03 -4.874159433455e-04 0.0 
-4.874159433455e-04 3.045655270557e-03 0.0 
0.0 0.0 0.0 
-1.134767255618e-03 -7.643429362636e-04 0.0 
-7.643429362636e-04 3.046143317410e-03 0.0 
0.0 0.0 0.0 
-1.242191370555e-03 -4.805857180878e-04 0.0 
-4.805857180878e-04 3.490258491674e-03 0.0 
0.0 0.0 0.0 
-1.149597705089e-03 -2.338650553642e-04 0.0 
-2.338650553642e-04 2.950587727258e-03 0.0 
0.0 0.0 0.0 
-1.051460004899e-03 -4.535852647968e-04 0.0 
-4.535852647968e-04 2.785617576565e-03 0.0 
0.0 0.0 0.0 
1.991968564422e-03 -1.150752713377e-04 0.0 
-1.150752713377e-04 -5.813520890846e-04 0.0 
0.0 0.0 0.0 
1.467183935801e-03 -1.440491213765e-04 0.0 
-1.440491213765e-04 -4.200330165046e-05 0.0 
0.0 0.0 0.0 
1.609757001614e-03 -3.349698561825e-05 0.0 
-3.349698561825e-05 -1.403968016288e-04 0.0 
0.0 0.0 0.0 
9.317087834281e-04 -1.428890017700e-04 0.0 
-1.428890017700e-04 5.274223980444e-04 0.0 
0.0 0.0 0.0 
9.022311884949e-04 -2.312088136296e-04 0.0 
-2.312088136296e-04 5.227108656681e-04 0.0 
0.0 0.0 0.0 
1.373982152401e-03 -2.248227680143e-04 0.0 
-2.248227680143e-04 -5.673825552370e-06 0.0 
0.0 0.0 0.0 
1.218859506871e-03 -3.002910929832e-04 0.0 
-3.002910929832e-04 5.307895967710e-05 0.0 
0.0 0.0 0.0 
1.655167611782e-03 -1.987740834917e-04 0.0 
-1.987740834917e-04 -4.373503939086e-04 0.0 
0.0 0.0 0.0 
1.021066712712e-03 -3.867286112218e-04 0.0 
-3.867286112218e-04 1.370676977081e-04 0.0 
0.0 0.0 0.0 
6.347218910165e-04 -4.465733113171e-04 0.0 
-4.465733113171e-04 6.143515917155e-04 0.0 
0.0 0.0 0.0 
1.425598895361e-03 -2.545318193290e-04 0.0 
-2.545318193290e-04 -3.511860143252e-04 0.0 
0.0 0.0 0.0 
-1.135562807105e-03 8.332776263874e-05 0.0 
8.332776263874e-05 1.269182379414e-02 0.0 
0.0 0.0 0.0 
-1.034441761604e-03 1.854839984294e-04 0.0 
1.854839984294e-04 1.284510719451e-02 0.0 
0.0 0.0 0.0 
3.154818944647e-04 -1.659694820359e-04 0.0 
-1.659694820359e-04 4.451559404438e-03 0.0 
0.0 0.0 0.0 
-1.911751215089e-03 3.023993909912e-04 0.0 
3.023993909912e-04 1.112886127280e-02 0.0 
0.0 0.0 0.0 
1.409843534147e-05 -3.661120368983e-04 0.0 
-3.661120368983e-04 2.712023603128e-04 0.0 
0.0 0.0 0.0 
-3.388004327717e-04 6.882905677946e-04 0.0 
6.882905677946e-04 1.349768782373e-02 0.0 
0.0 0.0 0.0 
-3.359028781988e-04 1.238128898862e-03 0.0 
1.238128898862e-03 1.336866557890e-02 0.0 
0.0 0.0 0.0 
-3.044764324768e-04 1.060125204520e-03 0.0 
1.060125204520e-03 1.343815536678e-02 0.0 
0.0 0.0 0.0 
-4.941138297869e-04 -1.102094630965e-04 0.0 
-1.102094630965e-04 5.436382173350e-03 0.0 
0.0 0.0 0.0 
-3.921186166988e-04 -2.038707967756e-04 0.0 
-2.038707967756e-04 5.533996900877e-03 0.0 
0.0 0.0 0.0 
-3.049986925408e-04 3.906650155159e-04 0.0 
3.906650155159e-04 1.355289119702e-02 0.0 
0.0 0.0 0.0 
-5.161743231093e-05 -2.081937270324e-03 0.0 
-2.081937270324e-03 1.239809424070e-03 0.0 
0.0 0.0 0.0 
-8.492382434674e-04 3.047350051702e-03 0.0 
3.047350051702e-03 1.150434632579e-02 0.0 
0.0 0.0 0.0 
-8.510935083773e-04 6.914957148372e-04 0.0 
6.914957148372e-04 1.312045581578e-02 0.0 
0.0 0.0 0.0 
3.045902550169e-03 3.144277574219e-03 0.0 
3.144277574219e-03 -2.761116310896e-03 0.0 
0.0 0.0 0.0 
7.327743635804e-04 -2.655025251965e-03 0.0 
-2.655025251965e-03 1.697650285528e-04 0.0 
0.0 0.0 0.0 
-7.395851070017e-04 -5.145313938917e-04 0.0 
-5.145313938917e-04 4.369191241379e-03 0.0 
0.0 0.0 0.0 
1.592667495774e-04 -1.369941177328e-03 0.0 
-1.369941177328e-03 2.660030722935e-03 0.0 
0.0 0.0 0.0 
-3.238859706659e-04 -5.420232544620e-04 0.0 
-5.420232544620e-04 4.700443455881e-03 0.0 
0.0 0.0 0.0 
-5.194312046675e-04 -9.357511270499e-04 0.0 
-9.357511270499e-04 3.706077945279e-03 0.0 
0.0 0.0 0.0 
-3.396228189373e-05 -7.946624083534e-04 0.0 
-7.946624083534e-04 3.909735505150e-03 0.0 
0.0 0.0 0.0 
1.105397404121e-03 9.244674233684e-04 0.0 
9.244674233684e-04 3.309351008000e-03 0.0 
0.0 0.0 0.0 
5.471043686139e-05 -4.143927517048e-04 0.0 
-4.143927517048e-04 1.384504769955e-03 0.0 
0.0 0.0 0.0 
-1.684618144974e-03 5.904040005656e-04 0.0 
5.904040005656e-04 1.208091892909e-02 0.0 
0.0 0.0 0.0 
-1.568790058674e-03 3.212059262417e-04 0.0 
3.212059262417e-04 1.198975439421e-02 0.0 
0.0 0.0 0.0 
-1.247988650784e-03 6.551802256745e-04 0.0 
6.551802256745e-04 1.272187852729e-02 0.0 
0.0 0.0 0.0 
-6.173963385083e-04 -1.388952685725e-03 0.0 
-1.388952685725e-03 2.070827646305e-03 0.0 
0.0 0.0 0.0 
-1.047139314400e-03 -8.904382556910e-04 0.0 
-8.904382556910e-04 3.380694984475e-03 0.0 
0.0 0.0 0.0 
-1.812007178130e-04 -1.158015084348e-03 0.0 
-1.158015084348e-03 1.300706327547e-03 0.0 
0.0 0.0 0.0 
1.937263699377e-04 3.989424078237e-03 0.0 
3.989424078237e-03 7.507140230707e-03 0.0 
0.0 0.0 0.0 
-1.518415849246e-03 3.571090440217e-03 0.0 
3.571090440217e-03 7.823919772925e-03 0.0 
0.0 0.0 0.0 
2.082584758551e-03 -1.843120743653e-03 0.0 
-1.843120743653e-03 -4.159354266661e-04 0.0 
0.0 0.0 0.0 
-2.634381241684e-04 -1.913364251956e-03 0.0 
-1.913364251956e-03 1.877075112897e-03 0.0 
0.0 0.0 0.0 
2.579520135419e-04 -2.338449996895e-03 0.0 
-2.338449996895e-03 9.249465592737e-04 0.0 
0.0 0.0 0.0 
9.855131833172e-04 -2.825088988586e-03 0.0 
-2.825088988586e-03 -2.542108226731e-04 0.0 
0.0 0.0 0.0 
1.824992014069e-03 4.071969858550e-03 0.0 
4.071969858550e-03 1.644454703128e-03 0.0 
0.0 0.0 0.0 
8.117146095098e-04 -2.121338842027e-03 0.0 
-2.121338842027e-03 8.865392976151e-04 0.0 
0.0 0.0 0.0 
9.968637004258e-04 -9.839925980820e-04 0.0 
-9.839925980820e-04 2.259451072873e-03 0.0 
0.0 0.0 0.0 
-1.091836255028e-03 6.017437574046e-04 0.0 
6.017437574046e-04 1.288152749733e-02 0.0 
0.0 0.0 0.0 
7.347520593965e-04 -3.496794164716e-04 0.0 
-3.496794164716e-04 -3.017578225512e-05 0.0 
0.0 0.0 0.0 
1.202761276131e-03 -7.439407417079e-04 0.0 
-7.439407417079e-04 2.224669480012e-03 0.0 
0.0 0.0 0.0 
7.894099717305e-04 -1.710653899328e-03 0.0 
-1.710653899328e-03 1.505469569819e-03 0.0 
0.0 0.0 0.0 
-1.828182910580e-03 9.808317212862e-04 0.0 
9.808317212862e-04 1.208079562326e-02 0.0 
0.0 0.0 0.0 
2.622108269493e-03 1.787793052331e-03 0.0 
1.787793052331e-03 1.304200791188e-03 0.0 
0.0 0.0 0.0 
1.046157650666e-03 -3.316183175162e-03 0.0 
-3.316183175162e-03 -9.686179189369e-04 0.0 
0.0 0.0 0.0 
-1.314829051633e-03 1.066474229879e-03 0.0 
1.066474229879e-03 1.270826562656e-02 0.0 
0.0 0.0 0.0 
-9.440086308568e-04 2.001772788950e-03 0.0 
2.001772788950e-03 1.263594193412e-02 0.0 
0.0 0.0 0.0 
-2.092757299577e-03 1.049109697507e-03 0.0 
1.049109697507e-03 1.164753360508e-02 0.0 
0.0 0.0 0.0 
4.138833699889e-05 -8.804612679042e-04 0.0 
-8.804612679042e-04 9.907849402162e-04 0.0 
0.0 0.0 0.0 
-1.779238915538e-03 4.478234758274e-04 0.0 
4.478234758274e-04 1.174711965526e-02 0.0 
0.0 0.0 0.0 
1.034253908673e-03 1.496970077213e-05 0.0 
1.496970077213e-05 3.109506711638e-03 0.0 
0.0 0.0 0.0 
-1.616743735679e-03 2.000429935774e-03 0.0 
2.000429935774e-03 1.198890111209e-02 0.0 
0.0 0.0 0.0 
-6.485009055835e-04 -1.081264765551e-03 0.0 
-1.081264765551e-03 2.106041014339e-03 0.0 
0.0 0.0 0.0 
4.456080305319e-03 4.383708108918e-04 0.0 
4.383708108918e-04 -2.363479463385e-03 0.0 
0.0 0.0 0.0 
2.760164795863e-04 4.277128926758e-03 0.0 
4.277128926758e-03 4.403276421749e-03 0.0 
0.0 0.0 0.0 
-2.505007505602e-03 1.507134254415e-03 0.0 
1.507134254415e-03 1.012927790626e-02 0.0 
0.0 0.0 0.0 
-7.604368425808e-04 8.545776285976e-04 0.0 
8.545776285976e-04 1.318156239389e-02 0.0 
0.0 0.0 0.0 
2.946480290413e-03 3.500798935441e-03 0.0 
3.500798935441e-03 4.156212642876e-04 0.0 
0.0 0.0 0.0 
2.201278647125e-03 1.198514285687e-03 0.0 
1.198514285687e-03 1.743553443214e-03 0.0 
0.0 0.0 0.0 
3.587272913335e-03 6.898984356579e-04 0.0 
6.898984356579e-04 -8.677306536847e-04 0.0 
0.0 0.0 0.0 
-8.160262386467e-04 -8.947336577464e-04 0.0 
-8.947336577464e-04 2.384405775905e-03 0.0 
0.0 0.0 0.0 
5.627758596997e-04 -7.010356671140e-04 0.0 
-7.010356671140e-04 3.352342447301e-03 0.0 
0.0 0.0 0.0 
4.392032778954e-03 2.230273406570e-03 0.0 
2.230273406570e-03 -1.864592143819e-03 0.0 
0.0 0.0 0.0 
-1.059444113319e-03 1.214331718165e-03 0.0 
1.214331718165e-03 1.291994633940e-02 0.0 
0.0 0.0 0.0 
2.072492174278e-04 3.933631259021e-03 0.0 
3.933631259021e-03 6.340488371542e-03 0.0 
0.0 0.0 0.0 
4.953262936833e-03 9.591979247340e-04 0.0 
9.591979247340e-04 -3.055907443120e-03 0.0 
0.0 0.0 0.0 
-1.362151353928e-03 1.582915833301e-03 0.0 
1.582915833301e-03 1.254820117757e-02 0.0 
0.0 0.0 0.0 
2.928298088011e-03 -1.354329953554e-03 0.0 
-1.354329953554e-03 -1.238134920152e-03 0.0 
0.0 0.0 0.0 
2.285140330921e-03 2.166723982814e-03 0.0 
2.166723982814e-03 2.043503827816e-03 0.0 
0.0 0.0 0.0 
-1.217856935374e-03 3.800550357442e-03 0.0 
3.800550357442e-03 7.030432146910e-03 0.0 
0.0 0.0 0.0 
6.965242790894e-05 4.156433681751e-03 0.0 
4.156433681751e-03 5.733676293171e-03 0.0 
0.0 0.0 0.0 
-1.153521097177e-03 3.529955910740e-03 0.0 
3.529955910740e-03 8.806121233856e-03 0.0 
0.0 0.0 0.0 
1.422161249074e-03 4.110364326513e-03 0.0 
4.110364326513e-03 3.052346859768e-03 0.0 
0.0 0.0 0.0 
-8.911560458203e-04 -3.830691867569e-04 0.0 
-3.830691867569e-04 4.353296332719e-03 0.0 
0.0 0.0 0.0 
8.614575501362e-04 -7.278201396285e-04 0.0 
-7.278201396285e-04 2.804215919355e-03 0.0 
0.0 0.0 0.0 
3.416654844601e-03 -1.188009899216e-03 0.0 
-1.188009899216e-03 -4.302575354937e-03 0.0 
0.0 0.0 0.0 
1.459926385289e-03 4.167626467946e-03 0.0 
4.167626467946e-03 1.549360441812e-03 0.0 
0.0 0.0 0.0 
-1.957891634265e-03 1.253018733643e-03 0.0 
1.253018733643e-03 1.190495094032e-02 0.0 
0.0 0.0 0.0 
7.116192204084e-04 3.736338677584e-03 0.0 
3.736338677584e-03 5.810200125977e-03 0.0 
0.0 0.0 0.0 
-7.630285488999e-04 1.348635628972e-03 0.0 
1.348635628972e-03 1.310175680248e-02 0.0 
0.0 0.0 0.0 
1.455888974266e-04 4.272300542090e-03 0.0 
4.272300542090e-03 4.325531461117e-03 0.0 
0.0 0.0 0.0 
3.862162793182e-04 -8.315158130682e-04 0.0 
-8.315158130682e-04 3.377034563264e-03 0.0 
0.0 0.0 0.0 
-1.063666856922e-03 1.753799001227e-03 0.0 
1.753799001227e-03 1.271262578049e-02 0.0 
0.0 0.0 0.0 
4.290251570531e-04 -1.965877971381e-03 0.0 
-1.965877971381e-03 1.471847587735e-03 0.0 
0.0 0.0 0.0 
-2.348161515198e-04 -1.437116775422e-04 0.0 
-1.437116775422e-04 1.764691834578e-03 0.0 
0.0 0.0 0.0 
2.161092890221e-03 3.437695542145e-03 0.0 
3.437695542145e-03 -2.629382795708e-03 0.0 
0.0 0.0 0.0 
4.798195252412e-03 9.313416674583e-04 0.0 
9.313416674583e-04 -3.540166848236e-03 0.0 
0.0 0.0 0.0 
3.557646578060e-03 3.198419893183e-03 0.0 
3.198419893183e-03 -5.919553686565e-04 0.0 
0.0 0.0 0.0 
4.382630184587e-04 -1.776524540508e-03 0.0 
-1.776524540508e-03 1.763739162328e-03 0.0 
0.0 0.0 0.0 
-7.904943120544e-04 2.717627235973e-03 0.0 
2.717627235973e-03 1.206261467443e-02 0.0 
0.0 0.0 0.0 
1.527640369938e-04 -7.410967264060e-04 0.0 
-7.410967264060e-04 3.869028854127e-03 0.0 
0.0 0.0 0.0 
2.101161399066e-03 -2.893028021042e-04 0.0 
-2.893028021042e-04 1.116832759946e-03 0.0 
0.0 0.0 0.0 
-1.383366925126e-03 3.723276531456e-03 0.0 
3.723276531456e-03 6.872904466885e-04 0.0 
0.0 0.0 0.0 
-2.461510597819e-03 1.981188741326e-03 0.0 
1.981188741326e-03 9.906898318472e-03 0.0 
0.0 0.0 0.0 
-3.341286139510e-05 -6.480270092163e-04 0.0 
-6.480270092163e-04 4.317429498760e-03 0.0 
0.0 0.0 0.0 
4.024115864473e-03 -5.317056419087e-05 0.0 
-5.317056419087e-05 -1.964997659858e-03 0.0 
0.0 0.0 0.0 
2.150527455417e-03 1.862283601836e-03 0.0 
1.862283601836e-03 2.122045313387e-03 0.0 
0.0 0.0 0.0 
-1.186637199822e-03 -3.887037746305e-04 0.0 
-3.887037746305e-04 3.819611132157e-03 0.0 
0.0 0.0 0.0 
3.605700613147e-04 3.900119911513e-03 0.0 
3.900119911513e-03 6.889957631035e-03 0.0 
0.0 0.0 0.0 
-1.962094190584e-03 2.983073531721e-03 0.0 
2.983073531721e-03 7.930966261699e-03 0.0 
0.0 0.0 0.0 
-1.714504259811e-04 -5.587132721399e-04 0.0 
-5.587132721399e-04 4.723764962306e-03 0.0 
0.0 0.0 0.0 
2.490951222692e-03 3.260482341499e-04 0.0 
3.260482341499e-04 8.465552799965e-04 0.0 
0.0 0.0 0.0 
3.269974087914e-03 3.604714640839e-03 0.0 
3.604714640839e-03 -1.134013592343e-03 0.0 
0.0 0.0 0.0 
-1.617168385682e-03 5.215058612931e-05 0.0 
5.215058612931e-05 1.106235728791e-02 0.0 
0.0 0.0 0.0 
-1.275136143088e-04 -4.946199883432e-04 0.0 
-4.946199883432e-04 5.170474169094e-03 0.0 
0.0 0.0 0.0 
2.054003458184e-03 5.440493851848e-04 0.0 
5.440493851848e-04 1.670081546140e-03 0.0 
0.0 0.0 0.0 
1.414246716611e-03 4.006527348442e-03 0.0 
4.006527348442e-03 3.424979345419e-03 0.0 
0.0 0.0 0.0 
3.791403699490e-03 -6.071997969400e-04 0.0 
-6.071997969400e-04 -1.946231757063e-03 0.0 
0.0 0.0 0.0 
-2.415800930863e-03 1.776692469942e-03 0.0 
1.776692469942e-03 9.477308746593e-03 0.0 
0.0 0.0 0.0 
1.280380014894e-04 -1.587322036567e-03 0.0 
-1.587322036567e-03 2.325408664741e-03 0.0 
0.0 0.0 0.0 
-2.810762869276e-04 4.032991995951e-03 0.0 
4.032991995951e-03 6.648483076978e-03 0.0 
0.0 0.0 0.0 
-3.765838111953e-04 2.352858232127e-03 0.0 
2.352858232127e-03 1.271898865361e-02 0.0 
0.0 0.0 0.0 
1.899165462198e-03 9.384539543501e-04 0.0 
9.384539543501e-04 2.065854648157e-03 0.0 
0.0 0.0 0.0 
-1.971407861312e-03 2.320657348028e-03 0.0 
2.320657348028e-03 1.101465418946e-02 0.0 
0.0 0.0 0.0 
-1.806361483981e-04 -1.558103417359e-03 0.0 
-1.558103417359e-03 2.545199447636e-03 0.0 
0.0 0.0 0.0 
2.725894463675e-03 2.912710872890e-03 0.0 
2.912710872890e-03 1.325157492163e-03 0.0 
0.0 0.0 0.0 
8.143110371753e-04 -3.167184968163e-04 0.0 
-3.167184968163e-04 5.439667404217e-04 0.0 
0.0 0.0 0.0 
-2.312749949767e-03 2.391141727532e-03 0.0 
2.391141727532e-03 9.075955691002e-03 0.0 
0.0 0.0 0.0 
-4.105813139181e-04 -1.324993157214e-03 0.0 
-1.324993157214e-03 3.011109821094e-03 0.0 
0.0 0.0 0.0 
4.825092747619e-03 9.610351230163e-05 0.0 
9.610351230163e-05 -3.557098978694e-03 0.0 
0.0 0.0 0.0 
3.266719045420e-03 -9.241285957295e-04 0.0 
-9.241285957295e-04 -1.412801696831e-03 0.0 
0.0 0.0 0.0 
1.129473846116e-03 2.883390998522e-03 0.0 
2.883390998522e-03 4.324237618403e-03 0.0 
0.0 0.0 0.0 
-5.928806721609e-04 -1.085161443053e-03 0.0 
-1.085161443053e-03 3.423518045337e-03 0.0 
0.0 0.0 0.0 
4.884050045868e-03 1.743370588578e-04 0.0 
1.743370588578e-04 -3.306462186690e-03 0.0 
0.0 0.0 0.0 
-7.311414688416e-04 -8.466536985077e-04 0.0 
-8.466536985077e-04 3.782770678505e-03 0.0 
0.0 0.0 0.0 
-2.242247386579e-03 2.218007912752e-03 0.0 
2.218007912752e-03 8.713742465434e-03 0.0 
0.0 0.0 0.0 
-1.793131678186e-03 2.632577742417e-03 0.0 
2.632577742417e-03 1.074094428488e-02 0.0 
0.0 0.0 0.0 
-8.318493588760e-04 -6.118704374968e-04 0.0 
-6.118704374968e-04 4.096683390889e-03 0.0 
0.0 0.0 0.0 
-1.706196376255e-04 3.933195214691e-03 0.0 
3.933195214691e-03 6.904140755712e-03 0.0 
0.0 0.0 0.0 
4.236497918105e-04 -5.997407765192e-04 0.0 
-5.997407765192e-04 7.093220003351e-04 0.0 
0.0 0.0 0.0 
1.797920260634e-03 3.769724699666e-03 0.0 
3.769724699666e-03 2.894066894646e-03 0.0 
0.0 0.0 0.0 
-5.367051043109e-04 -2.303261559815e-04 0.0 
-2.303261559815e-04 5.220745729105e-03 0.0 
0.0 0.0 0.0 
1.117798296386e-03 -2.544810361461e-03 0.0 
-2.544810361461e-03 8.755947284942e-05 0.0 
0.0 0.0 0.0 
2.814424515063e-03 -1.171376946584e-03 0.0 
-1.171376946584e-03 -8.893884774935e-04 0.0 
0.0 0.0 0.0 
-1.530724966071e-03 2.788152750009e-03 0.0 
2.788152750009e-03 1.085949305690e-02 0.0 
0.0 0.0 0.0 
-2.013610796522e-03 2.802944015703e-03 0.0 
2.802944015703e-03 7.602785332078e-03 0.0 
0.0 0.0 0.0 
2.638191694083e-03 -9.384890437253e-04 0.0 
-9.384890437253e-04 -3.361665556117e-04 0.0 
0.0 0.0 0.0 
-9.078214068340e-05 3.863629456625e-03 0.0 
3.863629456625e-03 7.203182520368e-03 0.0 
0.0 0.0 0.0 
2.092300363141e-03 3.475969002294e-03 0.0 
3.475969002294e-03 2.498747359710e-03 0.0 
0.0 0.0 0.0 
3.348282305206e-03 3.142176284764e-03 0.0 
3.142176284764e-03 -1.168802671876e-04 0.0 
0.0 0.0 0.0 
2.401795616376e-03 -6.043447549408e-04 0.0 
-6.043447549408e-04 3.752600580076e-04 0.0 
0.0 0.0 0.0 
-1.447508048407e-03 3.503453698008e-03 0.0 
3.503453698008e-03 6.367555192887e-03 0.0 
0.0 0.0 0.0 
1.337529039523e-04 -2.261152640224e-03 0.0 
-2.261152640224e-03 9.237420800812e-04 0.0 
0.0 0.0 0.0 
-4.841937483291e-06 -2.075059478030e-03 0.0 
-2.075059478030e-03 9.415187959278e-04 0.0 
0.0 0.0 0.0 
4.622452400592e-03 -4.883034150910e-04 0.0 
-4.883034150910e-04 -3.078763633376e-03 0.0 
0.0 0.0 0.0 
-3.288634125240e-04 3.793903290706e-03 0.0 
3.793903290706e-03 8.012363484994e-03 0.0 
0.0 0.0 0.0 
4.139855084817e-04 -2.339442050869e-04 0.0 
-2.339442050869e-04 1.050834941482e-03 0.0 
0.0 0.0 0.0 
-1.313348260284e-03 3.190192044020e-03 0.0 
3.190192044020e-03 1.000636609603e-02 0.0 
0.0 0.0 0.0 
-1.635980372499e-04 -1.883714376280e-03 0.0 
-1.883714376280e-03 8.301577502123e-04 0.0 
0.0 0.0 0.0 
4.228557931611e-03 -1.213150850156e-03 0.0 
-1.213150850156e-03 -2.963508795498e-03 0.0 
0.0 0.0 0.0 
1.953209721276e-03 3.064471443008e-03 0.0 
3.064471443008e-03 2.963109693466e-03 0.0 
0.0 0.0 0.0 
-1.416977242047e-03 4.894293100087e-05 0.0 
4.894293100087e-05 1.208037897266e-02 0.0 
0.0 0.0 0.0 
3.706632064172e-03 -1.625665473716e-03 0.0 
-1.625665473716e-03 -2.465912137637e-03 0.0 
0.0 0.0 0.0 
-6.509564987526e-04 -1.771039222887e-04 0.0 
-1.771039222887e-04 2.235088229046e-03 0.0 
0.0 0.0 0.0 
3.131235832497e-03 -2.101306071011e-03 0.0 
-2.101306071011e-03 -2.072366862192e-03 0.0 
0.0 0.0 0.0 
3.060812277532e-03 3.063919084419e-03 0.0 
3.063919084419e-03 5.444192524133e-04 0.0 
0.0 0.0 0.0 
2.546926252827e-03 -2.198687691957e-03 0.0 
-2.198687691957e-03 -1.377534835655e-03 0.0 
0.0 0.0 0.0 
2.004530632901e-03 -2.449342462923e-03 0.0 
-2.449342462923e-03 -8.960461353748e-04 0.0 
0.0 0.0 0.0 
-5.808810307600e-04 7.746268069065e-04 0.0 
7.746268069065e-04 1.332255459570e-02 0.0 
0.0 0.0 0.0 
1.599519173478e-03 -2.464360801361e-03 0.0 
-2.464360801361e-03 -3.581548406008e-04 0.0 
0.0 0.0 0.0 
-2.604197755688e-04 2.256417477533e-04 0.0 
2.256417477533e-04 1.360317071610e-02 0.0 
0.0 0.0 0.0 
-1.953278741347e-04 -1.921127158761e-04 0.0 
-1.921127158761e-04 5.854875204069e-03 0.0 
0.0 0.0 0.0 
-1.570486303597e-03 2.588629788779e-05 0.0 
2.588629788779e-05 1.135865239150e-02 0.0 
0.0 0.0 0.0 
-1.668818465275e-03 3.328285727210e-03 0.0 
3.328285727210e-03 6.150098644501e-03 0.0 
0.0 0.0 0.0 
-1.807397801027e-03 2.010869001736e-04 0.0 
2.010869001736e-04 -3.863186173333e-03 0.0 
0.0 0.0 0.0 
-8.374541170096e-04 3.795355243438e-03 0.0 
3.795355243438e-03 4.531748583510e-03 0.0 
0.0 0.0 0.0 
9.645041608278e-04 -2.625720579422e-03 0.0 
-2.625720579422e-03 8.486162476164e-05 0.0 
0.0 0.0 0.0 
-9.482881733992e-04 3.551597482073e-03 0.0 
3.551597482073e-03 8.956192177288e-03 0.0 
0.0 0.0 0.0 
-1.580149838949e-03 6.760929715251e-05 0.0 
6.760929715251e-05 1.137768762340e-02 0.0 
0.0 0.0 0.0 
5.004787573775e-04 -2.512457047651e-03 0.0 
-2.512457047651e-03 5.462574597594e-04 0.0 
0.0 0.0 0.0 
-5.070954124262e-04 3.665126480478e-03 0.0 
3.665126480478e-03 1.036394069696e-02 0.0 
0.0 0.0 0.0 
3.038874287495e-04 3.829901212233e-03 0.0 
3.829901212233e-03 6.579889552366e-03 0.0 
0.0 0.0 0.0 
-1.224033250249e-03 1.575853866597e-04 0.0 
1.575853866597e-04 1.255037825538e-02 0.0 
0.0 0.0 0.0 
1.941085595726e-03 1.592532413669e-03 0.0 
1.592532413669e-03 2.285497997865e-03 0.0 
0.0 0.0 0.0 
2.278824114481e-03 3.149020492829e-03 0.0 
3.149020492829e-03 2.244874984437e-03 0.0 
0.0 0.0 0.0 
-7.388833893186e-04 1.102777722815e-04 0.0 
1.102777722815e-04 1.320309640653e-02 0.0 
0.0 0.0 0.0 
-1.735859403102e-03 1.327909030113e-04 0.0 
1.327909030113e-04 1.105012117977e-02 0.0 
0.0 0.0 0.0 
-3.560798160026e-04 -9.418660964734e-04 0.0 
-9.418660964734e-04 6.468666717669e-04 0.0 
0.0 0.0 0.0 
-8.892968095905e-04 -1.757471957044e-04 0.0 
-1.757471957044e-04 4.573622647778e-03 0.0 
0.0 0.0 0.0 
-1.371829450697e-03 3.427385614615e-03 0.0 
3.427385614615e-03 4.621778095246e-03 0.0 
0.0 0.0 0.0 
-5.781609204145e-04 3.811076207906e-03 0.0 
3.811076207906e-03 3.060528761116e-03 0.0 
0.0 0.0 0.0 
-3.814101833402e-04 3.916044186094e-03 0.0 
3.916044186094e-03 1.687512282271e-03 0.0 
0.0 0.0 0.0 
-9.520644865410e-04 -6.758859689252e-04 0.0 
-6.758859689252e-04 2.612690132850e-03 0.0 
0.0 0.0 0.0 
-3.893522819523e-04 -2.683280472672e-03 0.0 
-2.683280472672e-03 4.519840900295e-04 0.0 
0.0 0.0 0.0 
-1.185832706610e-03 3.567896750047e-03 0.0 
3.567896750047e-03 3.312294250361e-03 0.0 
0.0 0.0 0.0 
1.162644740486e-03 1.981432794203e-03 0.0 
1.981432794203e-03 3.630471534726e-03 0.0 
0.0 0.0 0.0 
-1.956462103014e-03 4.590822118269e-04 0.0 
4.590822118269e-04 1.138432895058e-02 0.0 
0.0 0.0 0.0 
1.567341178719e-03 3.267345795796e-03 0.0 
3.267345795796e-03 3.801413556323e-03 0.0 
0.0 0.0 0.0 
-1.188298181245e-03 3.663110042017e-03 0.0 
3.663110042017e-03 2.091963864914e-03 0.0 
0.0 0.0 0.0 
-7.313851361399e-04 1.917489770030e-03 0.0 
1.917489770030e-03 1.283533455077e-02 0.0 
0.0 0.0 0.0 
8.212497978165e-04 3.356996130428e-03 0.0 
3.356996130428e-03 5.228615920025e-03 0.0 
0.0 0.0 0.0 
1.320682346390e-04 -4.504513964399e-04 0.0 
-4.504513964399e-04 4.909623748829e-03 0.0 
0.0 0.0 0.0 
1.240446810993e-03 3.267299290659e-03 0.0 
3.267299290659e-03 4.462005858359e-03 0.0 
0.0 0.0 0.0 
-2.276907122774e-04 4.052229978556e-03 0.0 
4.052229978556e-03 1.970035840555e-04 0.0 
0.0 0.0 0.0 
-2.199981490993e-03 1.116815835092e-03 0.0 
1.116815835092e-03 1.146249049241e-02 0.0 
0.0 0.0 0.0 
3.316832573486e-05 4.018420504040e-03 0.0 
4.018420504040e-03 8.108144945070e-03 0.0 
0.0 0.0 0.0 
-1.115288366870e-03 2.641717488530e-04 0.0 
2.641717488530e-04 1.277972742590e-02 0.0 
0.0 0.0 0.0 
1.331524830090e-05 -5.118057615352e-04 0.0 
-5.118057615352e-04 5.264016389902e-03 0.0 
0.0 0.0 0.0 
-2.122661832236e-03 6.574597000807e-04 0.0 
6.574597000807e-04 1.129302290487e-02 0.0 
0.0 0.0 0.0 
-4.976124045281e-04 5.083738046823e-04 0.0 
5.083738046823e-04 1.340250011773e-02 0.0 
0.0 0.0 0.0 
3.022629071965e-03 -2.402926837530e-03 0.0 
-2.402926837530e-03 -3.922745643299e-03 0.0 
0.0 0.0 0.0 
-4.731223493236e-04 2.633085088078e-04 0.0 
2.633085088078e-04 1.343246152615e-02 0.0 
0.0 0.0 0.0 
-7.568086329581e-04 3.601834655594e-03 0.0 
3.601834655594e-03 9.146251864079e-03 0.0 
0.0 0.0 0.0 
-1.572211466822e-03 2.325932035837e-04 0.0 
2.325932035837e-04 1.183801468023e-02 0.0 
0.0 0.0 0.0 
-2.316774856313e-03 1.525794153739e-03 0.0 
1.525794153739e-03 1.118650512787e-02 0.0 
0.0 0.0 0.0 
-2.743030367840e-04 -2.883613252094e-04 0.0 
-2.883613252094e-04 5.595909836455e-03 0.0 
0.0 0.0 0.0 
-6.702841202703e-04 3.268698812662e-03 0.0 
3.268698812662e-03 1.127517072920e-02 0.0 
0.0 0.0 0.0 
-7.062486800421e-05 4.099764459086e-03 0.0 
4.099764459086e-03 -1.050280592148e-03 0.0 
0.0 0.0 0.0 
-1.261719593943e-03 2.399111619293e-04 0.0 
2.399111619293e-04 1.253348169063e-02 0.0 
0.0 0.0 0.0 
-1.023130513628e-03 -1.029618683456e-03 0.0 
-1.029618683456e-03 2.884966778608e-03 0.0 
0.0 0.0 0.0 
4.841869513028e-04 -1.976336961654e-03 0.0 
-1.976336961654e-03 -3.901398080925e-03 0.0 
0.0 0.0 0.0 
5.008498119293e-04 -2.575706158911e-04 0.0 
-2.575706158911e-04 4.031768910568e-03 0.0 
0.0 0.0 0.0 
-5.755118739360e-04 3.678091112072e-03 0.0 
3.678091112072e-03 9.354576391452e-03 0.0 
0.0 0.0 0.0 
-1.971018300221e-04 -4.298831677642e-04 0.0 
-4.298831677642e-04 5.374928674547e-03 0.0 
0.0 0.0 0.0 
1.006334494178e-03 -3.166105326330e-05 0.0 
-3.166105326330e-05 4.805950690135e-04 0.0 
0.0 0.0 0.0 
1.805144727885e-04 -5.946999186729e-04 0.0 
-5.946999186729e-04 3.979104244809e-04 0.0 
0.0 0.0 0.0 
7.090384548660e-04 1.092541932802e-04 0.0 
1.092541932802e-04 3.758148870440e-03 0.0 
0.0 0.0 0.0 
-2.769835449401e-04 3.935732364507e-03 0.0 
3.935732364507e-03 9.402089551956e-03 0.0 
0.0 0.0 0.0 
2.636550499079e-03 -3.014440678815e-03 0.0 
-3.014440678815e-03 -2.843383954508e-03 0.0 
0.0 0.0 0.0 
-3.029360894129e-04 1.677942107406e-03 0.0 
1.677942107406e-03 1.319920437801e-02 0.0 
0.0 0.0 0.0 
-5.443047198178e-04 3.651366024578e-03 0.0 
3.651366024578e-03 -2.070923967594e-03 0.0 
0.0 0.0 0.0 
-1.844240442004e-03 2.104419684980e-04 0.0 
2.104419684980e-04 1.101677292044e-02 0.0 
0.0 0.0 0.0 
8.285939998135e-04 -4.702480222846e-04 0.0 
-4.702480222846e-04 1.836019564801e-04 0.0 
0.0 0.0 0.0 
-4.285733439628e-05 -5.076313002564e-04 0.0 
-5.076313002564e-04 5.488859018775e-03 0.0 
0.0 0.0 0.0 
-5.940835740336e-04 1.248600343211e-03 0.0 
1.248600343211e-03 1.321761228325e-02 0.0 
0.0 0.0 0.0 
-1.198717530122e-03 -6.847778880949e-04 0.0 
-6.847778880949e-04 3.312453498626e-03 0.0 
0.0 0.0 0.0 
-2.423443025981e-03 1.150021145581e-03 0.0 
1.150021145581e-03 1.079985517729e-02 0.0 
0.0 0.0 0.0 
-8.369824759291e-04 -4.070770506596e-04 0.0 
-4.070770506596e-04 2.473221948340e-03 0.0 
0.0 0.0 0.0 
5.931350850489e-04 3.784083538096e-03 0.0 
3.784083538096e-03 6.187438869545e-03 0.0 
0.0 0.0 0.0 
-4.540844548116e-04 -1.552657285501e-03 0.0 
-1.552657285501e-03 8.071328594129e-04 0.0 
0.0 0.0 0.0 
-5.237508675092e-04 9.230803026710e-04 0.0 
9.230803026710e-04 1.334022201875e-02 0.0 
0.0 0.0 0.0 
8.890086993928e-04 6.475501582870e-04 0.0 
6.475501582870e-04 3.570227052904e-03 0.0 
0.0 0.0 0.0 
-6.913825620923e-04 2.565453933175e-03 0.0 
2.565453933175e-03 1.232772533602e-02 0.0 
0.0 0.0 0.0 
4.452758557214e-04 2.751155771239e-03 0.0 
2.751155771239e-03 5.083760072679e-03 0.0 
0.0 0.0 0.0 
1.232063580783e-04 1.073259423006e-03 0.0 
1.073259423006e-03 -4.239300773350e-03 0.0 
0.0 0.0 0.0 
6.005066345190e-04 3.605704123099e-03 0.0 
3.605704123099e-03 5.871662422948e-03 0.0 
0.0 0.0 0.0 
1.492061307896e-03 1.068328972248e-03 0.0 
1.068328972248e-03 2.774861924549e-03 0.0 
0.0 0.0 0.0 
-1.675736676136e-03 9.950396540187e-05 0.0 
9.950396540187e-05 1.104024012287e-02 0.0 
0.0 0.0 0.0 
-7.016778436660e-04 2.949824410002e-03 0.0 
2.949824410002e-03 1.179706975699e-02 0.0 
0.0 0.0 0.0 
-1.086957745130e-03 -6.847356931903e-04 0.0 
-6.847356931903e-04 2.866220832752e-03 0.0 
0.0 0.0 0.0 
2.306351280316e-04 -5.936409163455e-04 0.0 
-5.936409163455e-04 1.022615498491e-03 0.0 
0.0 0.0 0.0 
-2.128814137145e-04 1.099062963767e-04 0.0 
1.099062963767e-04 1.363513130764e-02 0.0 
0.0 0.0 0.0 
2.296890063394e-03 -7.694735646181e-06 0.0 
-7.694735646181e-06 -7.808821309023e-04 0.0 
0.0 0.0 0.0 
-1.599298166683e-03 1.012125037243e-05 0.0 
1.012125037243e-05 1.100161239964e-02 0.0 
0.0 0.0 0.0 
-1.610893995673e-04 -8.357060649498e-05 0.0 
-8.357060649498e-05 5.955361016826e-03 0.0 
0.0 0.0 0.0 
4.831436652775e-04 -3.214233712799e-04 0.0 
-3.214233712799e-04 9.271817470466e-04 0.0 
0.0 0.0 0.0 
-1.536184989367e-03 6.821460084380e-05 0.0 
6.821460084380e-05 1.163991583342e-02 0.0 
0.0 0.0 0.0 
-3.764293353724e-04 3.832205630048e-03 0.0 
3.832205630048e-03 9.925293857745e-03 0.0 
0.0 0.0 0.0 
-1.200914720351e-03 -1.747139581265e-04 0.0 
-1.747139581265e-04 3.918635230551e-03 0.0 
0.0 0.0 0.0 
-8.700170593714e-04 1.832565714213e-04 0.0 
1.832565714213e-04 1.305505624656e-02 0.0 
0.0 0.0 0.0 
3.204819853839e-04 -3.235648216019e-03 0.0 
-3.235648216019e-03 -3.747949073769e-04 0.0 
0.0 0.0 0.0 
-2.123335999695e-03 -5.984312533803e-04 0.0 
-5.984312533803e-04 -3.668289041652e-03 0.0 
0.0 0.0 0.0 
-1.360154496028e-03 1.089677183879e-04 0.0 
1.089677183879e-04 1.226024395039e-02 0.0 
0.0 0.0 0.0 
8.446543737438e-04 3.145451546828e-03 0.0 
3.145451546828e-03 4.925842133147e-03 0.0 
0.0 0.0 0.0 
-6.567206757900e-04 2.138528727322e-03 0.0 
2.138528727322e-03 1.273554738193e-02 0.0 
0.0 0.0 0.0 
-1.499548339611e-03 2.261296964837e-04 0.0 
2.261296964837e-04 1.202851782921e-02 0.0 
0.0 0.0 0.0 
1.215579660860e-03 3.779392136530e-03 0.0 
3.779392136530e-03 -2.211928378500e-03 0.0 
0.0 0.0 0.0 
-4.397298645663e-04 3.792744715189e-03 0.0 
3.792744715189e-03 9.523231517326e-03 0.0 
0.0 0.0 0.0 
-1.174358741367e-03 -6.863985923960e-04 0.0 
-6.863985923960e-04 3.445442565081e-03 0.0 
0.0 0.0 0.0 
1.458953540377e-04 3.940724760251e-03 0.0 
3.940724760251e-03 7.504139540106e-03 0.0 
0.0 0.0 0.0 
1.527294332447e-03 1.703648364356e-03 0.0 
1.703648364356e-03 2.986370933212e-03 0.0 
0.0 0.0 0.0 
-1.719769494665e-03 3.816742842243e-03 0.0 
3.816742842243e-03 -1.406425370445e-03 0.0 
0.0 0.0 0.0 
-1.123634939027e-03 -1.400125222804e-04 0.0 
-1.400125222804e-04 4.108579451846e-03 0.0 
0.0 0.0 0.0 
6.636101437795e-04 -5.064721296019e-04 0.0 
-5.064721296019e-04 2.037544856691e-04 0.0 
0.0 0.0 0.0 
1.634121295343e-04 -4.987899340012e-04 0.0 
-4.987899340012e-04 4.694997780453e-03 0.0 
0.0 0.0 0.0 
-1.216810082688e-03 -4.762103903800e-04 0.0 
-4.762103903800e-04 3.629297402369e-03 0.0 
0.0 0.0 0.0 
-1.894083096627e-03 1.216900963624e-03 0.0 
1.216900963624e-03 8.754781439189e-03 0.0 
0.0 0.0 0.0 
-1.531289205846e-03 -3.322376845677e-06 0.0 
-3.322376845677e-06 9.181731780496e-03 0.0 
0.0 0.0 0.0 
-2.098007987092e-03 1.179951901479e-03 0.0 
1.179951901479e-03 9.174913774949e-03 0.0 
0.0 0.0 0.0 
-1.552256466699e-03 -9.795271009052e-06 0.0 
-9.795271009052e-06 9.596248306858e-03 0.0 
0.0 0.0 0.0 
-2.312660477696e-03 1.026737122624e-03 0.0 
1.026737122624e-03 9.737474207936e-03 0.0 
0.0 0.0 0.0 
-1.584012114450e-03 -5.276974218102e-06 0.0 
-5.276974218102e-06 1.007231582473e-02 0.0 
0.0 0.0 0.0 
-2.430462883514e-03 9.324836587723e-04 0.0 
9.324836587723e-04 1.026195210847e-02 0.0 
0.0 0.0 0.0 
-1.606161027931e-03 6.879004597187e-06 0.0 
6.879004597187e-06 1.048276051762e-02 0.0 
0.0 0.0 0.0 

TENSORS node_materi_strain_plasti float
2.934499401238e-03 -6.293764513238e-05 0.0 
-6.293764513238e-05 -1.067748591947e-03 0.0 
0.0 0.0 -1.096634683480e-04 
-1.402797370443e-03 -1.078294972551e-04 0.0 
-1.078294972551e-04 4.900277451411e-03 0.0 
0.0 0.0 -6.959116756397e-04 
-1.452967895051e-03 -5.509598229541e-05 0.0 
-5.509598229541e-05 7.203997768270e-03 0.0 
0.0 0.0 -1.332621093165e-03 
-1.383162840862e-03 -3.297498286580e-05 0.0 
-3.297498286580e-05 8.816768276200e-03 0.0 
0.0 0.0 -1.332621093165e-03 
2.013745495957e-03 -6.316916865917e-05 0.0 
-6.316916865917e-05 -5.120452549012e-04 0.0 
0.0 0.0 -2.200719611176e-04 
9.770148188976e-04 3.431498766894e-05 0.0 
3.431498766894e-05 4.169221136190e-04 0.0 
0.0 0.0 -3.137585542919e-04 
-7.178028314759e-05 -1.232028049962e-08 0.0 
-1.232028049962e-08 1.149279144839e-03 0.0 
0.0 0.0 -2.794359002296e-04 
-6.436375512209e-04 -1.276790241492e-05 0.0 
-1.276790241492e-05 1.873669559697e-03 0.0 
0.0 0.0 -3.439875543896e-04 
-7.879199919424e-04 -6.957800867177e-05 0.0 
-6.957800867177e-05 2.362265819291e-03 0.0 
0.0 0.0 -5.230155850880e-04 
-9.090757292185e-04 -8.706192601079e-05 0.0 
-8.706192601079e-05 2.790274002592e-03 0.0 
0.0 0.0 -6.679173279409e-04 
-1.029732123068e-03 -9.763895695819e-05 0.0 
-9.763895695819e-05 3.189834221624e-03 0.0 
0.0 0.0 -7.858430676574e-04 
-1.146480183378e-03 -1.186695020361e-04 0.0 
-1.186695020361e-04 3.556707151380e-03 0.0 
0.0 0.0 -8.797909670055e-04 
-1.263272361791e-03 -1.272958726748e-04 0.0 
-1.272958726748e-04 3.899470374148e-03 0.0 
0.0 0.0 -9.497524971825e-04 
-1.384672616284e-03 -1.145152012545e-04 0.0 
-1.145152012545e-04 4.236966414279e-03 0.0 
0.0 0.0 -1.004045332643e-03 
-1.526674903082e-03 -6.496102058636e-05 0.0 
-6.496102058636e-05 4.605045077914e-03 0.0 
0.0 0.0 -1.040527029177e-03 
-1.665462947768e-03 -2.107388054909e-05 0.0 
-2.107388054909e-05 4.948618842847e-03 0.0 
0.0 0.0 -1.059523297737e-03 
-1.782894097401e-03 -3.343512703910e-06 0.0 
-3.343512703910e-06 5.233549116132e-03 0.0 
0.0 0.0 -1.072054170059e-03 
-1.938902930101e-03 -9.696053467476e-05 0.0 
-9.696053467476e-05 5.600248017308e-03 0.0 
0.0 0.0 -1.073655443973e-03 
-2.100363589718e-03 -8.662704783515e-05 0.0 
-8.662704783515e-05 5.970821215845e-03 0.0 
0.0 0.0 -1.067605311830e-03 
-2.135124898814e-03 -7.268436157999e-05 0.0 
-7.268436157999e-05 6.300803109141e-03 0.0 
0.0 0.0 -1.091655094700e-03 
-2.004143563035e-03 -6.534761213825e-05 0.0 
-6.534761213825e-05 6.588381292475e-03 0.0 
0.0 0.0 -1.158330123333e-03 
-1.835283495390e-03 -5.008648858264e-05 0.0 
-5.008648858264e-05 6.864752160643e-03 0.0 
0.0 0.0 -1.226073836101e-03 
-1.640741500190e-03 -2.858138524020e-05 0.0 
-2.858138524020e-05 7.123085926045e-03 0.0 
0.0 0.0 -1.289832767750e-03 
-1.368677421570e-03 1.600785886141e-04 0.0 
1.600785886141e-04 8.818553082708e-03 0.0 
0.0 0.0 -1.336902025401e-03 
-1.377365391022e-03 2.999124352866e-04 0.0 
2.999124352866e-04 8.800585598907e-03 0.0 
0.0 0.0 -1.332945767435e-03 
-1.378029629414e-03 3.844218527142e-04 0.0 
3.844218527142e-04 8.780564209488e-03 0.0 
0.0 0.0 -1.334903170087e-03 
-1.378699113984e-03 6.281396802948e-04 0.0 
6.281396802948e-04 8.766528136653e-03 0.0 
0.0 0.0 -1.334459899807e-03 
-1.385861616700e-03 7.361442488981e-04 0.0 
7.361442488981e-04 8.736115872586e-03 0.0 
0.0 0.0 -1.332067731643e-03 
-1.380170718422e-03 9.112443166240e-04 0.0 
9.112443166240e-04 8.705993944759e-03 0.0 
0.0 0.0 -1.335050935171e-03 
-1.376694153872e-03 1.085769035599e-03 0.0 
1.085769035599e-03 8.675777653225e-03 0.0 
0.0 0.0 -1.335055123498e-03 
-1.386603367251e-03 1.256067884305e-03 0.0 
1.256067884305e-03 8.631282104952e-03 0.0 
0.0 0.0 -1.333530254363e-03 
-1.385927681412e-03 1.401216317866e-03 0.0 
1.401216317866e-03 8.584979043230e-03 0.0 
0.0 0.0 -1.336259905589e-03 
-1.382886472311e-03 1.656515799073e-03 0.0 
1.656515799073e-03 8.524207830888e-03 0.0 
0.0 0.0 -1.335712483792e-03 
-1.394014418558e-03 1.806002472474e-03 0.0 
1.806002472474e-03 8.445999086005e-03 0.0 
0.0 0.0 -1.333313947604e-03 
-1.390408237112e-03 2.011066343467e-03 0.0 
2.011066343467e-03 8.361388601017e-03 0.0 
0.0 0.0 -1.335862559377e-03 
-1.384222329824e-03 2.219576262539e-03 0.0 
2.219576262539e-03 8.276324698237e-03 0.0 
0.0 0.0 -1.336097458551e-03 
-1.389035125892e-03 2.412450494632e-03 0.0 
2.412450494632e-03 8.157453667495e-03 0.0 
0.0 0.0 -1.335235043394e-03 
-1.385735689378e-03 2.596152172723e-03 0.0 
2.596152172723e-03 8.026403168300e-03 0.0 
0.0 0.0 -1.334297546486e-03 
-1.387385464636e-03 2.793709716201e-03 0.0 
2.793709716201e-03 7.870413974245e-03 0.0 
0.0 0.0 -1.332308435384e-03 
-1.390045521020e-03 2.956478596536e-03 0.0 
2.956478596536e-03 7.707669454312e-03 0.0 
0.0 0.0 -1.332019584455e-03 
-1.374441407390e-03 3.130356841580e-03 0.0 
3.130356841580e-03 7.548288379511e-03 0.0 
0.0 0.0 -1.333392124151e-03 
-1.370916614240e-03 3.263121805825e-03 0.0 
3.263121805825e-03 7.369253492750e-03 0.0 
0.0 0.0 -1.334727449481e-03 
-1.360841402714e-03 3.372289688876e-03 0.0 
3.372289688876e-03 7.166176364928e-03 0.0 
0.0 0.0 -1.336576889699e-03 
-1.346336485325e-03 3.461253780169e-03 0.0 
3.461253780169e-03 6.951403103377e-03 0.0 
0.0 0.0 -1.335888391555e-03 
-1.332890796825e-03 3.468370162717e-03 0.0 
3.468370162717e-03 6.730314385053e-03 0.0 
0.0 0.0 -1.334783226448e-03 
-1.319924003398e-03 3.447235553293e-03 0.0 
3.447235553293e-03 6.491181615044e-03 0.0 
0.0 0.0 -1.335053869153e-03 
-1.304557536433e-03 3.357836383275e-03 0.0 
3.357836383275e-03 6.252969737423e-03 0.0 
0.0 0.0 -1.334960189349e-03 
-1.290544710403e-03 3.217570000044e-03 0.0 
3.217570000044e-03 6.038359705784e-03 0.0 
0.0 0.0 -1.334889991128e-03 
-1.266052279295e-03 3.015967340183e-03 0.0 
3.015967340183e-03 5.820251815716e-03 0.0 
0.0 0.0 -1.335774086633e-03 
-1.268292395628e-03 2.751499810292e-03 0.0 
2.751499810292e-03 5.611006951901e-03 0.0 
0.0 0.0 -1.336605656894e-03 
-1.233716587758e-03 2.428663332176e-03 0.0 
2.428663332176e-03 5.432453778555e-03 0.0 
0.0 0.0 -1.336508443943e-03 
-1.235192718271e-03 2.048692266400e-03 0.0 
2.048692266400e-03 5.281516895731e-03 0.0 
0.0 0.0 -1.335343284290e-03 
-1.233233161047e-03 1.613443115418e-03 0.0 
1.613443115418e-03 5.176753839955e-03 0.0 
0.0 0.0 -1.337998490269e-03 
-1.231527167288e-03 1.237296422517e-03 0.0 
1.237296422517e-03 5.075978590578e-03 0.0 
0.0 0.0 -1.337247094005e-03 
-1.199833465241e-03 7.660071193524e-04 0.0 
7.660071193524e-04 4.984249579952e-03 0.0 
0.0 0.0 -1.333783489999e-03 
-1.202795443341e-03 2.512512957567e-04 0.0 
2.512512957567e-04 4.957451962835e-03 0.0 
0.0 0.0 -1.334548731617e-03 
-1.209938913942e-03 -2.134028709971e-04 0.0 
-2.134028709971e-04 5.026425426342e-03 0.0 
0.0 0.0 -1.334619746794e-03 
-1.216034057197e-03 -6.370386973179e-04 0.0 
-6.370386973179e-04 5.098251117921e-03 0.0 
0.0 0.0 -1.335242115105e-03 
-1.250273571860e-03 -1.037169625291e-03 0.0 
-1.037169625291e-03 5.212102119693e-03 0.0 
0.0 0.0 -1.335691437541e-03 
-1.244652277412e-03 -1.350985257247e-03 0.0 
-1.350985257247e-03 5.369562904984e-03 0.0 
0.0 0.0 -1.335646478247e-03 
-1.280185566221e-03 -1.619011709695e-03 0.0 
-1.619011709695e-03 5.525208807417e-03 0.0 
0.0 0.0 -1.334931242407e-03 
-1.279873673449e-03 -1.816253781483e-03 0.0 
-1.816253781483e-03 5.699667194469e-03 0.0 
0.0 0.0 -1.334100791702e-03 
-1.316092894892e-03 -1.930306284798e-03 0.0 
-1.930306284798e-03 5.897360744271e-03 0.0 
0.0 0.0 -1.332237298415e-03 
-1.332492949627e-03 -1.997739486340e-03 0.0 
-1.997739486340e-03 6.101236304603e-03 0.0 
0.0 0.0 -1.333749945600e-03 
-1.347535005711e-03 -1.949980560505e-03 0.0 
-1.949980560505e-03 6.326575568891e-03 0.0 
0.0 0.0 -1.336652505695e-03 
-1.361718678089e-03 -1.883685554895e-03 0.0 
-1.883685554895e-03 6.509663460433e-03 0.0 
0.0 0.0 -1.337094627689e-03 
-1.399643089063e-03 -1.709140483279e-03 0.0 
-1.709140483279e-03 6.643034708910e-03 0.0 
0.0 0.0 -1.328990728106e-03 
-1.392288690639e-03 -1.485263022766e-03 0.0 
-1.485263022766e-03 6.836967868930e-03 0.0 
0.0 0.0 -1.335900064369e-03 
-1.414556676199e-03 -1.251540022059e-03 0.0 
-1.251540022059e-03 6.954271934946e-03 0.0 
0.0 0.0 -1.332523500780e-03 
-1.412496609790e-03 -1.031814538929e-03 0.0 
-1.031814538929e-03 7.047562735813e-03 0.0 
0.0 0.0 -1.335219049675e-03 
-1.419510763784e-03 -6.645626228058e-04 0.0 
-6.645626228058e-04 7.146959411296e-03 0.0 
0.0 0.0 -1.336566422126e-03 
-1.427684607805e-03 -3.887077461759e-04 0.0 
-3.887077461759e-04 7.195451913880e-03 0.0 
0.0 0.0 -1.335855682064e-03 
-1.453017564014e-03 -6.969271926299e-05 0.0 
-6.969271926299e-05 5.335351891541e-03 0.0 
0.0 0.0 -7.648954205800e-04 
-1.520880417330e-03 -7.433446925198e-05 0.0 
-7.433446925198e-05 5.819919600560e-03 0.0 
0.0 0.0 -8.298981322982e-04 
-1.557423966696e-03 -6.785219458369e-05 0.0 
-6.785219458369e-05 6.258440284560e-03 0.0 
0.0 0.0 -8.959277352460e-04 
-1.578985001560e-03 -6.738694350763e-05 0.0 
-6.738694350763e-05 6.671688470532e-03 0.0 
0.0 0.0 -9.610467530554e-04 
-1.585789406967e-03 -5.141559601497e-05 0.0 
-5.141559601497e-05 7.089803706817e-03 0.0 
0.0 0.0 -1.026987810050e-03 
-1.562649818793e-03 -5.245167551875e-05 0.0 
-5.245167551875e-05 7.497011482479e-03 0.0 
0.0 0.0 -1.092790196867e-03 
-1.539445803207e-03 -3.968004133447e-05 0.0 
-3.968004133447e-05 7.888080790164e-03 0.0 
0.0 0.0 -1.158290425478e-03 
-1.493157212652e-03 -4.236338247705e-05 0.0 
-4.236338247705e-05 8.249034422054e-03 0.0 
0.0 0.0 -1.224481705251e-03 
-1.439591118906e-03 -4.822262499776e-05 0.0 
-4.822262499776e-05 8.655254164316e-03 0.0 
0.0 0.0 -1.288782062784e-03 
8.778077663616e-06 4.914029394779e-04 0.0 
4.914029394779e-04 -8.778077663615e-06 0.0 
0.0 0.0 0.0 
-1.624278093923e-03 1.090396231210e-03 0.0 
1.090396231210e-03 4.601022683819e-03 0.0 
0.0 0.0 -7.280202007920e-04 
4.287807099039e-06 1.522126951356e-03 0.0 
1.522126951356e-03 4.112864772909e-04 0.0 
0.0 0.0 -1.781032647385e-04 
2.419898888436e-04 1.714650012296e-03 0.0 
1.714650012296e-03 7.169103887313e-04 0.0 
0.0 0.0 -4.109572618178e-04 
1.972324976643e-04 1.872166137481e-03 0.0 
1.872166137481e-03 8.763202269977e-04 0.0 
0.0 0.0 -4.600940248552e-04 
-9.545047460229e-07 1.772850678572e-03 0.0 
1.772850678572e-03 1.137689485315e-03 0.0 
0.0 0.0 -4.871721345294e-04 
-2.294684798328e-04 1.727305058981e-03 0.0 
1.727305058981e-03 1.576796951367e-03 0.0 
0.0 0.0 -5.774264878005e-04 
-4.956737125936e-04 1.725326237289e-03 0.0 
1.725326237289e-03 2.238221262344e-03 0.0 
0.0 0.0 -7.468060927500e-04 
-7.693623021415e-04 1.545850130620e-03 0.0 
1.545850130620e-03 2.800183439925e-03 0.0 
0.0 0.0 -7.884857694893e-04 
-1.068442602319e-03 1.392543525831e-03 0.0 
1.392543525831e-03 3.387126047545e-03 0.0 
0.0 0.0 -7.502339878794e-04 
-1.352818007869e-03 1.227157706519e-03 0.0 
1.227157706519e-03 3.981454431592e-03 0.0 
0.0 0.0 -7.303644794522e-04 
-9.612752402759e-04 -2.177088526796e-04 0.0 
-2.177088526796e-04 3.154132429221e-03 0.0 
0.0 0.0 -4.488888888889e-04 
-1.074369705335e-03 -1.739013270640e-04 0.0 
-1.739013270640e-04 3.441659993103e-03 0.0 
0.0 0.0 -4.933333333333e-04 
-1.186861804691e-03 -2.063993814702e-04 0.0 
-2.063993814702e-04 3.930451098783e-03 0.0 
0.0 0.0 -5.600000000000e-04 
-1.284181826536e-03 -1.411246795881e-04 0.0 
-1.411246795881e-04 4.401802096581e-03 0.0 
0.0 0.0 -6.266666666667e-04 
-1.371869470260e-03 5.987426434916e-05 0.0 
5.987426434916e-05 4.821720366173e-03 0.0 
0.0 0.0 -6.874962403976e-04 
-1.373883297749e-03 1.733970713616e-05 0.0 
1.733970713616e-05 4.853900323376e-03 0.0 
0.0 0.0 -6.910932206029e-04 
-1.391096625977e-03 2.696117286623e-05 0.0 
2.696117286623e-05 4.858420634372e-03 0.0 
0.0 0.0 -6.911911970487e-04 
-1.403621533613e-03 2.899157745045e-05 0.0 
2.899157745045e-05 4.851539021186e-03 0.0 
0.0 0.0 -6.903356507966e-04 
-1.422086472761e-03 7.127286506100e-05 0.0 
7.127286506100e-05 4.925418991949e-03 0.0 
0.0 0.0 -6.980756478071e-04 
-1.440013737492e-03 8.905228061672e-05 0.0 
8.905228061672e-05 4.855137559965e-03 0.0 
0.0 0.0 -6.911448554634e-04 
-1.457810866496e-03 1.124854279040e-04 0.0 
1.124854279040e-04 4.842862400746e-03 0.0 
0.0 0.0 -6.903833977050e-04 
-1.485479761852e-03 1.763889665616e-04 0.0 
1.763889665616e-04 4.844524201239e-03 0.0 
0.0 0.0 -6.905588330458e-04 
-1.530071715646e-03 2.314067896651e-04 0.0 
2.314067896651e-04 4.843027902445e-03 0.0 
0.0 0.0 -6.922444453805e-04 
-1.565434249602e-03 3.199826070801e-04 0.0 
3.199826070801e-04 4.827774349685e-03 0.0 
0.0 0.0 -6.916098530255e-04 
-1.592220907441e-03 4.164385463974e-04 0.0 
4.164385463974e-04 4.800836260159e-03 0.0 
0.0 0.0 -6.911665914957e-04 
-1.624093306590e-03 5.379923244308e-04 0.0 
5.379923244308e-04 4.762121973516e-03 0.0 
0.0 0.0 -6.926885898885e-04 
-1.636272666442e-03 7.038956101205e-04 0.0 
7.038956101205e-04 4.710840836171e-03 0.0 
0.0 0.0 -6.980272606831e-04 
-1.642234561257e-03 8.946537782645e-04 0.0 
8.946537782645e-04 4.660104212790e-03 0.0 
0.0 0.0 -7.070206663417e-04 
0.0 0.0 0.0 
0.0 0.0 0.0 
0.0 0.0 0.0 
0.0 0.0 0.0 
0.0 0.0 0.0 
0.0 0.0 0.0 
0.0 0.0 0.0 
0.0 0.0 0.0 
0.0 0.0 0.0 
0.0 0.0 0.0 
0.0 0.0 0.0 
0.0 0.0 0.0 
0.0 0.0 0.0 
0.0 0.0 0.0 
0.0 0.0 0.0 
6.460969664659e-05 -1.556902627030e-04 0.0 
-1.556902627030e-04 3.828112054754e-05 0.0 
0.0 0.0 -4.409606451177e-05 
2.290958672754e-04 -1.825778835954e-04 0.0 
-1.825778835954e-04 1.295802149226e-05 0.0 
0.0 0.0 -6.349991864517e-05 
3.258301092639e-04 -1.495010221350e-04 0.0 
-1.495010221350e-04 5.825232736603e-05 0.0 
0.0 0.0 -6.729406355132e-05 
4.308097979006e-04 -2.272179296947e-04 0.0 
-2.272179296947e-04 4.144525422736e-05 0.0 
0.0 0.0 -5.004267624003e-05 
7.170242557017e-04 -3.798682189908e-04 0.0 
-3.798682189908e-04 -8.718929718944e-05 0.0 
0.0 0.0 -5.423469082675e-05 
1.016505377143e-03 -3.706654485886e-04 0.0 
-3.706654485886e-04 -2.196691987021e-04 0.0 
0.0 0.0 -6.924701466199e-05 
1.374691841568e-03 -3.600731207399e-04 0.0 
-3.600731207399e-04 -3.650587174241e-04 0.0 
0.0 0.0 -8.456438766380e-05 
1.776444192994e-03 -3.135747337774e-04 0.0 
-3.135747337774e-04 -5.394471043759e-04 0.0 
0.0 0.0 -1.145437528706e-04 
2.116489510919e-03 -3.092434709054e-04 0.0 
-3.092434709054e-04 -6.971504040322e-04 0.0 
0.0 0.0 -1.122699804219e-04 
2.340534228900e-03 -2.489648393755e-04 0.0 
-2.489648393755e-04 -7.939335318199e-04 0.0 
0.0 0.0 -1.135261812993e-04 
2.545448873624e-03 -1.895106937816e-04 0.0 
-1.895106937816e-04 -8.695809182027e-04 0.0 
0.0 0.0 -1.151526711856e-04 
2.708912883130e-03 -1.592234908312e-04 0.0 
-1.592234908312e-04 -9.353356256089e-04 0.0 
0.0 0.0 -1.168504208365e-04 
2.867102977547e-03 -9.067089989766e-05 0.0 
-9.067089989766e-05 -1.037120165575e-03 0.0 
0.0 0.0 -1.138900488129e-04 
3.013559206580e-03 5.775462477208e-05 0.0 
5.775462477208e-05 -1.103986210354e-03 0.0 
0.0 0.0 -1.064965418423e-04 
-1.016309994123e-03 3.524352970200e-05 0.0 
3.524352970200e-05 3.259307943450e-03 0.0 
0.0 0.0 -4.544444444444e-04 
-1.003488941350e-03 -6.498828932497e-05 0.0 
-6.498828932497e-05 3.243929891061e-03 0.0 
0.0 0.0 -4.562962962963e-04 
-1.007791816603e-03 -1.127856131823e-04 0.0 
-1.127856131823e-04 3.237252771096e-03 0.0 
0.0 0.0 -4.562962962963e-04 
-1.015221908343e-03 -1.394050183167e-04 0.0 
-1.394050183167e-04 3.237014848469e-03 0.0 
0.0 0.0 -4.562962962963e-04 
-1.025364639083e-03 -1.621141661718e-04 0.0 
-1.621141661718e-04 3.237496870483e-03 0.0 
0.0 0.0 -4.562962962963e-04 
-1.036358910687e-03 -1.801912033812e-04 0.0 
-1.801912033812e-04 3.237601902673e-03 0.0 
0.0 0.0 -4.569520577817e-04 
-1.043914293467e-03 -1.925479647733e-04 0.0 
-1.925479647733e-04 3.235443026191e-03 0.0 
0.0 0.0 -4.595465573787e-04 
-1.052993710117e-03 -1.962573620903e-04 0.0 
-1.962573620903e-04 3.231785892014e-03 0.0 
0.0 0.0 -4.625495110683e-04 
-1.064182055289e-03 -1.875371271021e-04 0.0 
-1.875371271021e-04 3.227112318709e-03 0.0 
0.0 0.0 -4.659340055368e-04 
-1.077926697873e-03 -1.636645410778e-04 0.0 
-1.636645410778e-04 3.221543391454e-03 0.0 
0.0 0.0 -4.700697506504e-04 
-1.094588368557e-03 -1.225073171435e-04 0.0 
-1.225073171435e-04 3.214380917269e-03 0.0 
0.0 0.0 -4.748386567270e-04 
-1.114135608346e-03 -5.994118432698e-05 0.0 
-5.994118432698e-05 3.204207145299e-03 0.0 
0.0 0.0 -4.802146216053e-04 
-1.136314728356e-03 3.009461989246e-05 0.0 
3.009461989246e-05 3.188846162710e-03 0.0 
0.0 0.0 -4.864087334568e-04 
-1.137942585360e-03 1.559752067415e-04 0.0 
1.559752067415e-04 3.163353975485e-03 0.0 
0.0 0.0 -5.006701619340e-04 
-1.107463422914e-03 3.099510466086e-04 0.0 
3.099510466086e-04 3.119786124264e-03 0.0 
0.0 0.0 -5.276839064268e-04 
-1.065187635379e-03 5.053663209617e-04 0.0 
5.053663209617e-04 3.066642914575e-03 0.0 
0.0 0.0 -5.599886526116e-04 
-1.001628366186e-03 7.180421827186e-04 0.0 
7.180421827186e-04 2.983613436557e-03 0.0 
0.0 0.0 -6.025489989186e-04 
-9.238370993327e-04 1.007619617249e-03 0.0 
1.007619617249e-03 2.890462908271e-03 0.0 
0.0 0.0 -6.460517654516e-04 
-7.968692043978e-04 1.280570973141e-03 0.0 
1.280570973141e-03 2.729555065648e-03 0.0 
0.0 0.0 -7.183248274829e-04 
-6.524817727670e-04 1.468091980035e-03 0.0 
1.468091980035e-03 2.500857688242e-03 0.0 
0.0 0.0 -7.592750047611e-04 
-8.859289441425e-04 1.243241253464e-03 0.0 
1.243241253464e-03 2.913195279952e-03 0.0 
0.0 0.0 -7.120710084939e-04 
-1.004734523472e-03 1.018600750567e-03 0.0 
1.018600750567e-03 3.106427625498e-03 0.0 
0.0 0.0 -6.771260834247e-04 
-1.079401310026e-03 7.481842232065e-04 0.0 
7.481842232065e-04 3.193468346598e-03 0.0 
0.0 0.0 -6.300277574108e-04 
-1.131577463836e-03 5.268764785930e-04 0.0 
5.268764785930e-04 3.259614661613e-03 0.0 
0.0 0.0 -5.970134556630e-04 
-1.175698392474e-03 3.505042719681e-04 0.0 
3.505042719681e-04 3.318814681410e-03 0.0 
0.0 0.0 -5.654316324824e-04 
-1.198259795194e-03 1.983623377187e-04 0.0 
1.983623377187e-04 3.357846983414e-03 0.0 
0.0 0.0 -5.431954804876e-04 
-1.193688646499e-03 8.236585560367e-05 0.0 
8.236585560367e-05 3.385843501569e-03 0.0 
0.0 0.0 -5.307242391481e-04 
-1.181400322402e-03 -2.610677248912e-06 0.0 
-2.610677248912e-06 3.403469425701e-03 0.0 
0.0 0.0 -5.217490130384e-04 
-1.169734073994e-03 -6.313793199308e-05 0.0 
-6.313793199308e-05 3.415891564710e-03 0.0 
0.0 0.0 -5.139000268513e-04 
-1.159307772713e-03 -1.048439826788e-04 0.0 
-1.048439826788e-04 3.424926224559e-03 0.0 
0.0 0.0 -5.068416884887e-04 
-1.149301363739e-03 -1.311774395022e-04 0.0 
-1.311774395022e-04 3.432400745694e-03 0.0 
0.0 0.0 -5.012787953396e-04 
-1.136366457465e-03 -1.411361358348e-04 0.0 
-1.411361358348e-04 3.437153305501e-03 0.0 
0.0 0.0 -4.980850712606e-04 
-1.124188871364e-03 -1.394547320618e-04 0.0 
-1.394547320618e-04 3.439448222641e-03 0.0 
0.0 0.0 -4.952863446172e-04 
-1.111828436603e-03 -1.308291125140e-04 0.0 
-1.308291125140e-04 3.439882520158e-03 0.0 
0.0 0.0 -4.936612140760e-04 
-1.098447969421e-03 -1.167396694570e-04 0.0 
-1.167396694570e-04 3.439293515508e-03 0.0 
0.0 0.0 -4.933333333333e-04 
-1.087594461636e-03 -9.799983896262e-05 0.0 
-9.799983896262e-05 3.438806070953e-03 0.0 
0.0 0.0 -4.933333333333e-04 
-1.079672367243e-03 -7.744480207381e-05 0.0 
-7.744480207381e-05 3.439140724054e-03 0.0 
0.0 0.0 -4.933333333333e-04 
-1.076026664782e-03 -5.828265356752e-05 0.0 
-5.828265356752e-05 3.441224913047e-03 0.0 
0.0 0.0 -4.933333333333e-04 
-1.075502650299e-03 8.431295565096e-05 0.0 
8.431295565096e-05 3.442685458650e-03 0.0 
0.0 0.0 -4.933333333333e-04 
-1.189994461039e-03 4.971329978173e-05 0.0 
4.971329978173e-05 3.933936678343e-03 0.0 
0.0 0.0 -5.600000000000e-04 
-1.189943494860e-03 -3.915048486870e-05 0.0 
-3.915048486870e-05 3.929295747162e-03 0.0 
0.0 0.0 -5.600000000000e-04 
-1.196995215316e-03 -6.619293072910e-05 0.0 
-6.619293072910e-05 3.927958942862e-03 0.0 
0.0 0.0 -5.600000000000e-04 
-1.209000108090e-03 -7.709460563794e-05 0.0 
-7.709460563794e-05 3.928987706667e-03 0.0 
0.0 0.0 -5.600000000000e-04 
-1.222591065312e-03 -8.087627347994e-05 0.0 
-8.087627347994e-05 3.928642048882e-03 0.0 
0.0 0.0 -5.600000000000e-04 
-1.242241496923e-03 -8.001653654516e-05 0.0 
-8.001653654516e-05 3.929767912219e-03 0.0 
0.0 0.0 -5.600000000000e-04 
-1.264776066821e-03 -7.096870869374e-05 0.0 
-7.096870869374e-05 3.930292006580e-03 0.0 
0.0 0.0 -5.600000000000e-04 
-1.291607559870e-03 -5.753569633380e-05 0.0 
-5.753569633380e-05 3.928177153315e-03 0.0 
0.0 0.0 -5.600000000000e-04 
-1.313480821163e-03 -2.264210671336e-05 0.0 
-2.264210671336e-05 3.919521392894e-03 0.0 
0.0 0.0 -5.618027733580e-04 
-1.334363465792e-03 3.032816973716e-05 0.0 
3.032816973716e-05 3.911166292933e-03 0.0 
0.0 0.0 -5.662115594836e-04 
-1.345626602697e-03 9.725453922173e-05 0.0 
9.725453922173e-05 3.895259009147e-03 0.0 
0.0 0.0 -5.743994467985e-04 
-1.356260887442e-03 1.893430820086e-04 0.0 
1.893430820086e-04 3.871741255735e-03 0.0 
0.0 0.0 -5.833032914833e-04 
-1.366012120890e-03 3.096264366290e-04 0.0 
3.096264366290e-04 3.841250700024e-03 0.0 
0.0 0.0 -5.938366679572e-04 
-1.351517243904e-03 4.620420004327e-04 0.0 
4.620420004327e-04 3.787895507316e-03 0.0 
0.0 0.0 -6.115999087365e-04 
-1.313173102658e-03 6.667035574404e-04 0.0 
6.667035574404e-04 3.730474013625e-03 0.0 
0.0 0.0 -6.360477204719e-04 
-1.260419596383e-03 8.991646670823e-04 0.0 
8.991646670823e-04 3.667954377089e-03 0.0 
0.0 0.0 -6.715110950050e-04 
-1.156777947287e-03 1.103879225283e-03 0.0 
1.103879225283e-03 3.481215616997e-03 0.0 
0.0 0.0 -6.945456224821e-04 
-1.413371839818e-03 9.869439785182e-04 0.0 
9.869439785182e-04 4.044630377487e-03 0.0 
0.0 0.0 -6.871907024512e-04 
-1.498556740945e-03 8.027277734388e-04 0.0 
8.027277734388e-04 4.217784539438e-03 0.0 
0.0 0.0 -6.754388315825e-04 
-1.517003084896e-03 6.032515853078e-04 0.0 
6.032515853078e-04 4.269979929512e-03 0.0 
0.0 0.0 -6.550211625735e-04 
-1.511553648353e-03 4.490191689128e-04 0.0 
4.490191689128e-04 4.314033839254e-03 0.0 
0.0 0.0 -6.432502374181e-04 
-1.500446210863e-03 3.184819489120e-04 0.0 
3.184819489120e-04 4.351230304708e-03 0.0 
0.0 0.0 -6.352144205724e-04 
-1.482245807683e-03 2.246627967315e-04 0.0 
2.246627967315e-04 4.377537132701e-03 0.0 
0.0 0.0 -6.294719905043e-04 
-1.455175852238e-03 1.513209258517e-04 0.0 
1.513209258517e-04 4.388941904323e-03 0.0 
0.0 0.0 -6.266666666667e-04 
-1.422377976552e-03 8.452613654984e-05 0.0 
8.452613654984e-05 4.398275898476e-03 0.0 
0.0 0.0 -6.266666666667e-04 
-1.387740669927e-03 5.055332934235e-05 0.0 
5.055332934235e-05 4.407309917814e-03 0.0 
0.0 0.0 -6.266666666667e-04 
-1.364267156085e-03 1.746043878918e-05 0.0 
1.746043878918e-05 4.408435903517e-03 0.0 
0.0 0.0 -6.266666666667e-04 
-1.340556828241e-03 2.310074790946e-06 0.0 
2.310074790946e-06 4.409446433091e-03 0.0 
0.0 0.0 -6.266666666667e-04 
-1.322009739859e-03 -1.793960035533e-05 0.0 
-1.793960035533e-05 4.409251285455e-03 0.0 
0.0 0.0 -6.266666666667e-04 
-1.309592160630e-03 -1.727365315460e-05 0.0 
-1.727365315460e-05 4.412670266398e-03 0.0 
0.0 0.0 -6.266666666667e-04 
-1.296178947065e-03 -2.233083817508e-05 0.0 
-2.233083817508e-05 4.407948356665e-03 0.0 
0.0 0.0 -6.266666666667e-04 
-1.291396798343e-03 -4.231649306782e-05 0.0 
-4.231649306782e-05 4.418716211488e-03 0.0 
0.0 0.0 -6.266666666667e-04 
-1.299258567356e-03 1.084144737729e-04 0.0 
1.084144737729e-04 4.428774256468e-03 0.0 
0.0 0.0 -6.266666666667e-04 
-1.436341004214e-04 1.997698451347e-03 0.0 
1.997698451347e-03 1.703748522020e-04 0.0 
0.0 0.0 -1.146032219169e-05 
1.936976575994e-04 1.398779559345e-03 0.0 
1.398779559345e-03 5.900772889955e-04 0.0 
0.0 0.0 -3.359035485407e-04 
2.417267202073e-04 1.838455165837e-03 0.0 
1.838455165837e-03 7.923036657008e-04 0.0 
0.0 0.0 -4.431558796749e-04 
1.101677228067e-04 1.834201385501e-03 0.0 
1.834201385501e-03 9.860182752854e-04 0.0 
0.0 0.0 -4.697939991823e-04 
-1.015326029610e-04 1.768813643197e-03 0.0 
1.768813643197e-03 1.327052849400e-03 0.0 
0.0 0.0 -5.252229627595e-04 
-3.500664412641e-04 1.776194894250e-03 0.0 
1.776194894250e-03 1.890650442787e-03 0.0 
0.0 0.0 -6.602502863668e-04 
-6.264866288782e-04 1.651646098332e-03 0.0 
1.651646098332e-03 2.538273311827e-03 0.0 
0.0 0.0 -8.034482950796e-04 
-9.259280155328e-04 1.541530339945e-03 0.0 
1.541530339945e-03 3.121438131384e-03 0.0 
0.0 0.0 -7.697949396469e-04 
-1.219707571260e-03 1.363862905373e-03 0.0 
1.363862905373e-03 3.712475698443e-03 0.0 
0.0 0.0 -7.416632329583e-04 
-1.501649114425e-03 1.213866345860e-03 0.0 
1.213866345860e-03 4.312722460883e-03 0.0 
0.0 0.0 -7.242776845527e-04 
3.539823178863e-04 1.710352572919e-03 0.0 
1.710352572919e-03 5.866051080763e-04 0.0 
0.0 0.0 -4.031088968411e-04 
-9.225734973571e-04 -7.785055507499e-06 0.0 
-7.785055507499e-06 4.710905526494e-03 0.0 
0.0 0.0 -1.303388942653e-03 
2.002003524453e-04 -6.228844878024e-04 0.0 
-6.228844878024e-04 2.361800845582e-04 0.0 
0.0 0.0 -1.150931346421e-04 
6.351277012353e-06 -1.034192914689e-04 0.0 
-1.034192914689e-04 -6.351277012355e-06 0.0 
0.0 0.0 0.0 
-1.143124804619e-03 -1.686232053488e-03 0.0 
-1.686232053488e-03 5.409600557008e-03 0.0 
0.0 0.0 -1.303360877099e-03 
1.234786051762e-04 1.977711876023e-03 0.0 
1.977711876023e-03 1.061132021132e-03 0.0 
0.0 0.0 -5.076902684178e-04 
-1.444704152341e-03 -3.615903752048e-04 0.0 
-3.615903752048e-04 4.407515592965e-03 0.0 
0.0 0.0 -1.026919993916e-03 
-9.479894819801e-04 1.838728918359e-03 0.0 
1.838728918359e-03 4.893992345869e-03 0.0 
0.0 0.0 -1.300998267065e-03 
-3.669420938573e-04 1.945721923899e-03 0.0 
1.945721923899e-03 2.035468676857e-03 0.0 
0.0 0.0 -7.150828212858e-04 
-1.134501767780e-03 3.078864715943e-03 0.0 
3.078864715943e-03 5.708971873236e-03 0.0 
0.0 0.0 -1.304014651794e-03 
-9.933335184060e-04 1.783041133304e-03 0.0 
1.783041133304e-03 3.368272424712e-03 0.0 
0.0 0.0 -8.139337748180e-04 
-1.367928456590e-03 -1.893022985453e-03 0.0 
-1.893022985453e-03 6.315060285992e-03 0.0 
0.0 0.0 -1.307658508868e-03 
1.393566666495e-03 -5.293231022229e-04 0.0 
-5.293231022229e-04 -2.919979710108e-04 0.0 
0.0 0.0 -1.726441863791e-04 
-1.321068622768e-03 3.408933067941e-03 0.0 
3.408933067941e-03 6.699280987615e-03 0.0 
0.0 0.0 -1.304481600125e-03 
-1.625241511018e-03 1.405941443998e-03 0.0 
1.405941443998e-03 4.657250357868e-03 0.0 
0.0 0.0 -7.595448291451e-04 
-9.674687493222e-04 -2.324067189866e-04 0.0 
-2.324067189866e-04 3.002016490702e-03 0.0 
0.0 0.0 -7.390740322083e-04 
-1.821851265128e-03 -3.597710289885e-04 0.0 
-3.597710289885e-04 5.333319395799e-03 0.0 
0.0 0.0 -1.073818338595e-03 
-1.412437544610e-03 3.130277989420e-03 0.0 
3.130277989420e-03 7.340714354146e-03 0.0 
0.0 0.0 -1.301280071178e-03 
-1.458721797288e-03 2.468181070438e-03 0.0 
2.468181070438e-03 8.007112846752e-03 0.0 
0.0 0.0 -1.304294760550e-03 
-1.442626291436e-03 7.982050020717e-04 0.0 
7.982050020717e-04 8.632923623264e-03 0.0 
0.0 0.0 -1.303238611779e-03 
-1.460924372811e-03 1.330564066234e-03 0.0 
1.330564066234e-03 8.482170570322e-03 0.0 
0.0 0.0 -1.297727402575e-03 
-1.466071718827e-03 1.860397699296e-03 0.0 
1.860397699296e-03 8.323259225048e-03 0.0 
0.0 0.0 -1.305306183856e-03 
-1.723504189141e-03 9.545217762893e-04 0.0 
9.545217762893e-04 5.069531762335e-03 0.0 
0.0 0.0 -7.528866907182e-04 
-1.609633540750e-03 4.109047618561e-04 0.0 
4.109047618561e-04 5.236232241604e-03 0.0 
0.0 0.0 -7.529849494387e-04 
-1.529214909887e-03 1.902322029956e-04 0.0 
1.902322029956e-04 5.302594416650e-03 0.0 
0.0 0.0 -7.580270452736e-04 
-1.581306103182e-03 3.146837778263e-05 0.0 
3.146837778263e-05 6.876614414943e-03 0.0 
0.0 0.0 -9.950081682429e-04 
-1.500312298629e-03 -1.404495050420e-03 0.0 
-1.404495050420e-03 6.813712989149e-03 0.0 
0.0 0.0 -1.302874185639e-03 
0.0 0.0 0.0 
0.0 0.0 0.0 
0.0 0.0 0.0 
1.991019007460e-03 -2.749999736625e-04 0.0 
-2.749999736625e-04 -4.994877663417e-04 0.0 
0.0 0.0 -1.971444476807e-04 
-2.064700972320e-03 -3.063344179821e-04 0.0 
-3.063344179821e-04 6.409893202118e-03 0.0 
0.0 0.0 -1.122886395833e-03 
-1.468245391393e-03 9.255547116428e-05 0.0 
9.255547116428e-05 5.268982738319e-03 0.0 
0.0 0.0 -7.500338828344e-04 
-3.768246537726e-04 -1.072125225081e-04 0.0 
-1.072125225081e-04 1.532862867376e-03 0.0 
0.0 0.0 -3.103003023327e-04 
-1.462480749969e-03 2.788238406384e-03 0.0 
2.788238406384e-03 7.654884390723e-03 0.0 
0.0 0.0 -1.293200138473e-03 
-1.060495443339e-03 2.586030718155e-03 0.0 
2.586030718155e-03 5.302800007763e-03 0.0 
0.0 0.0 -1.307307853467e-03 
-1.239947575843e-03 3.359554949631e-03 0.0 
3.359554949631e-03 6.201507605709e-03 0.0 
0.0 0.0 -1.304733450272e-03 
-8.851569131084e-04 1.017294528516e-03 0.0 
1.017294528516e-03 4.688446957818e-03 0.0 
0.0 0.0 -1.297928233296e-03 
-1.011734799512e-03 -8.525942349034e-04 0.0 
-8.525942349034e-04 4.907050266684e-03 0.0 
0.0 0.0 -1.305578568836e-03 
1.120011211769e-04 -9.639393047147e-04 0.0 
-9.639393047147e-04 3.552641554252e-04 0.0 
0.0 0.0 -2.002565471152e-04 
-1.668530992619e-03 6.309946100002e-04 0.0 
6.309946100002e-04 5.166924460567e-03 0.0 
0.0 0.0 -7.500980793755e-04 
-1.253144254253e-03 -1.928883033382e-03 0.0 
-1.928883033382e-03 5.781747753778e-03 0.0 
0.0 0.0 -1.293180865222e-03 
-1.565497950727e-03 6.438167873332e-05 0.0 
6.438167873332e-05 7.693447317596e-03 0.0 
0.0 0.0 -1.123598490052e-03 
6.785802533228e-04 -5.736279611176e-04 0.0 
-5.736279611176e-04 1.838174080763e-07 0.0 
0.0 0.0 -1.171618051616e-04 
-1.195500737651e-03 -3.256008312402e-04 0.0 
-3.256008312402e-04 3.719620558921e-03 0.0 
0.0 0.0 -9.209925479532e-04 
-1.429805954471e-03 5.036842419237e-04 0.0 
5.036842419237e-04 8.739646127293e-03 0.0 
0.0 0.0 -1.311981303940e-03 
-9.905702435700e-05 2.013930135586e-03 0.0 
2.013930135586e-03 1.485122832027e-03 0.0 
0.0 0.0 -5.940282032871e-04 
3.261360612195e-04 2.014048139277e-03 0.0 
2.014048139277e-03 7.944417754282e-04 0.0 
0.0 0.0 -4.802476442776e-04 
-6.470413752911e-04 1.957850985508e-03 0.0 
1.957850985508e-03 2.728601734132e-03 0.0 
0.0 0.0 -8.637206373099e-04 
-1.316804590616e-03 1.569868653343e-03 0.0 
1.569868653343e-03 4.005894671503e-03 0.0 
0.0 0.0 -7.800224789174e-04 
4.464770973113e-05 1.695240227077e-03 0.0 
1.695240227077e-03 1.966324608542e-04 0.0 
0.0 0.0 -1.034057873937e-04 
-1.536524951872e-03 3.208999903453e-05 0.0 
3.208999903453e-05 6.068754859848e-03 0.0 
0.0 0.0 -8.684787984471e-04 
-1.527482046669e-03 -8.504264765478e-04 0.0 
-8.504264765478e-04 7.084540485198e-03 0.0 
0.0 0.0 -1.313906642692e-03 
2.259445629762e-03 -9.175095740177e-05 0.0 
-9.175095740177e-05 -6.502150918460e-04 0.0 
0.0 0.0 -1.918888419282e-04 
-1.463207116020e-03 1.296765555730e-04 0.0 
1.296765555730e-04 8.413961701398e-03 0.0 
0.0 0.0 -1.253930875827e-03 
-1.717988966153e-03 1.334598389081e-03 0.0 
1.334598389081e-03 4.909530889206e-03 0.0 
0.0 0.0 -7.655439890770e-04 
-1.720228455065e-03 1.586186079137e-03 0.0 
1.586186079137e-03 4.967329360851e-03 0.0 
0.0 0.0 -7.934218816250e-04 
-1.768015179977e-03 1.461597718910e-03 0.0 
1.461597718910e-03 5.276074626724e-03 0.0 
0.0 0.0 -8.115680642089e-04 
-1.765114281844e-03 1.749488874724e-03 0.0 
1.749488874724e-03 5.323901634960e-03 0.0 
0.0 0.0 -8.428390908522e-04 
-1.776011419960e-03 1.632950866705e-03 0.0 
1.632950866705e-03 5.614599388379e-03 0.0 
0.0 0.0 -8.784658474099e-04 
-1.753067371520e-03 1.892876727445e-03 0.0 
1.892876727445e-03 5.647697331923e-03 0.0 
0.0 0.0 -9.060409163497e-04 
-1.729403370927e-03 2.034729517834e-03 0.0 
2.034729517834e-03 5.329326258993e-03 0.0 
0.0 0.0 -8.711257577414e-04 
-1.705524146156e-03 2.154135310252e-03 0.0 
2.154135310252e-03 5.649528349792e-03 0.0 
0.0 0.0 -9.341442283280e-04 
-1.669480427723e-03 2.313796081278e-03 0.0 
2.313796081278e-03 5.302391134739e-03 0.0 
0.0 0.0 -8.989774131092e-04 
-1.760017773414e-03 1.778713600910e-03 0.0 
1.778713600910e-03 5.960915318729e-03 0.0 
0.0 0.0 -9.415083590319e-04 
-1.639128685698e-03 2.400878910049e-03 0.0 
2.400878910049e-03 5.620671151866e-03 0.0 
0.0 0.0 -9.622976032585e-04 
-1.585968914987e-03 2.571269188534e-03 0.0 
2.571269188534e-03 5.245482773901e-03 0.0 
0.0 0.0 -9.268639294333e-04 
-1.553264337981e-03 2.629359401866e-03 0.0 
2.629359401866e-03 5.564461608518e-03 0.0 
0.0 0.0 -9.903372159162e-04 
-1.482148429882e-03 2.800719357184e-03 0.0 
2.800719357184e-03 5.162964478957e-03 0.0 
0.0 0.0 -9.547708836903e-04 
-1.480872876733e-03 2.756523220070e-03 0.0 
2.756523220070e-03 4.843370134984e-03 0.0 
0.0 0.0 -9.032660992691e-04 
-1.370066982921e-03 2.994500238396e-03 0.0 
2.994500238396e-03 4.734217419357e-03 0.0 
0.0 0.0 -9.261835667446e-04 
-1.296697830142e-03 2.932762897298e-03 0.0 
2.932762897298e-03 4.406716792506e-03 0.0 
0.0 0.0 -9.004111975071e-04 
-1.176154479742e-03 3.171939239460e-03 0.0 
3.171939239460e-03 4.268382598936e-03 0.0 
0.0 0.0 -9.182233496599e-04 
-1.237826052231e-03 3.181299556145e-03 0.0 
3.181299556145e-03 4.604885530242e-03 0.0 
0.0 0.0 -9.498701766430e-04 
-1.038924370446e-03 3.354505003279e-03 0.0 
3.354505003279e-03 4.108768898160e-03 0.0 
0.0 0.0 -9.343221806050e-04 
-9.113966935237e-04 3.322436674522e-03 0.0 
3.322436674522e-03 3.767445704006e-03 0.0 
0.0 0.0 -9.288662988139e-04 
-7.681433481646e-04 3.500147498246e-03 0.0 
3.500147498246e-03 3.577220508926e-03 0.0 
0.0 0.0 -9.367850320061e-04 
-6.050859616232e-04 3.441042246538e-03 0.0 
3.441042246538e-03 3.246213294712e-03 0.0 
0.0 0.0 -9.518642033955e-04 
-4.467796431526e-04 3.596824647640e-03 0.0 
3.596824647640e-03 3.023253834938e-03 0.0 
0.0 0.0 -9.541337235040e-04 
-2.817347476968e-04 3.508182660979e-03 0.0 
3.508182660979e-03 2.709346421897e-03 0.0 
0.0 0.0 -9.642822318347e-04 
-1.040481770833e-04 3.619372760828e-03 0.0 
3.619372760828e-03 2.449228749823e-03 0.0 
0.0 0.0 -9.459728402633e-04 
-2.870166289118e-04 3.676071568470e-03 0.0 
3.676071568470e-03 2.794184702227e-03 0.0 
0.0 0.0 -9.498144071847e-04 
6.429436302438e-05 3.660882361634e-03 0.0 
3.660882361634e-03 2.186835241716e-03 0.0 
0.0 0.0 -9.193128608805e-04 
2.331588354861e-04 3.548891452897e-03 0.0 
3.548891452897e-03 1.871725410986e-03 0.0 
0.0 0.0 -8.913707482552e-04 
4.174760030635e-04 3.518419278721e-03 0.0 
3.518419278721e-03 1.585153718146e-03 0.0 
0.0 0.0 -8.538425857873e-04 
5.455280992742e-04 3.365363645192e-03 0.0 
3.365363645192e-03 1.323229666393e-03 0.0 
0.0 0.0 -8.008961852862e-04 
7.498486656370e-04 3.260544319073e-03 0.0 
3.260544319073e-03 1.013594496255e-03 0.0 
0.0 0.0 -7.557613550964e-04 
5.794043773309e-04 3.414810932032e-03 0.0 
3.414810932032e-03 1.312272080423e-03 0.0 
0.0 0.0 -8.100034870355e-04 
9.766186802750e-04 3.126905533587e-03 0.0 
3.126905533587e-03 6.756506724320e-04 0.0 
0.0 0.0 -7.081154368744e-04 
1.170764685342e-03 3.063309594450e-03 0.0 
3.063309594450e-03 3.918842971428e-04 0.0 
0.0 0.0 -6.697067067790e-04 
1.469956798013e-03 2.887539401857e-03 0.0 
2.887539401857e-03 -6.720200421087e-06 0.0 
0.0 0.0 -6.271013989681e-04 
1.655398318796e-03 2.905797537394e-03 0.0 
2.905797537394e-03 -2.066635196578e-04 0.0 
0.0 0.0 -6.208863424878e-04 
1.958892900495e-03 2.587078338226e-03 0.0 
2.587078338226e-03 -5.601119320347e-04 0.0 
0.0 0.0 -5.994775579116e-04 
2.135455672651e-03 2.638700697284e-03 0.0 
2.638700697284e-03 -6.211030008372e-04 0.0 
0.0 0.0 -6.490082879202e-04 
2.410352153471e-03 2.173774944653e-03 0.0 
2.173774944653e-03 -9.107525055140e-04 0.0 
0.0 0.0 -6.426855634101e-04 
2.158594858366e-03 2.117426171510e-03 0.0 
2.117426171510e-03 -8.346185089651e-04 0.0 
0.0 0.0 -5.674184354577e-04 
2.548284906519e-03 1.577323129924e-03 0.0 
1.577323129924e-03 -1.120076299841e-03 0.0 
0.0 0.0 -6.120894028618e-04 
2.766282761562e-03 1.671188389262e-03 0.0 
1.671188389262e-03 -1.152705968468e-03 0.0 
0.0 0.0 -6.915329113260e-04 
2.831831315373e-03 9.695675877105e-04 0.0 
9.695675877105e-04 -1.281170566415e-03 0.0 
0.0 0.0 -6.645688924106e-04 
2.536993124922e-03 9.134999273791e-04 0.0 
9.134999273791e-04 -1.229619517363e-03 0.0 
0.0 0.0 -5.603029746683e-04 
2.733867997822e-03 2.586198841001e-04 0.0 
2.586198841001e-04 -1.313858956396e-03 0.0 
0.0 0.0 -6.085753034686e-04 
2.382754168972e-03 2.331723641419e-04 0.0 
2.331723641419e-04 -1.217161318829e-03 0.0 
0.0 0.0 -4.995397929185e-04 
2.475502276821e-03 -4.225569186791e-04 0.0 
-4.225569186791e-04 -1.235276730126e-03 0.0 
0.0 0.0 -5.315252342980e-04 
2.783353977069e-03 -4.207301430438e-04 0.0 
-4.207301430438e-04 -1.298298732893e-03 0.0 
0.0 0.0 -6.364522475042e-04 
2.431423533239e-03 -1.055611195596e-03 0.0 
-1.055611195596e-03 -1.141139443354e-03 0.0 
0.0 0.0 -5.529788956651e-04 
2.074488083004e-03 -1.034963949875e-03 0.0 
-1.034963949875e-03 -9.657239908617e-04 0.0 
0.0 0.0 -4.751846109182e-04 
1.948746609120e-03 -1.563616376602e-03 0.0 
-1.563616376602e-03 -7.896259199600e-04 0.0 
0.0 0.0 -4.967660096401e-04 
2.266914827687e-03 -1.646291796375e-03 0.0 
-1.646291796375e-03 -9.610891233280e-04 0.0 
0.0 0.0 -5.596395875825e-04 
1.725234701887e-03 -1.991509456133e-03 0.0 
-1.991509456133e-03 -5.081914327056e-04 0.0 
0.0 0.0 -5.215899725061e-04 
1.402225958191e-03 -1.927478583456e-03 0.0 
-1.927478583456e-03 -1.960854800127e-04 0.0 
0.0 0.0 -5.169173477906e-04 
1.209383151701e-03 -2.216403946003e-03 0.0 
-2.216403946003e-03 7.890654783241e-05 0.0 
0.0 0.0 -5.521241569428e-04 
1.437995882087e-03 -2.266737877318e-03 0.0 
-2.266737877318e-03 -1.663516021812e-04 0.0 
0.0 0.0 -5.449904056737e-04 
1.024600490131e-03 -2.464285469351e-03 0.0 
-2.464285469351e-03 3.533750076132e-04 0.0 
0.0 0.0 -5.905609276045e-04 
8.985317602796e-04 -2.606405635227e-03 0.0 
-2.606405635227e-03 5.292322287011e-04 0.0 
0.0 0.0 -6.118988524203e-04 
7.560704768117e-04 -2.818446778216e-03 0.0 
-2.818446778216e-03 7.706212678724e-04 0.0 
0.0 0.0 -6.542964620075e-04 
8.580312086144e-04 -2.682927376050e-03 0.0 
-2.682927376050e-03 6.007672926437e-04 0.0 
0.0 0.0 -6.251993576820e-04 
5.867828103229e-04 -2.962553875983e-03 0.0 
-2.962553875983e-03 1.034857146591e-03 0.0 
0.0 0.0 -6.949885529632e-04 
4.441790608849e-04 -3.069180945402e-03 0.0 
-3.069180945402e-03 1.277969962145e-03 0.0 
0.0 0.0 -7.380638670128e-04 
2.783519300776e-04 -3.113099096991e-03 0.0 
-3.113099096991e-03 1.538449359472e-03 0.0 
0.0 0.0 -7.786291240925e-04 
1.058234640361e-04 -3.171084265656e-03 0.0 
-3.171084265656e-03 1.852966267041e-03 0.0 
0.0 0.0 -8.394813133188e-04 
3.929316153892e-04 -3.010245319228e-03 0.0 
-3.010245319228e-03 1.308656505855e-03 0.0 
0.0 0.0 -7.292520519616e-04 
9.932532998196e-05 -3.071474673695e-03 0.0 
-3.071474673695e-03 1.797955184989e-03 0.0 
0.0 0.0 -8.131202207017e-04 
1.861203807317e-04 -2.953410476768e-03 0.0 
-2.953410476768e-03 1.579421639320e-03 0.0 
0.0 0.0 -7.566608657364e-04 
-8.642223961803e-05 -2.932845730897e-03 0.0 
-2.932845730897e-03 2.045062282812e-03 0.0 
0.0 0.0 -8.394171613687e-04 
7.378179429990e-04 3.236151700417e-03 0.0 
3.236151700417e-03 1.055249139964e-03 0.0 
0.0 0.0 -7.684573212697e-04 
-2.470987176264e-05 -2.774259717146e-03 0.0 
-2.774259717146e-03 1.827411113102e-03 0.0 
0.0 0.0 -7.725862462883e-04 
2.168591650758e-04 -2.749464912916e-03 0.0 
-2.749464912916e-03 1.402707795240e-03 0.0 
0.0 0.0 -6.941001258497e-04 
-2.655633051019e-04 -2.700896907473e-03 0.0 
-2.700896907473e-03 2.263406073752e-03 0.0 
0.0 0.0 -8.562183294215e-04 
-3.538412369767e-04 -2.807118068406e-03 0.0 
-2.807118068406e-03 2.524613030834e-03 0.0 
0.0 0.0 -9.303307687962e-04 
-2.182790499822e-04 -2.492668770886e-03 0.0 
-2.492668770886e-03 2.032114690057e-03 0.0 
0.0 0.0 -7.773581314605e-04 
-4.250446102995e-04 -2.387105800852e-03 0.0 
-2.387105800852e-03 2.436232383686e-03 0.0 
0.0 0.0 -8.619376171656e-04 
-3.808762253420e-04 -2.140229309317e-03 0.0 
-2.140229309317e-03 2.184406533220e-03 0.0 
0.0 0.0 -7.729415605190e-04 
1.763159166294e-03 2.932701492782e-03 0.0 
2.932701492782e-03 -2.697944395366e-04 0.0 
0.0 0.0 -6.400134543247e-04 
-1.088844513542e-03 3.301377294412e-03 0.0 
3.301377294412e-03 4.460583281383e-03 0.0 
0.0 0.0 -9.751682721562e-04 
-5.557439599788e-04 -2.010376698230e-03 0.0 
-2.010376698230e-03 2.553174357475e-03 0.0 
0.0 0.0 -8.560415989269e-04 
-5.027177784437e-04 -1.739983302349e-03 0.0 
-1.739983302349e-03 2.268016728775e-03 0.0 
0.0 0.0 -7.565566929991e-04 
-3.487326511453e-04 -1.851839421592e-03 0.0 
-1.851839421592e-03 1.937346492323e-03 0.0 
0.0 0.0 -6.808345033620e-04 
-4.519877827048e-04 -1.437771514004e-03 0.0 
-1.437771514004e-03 1.973465387895e-03 0.0 
0.0 0.0 -6.520618307959e-04 
-1.774841257907e-03 1.527132807035e-03 0.0 
1.527132807035e-03 5.918357799879e-03 0.0 
0.0 0.0 -9.126358703463e-04 
-1.762808846704e-03 1.694088373988e-03 0.0 
1.694088373988e-03 6.266633471383e-03 0.0 
0.0 0.0 -9.772611937912e-04 
-1.774288393461e-03 1.442569390130e-03 0.0 
1.442569390130e-03 6.194015386497e-03 0.0 
0.0 0.0 -9.468612964576e-04 
-1.759396418391e-03 1.612723129842e-03 0.0 
1.612723129842e-03 6.563174828670e-03 0.0 
0.0 0.0 -1.012955122490e-03 
-1.767929614200e-03 1.376342917300e-03 0.0 
1.376342917300e-03 6.485124768915e-03 0.0 
0.0 0.0 -9.835180958883e-04 
-5.788967960072e-04 -1.335257077215e-03 0.0 
-1.335257077215e-03 2.277225899990e-03 0.0 
0.0 0.0 -7.256352817785e-04 
-1.603689512328e-03 2.493470387195e-03 0.0 
2.493470387195e-03 5.946173640174e-03 0.0 
0.0 0.0 -1.026687169009e-03 
-1.736212695290e-03 1.850044700733e-03 0.0 
1.850044700733e-03 6.615422803056e-03 0.0 
0.0 0.0 -1.042264213861e-03 
-7.638319934371e-04 3.223456733069e-03 0.0 
3.223456733069e-03 3.455847564200e-03 0.0 
0.0 0.0 -9.409285294772e-04 
3.366430025168e-04 3.397992003127e-03 0.0 
3.397992003127e-03 1.628840077963e-03 0.0 
0.0 0.0 -8.423498916340e-04 
2.156368313925e-03 8.947959957603e-04 0.0 
8.947959957603e-04 -1.035979942615e-03 0.0 
0.0 0.0 -4.801664448473e-04 
-6.227154585167e-04 -2.198002757365e-03 0.0 
-2.198002757365e-03 2.831211668969e-03 0.0 
0.0 0.0 -9.464983759081e-04 
-7.218347779198e-04 -1.819122893170e-03 0.0 
-1.819122893170e-03 2.913297155100e-03 0.0 
0.0 0.0 -9.383242106009e-04 
-8.133368797394e-04 -1.945809227020e-03 0.0 
-1.945809227020e-03 3.204453228297e-03 0.0 
0.0 0.0 -1.004955155493e-03 
2.358180408842e-04 -3.147007717197e-03 0.0 
-3.147007717197e-03 1.628184027877e-03 0.0 
0.0 0.0 -7.988580294692e-04 
-1.225410220003e-04 -3.166679032327e-03 0.0 
-3.166679032327e-03 2.260222165472e-03 0.0 
0.0 0.0 -9.088386183890e-04 
-3.596074933626e-05 -3.143460862446e-03 0.0 
-3.143460862446e-03 2.089404171616e-03 0.0 
0.0 0.0 -8.720661220001e-04 
-3.940691537939e-04 -3.066493924859e-03 0.0 
-3.066493924859e-03 2.736277962959e-03 0.0 
0.0 0.0 -9.548449181928e-04 
-3.127433245065e-04 -2.982699423106e-03 0.0 
-2.982699423106e-03 2.620883950583e-03 0.0 
0.0 0.0 -9.363521337227e-04 
-6.475470341843e-04 -2.849005951016e-03 0.0 
-2.849005951016e-03 3.244198139691e-03 0.0 
0.0 0.0 -9.829094188347e-04 
-7.290342086422e-04 -2.890946438125e-03 0.0 
-2.890946438125e-03 3.342200867435e-03 0.0 
0.0 0.0 -9.972914379494e-04 
-9.540874880885e-04 -2.660066281729e-03 0.0 
-2.660066281729e-03 3.821872870679e-03 0.0 
0.0 0.0 -1.003716470558e-03 
-1.033871380646e-03 -2.655311578103e-03 0.0 
-2.655311578103e-03 3.899288306138e-03 0.0 
0.0 0.0 -1.010717982506e-03 
-5.020318707035e-04 -2.652589391131e-03 0.0 
-2.652589391131e-03 3.162848563043e-03 0.0 
0.0 0.0 -1.000386703517e-03 
-1.738328040713e-04 -2.716917287151e-03 0.0 
-2.716917287151e-03 2.542650585114e-03 0.0 
0.0 0.0 -9.561072799058e-04 
-1.217140716833e-03 -2.433745842754e-03 0.0 
-2.433745842754e-03 4.355239653684e-03 0.0 
0.0 0.0 -1.026468870702e-03 
-1.301004518180e-03 -2.384512482324e-03 0.0 
-2.384512482324e-03 4.413129634354e-03 0.0 
0.0 0.0 -1.025303715086e-03 
-1.433223260983e-03 -2.180723409209e-03 0.0 
-2.180723409209e-03 4.841898264917e-03 0.0 
0.0 0.0 -1.051254241329e-03 
-1.533782143048e-03 -2.096001782913e-03 0.0 
-2.096001782913e-03 4.882119290392e-03 0.0 
0.0 0.0 -1.038917832539e-03 
-1.344970022650e-03 -2.253929758585e-03 0.0 
-2.253929758585e-03 4.461736113479e-03 0.0 
0.0 0.0 -1.037516479237e-03 
-1.569102967331e-03 -1.933831873179e-03 0.0 
-1.933831873179e-03 4.899834166201e-03 0.0 
0.0 0.0 -1.046305699947e-03 
-1.376153231101e-03 -2.066079550050e-03 0.0 
-2.066079550050e-03 4.500968763913e-03 0.0 
0.0 0.0 -1.050803148915e-03 
1.947540486422e-03 2.152880942579e-04 0.0 
2.152880942579e-04 -9.005037723215e-04 0.0 
0.0 0.0 -4.487300203286e-04 
1.680967532914e-03 9.207071897223e-04 0.0 
9.207071897223e-04 -5.014207716637e-04 0.0 
0.0 0.0 -5.055200405360e-04 
1.438850481880e-03 2.016578593639e-04 0.0 
2.016578593639e-04 -1.625086232559e-04 0.0 
0.0 0.0 -5.470036536960e-04 
1.202172879279e-03 8.527240019949e-04 0.0 
8.527240019949e-04 3.828898779410e-04 0.0 
0.0 0.0 -6.793126102372e-04 
1.037530362003e-03 2.011510087903e-04 0.0 
2.011510087903e-04 7.506062236288e-04 0.0 
0.0 0.0 -7.663442509849e-04 
8.675854264309e-04 7.587081521114e-04 0.0 
7.587081521114e-04 1.231843798103e-03 0.0 
0.0 0.0 -8.979051750036e-04 
7.349701041777e-04 2.153247329944e-04 0.0 
2.153247329944e-04 1.546423059999e-03 0.0 
0.0 0.0 -9.701408636527e-04 
8.610381847209e-04 -3.526591051395e-04 0.0 
-3.526591051395e-04 1.156465632251e-03 0.0 
0.0 0.0 -8.646444929881e-04 
-1.453224264520e-03 2.831768754596e-03 0.0 
2.831768754596e-03 5.484804576212e-03 0.0 
0.0 0.0 -1.018102500310e-03 
3.008867090267e-03 1.058367247789e-03 0.0 
1.058367247789e-03 -1.343458179845e-03 0.0 
0.0 0.0 -7.137466758949e-04 
2.853497805066e-03 1.766083769912e-03 0.0 
1.766083769912e-03 -1.173072932721e-03 0.0 
0.0 0.0 -7.201820881480e-04 
3.053541270561e-03 1.142570270594e-03 0.0 
1.142570270594e-03 -1.348374367158e-03 0.0 
0.0 0.0 -7.307858157443e-04 
2.838618046953e-03 1.876649797015e-03 0.0 
1.876649797015e-03 -1.126367864291e-03 0.0 
0.0 0.0 -7.338215068551e-04 
2.971080593981e-03 1.270655419308e-03 0.0 
1.270655419308e-03 -1.289312095888e-03 0.0 
0.0 0.0 -7.207579277541e-04 
2.719217330289e-03 2.056721202716e-03 0.0 
2.056721202716e-03 -1.037451596634e-03 0.0 
0.0 0.0 -7.207567429950e-04 
2.772942118414e-03 1.411962470906e-03 0.0 
1.411962470906e-03 -1.228640855760e-03 0.0 
0.0 0.0 -6.618433982802e-04 
2.936188635973e-03 5.059698955333e-04 0.0 
5.059698955333e-04 -1.379043216914e-03 0.0 
0.0 0.0 -6.673480367399e-04 
2.617932977065e-03 5.853697332861e-04 0.0 
5.853697332861e-04 -1.334188021617e-03 0.0 
0.0 0.0 -5.501764094776e-04 
2.753067280877e-03 -3.549983010408e-04 0.0 
-3.549983010408e-04 -1.367545839080e-03 0.0 
0.0 0.0 -5.937949036274e-04 
2.283697930113e-03 -2.688909952497e-04 0.0 
-2.688909952497e-04 -1.277221164065e-03 0.0 
0.0 0.0 -4.313471854492e-04 
2.525026440165e-03 -1.212492314672e-03 0.0 
-1.212492314672e-03 -1.245102357231e-03 0.0 
0.0 0.0 -5.485388926860e-04 
-1.241644147846e-04 3.665257049786e-03 0.0 
3.665257049786e-03 2.568141902724e-03 0.0 
0.0 0.0 -9.405629120884e-04 
9.458807958305e-04 1.361774924333e-03 0.0 
1.361774924333e-03 9.904922510770e-04 0.0 
0.0 0.0 -8.298741629604e-04 
6.513001348098e-04 1.229100697752e-03 0.0 
1.229100697752e-03 1.753882193068e-03 0.0 
0.0 0.0 -9.993981362447e-04 
6.963768604448e-04 1.772072157614e-03 0.0 
1.772072157614e-03 1.581186938205e-03 0.0 
0.0 0.0 -9.522937794042e-04 
-3.189420848090e-04 -1.545020922433e-03 0.0 
-1.545020922433e-03 1.685829119162e-03 0.0 
0.0 0.0 -5.858087290083e-04 
-1.729227017080e-03 -1.797597956290e-03 0.0 
-1.797597956290e-03 5.304685395965e-03 0.0 
0.0 0.0 -1.052155339158e-03 
-3.558894212413e-04 -2.357175527876e-03 0.0 
-2.357175527876e-03 3.123019306479e-03 0.0 
0.0 0.0 -1.032922975483e-03 
-3.685387661375e-05 -2.333297789804e-03 0.0 
-2.333297789804e-03 2.519376975604e-03 0.0 
0.0 0.0 -9.972889278909e-04 
5.502284084495e-04 -2.540944922989e-04 0.0 
-2.540944922989e-04 1.932880194956e-03 0.0 
0.0 0.0 -1.036234461364e-03 
-5.051250462252e-04 -1.053858961610e-03 0.0 
-1.053858961610e-03 1.923683454344e-03 0.0 
0.0 0.0 -5.970694122200e-04 
2.486914527932e-03 2.192796758779e-03 0.0 
2.192796758779e-03 -9.291035182538e-04 0.0 
0.0 0.0 -6.676332898623e-04 
2.328692636026e-03 2.634849956172e-03 0.0 
2.634849956172e-03 -6.738088910714e-04 0.0 
0.0 0.0 -7.092358906949e-04 
-1.744623678677e-03 1.540348128746e-03 0.0 
1.540348128746e-03 6.846449706807e-03 0.0 
0.0 0.0 -1.048874596840e-03 
-1.750773001735e-03 1.319704536713e-03 0.0 
1.319704536713e-03 6.756146718387e-03 0.0 
0.0 0.0 -1.019458214591e-03 
-2.480160767706e-04 -2.004916630844e-03 0.0 
-2.004916630844e-03 3.137306023889e-03 0.0 
0.0 0.0 -1.070157681403e-03 
-6.234076530390e-04 -9.645286907226e-04 0.0 
-9.645286907226e-04 2.209865459266e-03 0.0 
0.0 0.0 -6.466873288763e-04 
-1.068414060457e-03 -2.374253472806e-03 0.0 
-2.374253472806e-03 4.293485734694e-03 0.0 
0.0 0.0 -1.053463316161e-03 
2.067995625182e-03 6.451329218673e-04 0.0 
6.451329218673e-04 -1.186041327943e-03 0.0 
0.0 0.0 -3.779804131024e-04 
-1.762784595192e-03 -1.607331333857e-03 0.0 
-1.607331333857e-03 5.293267446583e-03 0.0 
0.0 0.0 -1.053563116650e-03 
-1.867913240625e-03 -1.489305966451e-03 0.0 
-1.489305966451e-03 5.673891533939e-03 0.0 
0.0 0.0 -1.070920355653e-03 
-7.933761041048e-04 -2.832720245216e-03 0.0 
-2.832720245216e-03 3.452224715287e-03 0.0 
0.0 0.0 -1.021320298254e-03 
4.031722277788e-04 1.617631885485e-03 0.0 
1.617631885485e-03 2.296315845658e-03 0.0 
0.0 0.0 -1.069468904140e-03 
4.279180701410e-04 2.089566425205e-03 0.0 
2.089566425205e-03 2.165414708705e-03 0.0 
0.0 0.0 -1.033921039166e-03 
2.748961671600e-03 -1.234973564708e-03 0.0 
-1.234973564708e-03 -1.253110519415e-03 0.0 
0.0 0.0 -6.410790652217e-04 
2.518060065866e-03 -2.059438322562e-03 0.0 
-2.059438322562e-03 -1.018220698221e-03 0.0 
0.0 0.0 -6.427883004194e-04 
2.357888963389e-03 -2.118209179973e-03 0.0 
-2.118209179973e-03 -9.914742540871e-04 0.0 
0.0 0.0 -5.856063039867e-04 
2.191323313200e-03 -2.728758808394e-03 0.0 
-2.728758808394e-03 -6.479650369089e-04 0.0 
0.0 0.0 -6.614392612675e-04 
2.278763046571e-03 -2.578114575528e-03 0.0 
-2.578114575528e-03 -7.103706415061e-04 0.0 
0.0 0.0 -6.721681735992e-04 
1.895457018917e-03 -3.007528799367e-03 0.0 
-3.007528799367e-03 -3.206537863592e-04 0.0 
0.0 0.0 -6.749156710960e-04 
1.780393766489e-03 -3.161947930664e-03 0.0 
-3.161947930664e-03 -1.991738640969e-04 0.0 
0.0 0.0 -6.776656724536e-04 
1.498218282607e-03 -3.239267173229e-03 0.0 
-3.239267173229e-03 1.323736015907e-04 0.0 
0.0 0.0 -6.988250932278e-04 
1.538218957511e-03 -3.082075736210e-03 0.0 
-3.082075736210e-03 7.246781046852e-07 0.0 
0.0 0.0 -6.595472724067e-04 
1.116756184221e-03 -3.039153293536e-03 0.0 
-3.039153293536e-03 4.098621490744e-04 0.0 
0.0 0.0 -6.542649999838e-04 
9.813252680918e-04 -2.956617965048e-03 0.0 
-2.956617965048e-03 5.482338783846e-04 0.0 
0.0 0.0 -6.555253484899e-04 
6.892512545273e-04 -2.715436424775e-03 0.0 
-2.715436424775e-03 7.414890539001e-04 0.0 
0.0 0.0 -6.131744178975e-04 
-1.739487401810e-03 -1.643308528611e-03 0.0 
-1.643308528611e-03 5.674904400731e-03 0.0 
0.0 0.0 -1.101875158976e-03 
1.625849311047e-03 -1.683389643306e-04 0.0 
-1.683389643306e-04 -1.097136295050e-03 0.0 
0.0 0.0 -2.265912925700e-04 
-1.396148361601e-03 2.647702035806e-03 0.0 
2.647702035806e-03 4.519072400057e-03 0.0 
0.0 0.0 -8.810844588398e-04 
-5.349333944456e-04 -2.056134526959e-03 0.0 
-2.056134526959e-03 3.696128141265e-03 0.0 
0.0 0.0 -1.099012274073e-03 
4.001314244547e-04 2.494511169208e-04 0.0 
2.494511169208e-04 2.291122324032e-03 0.0 
0.0 0.0 -1.088453095952e-03 
-1.720074879915e-03 1.479198222822e-03 0.0 
1.479198222822e-03 7.120039440071e-03 0.0 
0.0 0.0 -1.085032576515e-03 
-1.727265597861e-03 1.269164868262e-03 0.0 
1.269164868262e-03 7.020339379643e-03 0.0 
0.0 0.0 -1.055603631703e-03 
-1.745923234167e-03 1.117194505061e-03 0.0 
1.117194505061e-03 6.644193117880e-03 0.0 
0.0 0.0 -9.897378988699e-04 
-1.726111739886e-03 1.073003689324e-03 0.0 
1.073003689324e-03 6.905750690588e-03 0.0 
0.0 0.0 -1.026001677571e-03 
-1.697815529865e-03 1.216597394983e-03 0.0 
1.216597394983e-03 7.279055033116e-03 0.0 
0.0 0.0 -1.091942449670e-03 
-1.699755368788e-03 1.027337857590e-03 0.0 
1.027337857590e-03 7.158023142695e-03 0.0 
0.0 0.0 -1.062342898562e-03 
-1.716352618538e-03 8.878056221667e-04 0.0 
8.878056221667e-04 6.774679391188e-03 0.0 
0.0 0.0 -9.962627399151e-04 
-1.692178280540e-03 8.508470267666e-04 0.0 
8.508470267666e-04 7.019991579685e-03 0.0 
0.0 0.0 -1.032646955902e-03 
-1.695660932446e-03 7.184317155414e-04 0.0 
7.184317155414e-04 6.625583462411e-03 0.0 
0.0 0.0 -9.664557332607e-04 
-1.677486126932e-03 6.911180295046e-04 0.0 
6.911180295046e-04 6.868534941944e-03 0.0 
0.0 0.0 -1.002889032254e-03 
-1.663620555798e-03 8.098065595925e-04 0.0 
8.098065595925e-04 7.259384762552e-03 0.0 
0.0 0.0 -1.069134413525e-03 
-1.655525420696e-03 6.533870042141e-04 0.0 
6.533870042141e-04 7.107625883104e-03 0.0 
0.0 0.0 -1.039387411609e-03 
-1.659615819212e-03 5.491873914478e-04 0.0 
5.491873914478e-04 6.708579784798e-03 0.0 
0.0 0.0 -9.730575354659e-04 
-1.642941155605e-03 5.125241071205e-04 0.0 
5.125241071205e-04 6.945188648216e-03 0.0 
0.0 0.0 -1.009574527126e-03 
-1.637255380195e-03 4.205204331053e-04 0.0 
4.205204331053e-04 6.536272510904e-03 0.0 
0.0 0.0 -9.431603702596e-04 
-1.623420800787e-03 3.856837058294e-04 0.0 
3.856837058294e-04 6.767271635738e-03 0.0 
0.0 0.0 -9.796061197752e-04 
-1.622026920778e-03 4.757000201370e-04 0.0 
4.757000201370e-04 7.177981971167e-03 0.0 
0.0 0.0 -1.046101832713e-03 
-5.260638759536e-04 -7.746154698035e-04 0.0 
-7.746154698035e-04 1.804698088172e-03 0.0 
0.0 0.0 -4.826019863697e-04 
6.384355500235e-04 -8.071467030727e-04 0.0 
-8.071467030727e-04 1.625869863801e-03 0.0 
0.0 0.0 -9.660701661439e-04 
3.155700960172e-04 -6.399278427758e-04 0.0 
-6.399278427758e-04 2.369342842803e-03 0.0 
0.0 0.0 -1.083831836676e-03 
-8.892645420983e-04 -1.589464053846e-03 0.0 
-1.589464053846e-03 3.243112049151e-03 0.0 
0.0 0.0 -9.683295300234e-04 
-9.893521759344e-04 -1.650588191873e-03 0.0 
-1.650588191873e-03 3.517832807879e-03 0.0 
0.0 0.0 -1.010934236754e-03 
-9.339052402119e-04 -1.988561699477e-03 0.0 
-1.988561699477e-03 3.508091553521e-03 0.0 
0.0 0.0 -1.041462402745e-03 
-1.131758993546e-03 -1.657762215853e-03 0.0 
-1.657762215853e-03 3.856452720899e-03 0.0 
0.0 0.0 -1.033211989474e-03 
-1.610140258144e-03 3.510578464752e-04 0.0 
3.510578464752e-04 7.002203508451e-03 0.0 
0.0 0.0 -1.015477767897e-03 
-1.603569950634e-03 4.323698609735e-04 0.0 
4.323698609735e-04 7.406712470395e-03 0.0 
0.0 0.0 -1.082739357160e-03 
2.075859047304e-03 2.734073794279e-03 0.0 
2.734073794279e-03 -5.151566843200e-04 0.0 
0.0 0.0 -6.688724412789e-04 
1.829803788864e-03 2.896630922712e-03 0.0 
2.896630922712e-03 -2.437374272620e-04 0.0 
0.0 0.0 -6.797427264007e-04 
-1.702624885041e-03 1.699730791061e-03 0.0 
1.699730791061e-03 7.199957864770e-03 0.0 
0.0 0.0 -1.114382729655e-03 
-1.921178658721e-03 -1.279150328982e-03 0.0 
-1.279150328982e-03 5.641022297000e-03 0.0 
0.0 0.0 -1.061085778683e-03 
-1.759404772593e-03 -1.368797781515e-03 0.0 
-1.368797781515e-03 5.258990087990e-03 0.0 
0.0 0.0 -1.062669991958e-03 
6.091469494368e-04 3.201234470351e-03 0.0 
3.201234470351e-03 1.145920310691e-03 0.0 
0.0 0.0 -7.521716829121e-04 
3.812479400786e-04 3.221138826746e-03 0.0 
3.221138826746e-03 1.454024134529e-03 0.0 
0.0 0.0 -7.865451748317e-04 
6.223231318809e-04 3.034958604236e-03 0.0 
3.034958604236e-03 1.026602646357e-03 0.0 
0.0 0.0 -7.066824763876e-04 
3.755190555598e-04 3.004529260336e-03 0.0 
3.004529260336e-03 1.328866931440e-03 0.0 
0.0 0.0 -7.304511372856e-04 
1.504650344152e-04 3.149504562038e-03 0.0 
3.149504562038e-03 1.760988080228e-03 0.0 
0.0 0.0 -8.191941919899e-04 
5.829936888595e-04 2.805741157272e-03 0.0 
2.805741157272e-03 9.386435949221e-04 0.0 
0.0 0.0 -6.521302644778e-04 
1.691581229929e-04 -2.698724546406e-03 0.0 
-2.698724546406e-03 1.880405331260e-03 0.0 
0.0 0.0 -8.664312523603e-04 
-1.632170864774e-03 7.587389543785e-04 0.0 
7.587389543785e-04 7.494664304375e-03 0.0 
0.0 0.0 -1.105708206284e-03 
-1.867627977739e-04 -1.946982532398e-03 0.0 
-1.946982532398e-03 1.623581017794e-03 0.0 
0.0 0.0 -6.157792371515e-04 
-1.766459924498e-04 -1.658792918857e-03 0.0 
-1.658792918857e-03 1.424250676640e-03 0.0 
0.0 0.0 -5.346877217957e-04 
-1.953846352874e-03 -1.181006378595e-03 0.0 
-1.181006378595e-03 5.993034579258e-03 0.0 
0.0 0.0 -1.094582683422e-03 
9.227653006670e-04 -9.923042472365e-04 0.0 
-9.923042472365e-04 8.348026981178e-04 0.0 
0.0 0.0 -7.532434280506e-04 
-4.484070588213e-04 3.613794165219e-03 0.0 
3.613794165219e-03 3.179623750880e-03 0.0 
0.0 0.0 -9.533529749162e-04 
-2.780489895403e-04 3.528284248772e-03 0.0 
3.528284248772e-03 2.993445099109e-03 0.0 
0.0 0.0 -9.681750457242e-04 
-5.507055311170e-04 3.446174456380e-03 0.0 
3.446174456380e-03 3.597530854088e-03 0.0 
0.0 0.0 -9.957130113267e-04 
-3.863084581791e-04 3.307385071573e-03 0.0 
3.307385071573e-03 3.448440357162e-03 0.0 
0.0 0.0 -1.023751803962e-03 
-6.300320690614e-04 3.259070928407e-03 0.0 
3.259070928407e-03 4.039542678780e-03 0.0 
0.0 0.0 -1.059873349132e-03 
-5.085717340789e-04 3.118830500926e-03 0.0 
3.118830500926e-03 3.927747937877e-03 0.0 
0.0 0.0 -1.087854580038e-03 
-2.514557000785e-04 3.100269023384e-03 0.0 
3.100269023384e-03 3.340960341130e-03 0.0 
0.0 0.0 -1.051791170495e-03 
1.399069373120e-04 1.939674922792e-03 0.0 
1.939674922792e-03 2.839420856551e-03 0.0 
0.0 0.0 -1.107463318235e-03 
-4.186704419438e-04 2.922768790841e-03 0.0 
2.922768790841e-03 3.866682433006e-03 0.0 
0.0 0.0 -1.115916943430e-03 
-1.595806012880e-03 2.986475684988e-04 0.0 
2.986475684988e-04 6.569860539438e-03 0.0 
0.0 0.0 -9.487150400336e-04 
9.874874757951e-04 2.001023480651e-03 0.0 
2.001023480651e-03 8.096298849095e-04 0.0 
0.0 0.0 -7.701931545877e-04 
1.099587361542e-03 -2.883577329194e-03 0.0 
-2.883577329194e-03 3.196281228081e-04 0.0 
0.0 0.0 -6.082352075787e-04 
-4.120182269500e-04 -8.254968701079e-04 0.0 
-8.254968701079e-04 1.533206618467e-03 0.0 
0.0 0.0 -4.510100977180e-04 
5.592980566656e-04 -2.545612127290e-03 0.0 
-2.545612127290e-03 8.296765578219e-04 0.0 
0.0 0.0 -5.952748347803e-04 
-6.262840441887e-04 -6.448010795071e-04 0.0 
-6.448010795071e-04 2.035833554771e-03 0.0 
0.0 0.0 -5.222488353909e-04 
-7.319508735308e-04 -8.428934672220e-04 0.0 
-8.428934672220e-04 2.464651158961e-03 0.0 
0.0 0.0 -6.822577977165e-04 
-4.713603530403e-04 -1.760178858830e-03 0.0 
-1.760178858830e-03 3.749274242464e-03 0.0 
0.0 0.0 -1.136360603439e-03 
-7.414846696447e-04 3.136821301181e-03 0.0 
3.136821301181e-03 4.510208953631e-03 0.0 
0.0 0.0 -1.124065295910e-03 
-8.446432131550e-04 3.218211498406e-03 0.0 
3.218211498406e-03 4.600039828402e-03 0.0 
0.0 0.0 -1.095615423988e-03 
1.374965702112e-04 2.907969111804e-03 0.0 
2.907969111804e-03 1.629175485309e-03 0.0 
0.0 0.0 -7.571451666514e-04 
-7.702727876907e-05 2.968579821374e-03 0.0 
2.968579821374e-03 2.049330152496e-03 0.0 
0.0 0.0 -8.452726601685e-04 
8.289727363508e-05 1.511362000005e-03 0.0 
1.511362000005e-03 2.985439199539e-03 0.0 
0.0 0.0 -1.136278651916e-03 
-1.765237675762e-03 1.222407657091e-03 0.0 
1.222407657091e-03 6.114667953270e-03 0.0 
0.0 0.0 -9.177848451843e-04 
-1.710580504207e-03 7.440398052567e-04 0.0 
7.440398052567e-04 6.380060456859e-03 0.0 
0.0 0.0 -9.302130594432e-04 
-1.676565589941e-03 5.872598873801e-04 0.0 
5.872598873801e-04 6.215440748447e-03 0.0 
0.0 0.0 -9.001900590098e-04 
-3.803857748505e-04 -5.434049098283e-04 0.0 
-5.434049098283e-04 1.471759670645e-03 0.0 
0.0 0.0 -3.494697005546e-04 
7.568627899495e-04 -2.787918667943e-03 0.0 
-2.787918667943e-03 7.221354992753e-04 0.0 
0.0 0.0 -6.338564096678e-04 
-1.662120244785e-03 1.162296850059e-03 0.0 
1.162296850059e-03 7.529797322482e-03 0.0 
0.0 0.0 -1.128363834889e-03 
2.037234962576e-03 2.841104701767e-03 0.0 
2.841104701767e-03 -4.145658898484e-04 0.0 
0.0 0.0 -6.954296025976e-04 
1.531315725723e-03 2.908052614029e-03 0.0 
2.908052614029e-03 2.448474694819e-06 0.0 
0.0 0.0 -6.573275144647e-04 
1.261589428094e-03 6.096704043663e-04 0.0 
6.096704043663e-04 -9.183369249884e-04 0.0 
0.0 0.0 -1.471082156167e-04 
7.631106832774e-04 -7.208428592914e-05 0.0 
-7.208428592914e-05 -6.801595576129e-04 0.0 
0.0 0.0 -3.555048242768e-05 
-1.589929625905e-03 3.288854672539e-04 0.0 
3.288854672539e-04 7.214274616426e-03 0.0 
0.0 0.0 -1.051814883004e-03 
-1.572388470156e-03 3.792019312018e-04 0.0 
3.792019312018e-04 7.619653826889e-03 0.0 
0.0 0.0 -1.117859435171e-03 
-1.078769339999e-03 -1.982110544533e-03 0.0 
-1.982110544533e-03 3.829235274235e-03 0.0 
0.0 0.0 -1.051224796075e-03 
-1.274189695606e-03 -1.627447894412e-03 0.0 
-1.627447894412e-03 4.185605639052e-03 0.0 
0.0 0.0 -1.050863174419e-03 
-1.969895269108e-04 -1.624325261337e-03 0.0 
-1.624325261337e-03 3.218036131210e-03 0.0 
0.0 0.0 -1.107558395918e-03 
3.636511301315e-04 -2.361072158115e-03 0.0 
-2.361072158115e-03 9.584204304499e-04 0.0 
0.0 0.0 -5.666020973920e-04 
-1.569287665322e-03 4.982993919659e-04 0.0 
4.982993919659e-04 7.796117196338e-03 0.0 
0.0 0.0 -1.149181664990e-03 
6.559202405712e-04 -1.403190814261e-03 0.0 
-1.403190814261e-03 1.391837788957e-03 0.0 
0.0 0.0 -8.776105840836e-04 
9.173022590222e-04 -1.676640049954e-03 0.0 
-1.676640049954e-03 6.107363237665e-04 0.0 
0.0 0.0 -6.548736783380e-04 
-1.171879392758e-03 -1.281686817317e-03 0.0 
-1.281686817317e-03 3.846852730435e-03 0.0 
0.0 0.0 -1.001803992689e-03 
1.504150752549e-03 2.803418453549e-03 0.0 
2.803418453549e-03 -4.311377337536e-05 0.0 
0.0 0.0 -6.261587053603e-04 
1.650316852641e-03 2.671963168056e-03 0.0 
2.671963168056e-03 -3.170419596538e-04 0.0 
0.0 0.0 -5.714035255658e-04 
1.466801754994e-03 -2.835534920743e-03 0.0 
-2.835534920743e-03 -6.856056088169e-05 0.0 
0.0 0.0 -5.992462260482e-04 
4.198225928608e-04 -2.489806032447e-03 0.0 
-2.489806032447e-03 9.452515050113e-04 0.0 
0.0 0.0 -5.850317562309e-04 
-7.228005656972e-04 -5.488391732617e-04 0.0 
-5.488391732617e-04 2.276834511977e-03 0.0 
0.0 0.0 -5.562745863746e-04 
-4.637036380639e-04 -1.428624458379e-03 0.0 
-1.428624458379e-03 3.853108176796e-03 0.0 
0.0 0.0 -1.173829981771e-03 
-1.646663843551e-03 1.358180133252e-03 0.0 
1.358180133252e-03 7.637691352308e-03 0.0 
0.0 0.0 -1.157575248917e-03 
-1.588531343900e-04 2.821657521555e-03 0.0 
2.821657521555e-03 3.283406077172e-03 0.0 
0.0 0.0 -1.080172819833e-03 
2.446831455112e-05 3.060603850123e-03 0.0 
3.060603850123e-03 2.728589719442e-03 0.0 
0.0 0.0 -1.015677837919e-03 
-3.660685555016e-04 2.667845735617e-03 0.0 
2.667845735617e-03 3.843962247037e-03 0.0 
0.0 0.0 -1.144955025780e-03 
2.673047132891e-04 -2.137865757300e-03 0.0 
-2.137865757300e-03 9.516698016607e-04 0.0 
0.0 0.0 -5.224176492642e-04 
-7.311483308604e-04 -1.856928531792e-03 0.0 
-1.856928531792e-03 4.285424001286e-03 0.0 
0.0 0.0 -1.165794428787e-03 
-2.038713827362e-03 -9.521744761757e-04 0.0 
-9.521744761757e-04 5.942161280998e-03 0.0 
0.0 0.0 -1.070719593515e-03 
-9.487823984943e-04 3.179202297983e-03 0.0 
3.179202297983e-03 5.046317585578e-03 0.0 
0.0 0.0 -1.157598467365e-03 
-1.028189826122e-03 3.189698687636e-03 0.0 
3.189698687636e-03 5.131498804919e-03 0.0 
0.0 0.0 -1.131219827106e-03 
1.693489723556e-03 2.912737131245e-03 0.0 
2.912737131245e-03 -1.493629984725e-04 0.0 
0.0 0.0 -6.617685964645e-04 
1.185947765099e-03 2.829659806798e-03 0.0 
2.829659806798e-03 2.506006467406e-04 0.0 
0.0 0.0 -6.156636050741e-04 
1.024663306531e-03 2.720941116212e-03 0.0 
2.720941116212e-03 3.858661710823e-04 0.0 
0.0 0.0 -6.045126332627e-04 
7.581467413336e-04 2.629057648791e-03 0.0 
2.629057648791e-03 6.283993164515e-04 0.0 
0.0 0.0 -5.942340247651e-04 
-1.648477658061e-03 2.188124378807e-03 0.0 
2.188124378807e-03 4.981950326516e-03 0.0 
0.0 0.0 -8.520119503206e-04 
1.288363213325e-03 2.918108490938e-03 0.0 
2.918108490938e-03 1.603315013667e-04 0.0 
0.0 0.0 -6.208691634391e-04 
-1.164374950017e-03 2.801514945082e-03 0.0 
2.801514945082e-03 4.086272555253e-03 0.0 
0.0 0.0 -8.983830653277e-04 
-1.269722602642e-03 2.487508477755e-03 0.0 
2.487508477755e-03 4.199128990551e-03 0.0 
0.0 0.0 -8.736227209573e-04 
-1.046332524412e-03 2.638264182984e-03 0.0 
2.638264182984e-03 3.789437134256e-03 0.0 
0.0 0.0 -8.954616384525e-04 
-9.535589006008e-05 3.192865815352e-03 0.0 
3.192865815352e-03 2.227004452414e-03 0.0 
0.0 0.0 -9.127067050351e-04 
-3.022280285659e-04 2.955332983640e-03 0.0 
2.955332983640e-03 2.491438051520e-03 0.0 
0.0 0.0 -9.307589223859e-04 
2.556968385694e-03 2.345203577048e-03 0.0 
2.345203577048e-03 -8.968266888023e-04 0.0 
0.0 0.0 -7.114892986678e-04 
1.812389688023e-03 1.564451495357e-03 0.0 
1.564451495357e-03 -6.179615212951e-04 0.0 
0.0 0.0 -5.118977857407e-04 
-8.515674767651e-04 -2.308299700533e-03 0.0 
-2.308299700533e-03 3.434983390257e-03 0.0 
0.0 0.0 -1.054912416397e-03 
-1.137266829401e-03 -2.398619768870e-03 0.0 
-2.398619768870e-03 4.055285407119e-03 0.0 
0.0 0.0 -1.045074301760e-03 
3.367977982503e-04 -3.065748121326e-03 0.0 
-3.065748121326e-03 1.429094799845e-03 0.0 
0.0 0.0 -7.568111134693e-04 
-1.629365191565e-03 9.257695161170e-04 0.0 
9.257695161170e-04 7.634439739813e-03 0.0 
0.0 0.0 -1.135109731873e-03 
-1.590870954180e-03 8.599854275843e-04 0.0 
8.599854275843e-04 7.870981141839e-03 0.0 
0.0 0.0 -1.171938512032e-03 
-1.643416432560e-03 4.449926551975e-04 0.0 
4.449926551975e-04 6.296597502974e-03 0.0 
0.0 0.0 -9.065739516476e-04 
-1.602464872442e-03 3.219184720994e-04 0.0 
3.219184720994e-04 6.108782366366e-03 0.0 
0.0 0.0 -8.764137937918e-04 
-2.696764371388e-04 -1.265861831851e-03 0.0 
-1.265861831851e-03 1.411045974668e-03 0.0 
0.0 0.0 -4.842067647502e-04 
-1.400634450087e-04 -1.409834388031e-03 0.0 
-1.409834388031e-03 1.204297259864e-03 0.0 
0.0 0.0 -4.502468535423e-04 
-2.319199994023e-04 -3.122878098546e-03 0.0 
-3.122878098546e-03 2.451044877422e-03 0.0 
0.0 0.0 -9.437206122825e-04 
-7.988578011231e-04 -2.058259969339e-03 0.0 
-2.058259969339e-03 4.234722114073e-03 0.0 
0.0 0.0 -1.127529358476e-03 
-1.669665556383e-03 1.635524756470e-03 0.0 
1.635524756470e-03 7.469407833496e-03 0.0 
0.0 0.0 -1.150095860580e-03 
-1.643068085807e-03 1.857648967737e-03 0.0 
1.857648967737e-03 7.542411325100e-03 0.0 
0.0 0.0 -1.179372829571e-03 
-1.673921977860e-03 1.925750498755e-03 0.0 
1.925750498755e-03 7.258395415596e-03 0.0 
0.0 0.0 -1.143369325256e-03 
-2.014473825755e-04 -1.218765106027e-03 0.0 
-1.218765106027e-03 3.345673547677e-03 0.0 
0.0 0.0 -1.144273392007e-03 
3.110341159347e-03 3.472939405717e-04 0.0 
3.472939405717e-04 -1.445647776500e-03 0.0 
0.0 0.0 -7.134400212203e-04 
1.600864292633e-03 -4.933060105816e-04 0.0 
-4.933060105816e-04 -5.124875882505e-04 0.0 
0.0 0.0 -4.664471590211e-04 
1.395368066446e-03 -9.561308999161e-04 0.0 
-9.561308999161e-04 -1.034414870566e-03 0.0 
0.0 0.0 -1.546942268056e-04 
3.758232775366e-04 3.466607308548e-03 0.0 
3.466607308548e-03 1.708095271688e-03 0.0 
0.0 0.0 -8.625807428358e-04 
-1.387284875597e-04 -1.147843400141e-03 0.0 
-1.147843400141e-03 1.071097091449e-03 0.0 
0.0 0.0 -3.720583479433e-04 
-1.231098641636e-03 3.135190691380e-03 0.0 
3.135190691380e-03 4.944666622865e-03 0.0 
0.0 0.0 -1.010319580236e-03 
-1.984786992954e-03 -8.733459957740e-04 0.0 
-8.733459957740e-04 6.259759611652e-03 0.0 
0.0 0.0 -1.122815839103e-03 
-1.861926426933e-03 -1.095524342960e-03 0.0 
-1.095524342960e-03 6.311220838631e-03 0.0 
0.0 0.0 -1.159213750608e-03 
-1.725327838232e-04 1.829528703914e-03 0.0 
1.829528703914e-03 3.501045676607e-03 0.0 
0.0 0.0 -1.171959308352e-03 
-1.590101240846e-03 1.706978125594e-03 0.0 
1.706978125594e-03 4.660773429978e-03 0.0 
0.0 0.0 -7.960146267056e-04 
5.073336669335e-04 3.214445659709e-03 0.0 
3.214445659709e-03 1.538412133141e-03 0.0 
0.0 0.0 -8.506774374544e-04 
8.851619009454e-04 2.969244090533e-03 0.0 
2.969244090533e-03 8.376787810317e-04 0.0 
0.0 0.0 -7.383602922759e-04 
-1.156062255108e-03 2.301233915827e-03 0.0 
2.301233915827e-03 3.896290621430e-03 0.0 
0.0 0.0 -8.625652443140e-04 
-9.471297243856e-04 2.440002294532e-03 0.0 
2.440002294532e-03 3.517004994648e-03 0.0 
0.0 0.0 -8.875966840820e-04 
-8.066787093543e-04 2.777426977554e-03 0.0 
2.777426977554e-03 3.370899001042e-03 0.0 
0.0 0.0 -9.244972712473e-04 
-7.192390311965e-04 2.566107428446e-03 0.0 
2.566107428446e-03 3.124935059627e-03 0.0 
0.0 0.0 -9.234394568817e-04 
1.009712769882e-03 -2.639627470040e-03 0.0 
-2.639627470040e-03 3.518698063256e-04 0.0 
0.0 0.0 -5.835353898034e-04 
7.225051380104e-04 -2.634694636205e-03 0.0 
-2.634694636205e-03 6.767854285005e-04 0.0 
0.0 0.0 -5.996959570761e-04 
-8.921567267479e-04 3.111111284804e-03 0.0 
3.111111284804e-03 5.059665355678e-03 0.0 
0.0 0.0 -1.192042136895e-03 
-6.099967263224e-04 2.870760626298e-03 0.0 
2.870760626298e-03 4.411064189710e-03 0.0 
0.0 0.0 -1.178660172201e-03 
-1.100042912757e-03 3.200343520554e-03 0.0 
3.200343520554e-03 5.573219155758e-03 0.0 
0.0 0.0 -1.193029175878e-03 
-1.160667669830e-03 3.176739035806e-03 0.0 
3.176739035806e-03 5.649176834465e-03 0.0 
0.0 0.0 -1.168165168231e-03 
-2.521445186915e-04 1.437999620024e-03 0.0 
1.437999620024e-03 3.663538457504e-03 0.0 
0.0 0.0 -1.200910491468e-03 
-1.175265126893e-05 1.083930210957e-03 0.0 
1.083930210957e-03 3.184478001405e-03 0.0 
0.0 0.0 -1.164168769488e-03 
-8.338945190871e-04 -6.899851568111e-04 0.0 
-6.899851568111e-04 2.693161182237e-03 0.0 
0.0 0.0 -7.014880017679e-04 
-2.848117966112e-04 2.692565546894e-03 0.0 
2.692565546894e-03 2.299445011333e-03 0.0 
0.0 0.0 -8.634142348809e-04 
-1.596224494799e-03 1.291320717670e-03 0.0 
1.291320717670e-03 7.883322151599e-03 0.0 
0.0 0.0 -1.194151889699e-03 
-1.353314944435e-03 2.157291733394e-03 0.0 
2.157291733394e-03 4.270289119183e-03 0.0 
0.0 0.0 -8.433929263471e-04 
-9.622501338421e-04 -1.912189492832e-03 0.0 
-1.912189492832e-03 4.776924830183e-03 0.0 
0.0 0.0 -1.192835421428e-03 
-1.026421419571e-03 -2.028541400734e-03 0.0 
-2.028541400734e-03 4.755168212354e-03 0.0 
0.0 0.0 -1.156047193884e-03 
4.478208592864e-04 -3.751585586859e-04 0.0 
-3.751585586859e-04 -4.241673929217e-04 0.0 
0.0 0.0 -1.013719987055e-05 
1.244125017972e-03 -1.917312666705e-03 0.0 
-1.917312666705e-03 -7.538799606522e-04 0.0 
0.0 0.0 -2.101050245656e-04 
-1.537691014338e-03 4.222863431362e-04 0.0 
4.222863431362e-04 8.020533850651e-03 0.0 
0.0 0.0 -1.184588873336e-03 
6.358527835684e-04 2.480430970654e-03 0.0 
2.480430970654e-03 6.941509382628e-04 0.0 
0.0 0.0 -5.700015950705e-04 
4.499471129459e-04 2.458836012126e-03 0.0 
2.458836012126e-03 9.036367217386e-04 0.0 
0.0 0.0 -5.801073577219e-04 
8.196974528425e-04 2.512758387053e-03 0.0 
2.512758387053e-03 5.135885621210e-04 0.0 
0.0 0.0 -5.714082921272e-04 
-1.721775180469e-03 -2.750261499923e-04 0.0 
-2.750261499923e-04 6.955705942823e-03 0.0 
0.0 0.0 -1.258310293365e-03 
-1.440319018305e-03 2.756393348766e-05 0.0 
2.756393348766e-05 5.261443928406e-03 0.0 
0.0 0.0 -7.479256703001e-04 
-1.851935248777e-03 -8.185806621322e-04 0.0 
-8.185806621322e-04 6.555435669483e-03 0.0 
0.0 0.0 -1.189418985649e-03 
-3.624356194934e-04 3.164434027964e-03 0.0 
3.164434027964e-03 2.710514095153e-03 0.0 
0.0 0.0 -9.658202727595e-04 
-1.517819935298e-03 5.689925216528e-04 0.0 
5.689925216528e-04 8.183121975380e-03 0.0 
0.0 0.0 -1.216510697198e-03 
6.201224625516e-04 2.820752531408e-03 0.0 
2.820752531408e-03 1.452084294343e-03 0.0 
0.0 0.0 -8.651011823288e-04 
9.038760669871e-04 3.026845929911e-03 0.0 
3.026845929911e-03 6.793831834175e-04 0.0 
0.0 0.0 -6.785396787449e-04 
8.674105580954e-05 -1.429107710981e-03 0.0 
-1.429107710981e-03 2.679701546003e-03 0.0 
0.0 0.0 -1.078177493492e-03 
-1.550932841916e-03 2.613354928632e-04 0.0 
2.613354928632e-04 7.825402361396e-03 0.0 
0.0 0.0 -1.149140729088e-03 
-1.512659112896e-03 3.422106709257e-04 0.0 
3.422106709257e-04 8.249752470507e-03 0.0 
0.0 0.0 -1.221625961084e-03 
-1.676659295308e-03 6.110344698925e-04 0.0 
6.110344698925e-04 5.968416883272e-03 0.0 
0.0 0.0 -8.638707813346e-04 
-1.641988205188e-03 4.340588364437e-04 0.0 
4.340588364437e-04 5.771155948817e-03 0.0 
0.0 0.0 -8.327709333130e-04 
-1.719162707249e-03 7.708162564075e-04 0.0 
7.708162564075e-04 6.112617701018e-03 0.0 
0.0 0.0 -8.925140200429e-04 
1.977927820577e-03 1.598623588264e-03 0.0 
1.598623588264e-03 -1.019208972965e-03 0.0 
0.0 0.0 -4.108795061196e-04 
1.108521086627e-03 1.458274724011e-03 0.0 
1.458274724011e-03 -6.824978449185e-04 0.0 
0.0 0.0 -1.825813893037e-04 
-1.599533954581e-03 7.014631110784e-04 0.0 
7.014631110784e-04 7.724369133548e-03 0.0 
0.0 0.0 -1.142090266074e-03 
-7.915237200633e-04 -1.416691550801e-03 0.0 
-1.416691550801e-03 2.916147842675e-03 0.0 
0.0 0.0 -8.917970384883e-04 
-9.526528541598e-04 -1.159662932408e-03 0.0 
-1.159662932408e-03 3.237497577102e-03 0.0 
0.0 0.0 -9.066540859529e-04 
1.679025679155e-04 -2.197795369639e-03 0.0 
-2.197795369639e-03 1.134113528401e-03 0.0 
0.0 0.0 -5.580068984213e-04 
1.993437938488e-04 -2.372930192997e-03 0.0 
-2.372930192997e-03 1.192906332053e-03 0.0 
0.0 0.0 -5.966786253865e-04 
-1.011942446972e-03 -2.270969963916e-03 0.0 
-2.270969963916e-03 3.766401779748e-03 0.0 
0.0 0.0 -1.058899862332e-03 
-7.573046355122e-04 -2.581800115454e-03 0.0 
-2.581800115454e-03 3.322201121737e-03 0.0 
0.0 0.0 -1.050266080739e-03 
-1.095827954621e-03 3.216069521876e-03 0.0 
3.216069521876e-03 4.826499025112e-03 0.0 
0.0 0.0 -1.038692069610e-03 
-1.234301998555e-03 3.107456630916e-03 0.0 
3.107456630916e-03 5.310904523361e-03 0.0 
0.0 0.0 -1.074129358999e-03 
-7.180889207275e-04 3.499463535137e-03 0.0 
3.499463535137e-03 3.763199671929e-03 0.0 
0.0 0.0 -9.722238801078e-04 
6.053063119579e-04 -2.030268547273e-03 0.0 
-2.030268547273e-03 1.237774920504e-03 0.0 
0.0 0.0 -7.898919567692e-04 
8.551862749054e-04 -2.258528060602e-03 0.0 
-2.258528060602e-03 5.423122765455e-04 0.0 
0.0 0.0 -5.989279506218e-04 
1.198969096751e-03 -1.716835984739e-03 0.0 
-1.716835984739e-03 -1.728528183354e-05 0.0 
0.0 0.0 -5.064359206787e-04 
-1.578160803348e-03 1.029909350069e-03 0.0 
1.029909350069e-03 7.988225935028e-03 0.0 
0.0 0.0 -1.199867006878e-03 
-1.525066789097e-03 9.716746199443e-04 0.0 
9.716746199443e-04 8.273760627129e-03 0.0 
0.0 0.0 -1.242728214876e-03 
1.321351467926e-03 -2.568351524438e-03 0.0 
-2.568351524438e-03 -2.315153931407e-07 0.0 
0.0 0.0 -5.661942653711e-04 
1.809254267051e-03 -2.583366555036e-03 0.0 
-2.583366555036e-03 -4.342692756295e-04 0.0 
0.0 0.0 -5.892792820379e-04 
6.921033763950e-04 -2.656898720389e-03 0.0 
-2.656898720389e-03 7.465441525006e-04 0.0 
0.0 0.0 -6.165632266696e-04 
-1.574485567314e-03 1.499311237931e-03 0.0 
1.499311237931e-03 7.988348182121e-03 0.0 
0.0 0.0 -1.223056365294e-03 
-1.741572698048e-03 -1.051965994170e-03 0.0 
-1.051965994170e-03 6.624165410999e-03 0.0 
0.0 0.0 -1.224004481682e-03 
-1.735235085971e-03 -1.304001527318e-03 0.0 
-1.304001527318e-03 6.344789461694e-03 0.0 
0.0 0.0 -1.195820777905e-03 
-2.679240954609e-05 -1.257927253223e-03 0.0 
-1.257927253223e-03 9.029103496679e-04 0.0 
0.0 0.0 -3.450663815859e-04 
-3.035170911774e-06 -1.579137764012e-03 0.0 
-1.579137764012e-03 1.039327180488e-03 0.0 
0.0 0.0 -4.410249086127e-04 
1.155100538592e-03 2.631364371344e-03 0.0 
2.631364371344e-03 1.868470155697e-04 0.0 
0.0 0.0 -5.751203803551e-04 
1.215808673203e-03 2.544029937651e-03 0.0 
2.544029937651e-03 -5.958635491021e-05 0.0 
0.0 0.0 -4.955238506970e-04 
-1.603953202991e-03 2.084851501461e-03 0.0 
2.084851501461e-03 7.579130278610e-03 0.0 
0.0 0.0 -1.207258722210e-03 
-1.637778905667e-03 2.162652518366e-03 0.0 
2.162652518366e-03 7.304299819900e-03 0.0 
0.0 0.0 -1.172631524865e-03 
-1.556077565275e-03 2.029656444368e-03 0.0 
2.029656444368e-03 7.905393318382e-03 0.0 
0.0 0.0 -1.247471551777e-03 
-8.078621275666e-04 -3.743686463011e-04 0.0 
-3.743686463011e-04 2.476609172107e-03 0.0 
0.0 0.0 -5.753817989848e-04 
1.173818397494e-04 2.725852523849e-03 0.0 
2.725852523849e-03 2.691650762888e-03 0.0 
0.0 0.0 -1.045322365442e-03 
-5.040778805934e-04 -1.070896588493e-03 0.0 
-1.070896588493e-03 3.980562278462e-03 0.0 
0.0 0.0 -1.207899217314e-03 
-2.520428194526e-04 -7.965635153337e-04 0.0 
-7.965635153337e-04 3.542662319704e-03 0.0 
0.0 0.0 -1.178012378629e-03 
-7.711086010594e-04 -1.329041706335e-03 0.0 
-1.329041706335e-03 4.567355749165e-03 0.0 
0.0 0.0 -1.244624083072e-03 
-1.223572839919e-04 2.186752793674e-03 0.0 
2.186752793674e-03 3.375840631155e-03 0.0 
0.0 0.0 -1.142102124289e-03 
-4.435966474857e-04 2.091597596222e-03 0.0 
2.091597596222e-03 3.997165180884e-03 0.0 
0.0 0.0 -1.205428683694e-03 
-6.295415077105e-04 2.617745388046e-03 0.0 
2.617745388046e-03 4.421095216534e-03 0.0 
0.0 0.0 -1.209323031234e-03 
8.913702169857e-05 -5.356610077544e-06 0.0 
-5.356610077544e-06 -8.913702169857e-05 0.0 
0.0 0.0 0.0 
-1.516551893121e-03 1.931531950452e-04 0.0 
1.931531950452e-04 8.105824831205e-03 0.0 
0.0 0.0 -1.199992767657e-03 
-1.600603275175e-03 3.197306060267e-04 0.0 
3.197306060267e-04 5.842030124630e-03 0.0 
0.0 0.0 -8.371571859873e-04 
0.0 0.0 0.0 
0.0 0.0 0.0 
0.0 0.0 0.0 
-1.547068004807e-03 2.255592860515e-04 0.0 
2.255592860515e-04 5.653808019545e-03 0.0 
0.0 0.0 -8.070151920887e-04 
-1.566358775821e-03 2.266234695203e-04 0.0 
2.266234695203e-04 5.919104175052e-03 0.0 
0.0 0.0 -8.451615393777e-04 
-1.505853756260e-03 1.425564258005e-04 0.0 
1.425564258005e-04 5.404792730384e-03 0.0 
0.0 0.0 -7.748096441827e-04 
-6.628775469822e-04 -3.015658585898e-04 0.0 
-3.015658585898e-04 2.010090265861e-03 0.0 
0.0 0.0 -4.206613647546e-04 
-1.675398106948e-03 5.868598101642e-04 0.0 
5.868598101642e-04 5.623434088204e-03 0.0 
0.0 0.0 -8.174106193842e-04 
-1.726757844430e-03 7.924650127462e-04 0.0 
7.924650127462e-04 5.855419414792e-03 0.0 
0.0 0.0 -8.556612431672e-04 
8.558548932515e-05 -1.128009013281e-03 0.0 
-1.128009013281e-03 6.309628739441e-04 0.0 
0.0 0.0 -2.713320700168e-04 
-1.513004436039e-03 1.420623121839e-03 0.0 
1.420623121839e-03 8.214217499082e-03 0.0 
0.0 0.0 -1.259301554906e-03 
1.749391661274e-04 -1.082733169331e-03 0.0 
-1.082733169331e-03 5.892299780132e-04 0.0 
0.0 0.0 -2.441793916413e-04 
1.147662153238e-04 -1.066745943300e-03 0.0 
-1.066745943300e-03 7.910181080930e-04 0.0 
0.0 0.0 -2.872885922025e-04 
-1.122672355991e-03 -1.921241529141e-03 0.0 
-1.921241529141e-03 5.266335920734e-03 0.0 
0.0 0.0 -1.221214701962e-03 
-1.203549749022e-03 -1.976762786956e-03 0.0 
-1.976762786956e-03 5.228557791274e-03 0.0 
0.0 0.0 -1.184344882880e-03 
-1.271935696370e-03 -1.932492998885e-03 0.0 
-1.932492998885e-03 5.682500405781e-03 0.0 
0.0 0.0 -1.247726601234e-03 
-1.345935677545e-03 -1.879180138911e-03 0.0 
-1.879180138911e-03 5.631962343118e-03 0.0 
0.0 0.0 -1.211018817991e-03 
-1.319489507466e-03 -1.996946989352e-03 0.0 
-1.996946989352e-03 5.223869660522e-03 0.0 
0.0 0.0 -1.147066289601e-03 
-1.457152980048e-03 -1.833275450520e-03 0.0 
-1.833275450520e-03 5.658001904065e-03 0.0 
0.0 0.0 -1.176490610025e-03 
-1.598701855115e-03 3.112456463076e-04 0.0 
3.112456463076e-04 5.594187128056e-03 0.0 
0.0 0.0 -7.985989294648e-04 
-1.425017338431e-03 -1.793987580484e-03 0.0 
-1.793987580484e-03 6.077694866820e-03 0.0 
0.0 0.0 -1.249018369598e-03 
-1.544794874514e-03 -1.654652183582e-03 0.0 
-1.654652183582e-03 6.043342076509e-03 0.0 
0.0 0.0 -1.207442871744e-03 
-1.490747382805e-03 -1.688185045970e-03 0.0 
-1.688185045970e-03 6.481641932430e-03 0.0 
0.0 0.0 -1.277927415301e-03 
-8.701201880038e-04 2.189049665711e-03 0.0 
2.189049665711e-03 3.268695103799e-03 0.0 
0.0 0.0 -8.722607330507e-04 
5.310970710450e-04 2.630450444314e-03 0.0 
2.630450444314e-03 9.000089298474e-04 0.0 
0.0 0.0 -6.133311432396e-04 
2.617133158352e-04 2.476764240616e-03 0.0 
2.476764240616e-03 1.164640329384e-03 0.0 
0.0 0.0 -6.112944193795e-04 
1.728571300418e-04 2.227493690469e-03 0.0 
2.227493690469e-03 1.142483149507e-03 0.0 
0.0 0.0 -5.637172626637e-04 
-1.229541831672e-03 3.263680413163e-03 0.0 
3.263680413163e-03 6.138633277811e-03 0.0 
0.0 0.0 -1.240180566941e-03 
-1.276361500880e-03 3.187291024850e-03 0.0 
3.187291024850e-03 6.099399323178e-03 0.0 
0.0 0.0 -1.200590015451e-03 
-2.088598425736e-03 -6.246367196868e-04 0.0 
-6.246367196868e-04 6.194373546362e-03 0.0 
0.0 0.0 -1.090180627845e-03 
-2.041663287848e-03 -6.617363893855e-04 0.0 
-6.617363893855e-04 5.852171557009e-03 0.0 
0.0 0.0 -1.067141795818e-03 
-1.532469855713e-03 1.525337910669e-04 0.0 
1.525337910669e-04 5.692847008020e-03 0.0 
0.0 0.0 -8.108182148135e-04 
-1.511312180107e-03 9.255618039040e-05 0.0 
9.255618039040e-05 5.666580148835e-03 0.0 
0.0 0.0 -8.077352941366e-04 
-1.560488436606e-03 1.911238081195e-04 0.0 
1.911238081195e-04 6.070956180256e-03 0.0 
0.0 0.0 -8.678526801547e-04 
-1.544526745633e-03 1.030985674976e-04 0.0 
1.030985674976e-04 6.005801825662e-03 0.0 
0.0 0.0 -8.609153521579e-04 
-1.580530064686e-03 1.945628071657e-04 0.0 
1.945628071657e-04 6.420611350931e-03 0.0 
0.0 0.0 -9.200517378055e-04 
-1.559403933791e-03 8.887484367551e-05 0.0 
8.887484367551e-05 6.359767284502e-03 0.0 
0.0 0.0 -9.108947733944e-04 
-1.583263469338e-03 1.334252269549e-04 0.0 
1.334252269549e-04 6.753346818615e-03 0.0 
0.0 0.0 -9.726914458129e-04 
-8.669769815257e-04 2.889098903744e-03 0.0 
2.889098903744e-03 5.024560399167e-03 0.0 
0.0 0.0 -1.245087786853e-03 
4.982055672495e-04 2.293020821825e-03 0.0 
2.293020821825e-03 7.508210362061e-04 0.0 
0.0 0.0 -5.352971157667e-04 
-1.245162061090e-03 1.941632408908e-03 0.0 
1.941632408908e-03 3.965163190857e-03 0.0 
0.0 0.0 -8.237883836899e-04 
-3.879507205886e-04 1.027612391922e-03 0.0 
1.027612391922e-03 3.877749242080e-03 0.0 
0.0 0.0 -1.228261380050e-03 
-1.475502455479e-04 6.710535629733e-04 0.0 
6.710535629733e-04 3.400758398957e-03 0.0 
0.0 0.0 -1.187396807988e-03 
-4.877113708210e-04 2.653909423409e-03 0.0 
2.653909423409e-03 2.711925927626e-03 0.0 
0.0 0.0 -9.301491777014e-04 
-4.673273112926e-04 2.354591855457e-03 0.0 
2.354591855457e-03 2.518811343451e-03 0.0 
0.0 0.0 -8.783714799336e-04 
-9.656459474725e-04 -1.750454010380e-03 0.0 
-1.750454010380e-03 4.960948450779e-03 0.0 
0.0 0.0 -1.238794375355e-03 
1.773029984471e-03 2.918628512030e-03 0.0 
2.918628512030e-03 -2.405794798709e-04 0.0 
0.0 0.0 -6.567645019713e-04 
-1.474754496101e-03 1.652724927503e-03 0.0 
1.652724927503e-03 8.365646577830e-03 0.0 
0.0 0.0 -1.295459716840e-03 
0.0 0.0 0.0 
0.0 0.0 0.0 
0.0 0.0 0.0 
1.498393906149e-04 3.022053957605e-04 0.0 
3.022053957605e-04 -1.163750170629e-04 0.0 
0.0 0.0 -1.434187437943e-05 
1.327025876230e-03 3.010605488358e-03 0.0 
3.010605488358e-03 1.473338213913e-04 0.0 
0.0 0.0 -6.318684418375e-04 
-5.499021132442e-04 2.888144921732e-03 0.0 
2.888144921732e-03 2.938437648155e-03 0.0 
0.0 0.0 -9.558721723632e-04 
3.323415439528e-04 2.743520330787e-03 0.0 
2.743520330787e-03 1.229329144075e-03 0.0 
0.0 0.0 -6.692874377263e-04 
9.209566797494e-05 2.604630668434e-03 0.0 
2.604630668434e-03 1.511290340994e-03 0.0 
0.0 0.0 -6.871654324154e-04 
3.645468755337e-04 -1.692092076938e-03 0.0 
-1.692092076938e-03 1.976975662064e-03 0.0 
0.0 0.0 -9.759998253719e-04 
1.091376312940e-04 -1.700138468344e-03 0.0 
-1.700138468344e-03 9.084482070208e-04 0.0 
0.0 0.0 -4.293607968937e-04 
9.860679807434e-04 2.546469046220e-03 0.0 
2.546469046220e-03 3.575313038065e-04 0.0 
0.0 0.0 -5.758282648071e-04 
-1.592993118431e-03 2.731466696240e-04 0.0 
2.731466696240e-04 6.800272037187e-03 0.0 
0.0 0.0 -9.796923013958e-04 
6.911227834126e-04 2.251046992259e-03 0.0 
2.251046992259e-03 5.130124139505e-04 0.0 
0.0 0.0 -5.160579417270e-04 
-2.121618955622e-03 -3.224058753556e-04 0.0 
-3.224058753556e-04 6.099005119318e-03 0.0 
0.0 0.0 -1.073807358551e-03 
2.201373567652e-03 2.690698738968e-03 0.0 
2.690698738968e-03 -6.091920316776e-04 0.0 
0.0 0.0 -6.823635154174e-04 
-1.638384935320e-04 3.372316730358e-03 0.0 
3.372316730358e-03 2.445531910937e-03 0.0 
0.0 0.0 -9.519839029876e-04 
1.275974649949e-03 2.775715452302e-03 0.0 
2.775715452302e-03 1.801999389927e-04 0.0 
0.0 0.0 -6.240748238320e-04 
8.350192799097e-04 2.727176630851e-03 0.0 
2.727176630851e-03 5.820764688072e-04 0.0 
0.0 0.0 -6.073267494501e-04 
-1.574296698924e-03 2.484580816168e-03 0.0 
2.484580816168e-03 4.927078130058e-03 0.0 
0.0 0.0 -8.786961992330e-04 
-1.699341285066e-03 1.882952510091e-03 0.0 
1.882952510091e-03 5.001649373791e-03 0.0 
0.0 0.0 -8.239340753773e-04 
-1.544077067517e-03 2.021174845409e-03 0.0 
2.021174845409e-03 4.648313902463e-03 0.0 
0.0 0.0 -8.287327148421e-04 
2.547623254183e-03 2.268646563305e-03 0.0 
2.268646563305e-03 -9.255766277510e-04 0.0 
0.0 0.0 -6.951628398994e-04 
-9.793607364304e-05 2.680641002234e-03 0.0 
2.680641002234e-03 1.905972935152e-03 0.0 
0.0 0.0 -7.748729406467e-04 
-1.401926105552e-04 2.272349151151e-03 0.0 
2.272349151151e-03 1.732062029039e-03 0.0 
0.0 0.0 -6.822297507788e-04 
-1.042335079289e-03 3.085608632330e-03 0.0 
3.085608632330e-03 3.939330989580e-03 0.0 
0.0 0.0 -9.170298757010e-04 
-1.694312562690e-03 2.003906122110e-03 0.0 
2.003906122110e-03 6.960974899569e-03 0.0 
0.0 0.0 -1.107475121065e-03 
-1.654341182746e-03 2.234400658440e-03 0.0 
2.234400658440e-03 6.989596744706e-03 0.0 
0.0 0.0 -1.136341617999e-03 
-1.591073595122e-03 2.379952355984e-03 0.0 
2.379952355984e-03 7.311228899108e-03 0.0 
0.0 0.0 -1.199268560344e-03 
-1.606550985090e-03 2.450965261895e-03 0.0 
2.450965261895e-03 7.002228799418e-03 0.0 
0.0 0.0 -1.164598082371e-03 
-1.654615127137e-03 2.306554865062e-03 0.0 
2.306554865062e-03 6.662432923767e-03 0.0 
0.0 0.0 -1.100413285504e-03 
-1.595489437176e-03 2.513437590904e-03 0.0 
2.513437590904e-03 6.653696588520e-03 0.0 
0.0 0.0 -1.129075729544e-03 
-1.546389988990e-03 2.664193302564e-03 0.0 
2.664193302564e-03 6.994860909819e-03 0.0 
0.0 0.0 -1.193594387005e-03 
-1.524710140769e-03 2.725114460972e-03 0.0 
2.725114460972e-03 6.640657221836e-03 0.0 
0.0 0.0 -1.159256375294e-03 
-1.483453285402e-03 2.879360167952e-03 0.0 
2.879360167952e-03 7.061959584516e-03 0.0 
0.0 0.0 -1.234286862126e-03 
-1.459335345335e-03 2.896614314087e-03 0.0 
2.896614314087e-03 6.597331098230e-03 0.0 
0.0 0.0 -1.187309181180e-03 
-1.487240193726e-03 2.797813669470e-03 0.0 
2.797813669470e-03 6.237817525026e-03 0.0 
0.0 0.0 -1.120864512401e-03 
-1.416348664038e-03 2.952147323061e-03 0.0 
2.952147323061e-03 6.179572228468e-03 0.0 
0.0 0.0 -1.147759711419e-03 
-1.401702611885e-03 3.058403427338e-03 0.0 
3.058403427338e-03 6.528924407833e-03 0.0 
0.0 0.0 -1.207767947030e-03 
-1.429554607918e-03 2.882577101757e-03 0.0 
2.882577101757e-03 5.825437132677e-03 0.0 
0.0 0.0 -1.082593982084e-03 
-6.657140394303e-04 1.410986986977e-03 0.0 
1.410986986977e-03 4.342280522210e-03 0.0 
0.0 0.0 -1.264544343569e-03 
1.285034861164e-03 3.046453072889e-03 0.0 
3.046453072889e-03 2.156214386420e-04 0.0 
0.0 0.0 -6.431384142027e-04 
3.221685064304e-04 2.100220635338e-04 0.0 
2.100220635338e-04 -3.125792772457e-04 0.0 
0.0 0.0 -4.109669650583e-06 
7.277286052914e-04 1.662264959666e-03 0.0 
1.662264959666e-03 -4.217765524128e-04 0.0 
0.0 0.0 -1.311223083766e-04 
-4.639929809661e-04 3.327821869830e-03 0.0 
3.327821869830e-03 2.959449472573e-03 0.0 
0.0 0.0 -9.691543639280e-04 
-1.437907230863e-03 2.996700486661e-03 0.0 
2.996700486661e-03 7.518201304671e-03 0.0 
0.0 0.0 -1.299806302097e-03 
-1.466395687024e-03 2.621641971218e-03 0.0 
2.621641971218e-03 7.881651097987e-03 0.0 
0.0 0.0 -1.301753673823e-03 
2.487482228611e-03 2.475720953215e-03 0.0 
2.475720953215e-03 -8.077451105291e-04 0.0 
0.0 0.0 -7.198873363210e-04 
-1.280305576935e-03 3.404019922885e-03 0.0 
3.404019922885e-03 6.453749912264e-03 0.0 
0.0 0.0 -1.303413959896e-03 
-1.478986277362e-03 2.335815426712e-03 0.0 
2.335815426712e-03 4.599949913439e-03 0.0 
0.0 0.0 -8.572908036711e-04 
2.443469762099e-03 1.504212848516e-03 0.0 
1.504212848516e-03 -1.149517681368e-03 0.0 
0.0 0.0 -5.545508917418e-04 
-1.188451958700e-03 3.233888318984e-03 0.0 
3.233888318984e-03 5.957074391346e-03 0.0 
0.0 0.0 -1.304286792737e-03 
-1.700650587437e-03 2.084768146748e-03 0.0 
2.084768146748e-03 6.648225866754e-03 0.0 
0.0 0.0 -1.071440646998e-03 
-1.693986595116e-03 2.166002580174e-03 0.0 
2.166002580174e-03 6.318613390721e-03 0.0 
0.0 0.0 -1.034857077839e-03 
-1.735485188954e-03 1.934897306350e-03 0.0 
1.934897306350e-03 6.303939504401e-03 0.0 
0.0 0.0 -1.006057961993e-03 
-1.460757887231e-03 2.250687193900e-03 0.0 
2.250687193900e-03 8.134933915156e-03 0.0 
0.0 0.0 -1.305867370806e-03 
-1.749991994699e-03 9.588049142227e-04 0.0 
9.588049142227e-04 6.254499179949e-03 0.0 
0.0 0.0 -9.232948652302e-04 
-1.017747060708e-03 2.242049910193e-03 0.0 
2.242049910193e-03 5.131073367086e-03 0.0 
0.0 0.0 -1.306016332489e-03 
1.333415972402e-03 1.535387923333e-03 0.0 
1.535387923333e-03 1.136937242501e-04 0.0 
0.0 0.0 -6.201898699939e-04 
1.391903311676e-03 2.154011180947e-03 0.0 
2.154011180947e-03 1.151631227135e-05 0.0 
0.0 0.0 -6.014655531204e-04 
1.815463505361e-03 2.115453371163e-03 0.0 
2.115453371163e-03 -5.458577548768e-04 0.0 
0.0 0.0 -5.441167502075e-04 
-1.566214445404e-03 2.595986134179e-03 0.0 
2.595986134179e-03 6.282321888988e-03 0.0 
0.0 0.0 -1.092245366321e-03 
-9.205735445318e-04 4.808338680360e-04 0.0 
4.808338680360e-04 4.693547071086e-03 0.0 
0.0 0.0 -1.302677999426e-03 
-5.441937307524e-04 1.925192123183e-04 0.0 
1.925192123183e-04 4.093065944914e-03 0.0 
0.0 0.0 -1.248400714067e-03 
-5.696920249624e-04 -2.362618994637e-04 0.0 
-2.362618994637e-04 4.138723512730e-03 0.0 
0.0 0.0 -1.248426544684e-03 
-2.031241474020e-04 -7.328110519664e-05 0.0 
-7.328110519664e-05 3.471353297543e-03 0.0 
0.0 0.0 -1.189114855724e-03 
-9.524782035086e-04 -4.338690848369e-04 0.0 
-4.338690848369e-04 4.786583626593e-03 0.0 
0.0 0.0 -1.303398793257e-03 
-1.386313891139e-03 3.268387124946e-03 0.0 
3.268387124946e-03 7.156994535034e-03 0.0 
0.0 0.0 -1.306665994082e-03 
-1.359095365040e-03 3.359352166101e-03 0.0 
3.359352166101e-03 6.950855487648e-03 0.0 
0.0 0.0 -1.308500709484e-03 
1.902852668699e-03 -2.817268794694e-03 0.0 
-2.817268794694e-03 -4.032967653229e-04 0.0 
0.0 0.0 -6.426668157327e-04 
2.253407391376e-03 -2.370679650838e-03 0.0 
-2.370679650838e-03 -7.551607023087e-04 0.0 
0.0 0.0 -6.421057238860e-04 
2.152188401618e-03 -2.215932361183e-03 0.0 
-2.215932361183e-03 -7.648493634962e-04 0.0 
0.0 0.0 -5.945738734806e-04 
2.568498674833e-03 -1.800335482077e-03 0.0 
-1.800335482077e-03 -1.054151680982e-03 0.0 
0.0 0.0 -6.490058545078e-04 
2.589267859695e-03 -1.939320893250e-03 0.0 
-1.939320893250e-03 -1.034701238564e-03 0.0 
0.0 0.0 -6.662428376277e-04 
2.845251393852e-03 -1.182488936622e-03 0.0 
-1.182488936622e-03 -1.266140625123e-03 0.0 
0.0 0.0 -6.767617580267e-04 
2.841382791890e-03 -1.149550775431e-03 0.0 
-1.149550775431e-03 -1.284812658761e-03 0.0 
0.0 0.0 -6.671014856266e-04 
2.966198092938e-03 -3.987988764167e-04 0.0 
-3.987988764167e-04 -1.382086548665e-03 0.0 
0.0 0.0 -6.789049475453e-04 
-1.248651035025e-03 3.111213554981e-03 0.0 
3.111213554981e-03 5.700369437698e-03 0.0 
0.0 0.0 -1.138512926666e-03 
-1.048382069547e-03 -1.181351894960e-03 0.0 
-1.181351894960e-03 5.065835417687e-03 0.0 
0.0 0.0 -1.305779161548e-03 
4.789526992596e-05 -3.017317976477e-03 0.0 
-3.017317976477e-03 1.955725826502e-03 0.0 
0.0 0.0 -8.490207048509e-04 
4.255875009583e-04 -2.891330549410e-03 0.0 
-2.891330549410e-03 1.272940405536e-03 0.0 
0.0 0.0 -7.279405313547e-04 
7.016485745697e-04 -2.791230812805e-03 0.0 
-2.791230812805e-03 8.160956132734e-04 0.0 
0.0 0.0 -6.504617947899e-04 
-6.090620729236e-04 -2.591660670729e-03 0.0 
-2.591660670729e-03 2.996920806010e-03 0.0 
0.0 0.0 -1.013136008453e-03 
-4.847718747428e-04 -2.835802633982e-03 0.0 
-2.835802633982e-03 2.833935359093e-03 0.0 
0.0 0.0 -9.978061834832e-04 
-6.569091499038e-04 -2.799289725008e-03 0.0 
-2.799289725008e-03 3.183472627718e-03 0.0 
0.0 0.0 -1.035689958333e-03 
-7.207313198164e-04 -2.290250490495e-03 0.0 
-2.290250490495e-03 3.125345330795e-03 0.0 
0.0 0.0 -1.018322119518e-03 
-1.167877884792e-04 3.342094439232e-03 0.0 
3.342094439232e-03 2.837618912037e-03 0.0 
0.0 0.0 -9.882323209451e-04 
-1.091898030697e-03 -1.486850666943e-03 0.0 
-1.486850666943e-03 5.227315460995e-03 0.0 
0.0 0.0 -1.305003056577e-03 
1.225364256890e-03 -1.147615656396e-03 0.0 
-1.147615656396e-03 3.835923769498e-05 0.0 
0.0 0.0 -5.415957833937e-04 
-1.980397502487e-04 -3.005905727183e-03 0.0 
-3.005905727183e-03 2.314319347710e-03 0.0 
0.0 0.0 -9.069769703405e-04 
-1.707142071172e-03 7.635271864477e-04 0.0 
7.635271864477e-04 5.127553643252e-03 0.0 
0.0 0.0 -7.516786372745e-04 
-1.746908817975e-03 1.023609105839e-03 0.0 
1.023609105839e-03 5.442206395915e-03 0.0 
0.0 0.0 -8.094822736869e-04 
-1.772933357879e-03 1.184262300292e-03 0.0 
1.184262300292e-03 5.385289162601e-03 0.0 
0.0 0.0 -8.097394517040e-04 
-1.768350599280e-03 1.251073624371e-03 0.0 
1.251073624371e-03 5.764313646979e-03 0.0 
0.0 0.0 -8.733121467894e-04 
-1.727990335715e-03 8.210495884293e-04 0.0 
8.210495884293e-04 5.545557871090e-03 0.0 
0.0 0.0 -8.155917408702e-04 
-1.236784994223e-03 -1.923322638249e-03 0.0 
-1.923322638249e-03 4.168389852977e-03 0.0 
0.0 0.0 -1.057296815204e-03 
-1.427088068768e-03 -1.555275096953e-03 0.0 
-1.555275096953e-03 4.526520888732e-03 0.0 
0.0 0.0 -1.060211733922e-03 
-1.439309846138e-03 -1.245667555875e-03 0.0 
-1.245667555875e-03 4.501167157264e-03 0.0 
0.0 0.0 -1.053704044192e-03 
-1.586214255689e-03 -1.181249332069e-03 0.0 
-1.181249332069e-03 4.840144294026e-03 0.0 
0.0 0.0 -1.064485974018e-03 
-1.568580492753e-03 -8.807724015312e-04 0.0 
-8.807724015312e-04 4.760936091880e-03 0.0 
0.0 0.0 -1.058069710598e-03 
-1.437909822652e-03 -9.389915626686e-04 0.0 
-9.389915626686e-04 4.447516747931e-03 0.0 
0.0 0.0 -1.040756414728e-03 
-1.718221607956e-03 -8.006521433412e-04 0.0 
-8.006521433412e-04 5.111220650433e-03 0.0 
0.0 0.0 -1.068385751750e-03 
-1.669418493281e-03 -5.082865991109e-04 0.0 
-5.082865991109e-04 4.972394175886e-03 0.0 
0.0 0.0 -1.061946884890e-03 
-1.641647603362e-03 4.850166825857e-04 0.0 
4.850166825857e-04 5.202247326036e-03 0.0 
0.0 0.0 -7.509531518293e-04 
4.681733094658e-05 -5.816533838581e-04 0.0 
-5.816533838581e-04 9.454411860111e-05 0.0 
0.0 0.0 -6.058347837758e-05 
4.397814964137e-04 -2.157349287924e-03 0.0 
-2.157349287924e-03 4.211423268834e-04 0.0 
0.0 0.0 -3.689673528416e-04 
3.155046189534e-04 -2.027375098909e-03 0.0 
-2.027375098909e-03 7.742453397045e-04 0.0 
0.0 0.0 -4.670356965677e-04 
8.520514226530e-04 -2.864865723911e-03 0.0 
-2.864865723911e-03 5.535726049248e-04 0.0 
0.0 0.0 -6.024102975334e-04 
1.107532573262e-03 -2.675867926973e-03 0.0 
-2.675867926973e-03 -1.282410957994e-04 0.0 
0.0 0.0 -4.196963474839e-04 
1.414391538560e-03 -3.037597772400e-03 0.0 
-3.037597772400e-03 4.732794591138e-06 0.0 
0.0 0.0 -6.081961427792e-04 
1.798568626031e-03 -2.807561227883e-03 0.0 
-2.807561227883e-03 -5.963916264621e-04 0.0 
0.0 0.0 -5.152187141009e-04 
4.798167785024e-04 -1.487535536050e-03 0.0 
-1.487535536050e-03 -2.160815451901e-04 0.0 
0.0 0.0 -1.130293857052e-04 
1.221925142391e-04 -6.477447924089e-04 0.0 
-6.477447924089e-04 3.263707583015e-04 0.0 
0.0 0.0 -1.721226713898e-04 
1.600896537738e-04 -1.547795297662e-03 0.0 
-1.547795297662e-03 7.330764534416e-04 0.0 
0.0 0.0 -3.827854745209e-04 
1.103966075786e-04 -5.622367864216e-04 0.0 
-5.622367864216e-04 3.103757836854e-04 0.0 
0.0 0.0 -1.517934084529e-04 
1.053013884946e-04 -1.323791722729e-03 0.0 
-1.323791722729e-03 6.739471651028e-04 0.0 
0.0 0.0 -3.339636658274e-04 
3.430982234410e-04 -2.178085181117e-03 0.0 
-2.178085181117e-03 8.728126235658e-04 0.0 
0.0 0.0 -5.211046487172e-04 
-1.935346954464e-05 -1.828430160185e-03 0.0 
-1.828430160185e-03 1.220825087692e-03 0.0 
0.0 0.0 -5.149164077774e-04 
-1.561183168720e-03 -1.084347523387e-03 0.0 
-1.084347523387e-03 6.914233553436e-03 0.0 
0.0 0.0 -1.294874803588e-03 
-1.312931512090e-03 -3.406360319044e-04 0.0 
-3.406360319044e-04 4.053324067572e-03 0.0 
0.0 0.0 -9.806349194848e-04 
-1.232619789514e-03 -6.513903715833e-04 0.0 
-6.513903715833e-04 3.864959534980e-03 0.0 
0.0 0.0 -9.593735700280e-04 
-1.113036939270e-03 -6.004263507847e-04 0.0 
-6.004263507847e-04 3.522372894904e-03 0.0 
0.0 0.0 -8.977078860960e-04 
-1.116965318077e-03 -9.982255990531e-04 0.0 
-9.982255990531e-04 3.625196753216e-03 0.0 
0.0 0.0 -9.469176294500e-04 
-1.332244483269e-03 -6.509527714259e-04 0.0 
-6.509527714259e-04 4.142116544653e-03 0.0 
0.0 0.0 -1.006312639172e-03 
-1.080865388107e-03 -2.755367266220e-04 0.0 
-2.755367266220e-04 3.371661966390e-03 0.0 
0.0 0.0 -8.426599334973e-04 
-1.024104142748e-03 -5.302931597588e-04 0.0 
-5.302931597588e-04 3.225767958481e-03 0.0 
0.0 0.0 -8.124903673991e-04 
2.119334771273e-03 -2.250984394130e-04 0.0 
-2.250984394130e-04 -5.528535054759e-04 0.0 
0.0 0.0 -1.954030217304e-04 
1.237953986699e-03 -2.579545419294e-04 0.0 
-2.579545419294e-04 1.543244489082e-04 0.0 
0.0 0.0 -2.932658944931e-04 
1.411332111426e-03 -2.759944625030e-05 0.0 
-2.759944625030e-05 3.743876493098e-05 0.0 
0.0 0.0 -2.856593951198e-04 
3.600465984566e-04 -2.066499797985e-04 0.0 
-2.066499797985e-04 8.608267290585e-04 0.0 
0.0 0.0 -3.080440922735e-04 
3.653305054747e-04 -3.597145395908e-04 0.0 
-3.597145395908e-04 8.532226922973e-04 0.0 
0.0 0.0 -3.086108473030e-04 
1.169231949576e-03 -3.840093619394e-04 0.0 
-3.840093619394e-04 1.923594400946e-04 0.0 
0.0 0.0 -2.956379591255e-04 
1.031256041784e-03 -4.886047117192e-04 0.0 
-4.886047117192e-04 2.379226924498e-04 0.0 
0.0 0.0 -2.908089562448e-04 
1.816529586793e-03 -3.500151260859e-04 0.0 
-3.500151260859e-04 -4.323507490206e-04 0.0 
0.0 0.0 -1.958374107737e-04 
8.667756449627e-04 -6.409008792115e-04 0.0 
-6.409008792115e-04 2.928477416533e-04 0.0 
0.0 0.0 -2.796976375194e-04 
1.702636575089e-04 -6.542409432277e-04 0.0 
-6.542409432277e-04 9.095668014512e-04 0.0 
0.0 0.0 -3.106791268491e-04 
1.620102908946e-03 -4.500577592913e-04 0.0 
-4.500577592913e-04 -3.726586433767e-04 0.0 
0.0 0.0 -1.892091717599e-04 
-1.577535716708e-03 5.392394720966e-05 0.0 
5.392394720966e-05 7.299934411769e-03 0.0 
0.0 0.0 -1.060427308513e-03 
-1.573061893325e-03 1.544570403577e-04 0.0 
1.544570403577e-04 7.509050943264e-03 0.0 
0.0 0.0 -1.097082233180e-03 
-1.192953449252e-03 -1.864011720090e-03 0.0 
-1.864011720090e-03 5.605209134645e-03 0.0 
0.0 0.0 -1.300897016293e-03 
-1.579855819088e-03 2.979771540211e-04 0.0 
2.979771540211e-04 5.293250471981e-03 0.0 
0.0 0.0 -7.584009903415e-04 
3.744709763724e-04 -6.364946627065e-04 0.0 
-6.364946627065e-04 1.401291707387e-04 0.0 
0.0 0.0 -1.034024162715e-04 
-1.449845600680e-03 6.382887501364e-04 0.0 
6.382887501364e-04 8.609834207447e-03 0.0 
0.0 0.0 -1.292107529982e-03 
-1.448440923656e-03 1.123280561170e-03 0.0 
1.123280561170e-03 8.566022624529e-03 0.0 
0.0 0.0 -1.303172775453e-03 
-1.434083243244e-03 9.839421265548e-04 0.0 
9.839421265548e-04 8.603548743914e-03 0.0 
0.0 0.0 -1.304823151597e-03 
-1.916252571144e-03 -2.792629766010e-04 0.0 
-2.792629766010e-04 6.698528630947e-03 0.0 
0.0 0.0 -1.191058493115e-03 
-1.809292576517e-03 -5.447261667623e-04 0.0 
-5.447261667623e-04 6.787910699568e-03 0.0 
0.0 0.0 -1.224322658093e-03 
-1.441620689681e-03 3.697909072679e-04 0.0 
3.697909072679e-04 8.644537781625e-03 0.0 
0.0 0.0 -1.294569364341e-03 
-1.966831809583e-04 -2.229424319449e-03 0.0 
-2.229424319449e-03 1.821439975238e-03 0.0 
0.0 0.0 -6.963243404055e-04 
-1.542446802675e-03 2.619749311667e-03 0.0 
2.619749311667e-03 7.342230023592e-03 0.0 
0.0 0.0 -1.225740639889e-03 
-1.563624804990e-03 6.428436196565e-04 0.0 
6.428436196565e-04 7.948413338163e-03 0.0 
0.0 0.0 -1.178628832109e-03 
2.201456429693e-03 2.341714128316e-03 0.0 
2.341714128316e-03 -8.075777083502e-04 0.0 
0.0 0.0 -5.973765948613e-04 
4.529977292289e-04 -2.561738032130e-03 0.0 
-2.561738032130e-03 9.606788663604e-04 0.0 
0.0 0.0 -6.058613981097e-04 
-1.912750157524e-03 -1.012850712710e-03 0.0 
-1.012850712710e-03 5.577288917285e-03 0.0 
0.0 0.0 -1.066202199875e-03 
-1.088098720313e-03 -2.559527887766e-03 0.0 
-2.559527887766e-03 3.979421504262e-03 0.0 
0.0 0.0 -1.028256539386e-03 
-1.822459650115e-03 -1.367111847188e-03 0.0 
-1.367111847188e-03 6.015979930005e-03 0.0 
0.0 0.0 -1.130390451587e-03 
-1.582105737625e-03 -1.721031184097e-03 0.0 
-1.721031184097e-03 4.901863080820e-03 0.0 
0.0 0.0 -1.057243679378e-03 
-1.608185598285e-03 -1.915614561762e-03 0.0 
-1.915614561762e-03 5.282640092044e-03 0.0 
0.0 0.0 -1.076106726067e-03 
-6.144948469041e-04 -6.639795998970e-04 0.0 
-6.639795998970e-04 4.224201553889e-03 0.0 
0.0 0.0 -1.244129926109e-03 
-5.789303246957e-04 -4.457683817534e-04 0.0 
-4.457683817534e-04 1.808907778624e-03 0.0 
0.0 0.0 -3.862231446352e-04 
-1.669791442216e-03 5.742208476735e-04 0.0 
5.742208476735e-04 6.461493581352e-03 0.0 
0.0 0.0 -9.364826870394e-04 
-1.605975857622e-03 3.178960195767e-04 0.0 
3.178960195767e-04 6.348918363535e-03 0.0 
0.0 0.0 -9.130351872960e-04 
-1.629937813867e-03 6.093327650254e-04 0.0 
6.093327650254e-04 7.342083193620e-03 0.0 
0.0 0.0 -1.075939795031e-03 
-6.482537929307e-04 -1.608115231979e-03 0.0 
-1.608115231979e-03 2.605453652753e-03 0.0 
0.0 0.0 -8.387999399238e-04 
-1.303549504287e-03 -1.305113709369e-03 0.0 
-1.305113709369e-03 4.181114019267e-03 0.0 
0.0 0.0 -1.034705495726e-03 
-3.971862798800e-04 -1.135666412244e-03 0.0 
-1.135666412244e-03 1.660229728604e-03 0.0 
0.0 0.0 -5.350964027253e-04 
-1.079760018860e-03 3.194336986256e-03 0.0 
3.194336986256e-03 5.659153012299e-03 0.0 
0.0 0.0 -1.251461238623e-03 
-9.146057249504e-04 2.949568127909e-03 0.0 
2.949568127909e-03 3.641380823932e-03 0.0 
0.0 0.0 -9.215523041033e-04 
5.869540678773e-04 -2.956750850037e-03 0.0 
-2.956750850037e-03 1.034406097070e-03 0.0 
0.0 0.0 -6.948686421203e-04 
-4.983222250127e-04 -2.534366466985e-03 0.0 
-2.534366466985e-03 2.700875388843e-03 0.0 
0.0 0.0 -9.439513559275e-04 
-3.730260252316e-06 -2.536920884211e-03 0.0 
-2.536920884211e-03 1.637062224885e-03 0.0 
0.0 0.0 -6.999994134141e-04 
7.353476243331e-04 -2.725229135126e-03 0.0 
-2.725229135126e-03 6.766599510438e-04 0.0 
0.0 0.0 -6.051461037329e-04 
8.595376325540e-04 3.133881433802e-03 0.0 
3.133881433802e-03 8.059885165152e-04 0.0 
0.0 0.0 -7.137969210297e-04 
-4.203429083409e-05 -3.125630815959e-03 0.0 
-3.125630815959e-03 2.086027069296e-03 0.0 
0.0 0.0 -8.759969050552e-04 
-8.028650656472e-04 -2.530764803792e-03 0.0 
-2.530764803792e-03 3.746131268308e-03 0.0 
0.0 0.0 -1.026962916580e-03 
-1.603305794962e-03 5.584175701992e-04 0.0 
5.584175701992e-04 7.571764629350e-03 0.0 
0.0 0.0 -1.112552678551e-03 
9.600606219979e-04 -6.202368537327e-04 0.0 
-6.202368537327e-04 -7.835338607429e-05 0.0 
0.0 0.0 -1.528964725408e-04 
-6.507698434307e-04 -2.317277330880e-03 0.0 
-2.317277330880e-03 3.698342537328e-03 0.0 
0.0 0.0 -1.061672265243e-03 
-4.694800132291e-04 -3.046911020093e-03 0.0 
-3.046911020093e-03 2.876301697078e-03 0.0 
0.0 0.0 -9.848592602066e-04 
-1.735611780566e-03 9.275084004437e-04 0.0 
9.275084004437e-04 6.521846032081e-03 0.0 
0.0 0.0 -9.599091010803e-04 
5.517342203791e-04 7.070794377615e-04 0.0 
7.070794377615e-04 1.993016539601e-03 0.0 
0.0 0.0 -1.047968735850e-03 
1.251262826807e-03 -3.149427623220e-03 0.0 
-3.149427623220e-03 3.147933255355e-04 0.0 
0.0 0.0 -6.711669224326e-04 
-1.667035138543e-03 9.805979703494e-04 0.0 
9.805979703494e-04 7.401003517057e-03 0.0 
0.0 0.0 -1.098747615487e-03 
-1.603855099599e-03 1.782256839983e-03 0.0 
1.782256839983e-03 7.796685969376e-03 0.0 
0.0 0.0 -1.212453547082e-03 
-1.753933973529e-03 9.797964852189e-04 0.0 
9.797964852189e-04 5.978451539688e-03 0.0 
0.0 0.0 -8.875094802107e-04 
-2.613102227183e-04 -9.949083205869e-04 0.0 
-9.949083205869e-04 1.295268273910e-03 0.0 
0.0 0.0 -4.064699368096e-04 
-1.648709990180e-03 4.475238255647e-04 0.0 
4.475238255647e-04 6.036264205668e-03 0.0 
0.0 0.0 -8.692469099983e-04 
-7.203164161434e-04 -1.605185791603e-03 0.0 
-1.605185791603e-03 4.351922217429e-03 0.0 
0.0 0.0 -1.202705989510e-03 
-1.725470359675e-03 1.770892894084e-03 0.0 
1.770892894084e-03 6.914744693878e-03 0.0 
0.0 0.0 -1.078220320736e-03 
-7.065492097226e-04 -1.209971096051e-03 0.0 
-1.209971096051e-03 2.577314578998e-03 0.0 
0.0 0.0 -7.821142971127e-04 
2.080536798912e-03 -4.379488450435e-04 0.0 
-4.379488450435e-04 -1.014496050842e-03 0.0 
0.0 0.0 -4.568746063161e-04 
3.673244141799e-05 3.501892657137e-03 0.0 
3.501892657137e-03 2.162557991526e-03 0.0 
0.0 0.0 -9.249336466263e-04 
-1.472424715948e-03 1.473284294565e-03 0.0 
1.473284294565e-03 4.326140179341e-03 0.0 
0.0 0.0 -7.656857982150e-04 
-1.552562983666e-03 7.948996227407e-04 0.0 
7.948996227407e-04 8.084351316505e-03 0.0 
0.0 0.0 -1.206557591227e-03 
1.197294541337e-03 2.931696958795e-03 0.0 
2.931696958795e-03 3.430979437177e-04 0.0 
0.0 0.0 -6.601682078804e-04 
2.014691518502e-04 -1.535153806246e-04 0.0 
-1.535153806246e-04 2.672995857900e-03 0.0 
0.0 0.0 -1.120054252910e-03 
1.167692333485e-03 -4.546798185550e-04 0.0 
-4.546798185550e-04 3.225795309946e-04 0.0 
0.0 0.0 -6.386879419198e-04 
-8.300689796229e-04 -1.036862626203e-03 0.0 
-1.036862626203e-03 2.843866615447e-03 0.0 
0.0 0.0 -8.092532257643e-04 
-1.141410086144e-03 -2.132624368424e-03 0.0 
-2.132624368424e-03 4.763879094691e-03 0.0 
0.0 0.0 -1.118919378802e-03 
2.226178382358e-03 1.538806345707e-03 0.0 
1.538806345707e-03 -1.000001690931e-03 0.0 
0.0 0.0 -5.255042963258e-04 
-1.621773390463e-03 1.105341392258e-03 0.0 
1.105341392258e-03 7.770539650855e-03 0.0 
0.0 0.0 -1.164614768972e-03 
-7.726765049569e-04 3.339866695887e-03 0.0 
3.339866695887e-03 4.168840091130e-03 0.0 
0.0 0.0 -1.031533309622e-03 
2.985503110291e-03 3.031284491510e-04 0.0 
3.031284491510e-04 -1.381029514076e-03 0.0 
0.0 0.0 -6.876315412354e-04 
-1.686948173027e-03 1.421165008995e-03 0.0 
1.421165008995e-03 7.380565372555e-03 0.0 
0.0 0.0 -1.121170216299e-03 
1.011452247809e-03 -2.344893480733e-03 0.0 
-2.344893480733e-03 3.172812092828e-04 0.0 
0.0 0.0 -5.694571958966e-04 
3.273818053523e-04 1.142366955538e-03 0.0 
1.142366955538e-03 2.480645691333e-03 0.0 
0.0 0.0 -1.099429584637e-03 
-6.433175181119e-04 3.077878174349e-03 0.0 
3.077878174349e-03 3.183682229986e-03 0.0 
0.0 0.0 -9.539696108702e-04 
-6.121546724542e-04 3.601568394799e-03 0.0 
3.601568394799e-03 3.377991454684e-03 0.0 
0.0 0.0 -9.441813108648e-04 
-1.362049427310e-03 2.994726613582e-03 0.0 
2.994726613582e-03 5.058459491364e-03 0.0 
0.0 0.0 -9.824247929831e-04 
2.242703281786e-04 3.613717884088e-03 0.0 
3.613717884088e-03 1.934819861174e-03 0.0 
0.0 0.0 -8.887186042024e-04 
-1.881029170096e-03 -6.972944591045e-04 0.0 
-6.972944591045e-04 5.485539571048e-03 0.0 
0.0 0.0 -1.071820694527e-03 
-9.158007506096e-04 -2.235649248494e-03 0.0 
-2.235649248494e-03 4.248678740424e-03 0.0 
0.0 0.0 -1.090315851396e-03 
2.052665481287e-03 -1.103532234197e-03 0.0 
-1.103532234197e-03 -1.175556670273e-03 0.0 
0.0 0.0 -3.759037761492e-04 
8.914746630086e-04 2.890953836391e-03 0.0 
2.890953836391e-03 6.027493594732e-04 0.0 
0.0 0.0 -6.403817239208e-04 
-1.758945777430e-03 1.160675475390e-03 0.0 
1.160675475390e-03 6.378359981790e-03 0.0 
0.0 0.0 -9.536514739466e-04 
-6.639671926482e-04 3.003789204226e-03 0.0 
3.003789204226e-03 4.418789612070e-03 0.0 
0.0 0.0 -1.150585697120e-03 
-1.554201493046e-03 1.231598965710e-03 0.0 
1.231598965710e-03 8.128380504732e-03 0.0 
0.0 0.0 -1.229329624135e-03 
1.209824795641e-04 3.344721880567e-03 0.0 
3.344721880567e-03 1.935063257791e-03 0.0 
0.0 0.0 -8.811624588665e-04 
-1.286404788732e-03 -2.188571958382e-03 0.0 
-2.188571958382e-03 4.794074532598e-03 0.0 
0.0 0.0 -1.081576975854e-03 
-1.629163603093e-03 1.571087997701e-03 0.0 
1.571087997701e-03 7.723510960528e-03 0.0 
0.0 0.0 -1.185355684152e-03 
-3.559661832873e-04 -3.012647310201e-03 0.0 
-3.012647310201e-03 2.646809915025e-03 0.0 
0.0 0.0 -9.737892037141e-04 
-7.230165557545e-04 -1.426683456850e-04 0.0 
-1.426683456850e-04 2.147619513236e-03 0.0 
0.0 0.0 -4.572648740992e-04 
1.660426463556e-03 2.294712628775e-03 0.0 
2.294712628775e-03 -6.270108860030e-04 0.0 
0.0 0.0 -4.428923903797e-04 
3.083725212360e-03 4.086632437554e-04 0.0 
4.086632437554e-04 -1.411678867675e-03 0.0 
0.0 0.0 -7.165912905795e-04 
1.695879907660e-03 2.562718717107e-03 0.0 
2.562718717107e-03 -3.302884133479e-04 0.0 
0.0 0.0 -5.852534975623e-04 
-5.576706971117e-04 -2.954961257328e-03 0.0 
-2.954961257328e-03 3.029681223364e-03 0.0 
0.0 0.0 -1.013304783341e-03 
-1.555713883054e-03 2.364705081961e-03 0.0 
2.364705081961e-03 7.663070105557e-03 0.0 
0.0 0.0 -1.242275372262e-03 
-1.459222448555e-03 -1.977989758638e-03 0.0 
-1.977989758638e-03 5.249777589170e-03 0.0 
0.0 0.0 -1.110186454522e-03 
5.809827755290e-05 -1.888547144195e-03 0.0 
-1.888547144195e-03 2.563693945277e-03 0.0 
0.0 0.0 -1.040857148505e-03 
2.577166176414e-04 1.444386687376e-03 0.0 
1.444386687376e-03 4.229171994036e-04 0.0 
0.0 0.0 -2.917002073050e-04 
-1.420828704055e-03 1.823492309729e-03 0.0 
1.823492309729e-03 4.313202363895e-03 0.0 
0.0 0.0 -8.070275419711e-04 
-1.590933393314e-03 -1.754583215491e-03 0.0 
-1.754583215491e-03 5.664446844218e-03 0.0 
0.0 0.0 -1.139074001596e-03 
1.644076570115e-03 -1.085629871930e-03 0.0 
-1.085629871930e-03 -5.732577340253e-04 0.0 
0.0 0.0 -4.589223583244e-04 
2.052489302078e-04 6.912241943710e-04 0.0 
6.912241943710e-04 2.710009798059e-03 0.0 
0.0 0.0 -1.126725356868e-03 
-1.535445043143e-03 -5.867914393128e-04 0.0 
-5.867914393128e-04 4.647107690583e-03 0.0 
0.0 0.0 -1.044109258258e-03 
-9.859779036616e-04 3.056684200562e-03 0.0 
3.056684200562e-03 5.375983574251e-03 0.0 
0.0 0.0 -1.249754184115e-03 
-6.610476002560e-04 2.303624772309e-03 0.0 
2.303624772309e-03 2.903406990762e-03 0.0 
0.0 0.0 -9.028501661438e-04 
-1.686501264746e-03 -1.526608176621e-03 0.0 
-1.526608176621e-03 6.045524770636e-03 0.0 
0.0 0.0 -1.168790087466e-03 
3.742641179637e-04 -1.152556169589e-03 0.0 
-1.152556169589e-03 2.146769681943e-03 0.0 
0.0 0.0 -1.036257385577e-03 
2.158291477526e-03 2.743008596258e-03 0.0 
2.743008596258e-03 -5.432811980168e-04 0.0 
0.0 0.0 -6.921472626470e-04 
-1.448920855555e-03 5.485150606776e-05 0.0 
5.485150606776e-05 5.277752212934e-03 0.0 
0.0 0.0 -7.498068730476e-04 
-1.593954056461e-03 -1.469135234964e-03 0.0 
-1.469135234964e-03 6.450266463409e-03 0.0 
0.0 0.0 -1.243807156011e-03 
5.209000563453e-05 -9.592901321100e-04 0.0 
-9.592901321100e-04 2.854437082012e-03 0.0 
0.0 0.0 -1.114542488500e-03 
3.461661553033e-05 3.551384216602e-03 0.0 
3.551384216602e-03 2.362376837699e-03 0.0 
0.0 0.0 -9.321888224300e-04 
1.558216832635e-03 -1.548696012587e-03 0.0 
-1.548696012587e-03 -4.269730613691e-04 0.0 
0.0 0.0 -4.848187591140e-04 
-1.159109189925e-03 1.672386638450e-03 0.0 
1.672386638450e-03 3.686907530899e-03 0.0 
0.0 0.0 -7.928834912169e-04 
-8.622534806161e-04 -2.703450422620e-03 0.0 
-2.703450422620e-03 3.567462389003e-03 0.0 
0.0 0.0 -1.042489463686e-03 
-8.810352068874e-04 3.464697463085e-03 0.0 
3.464697463085e-03 3.935493660585e-03 0.0 
0.0 0.0 -9.528746205426e-04 
-1.455694182561e-03 2.079571376027e-03 0.0 
2.079571376027e-03 8.238502292373e-03 0.0 
0.0 0.0 -1.306889097489e-03 
-4.021262128289e-05 -5.236218254538e-04 0.0 
-5.236218254538e-04 3.069008893941e-03 0.0 
0.0 0.0 -1.148622835147e-03 
-1.725562695568e-03 2.028005553636e-03 0.0 
2.028005553636e-03 5.979413828880e-03 0.0 
0.0 0.0 -9.696660045843e-04 
-9.371362615476e-04 -2.513813645279e-03 0.0 
-2.513813645279e-03 3.674904326905e-03 0.0 
0.0 0.0 -1.055577742195e-03 
6.828857261752e-04 2.319846812613e-03 0.0 
2.319846812613e-03 1.471382999158e-03 0.0 
0.0 0.0 -9.020111454724e-04 
3.069126660921e-04 -4.845997231989e-04 0.0 
-4.845997231989e-04 8.592191971431e-04 0.0 
0.0 0.0 -3.093966206321e-04 
-1.066278201586e-03 2.069319232208e-03 0.0 
2.069319232208e-03 3.624795843977e-03 0.0 
0.0 0.0 -8.430048313659e-04 
-1.188974335056e-03 -2.184404117123e-03 0.0 
-2.184404117123e-03 4.121734009211e-03 0.0 
0.0 0.0 -1.055179846540e-03 
3.051680346467e-03 -4.197736543643e-04 0.0 
-4.197736543643e-04 -1.412706451387e-03 0.0 
0.0 0.0 -7.024173836058e-04 
1.117277129867e-03 -2.070559341147e-03 0.0 
-2.070559341147e-03 1.215006496444e-04 0.0 
0.0 0.0 -5.309047626477e-04 
-5.077233341081e-04 1.801300421280e-03 0.0 
1.801300421280e-03 4.164826850224e-03 0.0 
0.0 0.0 -1.234277959947e-03 
-1.405357231203e-03 -1.830815427985e-03 0.0 
-1.830815427985e-03 4.525691195773e-03 0.0 
0.0 0.0 -1.058821591963e-03 
2.981871888689e-03 -4.320249597075e-04 0.0 
-4.320249597075e-04 -1.387251596233e-03 0.0 
0.0 0.0 -6.834086967669e-04 
-1.589234832291e-03 -1.465860908847e-03 0.0 
-1.465860908847e-03 4.884351969089e-03 0.0 
0.0 0.0 -1.063846254002e-03 
-8.219124233661e-04 1.884899957964e-03 0.0 
1.884899957964e-03 3.049244611375e-03 0.0 
0.0 0.0 -8.384157971481e-04 
-1.674104129450e-03 2.267631102477e-03 0.0 
2.267631102477e-03 5.977690423385e-03 0.0 
0.0 0.0 -9.983267706061e-04 
-1.746776969671e-03 -1.092710579845e-03 0.0 
-1.092710579845e-03 5.203384673320e-03 0.0 
0.0 0.0 -1.068006041337e-03 
-9.280916248974e-04 3.352222764373e-03 0.0 
3.352222764373e-03 4.310032082870e-03 0.0 
0.0 0.0 -1.003151257071e-03 
2.463563334715e-05 -8.807126364979e-04 0.0 
-8.807126364979e-04 9.974910621111e-04 0.0 
0.0 0.0 -3.190932086048e-04 
1.865633619246e-04 3.322818699054e-03 0.0 
3.322818699054e-03 2.196662702388e-03 0.0 
0.0 0.0 -9.369607680273e-04 
-1.969274810505e-03 -5.697349439415e-04 0.0 
-5.697349439415e-04 6.492408088354e-03 0.0 
0.0 0.0 -1.155419075730e-03 
4.460939102830e-04 -2.841642607167e-03 0.0 
-2.841642607167e-03 1.136269056788e-03 0.0 
0.0 0.0 -6.781555573162e-04 
7.887889646567e-04 -2.571324212251e-03 0.0 
-2.571324212251e-03 6.415432993246e-04 0.0 
0.0 0.0 -6.129995417062e-04 
-1.637827184878e-03 2.388605245637e-03 0.0 
2.388605245637e-03 6.314063370822e-03 0.0 
0.0 0.0 -1.063653581392e-03 
-4.992814516217e-04 1.972643240252e-03 0.0 
1.972643240252e-03 2.384387457051e-03 0.0 
0.0 0.0 -8.079025737556e-04 
5.124750958276e-04 -2.569400884271e-03 0.0 
-2.569400884271e-03 1.193670865080e-03 0.0 
0.0 0.0 -7.312054118175e-04 
-9.641562230990e-04 3.242704907183e-03 0.0 
3.242704907183e-03 4.707911026065e-03 0.0 
0.0 0.0 -1.067288052377e-03 
3.154663455590e-04 2.993279893955e-03 0.0 
2.993279893955e-03 2.102244501383e-03 0.0 
0.0 0.0 -9.588566822092e-04 
1.346446614896e-03 2.610050225058e-03 0.0 
2.610050225058e-03 1.067961116776e-04 0.0 
0.0 0.0 -6.228183113887e-04 
2.887356895726e-04 -2.230406662033e-03 0.0 
-2.230406662033e-03 1.886206335840e-03 0.0 
0.0 0.0 -9.159128653295e-04 
-3.070381522363e-04 2.361479177514e-03 0.0 
2.361479177514e-03 2.144874392585e-03 0.0 
0.0 0.0 -7.876441030066e-04 
-4.603323552836e-06 -2.296978514711e-03 0.0 
-2.296978514711e-03 1.485132063043e-03 0.0 
0.0 0.0 -6.345123169243e-04 
-1.725456702673e-05 -2.050421713285e-03 0.0 
-2.050421713285e-03 1.350463780520e-03 0.0 
0.0 0.0 -5.713753772113e-04 
2.694499012180e-03 -1.108798334530e-03 0.0 
-1.108798334530e-03 -1.215742971782e-03 0.0 
0.0 0.0 -6.337525887422e-04 
-1.125553493016e-03 3.166078986994e-03 0.0 
3.166078986994e-03 5.226172467772e-03 0.0 
0.0 0.0 -1.103081964739e-03 
-3.505794759798e-04 -2.805020388018e-04 0.0 
-2.805020388018e-04 1.476517852756e-03 0.0 
0.0 0.0 -3.018576685516e-04 
-1.520679869667e-03 2.700420786858e-03 0.0 
2.700420786858e-03 5.894437551981e-03 0.0 
0.0 0.0 -1.054898413167e-03 
1.434637815246e-04 -2.013001771722e-03 0.0 
-2.013001771722e-03 1.061630091320e-03 0.0 
0.0 0.0 -5.164688026476e-04 
2.470206604480e-03 -1.725455129164e-03 0.0 
-1.725455129164e-03 -1.033453851675e-03 0.0 
0.0 0.0 -6.157511797736e-04 
1.550603106910e-04 2.343951066894e-03 0.0 
2.343951066894e-03 2.741523029304e-03 0.0 
0.0 0.0 -1.077081564483e-03 
-1.567382262079e-03 5.775225248616e-06 0.0 
5.775225248616e-06 6.502023960398e-03 0.0 
0.0 0.0 -9.315431351609e-04 
1.994050342792e-03 -2.125051609346e-03 0.0 
-2.125051609346e-03 -7.055681148420e-04 0.0 
0.0 0.0 -5.522066691216e-04 
-8.473530892992e-04 -1.857205257249e-04 0.0 
-1.857205257249e-04 2.593065685554e-03 0.0 
0.0 0.0 -6.119633700263e-04 
1.664939330105e-03 -2.423764940749e-03 0.0 
-2.423764940749e-03 -3.798301328600e-04 0.0 
0.0 0.0 -5.507610845334e-04 
9.691114688175e-04 2.564299471471e-03 0.0 
2.564299471471e-03 7.430038862534e-04 0.0 
0.0 0.0 -7.337637236018e-04 
1.166584806499e-03 -2.448706473937e-03 0.0 
-2.448706473937e-03 1.644568183363e-04 0.0 
0.0 0.0 -5.704464106438e-04 
9.207629563978e-04 -2.562817695187e-03 0.0 
-2.562817695187e-03 4.684807333005e-04 0.0 
0.0 0.0 -5.953901527278e-04 
-1.509599202053e-03 7.115315669588e-04 0.0 
7.115315669588e-04 8.319494978419e-03 0.0 
0.0 0.0 -1.242975171717e-03 
6.644834369663e-04 -2.816687817472e-03 0.0 
-2.816687817472e-03 8.638079814567e-04 0.0 
0.0 0.0 -6.549820364670e-04 
-1.417913046649e-03 2.000204615730e-04 0.0 
2.000204615730e-04 8.717353493565e-03 0.0 
0.0 0.0 -1.305370344976e-03 
-1.585981038622e-03 -5.390524588140e-04 0.0 
-5.390524588140e-04 7.088561262435e-03 0.0 
0.0 0.0 -1.298405437673e-03 
-1.489518803289e-03 -4.573950556845e-06 0.0 
-4.573950556845e-06 5.635615486584e-03 0.0 
0.0 0.0 -7.997855503562e-04 
-2.605550091072e-04 1.921888767382e-03 0.0 
1.921888767382e-03 1.771030104647e-03 0.0 
0.0 0.0 -6.473464695169e-04 
0.0 0.0 0.0 
0.0 0.0 0.0 
0.0 0.0 0.0 
5.300339532942e-05 2.296518653744e-03 0.0 
2.296518653744e-03 1.380741919417e-03 0.0 
0.0 0.0 -6.144622777483e-04 
4.589079226346e-04 -2.669236835745e-03 0.0 
-2.669236835745e-03 1.017039993413e-03 0.0 
0.0 0.0 -6.325491068774e-04 
-1.344360499523e-03 2.998007223071e-03 0.0 
2.998007223071e-03 5.396263019476e-03 0.0 
0.0 0.0 -1.045752072333e-03 
-1.493847809746e-03 7.392246810856e-05 0.0 
7.392246810856e-05 5.643210332918e-03 0.0 
0.0 0.0 -8.029817139903e-04 
2.189770723719e-04 -2.551176870332e-03 0.0 
-2.551176870332e-03 1.274969331798e-03 0.0 
0.0 0.0 -6.402627446442e-04 
-1.419524211431e-03 3.075318657805e-03 0.0 
3.075318657805e-03 6.922500903080e-03 0.0 
0.0 0.0 -1.250093291501e-03 
-1.105460999237e-03 2.840056670224e-03 0.0 
2.840056670224e-03 5.499135179184e-03 0.0 
0.0 0.0 -1.306737725957e-03 
-1.583352928322e-03 1.388979039351e-04 0.0 
1.388979039351e-04 7.093261842357e-03 0.0 
0.0 0.0 -1.028769680629e-03 
3.110761131384e-05 3.070777297068e-04 0.0 
3.070777297068e-04 2.990066827201e-03 0.0 
0.0 0.0 -1.152835590205e-03 
4.038330844269e-04 2.562565156884e-03 0.0 
2.562565156884e-03 2.099896012322e-03 0.0 
0.0 0.0 -9.954397186036e-04 
-1.532870607185e-03 8.627533493903e-05 0.0 
8.627533493903e-05 8.032571934377e-03 0.0 
0.0 0.0 -1.185717314024e-03 
-1.493423908883e-03 8.976519337403e-05 0.0 
8.976519337403e-05 5.235057922781e-03 0.0 
0.0 0.0 -7.451086181774e-04 
8.476467916489e-05 -1.199388947894e-03 0.0 
-1.199388947894e-03 6.043361303539e-04 0.0 
0.0 0.0 -2.642930028689e-04 
-1.995343437528e-03 -3.338550389889e-04 0.0 
-3.338550389889e-04 5.735331553200e-03 0.0 
0.0 0.0 -1.072300834510e-03 
-4.728391316331e-06 1.911025163986e-03 0.0 
1.911025163986e-03 1.236688893795e-03 0.0 
0.0 0.0 -5.279830724910e-04 
3.550394143264e-04 2.259430213976e-03 0.0 
2.259430213976e-03 9.034181507030e-04 0.0 
0.0 0.0 -5.393389564412e-04 
6.085214745978e-04 2.284877078157e-03 0.0 
2.284877078157e-03 6.261355702317e-04 0.0 
0.0 0.0 -5.291387334984e-04 
-9.396181000691e-04 -7.967451354887e-04 0.0 
-7.967451354887e-04 3.058992386408e-03 0.0 
0.0 0.0 -8.121166773320e-04 
5.494964702923e-04 -2.584085792452e-03 0.0 
-2.584085792452e-03 8.433772001581e-04 0.0 
0.0 0.0 -5.969458587645e-04 
2.401282782028e-04 2.005638511475e-03 0.0 
2.005638511475e-03 9.040366262875e-04 0.0 
0.0 0.0 -4.903563876387e-04 
-5.261734606055e-04 6.022279658391e-04 0.0 
6.022279658391e-04 4.033101031005e-03 0.0 
0.0 0.0 -1.245112051941e-03 
-1.636730137181e-03 4.290067563108e-04 0.0 
4.290067563108e-04 5.580276288558e-03 0.0 
0.0 0.0 -8.050116406322e-04 
-1.121915910908e-04 2.515763012409e-03 0.0 
2.515763012409e-03 3.291467473346e-03 0.0 
0.0 0.0 -1.110409235593e-03 
3.679053624996e-04 1.946389288486e-03 0.0 
1.946389288486e-03 7.047317248665e-04 0.0 
0.0 0.0 -4.597016088712e-04 
-1.554707372438e-03 1.697440109364e-03 0.0 
1.697440109364e-03 8.056864122716e-03 0.0 
0.0 0.0 -1.247366155457e-03 
-7.215899275846e-04 2.377475014672e-03 0.0 
2.377475014672e-03 4.622150950018e-03 0.0 
0.0 0.0 -1.246608778627e-03 
-1.331856878630e-03 -1.983836111103e-03 0.0 
-1.983836111103e-03 6.114923973583e-03 0.0 
0.0 0.0 -1.306249356034e-03 
-3.798399904625e-04 2.398884536475e-03 0.0 
2.398884536475e-03 3.901175645834e-03 0.0 
0.0 0.0 -1.176371721005e-03 
7.581050863864e-04 2.227306199006e-03 0.0 
2.227306199006e-03 3.618205949459e-04 0.0 
0.0 0.0 -4.799681491424e-04 
-1.753134334940e-03 1.030981935736e-03 0.0 
1.030981935736e-03 5.768775069705e-03 0.0 
0.0 0.0 -8.603500797662e-04 
-1.168709675212e-03 3.249274189801e-03 0.0 
3.249274189801e-03 5.927681969270e-03 0.0 
0.0 0.0 -1.250827372426e-03 
-1.580586288305e-03 2.460651619642e-04 0.0 
2.460651619642e-04 7.417010690682e-03 0.0 
0.0 0.0 -1.080253149739e-03 
-1.410996846028e-03 -1.766992384939e-03 0.0 
-1.766992384939e-03 6.482040820837e-03 0.0 
0.0 0.0 -1.309985050881e-03 
-1.682012249170e-03 6.654682702296e-04 0.0 
6.654682702296e-04 5.457303072723e-03 0.0 
0.0 0.0 -7.979019438933e-04 
-1.482092413582e-03 4.825553233706e-04 0.0 
4.825553233706e-04 8.388620482460e-03 0.0 
0.0 0.0 -1.252774941638e-03 
2.053124764649e-03 -2.150351803165e-03 0.0 
-2.150351803165e-03 -1.002699963371e-03 0.0 
0.0 0.0 -4.501820576904e-04 
-1.472782165905e-03 2.611384925530e-04 0.0 
2.611384925530e-04 8.403666031078e-03 0.0 
0.0 0.0 -1.254166199180e-03 
-1.340636802885e-03 3.017781757784e-03 0.0 
3.017781757784e-03 5.759872352408e-03 0.0 
0.0 0.0 -1.110316242656e-03 
-1.575034003637e-03 2.533992497604e-04 0.0 
2.533992497604e-04 6.175537215493e-03 0.0 
0.0 0.0 -8.840149073763e-04 
-1.771751416511e-03 1.426780246192e-03 0.0 
1.426780246192e-03 5.587137473215e-03 0.0 
0.0 0.0 -8.570326279659e-04 
-1.684907386527e-03 -8.004631079360e-04 0.0 
-8.004631079360e-04 6.831074281255e-03 0.0 
0.0 0.0 -1.256337174517e-03 
-1.508670120193e-03 2.760870843371e-03 0.0 
2.760870843371e-03 7.327066348949e-03 0.0 
0.0 0.0 -1.249505442739e-03 
6.883790236625e-04 2.060671389361e-03 0.0 
2.060671389361e-03 2.237385116846e-05 0.0 
0.0 0.0 -3.046083749275e-04 
-1.585370214117e-03 2.593308700915e-04 0.0 
2.593308700915e-04 7.073771685170e-03 0.0 
0.0 0.0 -1.024357608964e-03 
-1.028891659838e-03 -1.361434891480e-03 0.0 
-1.361434891480e-03 3.507211596145e-03 0.0 
0.0 0.0 -9.709766588611e-04 
2.096603589134e-04 -4.522541456736e-04 0.0 
-4.522541456736e-04 -1.685826935135e-04 0.0 
0.0 0.0 -1.760471374282e-05 
-1.108111334259e-03 -1.824971532717e-03 0.0 
-1.824971532717e-03 5.280702358381e-03 0.0 
0.0 0.0 -1.249521112489e-03 
-1.346888651128e-03 3.065747420634e-03 0.0 
3.065747420634e-03 6.117675129117e-03 0.0 
0.0 0.0 -1.172189067419e-03 
-1.641216111045e-03 -1.228485444809e-03 0.0 
-1.228485444809e-03 6.632464522082e-03 0.0 
0.0 0.0 -1.251863004148e-03 
4.253395517685e-04 -1.330965256832e-05 0.0 
-1.330965256832e-05 8.162616228349e-04 0.0 
0.0 0.0 -3.073113677837e-04 
2.659967583917e-04 -9.636004765028e-04 0.0 
-9.636004765028e-04 4.197455964224e-04 0.0 
0.0 0.0 -2.058019112872e-04 
-9.341108583894e-04 -1.570273886574e-03 0.0 
-1.570273886574e-03 4.919000747850e-03 0.0 
0.0 0.0 -1.258522865334e-03 
-1.325021295734e-03 3.260852513925e-03 0.0 
3.260852513925e-03 6.529415890564e-03 0.0 
0.0 0.0 -1.257106814994e-03 
2.069780564081e-03 -2.887481408844e-03 0.0 
-2.887481408844e-03 -5.620999085580e-04 0.0 
0.0 0.0 -6.461488523668e-04 
-1.444494309143e-03 1.513018136519e-03 0.0 
1.513018136519e-03 8.529509024149e-03 0.0 
0.0 0.0 -1.314710167832e-03 
1.606042082751e-04 7.400733517384e-04 0.0 
7.400733517384e-04 -6.805152101560e-05 0.0 
0.0 0.0 -3.966543739693e-05 
-1.527500430813e-03 2.291957424775e-04 0.0 
2.291957424775e-04 5.159544215479e-03 0.0 
0.0 0.0 -7.389643750272e-04 
7.522855132365e-04 -8.129255998406e-04 0.0 
-8.129255998406e-04 2.933811725579e-04 0.0 
0.0 0.0 -2.584822669346e-04 
-1.451285018422e-03 -1.619253938531e-03 0.0 
-1.619253938531e-03 6.712702821616e-03 0.0 
0.0 0.0 -1.308531455474e-03 
-1.521082113150e-03 1.160385665173e-03 0.0 
1.160385665173e-03 8.292813149207e-03 0.0 
0.0 0.0 -1.254845750201e-03 
-1.245470008181e-03 -9.103756336826e-04 0.0 
-9.103756336826e-04 3.950697369425e-03 0.0 
0.0 0.0 -9.904446095582e-04 
-1.723966937065e-03 1.170670843267e-03 0.0 
1.170670843267e-03 5.001993590100e-03 0.0 
0.0 0.0 -7.582784842146e-04 
-9.206532372436e-04 -4.495869396707e-04 0.0 
-4.495869396707e-04 2.876332750162e-03 0.0 
0.0 0.0 -7.084058105195e-04 
-8.029287135569e-04 3.022070318119e-03 0.0 
3.022070318119e-03 4.846485263972e-03 0.0 
0.0 0.0 -1.203498912175e-03 
1.578052768763e-04 -1.733898146901e-03 0.0 
-1.733898146901e-03 8.518457615679e-04 0.0 
0.0 0.0 -4.327075879046e-04 
-1.502885003929e-03 8.385321329672e-04 0.0 
8.385321329672e-04 8.406515819115e-03 0.0 
0.0 0.0 -1.260296891839e-03 
-7.798982579111e-04 -1.032636455785e-03 0.0 
-1.032636455785e-03 4.559837266151e-03 0.0 
0.0 0.0 -1.261416966621e-03 
-1.541080814648e-03 2.248481841172e-03 0.0 
2.248481841172e-03 7.871819285488e-03 0.0 
0.0 0.0 -1.260618436842e-03 
-1.035661708301e-03 1.434119926330e-03 0.0 
1.434119926330e-03 4.999968609048e-03 0.0 
0.0 0.0 -1.317725628150e-03 
0.0 0.0 0.0 
0.0 0.0 0.0 
0.0 0.0 0.0 
-8.775793509473e-04 2.643781737553e-03 0.0 
2.643781737553e-03 4.999185491909e-03 0.0 
0.0 0.0 -1.263090216482e-03 
-3.359262024726e-04 -4.205327465571e-04 0.0 
-4.205327465571e-04 3.690481845722e-03 0.0 
0.0 0.0 -1.202239909569e-03 
-1.469921091904e-03 1.397057797389e-04 0.0 
1.397057797389e-04 5.245389338611e-03 0.0 
0.0 0.0 -7.439744481034e-04 
-1.522980262771e-03 2.574585562032e-03 0.0 
2.574585562032e-03 7.567445771786e-03 0.0 
0.0 0.0 -1.252574368527e-03 
-1.039501310576e-03 -8.329301664350e-04 0.0 
-8.329301664350e-04 3.357758752277e-03 0.0 
0.0 0.0 -8.789764298429e-04 
-3.276933337434e-04 -7.307720459036e-04 0.0 
-7.307720459036e-04 1.390604940151e-03 0.0 
0.0 0.0 -3.555153606766e-04 
-1.400496614823e-03 7.920880417302e-05 0.0 
7.920880417302e-05 8.744396333073e-03 0.0 
0.0 0.0 -1.313490227100e-03 
2.520733888645e-03 -3.426864807379e-06 0.0 
-3.426864807379e-06 -8.047604136628e-04 0.0 
0.0 0.0 -1.695477456824e-04 
-1.436285120339e-03 -8.822331672806e-06 0.0 
-8.822331672806e-06 5.224558560537e-03 0.0 
0.0 0.0 -7.402411036050e-04 
-1.541544735514e-03 -2.080816256948e-04 0.0 
-2.080816256948e-04 7.171789726740e-03 0.0 
0.0 0.0 -1.313492844077e-03 
-2.510837729256e-04 -3.936310680644e-04 0.0 
-3.936310680644e-04 1.321735893226e-03 0.0 
0.0 0.0 -2.948614013126e-04 
-1.524937947447e-03 4.475494657923e-05 0.0 
4.475494657923e-05 5.953624986698e-03 0.0 
0.0 0.0 -8.489638187885e-04 
-1.372178966628e-03 3.183705797245e-03 0.0 
3.183705797245e-03 6.771642373061e-03 0.0 
0.0 0.0 -1.260211869575e-03 
-1.590513358799e-03 -2.597680171264e-04 0.0 
-2.597680171264e-04 4.769333481416e-03 0.0 
0.0 0.0 -1.052454572086e-03 
-1.550492385742e-03 1.189328986090e-04 0.0 
1.189328986090e-04 7.800235903878e-03 0.0 
0.0 0.0 -1.148445367820e-03 
9.452528930191e-04 -2.939486558072e-03 0.0 
-2.939486558072e-03 5.700922820308e-04 0.0 
0.0 0.0 -6.494336464500e-04 
0.0 0.0 0.0 
0.0 0.0 0.0 
0.0 0.0 0.0 
-1.577256117848e-03 6.886097405366e-05 0.0 
6.886097405366e-05 6.718118974100e-03 0.0 
0.0 0.0 -9.668795991591e-04 
-7.257532866393e-04 2.108017519290e-03 0.0 
2.108017519290e-03 4.551210106726e-03 0.0 
0.0 0.0 -1.258714341260e-03 
-1.539880904137e-03 1.881264573762e-03 0.0 
1.881264573762e-03 8.091722768049e-03 0.0 
0.0 0.0 -1.263997700767e-03 
-1.584367033562e-03 2.539188043181e-04 0.0 
2.539188043181e-04 6.423614681133e-03 0.0 
0.0 0.0 -9.199601189493e-04 
1.149887053528e-03 2.260371255349e-03 0.0 
2.260371255349e-03 -3.607458547944e-04 0.0 
0.0 0.0 -3.382033708860e-04 
-1.352077778871e-03 3.162162671945e-03 0.0 
3.162162671945e-03 6.429958482634e-03 0.0 
0.0 0.0 -1.221038716794e-03 
-1.328731786449e-03 -9.755978743980e-04 0.0 
-9.755978743980e-04 4.177204897338e-03 0.0 
0.0 0.0 -1.017329335709e-03 
-1.052088232510e-03 3.182318808270e-03 0.0 
3.182318808270e-03 5.489904176315e-03 0.0 
0.0 0.0 -1.208939113964e-03 
-2.749523466846e-04 3.333334303576e-04 0.0 
3.333334303576e-04 3.590145673266e-03 0.0 
0.0 0.0 -1.203806565432e-03 
-3.137675977920e-05 1.040743397220e-03 0.0 
1.040743397220e-03 3.137675977920e-05 0.0 
0.0 0.0 0.0 
-1.710135402111e-03 -2.140528936374e-04 0.0 
-2.140528936374e-04 5.062773823412e-03 0.0 
0.0 0.0 -1.067873332563e-03 
6.585939474405e-04 -9.144432273007e-04 0.0 
-9.144432273007e-04 2.765533765623e-04 0.0 
0.0 0.0 -2.242399343496e-04 
-1.352905233575e-03 -1.915199808028e-03 0.0 
-1.915199808028e-03 5.962667998270e-03 0.0 
0.0 0.0 -1.263714160583e-03 
-1.428737268169e-03 -6.941057894653e-04 0.0 
-6.941057894653e-04 4.390777467220e-03 0.0 
0.0 0.0 -1.028704531826e-03 
-7.225107351643e-04 1.413614546651e-03 0.0 
1.413614546651e-03 2.641979771685e-03 0.0 
0.0 0.0 -7.653326381119e-04 
-1.014253867293e-03 -2.134932202391e-05 0.0 
-2.134932202391e-05 3.236715286896e-03 0.0 
0.0 0.0 -4.600000000000e-04 
-1.004964497974e-03 1.297444765431e-03 0.0 
1.297444765431e-03 3.201027753380e-03 0.0 
0.0 0.0 -7.249691623289e-04 
-1.133374822382e-03 -1.604044547880e-05 0.0 
-1.604044547880e-05 3.646694996426e-03 0.0 
0.0 0.0 -5.266666666667e-04 
-1.280118750972e-03 1.130412810083e-03 0.0 
1.130412810083e-03 3.777030638565e-03 0.0 
0.0 0.0 -7.062703689559e-04 
-1.238778796526e-03 1.445476418681e-07 0.0 
1.445476418681e-07 4.216199491205e-03 0.0 
0.0 0.0 -5.933333333333e-04 
-1.543151210513e-03 1.002710923754e-03 0.0 
1.002710923754e-03 4.354039341919e-03 0.0 
0.0 0.0 -6.963727196364e-04 
-1.346425769997e-03 3.815725794878e-05 0.0 
3.815725794878e-05 4.612334605524e-03 0.0 
0.0 0.0 -6.600000000000e-04 

SCALARS node_materi_plasti_kappa_shear float
LOOKUP_TABLE default
2.115083374134e-03
3.458023789683e-03
4.967886194112e-03
5.876066285134e-03
1.429593561868e-03
9.260891180627e-04
9.750663137551e-04
1.375519170543e-03
1.749514182145e-03
2.072909783402e-03
2.372334959694e-03
2.646556194044e-03
2.900020015941e-03
3.146970300908e-03
3.414657029732e-03
3.664527045737e-03
3.866039465253e-03
4.132559423194e-03
4.398804352871e-03
4.605615939913e-03
4.743184926543e-03
4.864835234233e-03
4.967891461667e-03
5.874817732443e-03
5.871659258458e-03
5.865996944230e-03
5.879052454380e-03
5.875406408010e-03
5.881746665879e-03
5.893121739855e-03
5.904403498293e-03
5.911667380715e-03
5.942687471040e-03
5.945547502063e-03
5.964504727329e-03
5.990682248078e-03
6.003086871528e-03
6.009687630856e-03
6.018022142948e-03
6.013722829185e-03
6.018405848819e-03
6.000999157977e-03
5.961878918865e-03
5.908140669358e-03
5.805875616932e-03
5.680054112450e-03
5.512945864727e-03
5.326235031303e-03
5.099814575695e-03
4.848871496600e-03
4.578436030419e-03
4.312126051031e-03
4.068983510438e-03
3.878948019144e-03
3.696536407386e-03
3.610414615740e-03
3.648906839705e-03
3.740049181565e-03
3.899047133921e-03
4.078094335185e-03
4.265058537564e-03
4.435125269456e-03
4.594665148187e-03
4.735181100800e-03
4.838272090162e-03
4.913247143246e-03
4.935696440884e-03
4.963163630605e-03
4.970148499816e-03
4.972729571996e-03
4.968771048834e-03
4.969260551934e-03
3.740141790492e-03
4.058111443788e-03
4.339280484927e-03
4.600412294281e-03
4.861219744615e-03
5.105119180278e-03
5.341101545075e-03
5.553418984263e-03
5.788796962491e-03
4.914879541938e-04
3.540835783254e-03
1.569505444895e-03
1.806164222754e-03
1.988465623784e-03
1.960646228179e-03
2.080219020031e-03
2.393864648440e-03
2.585388498505e-03
2.853460972533e-03
3.168094353423e-03
2.258894398881e-03
2.471218391375e-03
2.803483841189e-03
3.120103201879e-03
3.399382940078e-03
3.415840330809e-03
3.424362395235e-03
3.424497136894e-03
3.479931295206e-03
3.440294557840e-03
3.439848037433e-03
3.453307638175e-03
3.471621284897e-03
3.481974088033e-03
3.486271779339e-03
3.492543524408e-03
3.498742868845e-03
3.518045244631e-03
0.0
0.0
0.0
0.0
0.0
1.744449562148e-04
3.008916063010e-04
4.050478665291e-04
5.046139784359e-04
6.936516565607e-04
8.134086808571e-04
1.035447660179e-03
1.317664285716e-03
1.556461179225e-03
1.698703308833e-03
1.829256340020e-03
1.936274606327e-03
2.057713747761e-03
2.160946537055e-03
2.329801526954e-03
2.311849541342e-03
2.311140183058e-03
2.315030622513e-03
2.320305019076e-03
2.325652646986e-03
2.328557760242e-03
2.330567613179e-03
2.331830717636e-03
2.332628721550e-03
2.333053151228e-03
2.333146585386e-03
2.333520821397e-03
2.328232714637e-03
2.314605524701e-03
2.312410170032e-03
2.312829727166e-03
2.356920538134e-03
2.389555746367e-03
2.367097080516e-03
2.483010702437e-03
2.506754027908e-03
2.468879242947e-03
2.457348499547e-03
2.466578465204e-03
2.474302737319e-03
2.478559870350e-03
2.480374252064e-03
2.482060617048e-03
2.483166610535e-03
2.483757347614e-03
2.481626238939e-03
2.477865116003e-03
2.472879665190e-03
2.467009561395e-03
2.462065239057e-03
2.458696764635e-03
2.458241881530e-03
2.465987666585e-03
2.800073416758e-03
2.792133891103e-03
2.794251622192e-03
2.799303906406e-03
2.804006642559e-03
2.811538170580e-03
2.819615238005e-03
2.827588526175e-03
2.830423737218e-03
2.834223597871e-03
2.832548011680e-03
2.829858727631e-03
2.829414630415e-03
2.819420454677e-03
2.821018701118e-03
2.841223476047e-03
2.785918999873e-03
3.125502671646e-03
3.195441658547e-03
3.182187427784e-03
3.176497158046e-03
3.175725551500e-03
3.174775535585e-03
3.166739352413e-03
3.157972763163e-03
3.150169453340e-03
3.142150136721e-03
3.134434164911e-03
3.127916890668e-03
3.125563909718e-03
3.118279613313e-03
3.123246277339e-03
3.139058430584e-03
2.009022787201e-03
1.474374331820e-03
1.940173948538e-03
1.976172725544e-03
2.018544812754e-03
2.257702925448e-03
2.506826413067e-03
2.766578717886e-03
3.045897946307e-03
3.384322342055e-03
1.792071878644e-03
3.375143360345e-03
7.233637867985e-04
1.036141330496e-04
4.185730067683e-03
2.132887875458e-03
3.290669112102e-03
3.943090107724e-03
2.459850990970e-03
5.049081016827e-03
3.049657566422e-03
4.807738799368e-03
1.182564866658e-03
5.746835578076e-03
3.688122146157e-03
2.243660734344e-03
3.956138881533e-03
5.918594875086e-03
5.957497874511e-03
5.833020523938e-03
5.849817635203e-03
5.907569221224e-03
3.796891756948e-03
3.753148626160e-03
3.750719424971e-03
4.728883318265e-03
4.949356106529e-03
0.0
1.446675358332e-03
4.662329876841e-03
3.701848086155e-03
1.172285973879e-03
5.916122430582e-03
4.554740200655e-03
5.468890302383e-03
3.503959695460e-03
3.612570973627e-03
1.012610592318e-03
3.764133124860e-03
4.509011244357e-03
5.226961181745e-03
8.281022762432e-04
2.786147332295e-03
5.862108365073e-03
2.293034409321e-03
2.118172696952e-03
2.814022264942e-03
3.328976841209e-03
1.721454057649e-03
4.215679675405e-03
4.988678889666e-03
1.603073179023e-03
5.647207016452e-03
3.826980774528e-03
3.959485929510e-03
4.093805969592e-03
4.237157459642e-03
4.355175514086e-03
4.475551541186e-03
4.360600218784e-03
4.584917723766e-03
4.472803770017e-03
4.603457862675e-03
4.678779703983e-03
4.566901197709e-03
4.755547519284e-03
4.640471696753e-03
4.457539912409e-03
4.538567241607e-03
4.334573614265e-03
4.420847848507e-03
4.584491396975e-03
4.467742894371e-03
4.290813753397e-03
4.341561214995e-03
4.161369484108e-03
4.203844918484e-03
4.020961676830e-03
4.033609205765e-03
4.190038035743e-03
3.995998885876e-03
3.816070395907e-03
3.728966813226e-03
3.537030536043e-03
3.407128807490e-03
3.586398617854e-03
3.288807272957e-03
3.252863900070e-03
3.170185754012e-03
3.233111113295e-03
3.074120756272e-03
3.162643393988e-03
2.933378461355e-03
2.797468942969e-03
2.619962109437e-03
2.778421306725e-03
2.482787310082e-03
2.288870685994e-03
2.245276885126e-03
2.009188259652e-03
2.106063465321e-03
2.298880449605e-03
2.277186157407e-03
2.045146607384e-03
2.269833337432e-03
2.492081268530e-03
2.449252250951e-03
2.235847836527e-03
2.412279828812e-03
2.543747264894e-03
2.600115002725e-03
2.727482019444e-03
2.938942653524e-03
2.800953391655e-03
3.099410076939e-03
3.236731448007e-03
3.326718393122e-03
3.458435113975e-03
3.182252973246e-03
3.349632840797e-03
3.182734544931e-03
3.297058188961e-03
3.395874895856e-03
3.084763359842e-03
2.947638229530e-03
3.173599872694e-03
3.367971322397e-03
2.907366739478e-03
2.989778207621e-03
2.681037591212e-03
3.273090083598e-03
4.583977419968e-03
2.763122244056e-03
2.422279070482e-03
2.341976270933e-03
2.055104190934e-03
4.487857016271e-03
4.743988105410e-03
4.617567667593e-03
4.883368050274e-03
4.763228887328e-03
2.160659489003e-03
4.890919826071e-03
4.994559216402e-03
4.077898647515e-03
3.620014606063e-03
2.026865546520e-03
3.041451028518e-03
2.832922892333e-03
3.077663964186e-03
3.380542676541e-03
3.577929148800e-03
3.502531489785e-03
3.663458989421e-03
3.546277218968e-03
3.702657791091e-03
3.786178392521e-03
3.850978684801e-03
3.897450996605e-03
3.504687425170e-03
3.291824593051e-03
3.999992240266e-03
4.016767369501e-03
4.146857594668e-03
4.147424783067e-03
3.977096144328e-03
4.088166746606e-03
3.903561376438e-03
1.647610095171e-03
1.670364952503e-03
1.200482357020e-03
1.361632881091e-03
1.080278838397e-03
1.418148903541e-03
1.352867822665e-03
1.212666352797e-03
4.813044669928e-03
2.629702736151e-03
2.873791510621e-03
2.692884768804e-03
2.922961960319e-03
2.693279210870e-03
2.967619989366e-03
2.640231682294e-03
2.442231823403e-03
2.256451765602e-03
2.304389301660e-03
1.970174595809e-03
2.413972446824e-03
4.105974986965e-03
1.752978929950e-03
1.881015725757e-03
2.212471553438e-03
1.986920103444e-03
4.283844059938e-03
3.257008008793e-03
2.972866264147e-03
1.546774196166e-03
1.779410363677e-03
2.938187575973e-03
3.188246772319e-03
5.018824155785e-03
4.900262887059e-03
3.011629305590e-03
1.908912131209e-03
3.906913380700e-03
1.895281348439e-03
4.211749337744e-03
4.409990212532e-03
3.799088406628e-03
2.355436507833e-03
2.649299599465e-03
2.548634680734e-03
2.876527123569e-03
2.844168383616e-03
3.212913817799e-03
3.129285464298e-03
3.337589162415e-03
3.439166685576e-03
3.438974933722e-03
3.303340296455e-03
3.181680302338e-03
3.085186834318e-03
2.829834518630e-03
4.432489689449e-03
1.483659745450e-03
4.217722169449e-03
3.341461549786e-03
1.739764648709e-03
5.152372939051e-03
5.035369681437e-03
4.778294671962e-03
4.917428704147e-03
5.167012334313e-03
5.050565403691e-03
4.795745429522e-03
4.929418857156e-03
4.668419815856e-03
4.805864584515e-03
5.058823087727e-03
4.939281816885e-03
4.682797093272e-03
4.818002280012e-03
4.556116505805e-03
4.690388347301e-03
4.950293242362e-03
1.552403935002e-03
1.574322739071e-03
1.877343647282e-03
2.891197733424e-03
3.092514519054e-03
3.276732472821e-03
3.305456961863e-03
4.827759947093e-03
5.081593595751e-03
3.163419766099e-03
3.211991907021e-03
5.265451275810e-03
4.339993450943e-03
4.108622684801e-03
3.351327486416e-03
3.414147971325e-03
3.173366515349e-03
3.179934844101e-03
3.412464276917e-03
2.933374923412e-03
3.048978120526e-03
5.184623155997e-03
2.285735175407e-03
1.964820094476e-03
4.525309975274e-03
1.417417973454e-03
4.266164728390e-03
4.121971091758e-03
4.284403972733e-03
4.105296115865e-03
4.321717176209e-03
4.160575813867e-03
3.892235684062e-03
2.811745021311e-03
3.984494120429e-03
4.554222149543e-03
2.269911801835e-03
3.028107761873e-03
1.410044382037e-03
2.660796390280e-03
1.642549087339e-03
2.019881341573e-03
3.191265930906e-03
4.449437667659e-03
4.556738233615e-03
3.151991049237e-03
3.330144195961e-03
2.615443417616e-03
4.499456307731e-03
4.528967056282e-03
4.393751219098e-03
1.261306655149e-03
2.904934706402e-03
5.293699107592e-03
3.240583809678e-03
3.137492166912e-03
1.326987575174e-03
7.734678318549e-04
4.951662652887e-03
5.199111337285e-03
3.458302994746e-03
3.498814191065e-03
2.813032372855e-03
2.488302007795e-03
5.318301846901e-03
1.850643022250e-03
1.900800904807e-03
3.131639576739e-03
3.027700141336e-03
2.957799237182e-03
3.061527549215e-03
2.613926403272e-03
1.775348210848e-03
3.082947151770e-03
5.403046930315e-03
3.649594930354e-03
3.629629087466e-03
3.791790756931e-03
2.266631384107e-03
3.561658471125e-03
4.464949176004e-03
4.749074667133e-03
4.803902692703e-03
3.195369272568e-03
2.992485238832e-03
2.855378574955e-03
2.741778446605e-03
4.234794425954e-03
3.108532495677e-03
4.079034698662e-03
3.940552543924e-03
3.815579800974e-03
3.588995439569e-03
3.476421980838e-03
3.087431809056e-03
2.199698414150e-03
3.435465997500e-03
3.826462726601e-03
3.261674752205e-03
5.297684949133e-03
5.419151855637e-03
4.414057560104e-03
4.275097580202e-03
1.647451024479e-03
1.675335589964e-03
3.606226530559e-03
3.650868628108e-03
5.391618930748e-03
5.502109459712e-03
5.372609048885e-03
2.675369016162e-03
2.527778908692e-03
1.410070067518e-03
1.620197969852e-03
3.704561518482e-03
1.421863687494e-03
4.706685273956e-03
4.622442071867e-03
4.666940698600e-03
3.076866095470e-03
3.811195532018e-03
3.440349836705e-03
3.147617514472e-03
3.657267983904e-03
3.541815125300e-03
3.706500821150e-03
3.438152628286e-03
2.775184890772e-03
2.746720812631e-03
4.705097558488e-03
4.212391869045e-03
5.032584068110e-03
5.060540397521e-03
2.962566848859e-03
2.515241370603e-03
2.118397082965e-03
3.180431248684e-03
5.518846616804e-03
3.789817242396e-03
3.891070071717e-03
3.945571653991e-03
5.986403847301e-04
2.213189616717e-03
5.440739059520e-03
2.585939956196e-03
2.577091143894e-03
2.623503978078e-03
4.897871729883e-03
3.686454329978e-03
4.752961752010e-03
3.733356492718e-03
5.550112872523e-03
3.071330919958e-03
3.165660564610e-03
2.415063932661e-03
5.310812901883e-03
5.569340241546e-03
4.247537830652e-03
4.096212274891e-03
4.376310335557e-03
2.295285634796e-03
1.760148970824e-03
5.307204263575e-03
2.597022010623e-03
2.677083653507e-03
2.361042937549e-03
2.540509620076e-03
3.590752619766e-03
3.561980325172e-03
4.687546968051e-03
4.862462070621e-03
4.404636295064e-03
2.304172143242e-03
2.399216396593e-03
1.964677543140e-03
5.518361070662e-03
5.664420780412e-03
2.775557848670e-03
2.950132041529e-03
2.770175388850e-03
5.630497223971e-03
4.810959073252e-03
4.708255592783e-03
1.439105625328e-03
1.764440458605e-03
2.782344288704e-03
2.711314613078e-03
5.598196232206e-03
5.483018715217e-03
5.749000539319e-03
1.876891076347e-03
3.340823531716e-03
3.019076182411e-03
2.638636300015e-03
3.496239648933e-03
3.233921457243e-03
3.509435497577e-03
4.060457021751e-03
9.830298147040e-05
5.472024458089e-03
4.113394862956e-03
0.0
3.974022231900e-03
4.142147385999e-03
3.808811843470e-03
1.512139063608e-03
4.035840610883e-03
4.228908811524e-03
1.229665042051e-03
5.727754258707e-03
1.213722886229e-03
1.289130077108e-03
4.190343840825e-03
4.208177283858e-03
4.453725484854e-03
4.415818037714e-03
4.236650972425e-03
4.433395698974e-03
3.960847876624e-03
4.646929544121e-03
4.602784854752e-03
4.854292446809e-03
3.246379902709e-03
2.751258169961e-03
2.634703286177e-03
2.390161293581e-03
5.366413333148e-03
5.305369359066e-03
4.571502884887e-03
4.361148070354e-03
3.986570332512e-03
3.958169901241e-03
4.225562744729e-03
4.178369498049e-03
4.446132963819e-03
4.399693690965e-03
4.649688467265e-03
4.553994310106e-03
2.395247212063e-03
3.489844342941e-03
2.935834930029e-03
2.507685734422e-03
3.320342588166e-03
3.002197588997e-03
3.920773109245e-03
3.240450602112e-03
5.870937815019e-03
0.0
3.323452107101e-04
3.218749665587e-03
3.600131537244e-03
2.907036869022e-03
2.836905823125e-03
2.270773315379e-03
1.834790987996e-03
2.673096930044e-03
4.690114924130e-03
2.348836148975e-03
4.492676789655e-03
3.205482778443e-03
3.817317219374e-03
2.948492527326e-03
2.849084286571e-03
4.354187352303e-03
4.105094102283e-03
3.949385469094e-03
3.043885708512e-03
3.025811206364e-03
2.606730506197e-03
4.199509327046e-03
5.239720060421e-03
5.342311723545e-03
5.568723597318e-03
5.436074129988e-03
5.195127512814e-03
5.275945829576e-03
5.522846822361e-03
5.362101483362e-03
5.654790167380e-03
5.418798555265e-03
5.183358795615e-03
5.228039527145e-03
5.462723589554e-03
5.010149217662e-03
3.394314338742e-03
3.254416177728e-03
3.998143781564e-04
1.780285334436e-03
3.960367887196e-03
5.943039136803e-03
5.959345631699e-03
3.141346465330e-03
5.620347987340e-03
4.084459886071e-03
2.498622170437e-03
5.268940025094e-03
5.099701809653e-03
4.951938385870e-03
4.853275658762e-03
5.939990338712e-03
4.510478805277e-03
4.274617599746e-03
1.914060081792e-03
2.484209945367e-03
2.639018446471e-03
5.114013007791e-03
3.400229055208e-03
2.914794698409e-03
2.950236209628e-03
2.471629201444e-03
3.451405133461e-03
5.898428211788e-03
5.845499826008e-03
3.178797580669e-03
2.960279401288e-03
2.804058035340e-03
2.729987471253e-03
2.829725808593e-03
2.578048860295e-03
2.561856093753e-03
2.441038645177e-03
5.056780879738e-03
3.797514540817e-03
3.350528560522e-03
3.070190277767e-03
2.914035417259e-03
3.410817836896e-03
3.523130452731e-03
3.651707279838e-03
3.259955241283e-03
3.906281668705e-03
3.999951674760e-03
1.514180247365e-03
3.455226154399e-03
3.780489020667e-03
4.041242521720e-03
4.062468817485e-03
4.304541709678e-03
4.049230948442e-03
3.629888373411e-03
3.687995609435e-03
3.556481715217e-03
3.766062809759e-03
3.630392003192e-03
3.425625743275e-03
3.859887208052e-03
3.712754465682e-03
3.753295504860e-03
5.944650398121e-04
2.225590346816e-03
2.127823725117e-03
2.979469021594e-03
2.824219377905e-03
3.230470095965e-03
3.141720754719e-03
1.550829825203e-03
7.467435189644e-04
1.647650571366e-03
6.781160949691e-04
1.418844655901e-03
2.293180220520e-03
2.042650195457e-03
4.943618431220e-03
3.031335723016e-03
2.945155604069e-03
2.688743593994e-03
2.875725181900e-03
3.142994710358e-03
2.523324995075e-03
2.457510238830e-03
1.510421340239e-03
1.007815092101e-03
1.077602730068e-03
9.323160320548e-04
9.716390507349e-04
1.014619391924e-03
1.008787792094e-03
1.356424777816e-03
1.016122513265e-03
1.104929402575e-03
1.269761046994e-03
4.987755442147e-03
5.116267723268e-03
4.373987183766e-03
3.768398534654e-03
7.723067608076e-04
5.801414033109e-03
5.849888523554e-03
5.842497446698e-03
4.794097655678e-03
4.842845514710e-03
5.795857190058e-03
2.602280117318e-03
5.684608119029e-03
5.426766964233e-03
2.915293754372e-03
2.687040126660e-03
4.231633519162e-03
3.882386612765e-03
4.556515040672e-03
3.998756045770e-03
4.293387971553e-03
3.074535552154e-03
1.408470089399e-03
4.539066931421e-03
4.423048734156e-03
5.069081138623e-03
2.521812465648e-03
3.361884437641e-03
1.678049688451e-03
5.074061553586e-03
3.958676471230e-03
3.095099427902e-03
3.226856089265e-03
2.810734054587e-03
2.838974017310e-03
3.275246495708e-03
3.484344474013e-03
3.705978157807e-03
5.196157012198e-03
1.018518931270e-03
3.521375643282e-03
3.706077620756e-03
4.658000838490e-03
1.709680317594e-03
3.305261692782e-03
5.177694957922e-03
5.612493104205e-03
4.353675085413e-03
1.412398444283e-03
4.259060800004e-03
3.477784717748e-03
5.132413977016e-03
2.272689532028e-03
1.816489196477e-03
3.846604393139e-03
3.494167407997e-03
5.528278511332e-03
3.146089818610e-03
1.957139825605e-03
1.112448474457e-03
2.360079505855e-03
4.023485214536e-03
2.432815649017e-03
5.414327495685e-03
4.449676466395e-03
2.421354826549e-03
5.279237453520e-03
2.481134471885e-03
2.154599998102e-03
3.850201562972e-03
4.337013816297e-03
4.689567346140e-03
3.889632788579e-03
4.106706360112e-03
3.777078850776e-03
2.080073589128e-03
3.024091218619e-03
4.636084587167e-03
4.310138882828e-03
5.639613987774e-03
3.640972516568e-03
4.095996415080e-03
5.509310551577e-03
3.587895264237e-03
1.596224348258e-03
2.654907617398e-03
2.518196502036e-03
2.963465931010e-03
3.699806971781e-03
5.746687556824e-03
4.270512341207e-03
2.658558888212e-03
1.505731228653e-03
3.642720607827e-03
4.434127154033e-03
1.755325851135e-03
2.085706409627e-03
3.490851329931e-03
4.839928513279e-03
3.143753996542e-03
4.591157827227e-03
1.995758212990e-03
3.213796841356e-03
3.698867822439e-03
4.783484472751e-03
2.274372036269e-03
3.942041855717e-03
2.018129477521e-03
3.179171001688e-03
3.766024258519e-03
4.461967294443e-03
5.932012927013e-03
2.263421662545e-03
4.710985723029e-03
3.694491554536e-03
2.635139483983e-03
1.025903351167e-03
3.364049018946e-03
3.741140459926e-03
2.496086040746e-03
2.247981960543e-03
3.447314890979e-03
3.806063609485e-03
2.443637327429e-03
3.889607978100e-03
2.932212877137e-03
4.809565923031e-03
3.991122142150e-03
4.535682597544e-03
1.253579093275e-03
3.692076032167e-03
4.710605835282e-03
2.989317964917e-03
2.692080032987e-03
5.041460301469e-03
2.649271473601e-03
2.763935828314e-03
4.635607043239e-03
3.377136231024e-03
2.886852932384e-03
2.656221383019e-03
2.841982051278e-03
2.546121946090e-03
2.280710634061e-03
2.448224017802e-03
4.844932991548e-03
1.159538546380e-03
4.958406181658e-03
2.170695742773e-03
2.635116820677e-03
3.060192089563e-03
4.490482294088e-03
2.676098572190e-03
1.933023820066e-03
2.768539009112e-03
2.773761821372e-03
2.620450107336e-03
2.685714993396e-03
5.648300186419e-03
2.938653539912e-03
5.823614188445e-03
4.963188208300e-03
3.932121989893e-03
2.324149862710e-03
0.0
2.514548860694e-03
2.801591293186e-03
4.851561224056e-03
3.937231005468e-03
2.729494295403e-03
5.675085357911e-03
4.803426685540e-03
4.862248751244e-03
2.171293786245e-03
3.009255413908e-03
5.428982077181e-03
3.693412385959e-03
1.283308417236e-03
4.241990484630e-03
2.118254558368e-03
2.377043969348e-03
2.382468483149e-03
2.413239708947e-03
2.697664909012e-03
2.126804265286e-03
2.932528478253e-03
3.975655703172e-03
3.423996743188e-03
2.040734890307e-03
5.723862858495e-03
4.029709976472e-03
4.729446121623e-03
3.643538952676e-03
2.324384274866e-03
4.240145590125e-03
5.248251932663e-03
5.065638731077e-03
4.865415511008e-03
3.950525462167e-03
5.659251463191e-03
2.734727135404e-03
5.648629554702e-03
5.043134290996e-03
4.301884988432e-03
4.260018092810e-03
4.871863521837e-03
5.738997361023e-03
2.142169266280e-03
4.855264715639e-03
2.941329875457e-03
4.982839675412e-04
4.155649936064e-03
5.251942821196e-03
4.831609780295e-03
9.013000089023e-04
1.077083856090e-03
3.817677234665e-03
5.571067232882e-03
3.300048357497e-03
5.920327576545e-03
7.577862853330e-04
3.663422898644e-03
1.060195543772e-03
4.951255767582e-03
5.712619248511e-03
3.070814862917e-03
3.822820158157e-03
2.186156026243e-03
4.538463984820e-03
1.851321241038e-03
5.716697476405e-03
3.395600169627e-03
5.810236312995e-03
3.850312672382e-03
0.0
4.395921499424e-03
2.651166453379e-03
3.693193394849e-03
5.779881690989e-03
2.632058365002e-03
1.305216945228e-03
5.834411797515e-03
1.794472957361e-03
3.663155821034e-03
4.974463401011e-03
1.126337765141e-03
4.139350774126e-03
5.652422135997e-03
3.542221846802e-03
5.289169342971e-03
3.063748398770e-03
0.0
4.627165150353e-03
3.844266386451e-03
5.798941796910e-03
4.453871606854e-03
2.441774290393e-03
5.465528199286e-03
3.248665564557e-03
4.976193501889e-03
2.571640358639e-03
1.046045740335e-03
3.751244995352e-03
1.075195837059e-03
4.615840899057e-03
3.326084611542e-03
2.413991401372e-03
2.324628182171e-03
2.687439418484e-03
2.614478323154e-03
2.992334186830e-03
2.991431796678e-03
3.343927869160e-03
3.270124677663e-03

SCALARS node_materi_plasti_phimob float
LOOKUP_TABLE default
-5.027881272247e+01
5.431028306244e+00
2.064480472396e+01
1.912170412304e+01
-3.028947623185e+01
-2.944885546031e+00
1.009247217662e+01
1.351309991076e+01
1.293007302398e+01
1.462279113983e+01
1.592041399272e+01
1.690868723823e+01
1.767962694214e+01
1.831187953498e+01
1.884823919856e+01
1.923828891390e+01
1.952304188976e+01
1.984943188087e+01
2.044548727356e+01
2.090135121470e+01
2.088913624488e+01
2.082529837993e+01
2.073741712572e+01
1.915705697656e+01
1.915178722500e+01
1.916572344103e+01
1.918240680971e+01
1.918033542039e+01
1.921687805516e+01
1.924130473716e+01
1.929330977952e+01
1.935358839500e+01
1.941941909152e+01
1.946913674087e+01
1.957289869810e+01
1.966951021212e+01
1.979382632904e+01
1.989624728215e+01
2.004428299822e+01
2.019887975770e+01
2.034945394292e+01
2.056572897086e+01
2.075517410638e+01
2.091094732955e+01
2.100696228054e+01
2.112581603045e+01
2.119708948266e+01
2.123782923430e+01
2.124983631247e+01
2.126331476998e+01
2.123541768585e+01
2.121458716260e+01
2.114921160381e+01
2.113866211463e+01
2.110393698280e+01
2.104899705059e+01
2.100594295637e+01
2.096611167457e+01
2.091722847463e+01
2.088556944820e+01
2.084776114941e+01
2.081919854214e+01
2.079390922167e+01
2.075485367820e+01
2.071512832659e+01
2.069342091110e+01
2.071762670218e+01
2.065889204409e+01
2.066383402245e+01
2.064624172196e+01
2.064042823339e+01
2.064221576952e+01
9.041336834150e+00
1.154204737892e+01
1.334132279894e+01
1.470543234807e+01
1.582944655677e+01
1.673928548490e+01
1.751947423705e+01
1.818848002509e+01
1.877090963753e+01
1.875710160568e+01
5.428955223035e+00
3.382679162388e+01
2.880555708497e+01
2.780626757955e+01
2.687479277404e+01
2.431398369192e+01
1.246484779177e+01
-1.162409011521e+00
-1.263216622192e+00
1.480195791520e+00
-3.077353296800e+01
-2.502801858697e+01
-1.126994088922e+01
-6.484867734377e-01
4.750608876580e+00
4.964634145343e+00
4.960763239940e+00
4.883372537353e+00
5.367351173644e+00
4.830364082780e+00
4.709948444010e+00
4.680553889212e+00
4.685576587846e+00
4.599544967608e+00
4.520135596452e+00
4.490972671679e+00
4.559470833862e+00
4.802063399946e+00
1.007839665550e+01
8.663496418037e+00
9.341169624672e+00
1.027534851230e+01
1.134655424172e+01
2.418626162448e+00
-2.380494316271e+01
-3.835340446415e+01
-4.503328337620e+01
-4.732492034466e+01
-4.803188099854e+01
-4.811053090580e+01
-4.921236084605e+01
-5.048815483014e+01
-5.130466630798e+01
-5.198883984403e+01
-5.232710222934e+01
-5.222417717628e+01
-5.223294822537e+01
-3.145240580025e+01
-3.230473139736e+01
-3.237467355372e+01
-3.250395887257e+01
-3.276901613624e+01
-3.313269374552e+01
-3.353338084872e+01
-3.409131904363e+01
-3.484723705327e+01
-3.582343043975e+01
-3.698764860430e+01
-3.830506805619e+01
-3.966601004161e+01
-4.103150688477e+01
-4.206684491414e+01
-4.222908702642e+01
-4.003918181116e+01
-3.415139048926e+01
-2.327953007896e+01
-7.197036126890e+00
-1.308369038627e+01
-1.668497865616e+01
-2.190302925006e+01
-2.386331610070e+01
-2.482586312130e+01
-2.524259380311e+01
-2.558035347501e+01
-2.584721057001e+01
-2.599430299044e+01
-2.606205152666e+01
-2.608576389923e+01
-2.609278214490e+01
-2.611820740926e+01
-2.610497789583e+01
-2.603399174896e+01
-2.597497411518e+01
-2.595695784717e+01
-2.604477347489e+01
-2.585422134285e+01
-1.187649137767e+01
-1.222248076299e+01
-1.221836437468e+01
-1.220032796313e+01
-1.220958685528e+01
-1.221301031294e+01
-1.221411543396e+01
-1.222638135436e+01
-1.220548755759e+01
-1.203892493055e+01
-1.175026912086e+01
-1.132113677568e+01
-1.071194347616e+01
-1.000608038182e+01
-8.958845172597e+00
-6.724756819739e+00
-5.896603818591e+00
-6.482520859523e-01
-2.685963053339e-01
-1.094243156382e+00
-1.281332388844e+00
-1.307505472073e+00
-1.283989580083e+00
-1.270177618609e+00
-1.205075799019e+00
-1.111217829629e+00
-1.055267228718e+00
-1.011250944254e+00
-9.735880575028e-01
-9.349769686817e-01
-9.350240966341e-01
-7.819997896183e-01
-4.737011537934e-01
3.499586537224e+01
3.087928390778e+01
2.815593018172e+01
2.716258433193e+01
2.688635827080e+01
2.309815755734e+01
5.760229898546e+00
-8.164700793843e-01
4.127151296528e-01
3.840504373539e+00
2.716583512696e+01
2.138489339192e+01
-3.416301133872e+01
1.316005313490e+01
2.113822109667e+01
2.378433840186e+01
1.862208681673e+01
2.148832888727e+01
1.760015979509e+01
2.132460760505e+01
4.846312945925e+00
2.087343832321e+01
-3.796863629633e+01
2.068833875408e+01
7.552257270758e+00
1.541223204977e+01
1.964417584832e+01
1.992755046454e+01
1.933590440458e+01
1.892522451373e+01
1.891796970890e+01
1.912470283843e+01
8.145627288172e+00
8.131061577612e+00
8.506580918282e+00
1.529708469447e+01
2.077824878871e+01
1.071450508070e+01
-3.672973366419e+01
2.091646297799e+01
8.358029787309e+00
1.228514699122e+01
1.947953621211e+01
2.143776863067e+01
2.107066261400e+01
2.150481871364e+01
2.127812556487e+01
-1.452609470493e+00
7.935295756635e+00
2.106886295936e+01
1.713752637887e+01
-3.726122893166e+01
1.735212844653e+01
1.898801629771e+01
2.208947266951e+01
2.505888729994e+01
8.010120838293e+00
5.350466560239e+00
3.207972441304e+01
1.262872170412e+01
2.072294131729e+01
-3.784118094207e+01
1.846028041738e+01
8.665997875194e+00
1.020702315272e+01
1.095165139416e+01
1.239303103182e+01
1.303485989534e+01
1.403692602848e+01
1.356373757247e+01
1.496778184313e+01
1.465415508211e+01
1.453947055927e+01
1.583824834090e+01
1.564913057159e+01
1.663546900939e+01
1.654129491754e+01
1.558151069976e+01
1.654681608779e+01
1.565766257246e+01
1.667985891253e+01
1.737206277056e+01
1.758411267228e+01
1.695284630116e+01
1.799651775136e+01
1.738792902618e+01
1.853827173463e+01
1.785481202519e+01
1.911249458618e+01
1.996009654617e+01
2.058524257372e+01
1.996809641903e+01
2.130595357253e+01
2.097072109619e+01
2.223197657992e+01
2.245967845434e+01
2.318261339944e+01
2.306326129760e+01
2.382033325374e+01
2.379082078474e+01
2.443693156445e+01
2.435673907530e+01
2.485187535584e+01
2.493342308201e+01
2.520760415412e+01
2.504839711127e+01
2.523634960588e+01
2.542290870258e+01
2.528409556551e+01
2.546826541822e+01
2.519654161231e+01
2.494650173034e+01
2.471074933201e+01
2.492673215689e+01
2.432671468638e+01
2.405715418688e+01
2.360108237733e+01
2.388092690047e+01
2.306121269036e+01
2.280977049733e+01
2.206797226283e+01
2.222374533003e+01
2.117048725737e+01
2.084418628765e+01
2.003548938897e+01
2.050551526053e+01
1.942756582376e+01
2.004872462464e+01
1.882779095630e+01
1.857417400978e+01
1.793207910163e+01
1.817751061332e+01
2.339002414027e+01
1.748120092618e+01
1.720516368759e+01
1.783688734057e+01
1.852768690988e+01
1.699898228577e+01
1.744509908278e+01
1.645647015131e+01
2.371136304361e+01
1.823502132462e+01
1.699570765218e+01
1.582735339618e+01
1.511276860156e+01
1.419885733078e+01
1.370735880092e+01
1.506657572766e+01
1.431139819232e+01
1.558027742738e+01
1.495502904343e+01
1.508024883450e+01
1.681033327895e+01
1.618148410773e+01
1.633407811847e+01
1.955266856411e+01
2.548192129355e+01
1.788453095258e+01
1.750447341748e+01
1.820090272643e+01
2.105840142080e+01
2.078741074921e+01
2.178785849922e+01
2.160281477028e+01
2.243596483356e+01
2.219641234899e+01
2.146376220605e+01
2.197846853467e+01
2.135216628090e+01
2.256749532207e+01
2.290298512723e+01
2.178044452749e+01
2.127346733907e+01
2.159710328512e+01
2.122193466552e+01
2.058556342506e+01
2.060718934439e+01
1.995648399940e+01
2.546967046142e+01
2.538293904980e+01
2.527412683542e+01
2.500407815225e+01
2.463853631003e+01
2.420150328180e+01
2.387539697863e+01
2.419631280904e+01
1.735664740673e+01
2.506933558044e+01
2.491442255362e+01
2.492167784579e+01
2.470552316356e+01
2.474320169348e+01
2.437653300482e+01
2.447882882909e+01
2.458325799433e+01
2.436866370636e+01
2.413480346409e+01
2.412861665304e+01
2.336628228009e+01
2.121722363651e+01
2.453000538933e+01
2.370628999240e+01
2.389428612846e+01
1.314874314859e+01
2.118450127136e+01
2.272562973867e+01
2.310432660828e+01
2.355796767602e+01
1.297427046033e+01
2.396463105413e+01
2.370716032990e+01
1.607863915791e+01
1.553593083489e+01
2.275567521366e+01
1.395315653474e+01
2.199144952644e+01
2.436169199034e+01
2.066992124417e+01
2.113781921542e+01
2.064439964514e+01
2.322376331786e+01
2.331507694376e+01
2.360741601358e+01
2.241748739112e+01
2.202279520835e+01
2.056017910388e+01
2.143541248149e+01
1.948495869075e+01
1.830193180434e+01
1.737607915630e+01
1.864652506005e+01
1.662328461452e+01
1.512325421493e+01
1.463155439439e+01
2.126703202161e+01
2.451867861846e+01
1.444509964199e+01
2.240619623146e+01
2.323955025881e+01
1.655683053786e+01
1.608450730096e+01
1.497837148511e+01
1.560464898724e+01
1.660382894090e+01
1.617623474686e+01
1.510648466936e+01
1.572890286951e+01
1.457284272995e+01
1.525784517466e+01
1.629272410434e+01
1.587475550924e+01
1.476147304345e+01
1.542877223007e+01
1.421835089352e+01
1.493557325622e+01
1.602344005782e+01
1.191498917348e+01
2.380828211765e+01
2.323286588830e+01
1.773888969400e+01
1.825307717664e+01
1.869112360363e+01
1.869628904942e+01
1.557316400298e+01
1.656370475953e+01
2.313620698873e+01
2.284801154564e+01
1.702190363400e+01
2.077741529254e+01
2.009841405953e+01
2.081370042992e+01
1.929847829973e+01
2.074804415666e+01
1.916497084497e+01
1.760977855963e+01
2.079325588966e+01
2.327006758060e+01
1.680948312601e+01
1.430968472913e+01
1.187260918482e+01
2.108236185440e+01
2.439406956343e+01
2.059495503053e+01
2.152043682467e+01
2.083325399812e+01
2.150171454860e+01
2.089904841655e+01
2.143856985912e+01
2.197774522323e+01
2.277883113091e+01
2.180941138298e+01
1.436124016594e+01
2.465521180957e+01
1.819053484969e+01
1.006763981173e+01
1.207649020634e+01
1.264853731899e+01
1.454835695346e+01
2.235298476556e+01
2.097819937664e+01
2.039212054515e+01
1.742848219403e+01
1.600168610096e+01
2.267543032280e+01
1.357321251362e+01
1.380950010630e+01
1.315085800014e+01
1.083030825262e+01
1.276131582203e+01
1.708313589036e+01
2.349807316058e+01
2.262897043461e+01
2.482450884604e+01
2.549118737906e+01
1.612735894752e+01
1.701655157514e+01
1.903457105127e+01
1.907595191757e+01
2.269327012747e+01
1.227257522320e+01
1.738225228400e+01
2.395246348473e+01
2.439963362298e+01
1.827700897543e+01
2.216832176983e+01
2.256272789909e+01
2.011122566176e+01
1.458619113320e+01
1.331600926688e+01
2.223214780334e+01
1.745243308527e+01
2.226897578427e+01
2.257920779972e+01
2.198918646601e+01
8.148032186599e+00
2.203260363243e+01
2.088509400441e+01
2.060325538452e+01
1.999683267355e+01
2.326771904211e+01
2.243982251541e+01
2.169012732128e+01
2.143006868816e+01
1.319665708995e+01
2.284599731271e+01
1.462894890878e+01
1.305652126878e+01
1.337452595379e+01
1.674255547993e+01
1.557090016326e+01
2.455378833268e+01
2.526750423938e+01
1.903396302097e+01
1.994086613853e+01
2.206207022437e+01
1.716788294157e+01
1.761269092974e+01
1.338992682207e+01
1.267633705772e+01
9.840849633453e+00
7.666382589650e+00
1.985158436480e+01
2.208605084994e+01
1.742259418628e+01
1.783196517852e+01
1.747263963160e+01
2.255528771667e+01
2.489452406682e+01
2.527153612107e+01
2.398790409168e+01
2.277326997639e+01
3.831400159731e+00
1.799632918259e+01
2.098865779520e+01
2.100773124649e+01
2.232584455630e+01
9.519061590340e+00
2.348284194315e+01
2.406077068443e+01
1.126623439045e+01
1.178366682281e+01
1.400635315579e+01
1.283305700334e+01
1.972422426200e+01
1.792595831316e+01
2.106795536546e+01
2.166569275943e+01
2.037330118286e+01
1.971736416474e+01
2.218876601546e+01
2.253147272730e+01
1.490640844078e+01
1.447327008966e+01
1.785345883768e+01
1.114611810620e+01
2.172392242386e+01
2.179100506398e+01
2.390975566021e+01
2.211452195556e+01
1.778313510101e+01
2.072248868375e+01
2.025217923545e+01
2.111165434093e+01
2.077110635767e+01
8.338016477267e+00
2.090024832892e+01
1.634015684723e+01
1.809433407711e+01
2.387770609815e+01
2.218236335541e+01
2.305312487341e+01
1.739904501349e+01
1.817341438995e+01
1.217540362565e+01
1.126918593501e+01
1.290005375199e+01
2.399836138388e+01
2.446785437647e+01
1.727821985630e+01
1.688755122709e+01
1.709557542640e+01
1.279771531909e+01
1.488799924839e+01
1.933237130041e+01
1.929833278346e+01
1.875834428680e+01
1.854946708571e+01
1.992170792147e+01
2.394344167645e+01
2.406921494895e+01
2.462699545175e+01
1.792320931189e+01
1.836786836263e+01
2.120177107470e+01
2.168742432839e+01
1.901565547967e+01
1.818688748957e+01
2.090697757330e+01
2.101434003098e+01
-2.536056844317e-01
5.032594633425e+00
2.203461720494e+01
2.283479919548e+01
1.822495073626e+01
1.792114830325e+01
1.858432723945e+01
1.389168148072e+01
2.277812639373e+01
2.205108171756e+01
2.239841913074e+01
2.169821307898e+01
2.239719452439e+01
2.202093165906e+01
2.173024108252e+01
2.040256374427e+01
1.794960307791e+01
1.152154891065e+01
1.588029269634e+01
1.059374955268e+01
1.187410290291e+01
9.325432441513e+00
1.298959713173e+01
1.063940036317e+01
1.191257683264e+01
-9.933444871837e+00
1.854051447952e+01
-7.986772525908e+00
-1.488729846996e+00
2.146450682141e+01
2.153157233152e+01
2.124372242586e+01
2.130408023677e+01
2.153928226151e+01
2.132300741675e+01
1.021914422426e+01
2.107252050097e+01
2.112210949611e+01
2.094433950685e+01
9.596183019155e+00
2.066333238211e+01
1.929687920080e+01
2.018474091945e+01
2.029350582810e+01
1.958836378836e+01
2.093913012966e+01
2.048686219673e+01
1.080841821170e+01
1.074258265244e+01
1.257213028745e+01
1.237975033980e+01
1.385259497222e+01
1.365916328678e+01
1.489502099857e+01
2.149401732084e+01
2.106068082992e+01
8.594312799433e+00
2.203697180387e+01
2.238414391596e+01
1.390858645671e+01
1.234195735333e+01
2.156559853365e+01
2.359882932240e+01
1.896252432177e+01
1.629189584953e+01
2.195148552819e+01
2.297071245593e+01
1.491977765458e+01
1.923709044859e+01
1.778054638028e+01
2.353852265306e+01
2.333566697640e+00
2.144632895655e+01
1.499310061596e+01
2.232740059719e+01
2.074114918468e+01
2.421687080531e+01
1.731325895424e+01
2.190615937116e+01
2.206503822966e+01
1.446482659930e+01
1.180375537884e+01
1.137251762456e+01
2.470296647015e+01
1.553272901362e+01
1.681318636551e+01
1.591224710450e+01
1.711644157550e+01
1.761463868909e+01
1.833341540830e+01
1.808751325786e+01
1.732670197890e+01
1.785076692336e+01
1.853611297883e+01
1.835435741710e+01
1.906691202887e+01
1.881747310170e+01
1.818983288315e+01
1.866741404484e+01
1.920361548674e+01
1.805859671493e+01
2.171690144043e+01
2.300723475406e+01
2.458635773485e+01
2.512590776557e+01
1.689720636671e+01
1.973046742806e+01
1.941272820408e+01
2.422505025103e+01
2.087370091633e+01
1.301340622592e+01
2.416356506199e+01
2.120521404913e+01
1.676266997743e+01
1.641832499915e+01
1.575308980960e+01
1.925261589184e+01
1.363317879150e+01
2.144534794359e+01
2.512724528550e+01
2.492838273943e+01
2.494546309193e+01
1.763939005329e+01
2.143192529391e+01
2.188603967082e+01
2.184161492418e+01
2.238081679814e+01
2.134797229635e+01
2.023586063170e+01
2.050052863970e+01
2.070442593476e+01
2.223858648968e+01
2.286381717205e+01
2.339112944070e+01
2.290159008968e+01
2.391913596849e+01
2.416662241185e+01
2.436600632208e+01
1.906861027969e+01
2.123519769708e+01
2.269260583685e+01
2.298662765938e+01
2.251357921471e+01
1.886004488896e+01
1.910805871052e+01
1.953790128605e+01
1.857121860238e+01
2.217690568593e+01
2.117797139276e+01
2.491293069863e+01
1.878219779086e+01
8.009374597380e+00
1.045765825835e+01
1.062489362611e+01
1.248793618661e+01
1.059802211411e+01
1.935002375304e+01
1.940345895445e+01
1.915219843597e+01
1.947566966528e+01
1.923906891109e+01
1.889014004555e+01
1.955261068527e+01
1.932816307082e+01
7.984612375850e+00
1.380526842911e+01
1.348650730853e+01
4.864831154645e+00
1.343599545101e+01
1.754213815192e+01
1.681076412035e+01
1.962830852767e+01
2.005921776528e+01
-1.726850651726e+01
-2.867685745315e+00
-2.777870025716e+01
-8.275572186669e+00
6.151631494355e+00
1.055253776675e+01
2.077584783292e+01
1.803113540837e+01
1.779813283223e+01
1.707546103018e+01
1.762236658121e+01
1.831911769117e+01
1.650478697454e+01
1.624783497502e+01
-3.677934660078e+01
-1.013081218374e+01
-1.217694196372e+01
4.855414247436e+00
4.444846431920e+00
-9.945088583765e+00
-1.003893589435e+01
-3.688565520341e+01
-1.080968150508e+01
3.738327182929e+00
-3.764141829224e+01
1.631202804271e+01
1.679895421578e+01
2.109644992449e+01
8.439830137849e+00
-3.666958995468e+01
1.881769841031e+01
1.894281120851e+01
1.893620763881e+01
2.086203658778e+01
2.083178270338e+01
1.883377909871e+01
1.588892242273e+01
1.871922873125e+01
1.770584654725e+01
2.348965584172e+01
1.617717957885e+01
2.025888986233e+01
2.059980367651e+01
2.112999564265e+01
2.000302340361e+01
2.142655107222e+01
2.184450662895e+01
1.279931480691e+01
1.399959230181e+01
1.359742578848e+01
1.642949133804e+01
1.648297964162e+01
1.878022721261e+01
1.172089183986e+01
2.099850664462e+01
1.503050903148e+01
2.153442030909e+01
1.822924813474e+01
1.657378481345e+01
1.630915211692e+01
2.215047268902e+01
1.919746708502e+01
2.226455893058e+01
1.693306624743e+01
-3.395562654558e+01
2.238109679397e+01
2.065796048076e+01
1.441332089691e+01
2.348785506666e+01
1.583194187914e+01
1.669497116384e+01
1.815889459425e+01
1.276621109294e+01
7.338008196880e+00
1.240903686570e+01
2.189132335828e+01
1.660431672971e+01
1.569650861596e+01
2.533434740171e+01
1.843032546998e+01
6.332059704400e+00
1.800399106236e+01
2.391728668329e+01
2.297404752222e+01
2.489103340465e+01
1.602582585626e+01
2.179131394689e+01
2.529288867249e+01
1.752005140354e+01
2.017614317785e+01
2.506409424111e+01
1.701496114633e+01
2.322754255450e+01
2.307771691801e+01
1.567243564716e+01
1.936422014091e+01
1.732297872367e+01
2.181423905424e+01
1.986715270789e+01
2.207152486125e+01
2.348650380827e+01
2.220266223264e+01
1.430452182744e+01
2.140822088979e+01
1.822675587517e+01
1.799649133641e+01
2.173625664305e+01
1.780870131620e+01
1.933582753324e+01
1.283148962931e+01
2.326675493474e+01
2.477381139001e+01
2.446388126048e+01
1.989734142914e+01
1.869517978269e+01
2.150548618049e+01
2.313174022029e+01
2.977412112665e+01
8.894205576509e+00
2.130603087581e+01
2.503778114429e+01
2.289811800673e+01
1.897146292108e+01
2.123571026003e+01
1.107202909989e+01
2.115202849037e+01
2.343756817602e+01
2.399462243025e+01
8.404179290344e+00
2.096489913773e+01
2.289296277255e+01
2.218304626021e+01
2.456351555477e+01
4.692761178386e+00
1.996055121374e+01
1.876430548290e+01
1.919053084104e+01
2.266822504644e+01
1.533374332016e+01
1.959520892000e+01
2.400560087710e+01
4.078667376508e+00
8.734167565826e+00
1.959908932842e+01
2.453536636428e+01
2.402574675325e+01
2.193001655449e+01
1.963736198483e+01
2.472347453697e+01
1.969691760896e+01
5.848724308449e+00
1.610212167372e+01
1.976923285413e+01
1.926601563930e+01
3.388799528434e+00
2.283750901554e+01
2.091265690446e+01
1.820924703060e+01
2.340460176218e+01
1.705348136355e+01
1.062500305615e+01
2.365006553174e+01
1.964272091051e+01
2.321282812917e+01
2.451601726203e+01
2.351585930091e+01
1.349458558040e+01
1.533209300037e+01
1.349775990036e+01
2.444005883828e+01
1.924575655274e+01
1.204421894112e+01
1.746846784188e+01
9.243491853211e+00
2.375407739128e+01
2.281960715081e+01
1.413275798528e+01
2.325452395874e+01
1.394789972220e+01
2.231113007575e+01
2.449479907146e+01
2.177201770825e+01
2.051377257084e+01
1.837277417546e+01
1.955078165888e+01
1.890625541988e+01
2.072920205215e+01
1.054163191104e+01
2.211939776782e+01
1.009186406390e+01
1.871966230692e+01
1.736851520811e+01
1.798945070427e+01
1.062012866416e+01
1.622720855380e+01
1.944972166709e+01
2.138792219929e+01
1.582891041747e+01
2.266802184606e+01
2.334293291957e+01
1.781525641050e+01
8.066705751641e+00
-1.146384925544e+01
2.008213502037e+01
2.451654670082e+01
2.054550075866e+01
2.170573697721e+01
1.615133493860e+01
9.435026414720e+00
2.431489892586e+01
2.191090809270e+01
1.031347005636e+01
2.238682130400e+01
2.582671306849e+01
1.849871112704e+01
2.173143019572e+01
2.094559499549e+01
2.205244440992e+01
2.375585381673e+01
1.207138201097e+01
2.074580128961e+01
1.655122355426e+01
2.082489878462e+01
9.922415387557e+00
1.845829649555e+01
2.209147837451e+01
1.847032873093e+01
1.856961250994e+01
1.294731351156e+01
1.222015884270e+01
2.079825732119e+01
1.908594009283e+01
2.575053409782e+01
1.574752324611e+01
1.783067973783e+01
1.949209814405e+01
2.139058967142e+01
1.908582442085e+01
2.089333451710e+01
4.871674301622e+00
-1.485614333884e+01
2.151766935636e+01
2.006974604077e+01
1.965492189644e+01
1.911577043736e+01
2.774393960841e+01
7.582768455068e+00
-1.309365458449e+01
2.078079359844e+01
1.849668328083e+01
1.812943785236e+01
8.414695594088e+00
1.514070755669e+01
2.140332394955e+01
1.382515302526e+00
1.854729300504e+01
2.164899532705e+01
1.880319261876e+01
2.138418993432e+01
1.707574280672e+01
2.157905533346e+01
2.223496147246e+01
8.106568238045e+00
1.889244142813e+01
1.689402155728e+01
9.652677910605e+00
1.896572763247e+01
-4.161087565695e+01
8.050757031326e+00
2.069445120769e+01
1.097258036468e+01
1.209959317920e+01
1.978744577824e+01
1.906586862096e+01
1.740812813564e+01
1.413640249681e+01
1.028007543366e+01
1.480569255436e+01
2.174608540959e+01
1.871444500078e+01
1.382975585095e+01
2.360506871442e+01
1.952247762035e+01
1.852216112064e+01
2.077265805246e+01
2.225706558909e+01
2.819112380237e+01
1.938588090219e+01
-1.533006122459e+01
2.110230467804e+01
1.868679346063e+01
-9.543956508146e+00
-3.010352744486e+01
-5.495240954320e+00
-1.926154893306e+01
-1.871119584192e+00
-4.370084929224e+00
2.742260988013e+00
2.757181798623e+00

SCALARS node_materi_stress_average_a_sig float
LOOKUP_TABLE default
-7.664586791653e+00
-5.498582653423e+01
-2.421249343766e+02
-1.676691624341e+02
-1.247175049659e+01
-2.193206163636e+01
-3.168197186174e+01
-4.541092891556e+01
-6.054995461371e+01
-7.499932314880e+01
-8.891128840672e+01
-1.023144186576e+02
-1.152446854783e+02
-1.278660168228e+02
-1.403479241121e+02
-1.522494715247e+02
-1.629099095216e+02
-1.742941156399e+02
-1.858499374472e+02
-1.975283532569e+02
-2.099906740353e+02
-2.226221233743e+02
-2.347241481260e+02
-1.683292597590e+02
-1.676743870723e+02
-1.679186877285e+02
-1.680220127387e+02
-1.678941001922e+02
-1.685306272544e+02
-1.692045034079e+02
-1.693828373405e+02
-1.705024223082e+02
-1.711244335452e+02
-1.717156331850e+02
-1.730927883410e+02
-1.748888049047e+02
-1.760013637938e+02
-1.777261532368e+02
-1.791772630063e+02
-1.814786481104e+02
-1.847907849804e+02
-1.878455320932e+02
-1.911227353042e+02
-1.943313724179e+02
-1.977851034560e+02
-2.012569558021e+02
-2.047900436293e+02
-2.084536031481e+02
-2.120747220645e+02
-2.154072665426e+02
-2.185943141324e+02
-2.213964599089e+02
-2.246370160075e+02
-2.270289444651e+02
-2.288770520949e+02
-2.312643920194e+02
-2.334247332142e+02
-2.353341494972e+02
-2.369899245986e+02
-2.383204565676e+02
-2.392856102149e+02
-2.399630160365e+02
-2.403859952059e+02
-2.411326992753e+02
-2.420673207881e+02
-2.424826045086e+02
-2.410210024392e+02
-2.425149882711e+02
-2.420322461727e+02
-2.424287690794e+02
-2.428449068677e+02
-2.427753259106e+02
-6.723692978540e+01
-7.922232563323e+01
-9.112612530257e+01
-1.027023788711e+02
-1.144887742244e+02
-1.263818924222e+02
-1.379440711943e+02
-1.493161250852e+02
-1.611814654070e+02
-5.985485806492e+01
-6.158682130576e+01
-3.427491393391e+01
-3.095315009666e+01
-2.940768624763e+01
-2.789272141449e+01
-2.774864114103e+01
-2.694358739957e+01
-2.528056317224e+01
-3.730900990539e+01
-4.937891598031e+01
-1.138481277141e+01
-1.864861526013e+01
-3.064708682337e+01
-4.263985390153e+01
-5.348872325101e+01
-5.430420836404e+01
-5.436010228953e+01
-5.433937907275e+01
-5.615541702683e+01
-5.482794576340e+01
-5.500379262594e+01
-5.533423191249e+01
-5.590507454144e+01
-5.627365199392e+01
-5.678498398939e+01
-5.735322668753e+01
-5.825595427360e+01
-5.942147967916e+01
-8.260757447390e+01
-9.379690724045e+01
-9.656816335268e+01
-8.813962025245e+01
-5.598287821146e+01
-2.559090336551e+01
-1.421478684257e+01
-1.073961406043e+01
-9.361585863371e+00
-8.685869054107e+00
-8.407420488129e+00
-8.656928593547e+00
-8.255783731999e+00
-7.701828236022e+00
-7.473464335361e+00
-7.463521743531e+00
-7.391486080489e+00
-7.186550240089e+00
-7.045954143333e+00
-1.233140484815e+01
-1.233303256742e+01
-1.228988143802e+01
-1.225970200716e+01
-1.219835727490e+01
-1.211303259985e+01
-1.200618088936e+01
-1.186571922115e+01
-1.168933802380e+01
-1.147031061084e+01
-1.122240844504e+01
-1.096027978635e+01
-1.071848265068e+01
-1.043876682365e+01
-1.014091814595e+01
-1.004635974823e+01
-1.027708508467e+01
-1.109444022045e+01
-1.255886969087e+01
-1.359503232471e+01
-2.018632940399e+01
-2.138135471429e+01
-1.942333525323e+01
-1.881120464848e+01
-1.854762630732e+01
-1.840806914162e+01
-1.829989723202e+01
-1.825282334803e+01
-1.825199625986e+01
-1.827445059403e+01
-1.830710012683e+01
-1.834548521997e+01
-1.838455126119e+01
-1.841138276103e+01
-1.843150662320e+01
-1.844358269766e+01
-1.845339400460e+01
-1.846899820970e+01
-1.860721767492e+01
-3.063540799536e+01
-3.059804336256e+01
-3.060679670652e+01
-3.063937666514e+01
-3.068224713315e+01
-3.072606729306e+01
-3.078159867496e+01
-3.084649711507e+01
-3.094188436346e+01
-3.109785879403e+01
-3.132994674159e+01
-3.164863017808e+01
-3.208163304495e+01
-3.263812172767e+01
-3.335771764326e+01
-3.519010909813e+01
-3.385359361698e+01
-4.648965518830e+01
-4.769200797409e+01
-4.594643854238e+01
-4.517143172597e+01
-4.458102167654e+01
-4.414116354921e+01
-4.376102715351e+01
-4.348705707658e+01
-4.335331285003e+01
-4.315092310022e+01
-4.301177835432e+01
-4.291278264026e+01
-4.282309637586e+01
-4.272770120445e+01
-4.276180201533e+01
-4.275188408490e+01
-3.971169879868e+01
-3.230596372282e+01
-2.989022342381e+01
-2.901674503423e+01
-2.816257978090e+01
-2.914109178736e+01
-2.317156183260e+01
-3.274251554354e+01
-4.488251515705e+01
-5.666127080779e+01
-3.667866980170e+01
-2.263893431048e+02
-1.406747505620e+01
-6.573791170449e+01
-2.337206996989e+02
-3.352057408736e+01
-1.346257987539e+02
-2.163998893244e+02
-3.494988056496e+01
-2.049177961519e+02
-4.674061679551e+01
-2.369870851558e+02
-1.133912906638e+01
-1.913760813159e+02
-6.838742259594e+01
-8.271239120086e+01
-1.668104576977e+02
-1.818381941660e+02
-1.727799558335e+02
-1.640774172916e+02
-1.647101312501e+02
-1.686528700001e+02
-7.067608874135e+01
-6.747950405106e+01
-6.715537785309e+01
-1.087012979781e+02
-2.368218136900e+02
-7.904062385447e+01
-1.111022918485e+01
-2.032916393689e+02
-6.501763924436e+01
-3.841168508738e+01
-1.747840271286e+02
-2.117578642948e+02
-1.981017647644e+02
-2.206011939161e+02
-2.304331019155e+02
-2.540397115851e+01
-6.836339191957e+01
-2.333215645304e+02
-1.318497187530e+02
-1.241979153740e+01
-1.089144469812e+02
-1.652399310441e+02
-3.444564671403e+01
-3.450263214169e+01
-3.770755156474e+01
-5.735478814417e+01
-4.227760558551e+01
-8.618826942107e+01
-2.389834167572e+02
-1.056780587242e+01
-1.545373985413e+02
-7.354290734081e+01
-8.000377241376e+01
-8.454694248606e+01
-9.229994752930e+01
-9.745151390789e+01
-1.044335113865e+02
-9.952806305262e+01
-1.116424521252e+02
-1.068215773776e+02
-1.097475223876e+02
-1.189292566888e+02
-1.142631579903e+02
-1.263253371048e+02
-1.218260827054e+02
-1.098711674525e+02
-1.175685947328e+02
-1.058549044131e+02
-1.136882173170e+02
-1.253224509379e+02
-1.214862803729e+02
-1.100821213091e+02
-1.179503534332e+02
-1.067300568222e+02
-1.146497297392e+02
-1.035559366250e+02
-1.116206844926e+02
-1.223735274355e+02
-1.193423065610e+02
-1.087771030634e+02
-1.164594838814e+02
-1.060348398872e+02
-1.134682936359e+02
-1.236789568140e+02
-1.204232675808e+02
-1.101466785019e+02
-1.170332486669e+02
-1.069209562838e+02
-1.136871433810e+02
-1.037280113316e+02
-1.103401090299e+02
-1.202278502689e+02
-1.167677397016e+02
-1.071184505313e+02
-1.132873808866e+02
-1.230111522499e+02
-1.192625668398e+02
-1.290501864545e+02
-1.251546460477e+02
-1.155875548377e+02
-1.211558846963e+02
-1.308416670471e+02
-1.266809934220e+02
-1.169963100418e+02
-1.222661323510e+02
-1.325217034595e+02
-1.277821705110e+02
-1.174762173736e+02
-1.225393411753e+02
-1.335398630585e+02
-1.280628576546e+02
-1.168163818746e+02
-1.221818677132e+02
-1.336330302408e+02
-1.275758854880e+02
-1.389337630373e+02
-1.158505606315e+02
-1.211368777441e+02
-1.090908116988e+02
-1.143746409677e+02
-1.305384928120e+02
-1.020193497786e+02
-9.693753400376e+01
-1.073411411061e+02
-1.196336623782e+02
-9.465760663603e+01
-1.000420356478e+02
-8.702833880115e+01
-9.663976112144e+01
-1.330914455806e+02
-9.247982287256e+01
-7.914648895865e+01
-7.375768856367e+01
-6.555704793244e+01
-1.030064180089e+02
-1.149524441163e+02
-1.078996779764e+02
-1.201639750367e+02
-1.135406011964e+02
-7.101403834059e+01
-1.310445886909e+02
-1.269243375051e+02
-9.857431838665e+01
-9.798709896749e+01
-1.330228190545e+02
-1.053858250377e+02
-9.792215042618e+01
-1.107917434436e+02
-1.447114642239e+02
-1.497704215327e+02
-1.551834343104e+02
-1.603067026010e+02
-1.656248492641e+02
-1.711113689312e+02
-1.655582734365e+02
-1.767017424002e+02
-1.709318781907e+02
-1.769577054148e+02
-1.711265945560e+02
-1.822581603539e+02
-1.762530349002e+02
-1.877882089133e+02
-1.815567768826e+02
-1.703796460618e+02
-1.755556917603e+02
-1.644379576719e+02
-1.391817132893e+02
-1.433007939461e+02
-1.495417905799e+02
-1.535719548463e+02
-1.604434141528e+02
-1.649004231212e+02
-1.720176449272e+02
-1.673671238222e+02
-1.337935910819e+02
-1.040847324101e+02
-9.793265040024e+01
-9.535440415721e+01
-8.918831778666e+01
-8.710489032828e+01
-8.095478341583e+01
-7.957416278441e+01
-8.509718752915e+01
-7.837959374601e+01
-8.280742572356e+01
-7.659216151209e+01
-7.942041896638e+01
-1.299434268079e+02
-1.577232712317e+02
-1.695692846800e+02
-1.621897985752e+02
-6.033735563876e+01
-1.868751378099e+02
-1.829180281275e+02
-1.767024374519e+02
-1.790575265781e+02
-5.725675179103e+01
-7.332695216302e+01
-7.436195997940e+01
-1.254687481132e+02
-1.189891787881e+02
-1.888628416715e+02
-6.281309380840e+01
-1.885572151547e+02
-7.262702173622e+01
-1.806886990901e+02
-1.921996888283e+02
-1.599481318393e+02
-1.743544529468e+02
-1.667879366331e+02
-8.658786196890e+01
-8.202137422871e+01
-7.434526395822e+01
-7.672358934889e+01
-8.515536022772e+01
-7.930199399331e+01
-7.030272975130e+01
-7.220727724507e+01
-8.209924074946e+01
-7.484474936943e+01
-6.447178935356e+01
-6.677213587076e+01
-1.988638506162e+02
-7.130216265246e+01
-9.802377834430e+01
-1.951265274551e+02
-1.839810738352e+02
-1.308486910454e+02
-1.245340556277e+02
-1.125750341026e+02
-1.183329140296e+02
-1.301786916260e+02
-1.241159704854e+02
-1.122149732169e+02
-1.181214457624e+02
-1.061804397097e+02
-1.122078436659e+02
-1.240626903347e+02
-1.182809181446e+02
-1.063888296753e+02
-1.125495161633e+02
-1.006158629948e+02
-1.068378300077e+02
-1.187495213380e+02
-4.904957638314e+01
-1.741015503969e+02
-1.861489000872e+02
-1.038897858516e+02
-1.162530560699e+02
-1.232082284497e+02
-1.287611173972e+02
-1.130564751468e+02
-1.249345971113e+02
-6.673215978618e+01
-6.738448821006e+01
-1.372666313441e+02
-1.858282707241e+02
-1.746424311431e+02
-9.539508038090e+01
-8.702104857627e+01
-8.461537217964e+01
-7.577031828856e+01
-7.814427175691e+01
-7.369197235281e+01
-1.653171459780e+02
-1.300737662025e+02
-6.863790995809e+01
-5.559076614222e+01
-1.975904298453e+02
-1.627887084251e+02
-1.333643767466e+02
-1.409117440542e+02
-1.447353070431e+02
-1.524413312778e+02
-1.564997635530e+02
-1.642268337420e+02
-1.600862427356e+02
-1.791896309366e+02
-1.719410321561e+02
-1.010348297943e+02
-1.506795725120e+02
-8.512632603870e+01
-4.348366106267e+01
-5.469604874954e+01
-5.430355005428e+01
-6.864979541627e+01
-2.012362987242e+02
-1.683063264630e+02
-1.604278481606e+02
-6.659030491614e+01
-6.889029217658e+01
-1.868184429238e+02
-1.014381127316e+02
-1.002253978605e+02
-9.408240957290e+01
-3.909849141691e+01
-5.318830723217e+01
-1.358922503455e+02
-7.568345210041e+01
-6.854763774392e+01
-6.796319323492e+01
-6.732825087591e+01
-1.191958813801e+02
-1.309746146390e+02
-1.353836143989e+02
-1.407248710243e+02
-1.947526539766e+02
-5.774329142168e+01
-1.367498206581e+02
-1.692163624324e+02
-1.582521425957e+02
-1.217316194263e+02
-5.983270114728e+01
-6.013296838852e+01
-9.202893455554e+01
-6.958911519004e+01
-6.024375348939e+01
-2.072105387962e+02
-1.418431107472e+02
-1.677133446740e+02
-1.557884844725e+02
-1.798564709809e+02
-4.549203032921e+01
-2.076920657044e+02
-1.910458891221e+02
-1.717444922816e+02
-1.643677976586e+02
-7.730316905504e+01
-7.005585720394e+01
-6.104957911070e+01
-6.197952422559e+01
-9.466056497463e+01
-7.943830949440e+01
-9.400736742772e+01
-8.590412636807e+01
-8.182440162788e+01
-8.057088848847e+01
-7.132381921152e+01
-9.139844332072e+01
-1.368989838350e+02
-1.300103945778e+02
-1.593003580190e+02
-1.500301455224e+02
-1.357303139551e+02
-1.417502316304e+02
-9.439641799720e+01
-8.861580674335e+01
-4.702503539984e+01
-4.272295734269e+01
-1.439674065799e+02
-2.012341373788e+02
-1.423870766378e+02
-1.487608385569e+02
-1.437219936716e+02
-2.004120192861e+02
-1.011538648506e+02
-1.453884446167e+02
-6.832241653395e+01
-1.339474790167e+02
-3.414431334915e+01
-1.370935701356e+02
-2.031697624493e+02
-2.098855329539e+02
-1.915329822267e+02
-7.530761130035e+01
-1.407280360322e+02
-1.371386812987e+02
-7.346240275184e+01
-6.915233889200e+01
-7.793038150294e+01
-6.525121115881e+01
-9.541175112243e+01
-8.840282192704e+01
-1.810099658805e+02
-1.837790560532e+02
-1.758017636290e+02
-1.686575778854e+02
-1.992926237845e+02
-1.942413360644e+02
-7.416697141010e+01
-5.933188245916e+01
-1.475151279946e+02
-7.788182031701e+01
-2.135808898871e+02
-2.072603298227e+02
-6.668396452854e+01
-6.244521145853e+01
-1.428882866888e+02
-5.254975122202e+01
-5.267874661549e+01
-5.231912004134e+01
-2.285057521398e+02
-6.461153319885e+01
-2.155976701612e+02
-8.338837103700e+01
-1.487082715503e+02
-1.475150792146e+02
-9.247226357521e+01
-1.880436031049e+02
-1.365251467768e+02
-1.492518672851e+02
-8.807523296006e+01
-8.156695252801e+01
-9.392761436680e+01
-6.681487072012e+01
-6.123261425522e+01
-1.360478920997e+02
-9.046166528557e+01
-9.751574101544e+01
-6.071359635230e+01
-7.285281832748e+01
-1.418454142295e+02
-1.365979983526e+02
-1.448856322113e+02
-1.489079026973e+02
-1.370057890986e+02
-1.643449125144e+02
-1.537072639917e+02
-1.474399501087e+02
-1.470095139509e+02
-1.543597771071e+02
-1.019021803166e+02
-9.807852281104e+01
-9.934378050436e+01
-1.534023041115e+02
-2.220896759896e+02
-2.165474064795e+02
-3.024842048951e+01
-3.852980522932e+01
-5.236112482104e+01
-5.364878218405e+01
-1.548845409180e+02
-1.504772564883e+02
-1.609456395181e+02
-6.481600834363e+01
-1.633361845649e+02
-2.124310147906e+02
-2.054255976486e+02
-2.208025388501e+02
-1.836822335213e+02
-1.957649002294e+02
-1.918954078397e+02
-6.989802527628e+01
-1.450481053859e+02
-8.173040196082e+01
-7.262323381418e+01
-7.604156191747e+01
-8.275586234309e+01
-6.962527884962e+01
-5.051853883646e+01
-7.979381604264e+01
-8.798790176353e+01
-2.417316393212e+01
-1.586149592181e+02
-2.285631025528e+01
-2.673768932852e+01
-2.196893432810e+02
-2.130924844273e+02
-2.251604084249e+02
-2.184570390533e+02
-2.064822159158e+02
-2.123714610174e+02
-7.517152735905e+01
-2.260732368574e+02
-2.183897358007e+02
-2.319940284665e+02
-5.609278560966e+01
-6.285011571954e+01
-5.345776104353e+01
-4.237287621381e+01
-1.816107774111e+02
-1.718711357354e+02
-1.967214939500e+02
-1.850103725198e+02
-7.628702286870e+01
-7.548468523094e+01
-8.640834114635e+01
-8.479023171771e+01
-9.572455418190e+01
-9.400787768993e+01
-1.051138231808e+02
-1.958762691605e+02
-4.338449441685e+01
-6.529154690154e+01
-2.067103993120e+02
-2.006681829980e+02
-6.165625003342e+01
-4.897203784605e+01
-2.217008333453e+02
-8.662425479687e+01
-1.659671650622e+02
-6.503064202896e+01
-6.251440654221e+01
-8.932856081857e+01
-7.438080567460e+01
-6.426970755569e+01
-5.534362146639e+01
-1.757510526352e+02
-3.529942173372e+01
-5.237095434633e+01
-1.066680198176e+02
-4.462012696847e+01
-1.910936599957e+02
-9.384228295404e+01
-9.217326023871e+01
-6.030167346506e+01
-7.193211168082e+01
-1.022168231080e+02
-8.729433562878e+01
-8.260502391651e+01
-1.006634718928e+02
-5.714172661390e+01
-4.447229327590e+01
-1.020877985466e+02
-1.387616818917e+02
-1.455122060756e+02
-1.567740762603e+02
-1.524579411429e+02
-1.408170940428e+02
-1.478964537308e+02
-1.593430101984e+02
-1.555087178794e+02
-1.688720828004e+02
-1.628003041922e+02
-1.506299640715e+02
-1.577210089555e+02
-1.690851208476e+02
-1.458500087636e+02
-2.116605849062e+02
-9.973213354357e+01
-6.588117366439e+01
-5.597775049990e+01
-9.520464287984e+01
-1.788023966300e+02
-1.743450302463e+02
-8.262084909207e+01
-1.945722008651e+02
-9.021982630763e+01
-7.282275777685e+01
-2.015343839736e+02
-1.338076434292e+02
-1.287820525381e+02
-1.217963635974e+02
-1.715533634220e+02
-1.003270037277e+02
-2.144153132236e+02
-1.470009907036e+02
-1.404036599635e+02
-1.302927507915e+02
-1.432044236573e+02
-2.241355336961e+02
-2.147895542432e+02
-2.167484420119e+02
-2.044385368619e+02
-2.283589048053e+02
-1.854531276866e+02
-1.887589259345e+02
-8.865009697359e+01
-9.414511357971e+01
-1.032650982900e+02
-9.893453283346e+01
-9.028360517845e+01
-9.451666427220e+01
-1.030259923480e+02
-8.995230035508e+01
-1.606663348228e+02
-2.319293815831e+02
-1.602719749881e+02
-1.549132463019e+02
-1.444902746172e+02
-1.247962646529e+02
-1.314634251676e+02
-1.429430980560e+02
-1.178792777506e+02
-1.483463698080e+02
-2.330609545858e+02
-1.518628342147e+02
-1.263503142455e+02
-6.947797811287e+01
-8.109810477976e+01
-8.259662382851e+01
-9.391228794415e+01
-8.118865320652e+01
-1.470946352840e+02
-1.522727614918e+02
-1.459959253887e+02
-1.574028165094e+02
-1.509043586412e+02
-1.401878496042e+02
-1.622854048326e+02
-1.550002950457e+02
-6.783359116670e+01
-4.131370158776e+01
-4.333324523406e+01
-3.438568259226e+01
-4.881552176286e+01
-5.578276130507e+01
-6.095257900339e+01
-6.348272853152e+01
-5.425478205317e+01
-1.924641027324e+01
-2.962590174030e+01
-1.592217721595e+01
-2.617475585169e+01
-4.066594201011e+01
-5.156797117793e+01
-2.353062098499e+02
-1.215019079224e+02
-1.153865895842e+02
-1.030677278291e+02
-1.097841481509e+02
-1.264247446263e+02
-9.599441071745e+01
-9.112020199537e+01
-1.099721921337e+01
-1.874042030396e+01
-1.788910923314e+01
-2.737195121962e+01
-2.744286562189e+01
-1.918011171336e+01
-1.935364108788e+01
-1.113234840239e+01
-1.951281253596e+01
-2.855913392359e+01
-1.102329921083e+01
-1.205735083633e+02
-1.269361306008e+02
-2.341500370526e+02
-6.807040979548e+01
-1.313247956504e+01
-1.619505937359e+02
-1.650717995661e+02
-1.647683396707e+02
-2.159902305788e+02
-2.221864130450e+02
-1.618362298239e+02
-8.167585372966e+01
-1.638014758783e+02
-1.421024005092e+02
-6.643078619166e+01
-8.095509138190e+01
-1.797692913501e+02
-1.651933625893e+02
-2.043269112727e+02
-1.695595073931e+02
-1.933235202106e+02
-2.178780064978e+02
-4.600775269551e+01
-1.001996874243e+02
-9.488549141443e+01
-1.243835720255e+02
-8.467035726367e+01
-1.346181019240e+02
-5.185882372142e+01
-1.902972288184e+02
-9.022106295759e+01
-1.393004348997e+02
-1.126335833656e+02
-8.943434218254e+01
-7.762985708672e+01
-1.030000408459e+02
-1.327890761948e+02
-1.827845447983e+02
-1.305048887960e+02
-1.312593894096e+01
-1.889819906217e+02
-1.548002711450e+02
-1.063198923547e+02
-1.768255859575e+02
-6.306548939827e+01
-1.299384921153e+02
-1.532629263259e+02
-9.444645996435e+01
-3.845801965512e+01
-8.789638073849e+01
-2.137721044619e+02
-1.320469387771e+02
-7.677596313692e+01
-1.349940235363e+02
-1.006681448079e+02
-6.278181205521e+01
-1.472794997909e+02
-1.271021096990e+02
-1.912972505799e+02
-1.561333696314e+02
-8.271294817315e+01
-2.008059339614e+02
-1.267117892076e+02
-1.416352362779e+02
-1.486844871859e+02
-1.099143605763e+02
-1.362306744213e+02
-1.384924135672e+02
-1.818020055104e+02
-8.665027475948e+01
-1.257179450650e+02
-1.294189394432e+02
-1.267792852223e+02
-1.737351823921e+02
-1.949409453075e+02
-7.343242032606e+01
-8.210446120246e+01
-1.068807542605e+02
-1.758140232896e+02
-1.531091056683e+02
-8.948735810796e+01
-1.942675859054e+02
-1.474882128686e+02
-1.378562891250e+02
-5.429704040557e+01
-6.099849174571e+01
-9.273514444244e+01
-1.236987241643e+02
-1.490094427188e+02
-1.630337472173e+02
-1.999361550083e+02
-1.823748578090e+02
-3.861668591860e+01
-7.019356796865e+01
-2.056117521351e+02
-1.410490863797e+02
-1.889612455728e+02
-1.439572388975e+02
-1.932390509163e+02
-5.195116393254e+01
-2.113986701861e+02
-1.809980098218e+02
-8.447633481437e+01
-6.505098605250e+01
-2.255474065708e+02
-1.934239093020e+02
-1.372933362961e+02
-1.368213476158e+02
-5.191180472747e+01
-1.541366631338e+02
-1.292483741373e+02
-1.702134132883e+02
-1.983306502856e+02
-1.166116025908e+02
-1.480857926369e+02
-1.546785425606e+02
-2.779916963650e+01
-6.052295556251e+01
-1.532760927157e+02
-9.801496215964e+01
-1.430689037574e+02
-2.036361848017e+02
-1.584296776852e+02
-1.066422436121e+02
-1.635318238947e+02
-4.153219997806e+01
-1.238001072458e+02
-1.685844404813e+02
-1.408627691160e+02
-3.009887876313e+01
-1.444444661142e+02
-2.092964015292e+02
-1.039891633069e+02
-1.492268693337e+02
-1.359450643666e+02
-3.506388801420e+01
-1.595712747203e+02
-1.526751067784e+02
-1.515495046647e+02
-1.337690847328e+02
-1.704565788297e+02
-4.743431879340e+01
-7.679247873349e+01
-6.420473595213e+01
-1.118257272943e+02
-1.567085213338e+02
-3.708169999488e+01
-1.384693672175e+02
-4.814623705133e+01
-1.078302692760e+02
-1.713727590729e+02
-9.772150410571e+01
-1.125832431220e+02
-6.883591238718e+01
-1.076167801303e+02
-1.438098620737e+02
-1.120531866654e+02
-1.059505516817e+02
-1.535772890064e+02
-1.106736133632e+02
-1.638822251794e+02
-2.361555974038e+02
-7.410058980092e+01
-3.186815209285e+01
-8.261228052198e+01
-4.611389166578e+01
-9.236415641122e+01
-1.412951616799e+02
-7.462354727383e+01
-8.486776691143e+01
-1.746358014120e+02
-2.085537052690e+02
-1.148555306460e+02
-1.957557253916e+02
-1.590932176906e+02
-1.424322669210e+02
-6.471668554027e+01
-2.409769780746e+01
-1.795503817093e+02
-3.158864800262e+01
-4.311617070879e+01
-4.380749814369e+01
-8.738610340899e+01
-4.268975388511e+01
-3.403656025621e+01
-2.120478175954e+02
-7.705234058281e+01
-1.754999126806e+02
-3.524907190559e+01
-1.585254125105e+02
-2.015395039666e+02
-2.363556098166e+02
-1.879724016804e+02
-4.566182148673e+01
-9.039645328969e+01
-1.869175367872e+02
-1.243639490347e+02
-2.377102679144e+02
-7.683490303320e+01
-1.545824726698e+02
-6.816394399474e+01
-1.544671376173e+02
-1.532233661448e+02
-8.960321178028e+01
-9.218098172459e+01
-2.280368880768e+02
-1.691178074281e+02
-4.914225648432e+01
-1.144417105270e+02
-1.099212996986e+02
-6.435503016667e+01
-2.244515290287e+02
-1.643486413136e+02
-2.270587495258e+02
-2.682172320311e+01
-1.998853826804e+01
-2.246109859687e+02
-1.813653018257e+02
-6.872084555430e+01
-1.685341534653e+02
-5.369297169789e+01
-6.396637831207e+01
-1.914597648825e+01
-2.377090160532e+02
-1.568027739149e+02
-1.209700172196e+02
-7.228679899439e+01
-7.833308778406e+01
-1.861099951473e+02
-3.433248051543e+01
-1.570618296857e+02
-2.226911386074e+02
-1.647125697859e+02
-2.221811090990e+02
-7.186819823472e+01
-2.021140458006e+02
-2.086820548459e+02
-6.429893568575e+01
-1.663877807115e+02
-9.809471916565e+01
-3.768392346646e+01
-1.649667070519e+02
-9.807091877272e+00
-6.328636368314e+01
-2.388962421057e+02
-3.477320240410e+01
-8.290933512943e+01
-1.790888782627e+02
-1.470073221063e+02
-1.358089772697e+02
-5.375392703017e+01
-8.233561858621e+01
-1.039662590327e+02
-2.063626095679e+02
-1.625789250325e+02
-9.603766594426e+01
-5.605026260892e+01
-1.735411642032e+02
-1.303795369783e+02
-1.811900136556e+02
-2.053994984467e+02
-5.020391215645e+01
-1.571683480703e+02
-1.852597150432e+01
-2.285049824599e+02
-1.355659975895e+02
-1.387205733075e+01
-1.306690222859e+01
-2.843755789685e+01
-2.428327084023e+01
-4.144359565428e+01
-3.703062897160e+01
-5.370953238075e+01
-4.828303348958e+01

SCALARS node_materi_stress_size_dev_sd_sig float
LOOKUP_TABLE default
4.212844995102e+00
3.034861614623e+01
1.837024412109e+02
1.262114913767e+02
1.034330986383e+01
2.251496625921e+01
3.309494659510e+01
4.202598955579e+01
4.864234234604e+01
5.630335577103e+01
6.476434152477e+01
7.379544552429e+01
8.330757241230e+01
9.326619071898e+01
1.038480366464e+02
1.141101835704e+02
1.234575515857e+02
1.339819022052e+02
1.446767899908e+02
1.542464500339e+02
1.628037851523e+02
1.712181449598e+02
1.791106560867e+02
1.268898247781e+02
1.265029690222e+02
1.267207929023e+02
1.268905176322e+02
1.267163285929e+02
1.272967785014e+02
1.276993163778e+02
1.281516023435e+02
1.291066660728e+02
1.298686095061e+02
1.303617577644e+02
1.318127912172e+02
1.333026139884e+02
1.347800613145e+02
1.363014342336e+02
1.380496952952e+02
1.402338569119e+02
1.431012601954e+02
1.461054912504e+02
1.491739530017e+02
1.520732524616e+02
1.548939291199e+02
1.578486352595e+02
1.606415838932e+02
1.633923782680e+02
1.659826136552e+02
1.683785957563e+02
1.704715264133e+02
1.723250146348e+02
1.742579887114e+02
1.758712656425e+02
1.769760343079e+02
1.783522178970e+02
1.796271583335e+02
1.807413048674e+02
1.816293701400e+02
1.823803146797e+02
1.828447463942e+02
1.831585788215e+02
1.833133332537e+02
1.836174983865e+02
1.840471823109e+02
1.842152681881e+02
1.833325310451e+02
1.840490060877e+02
1.837435431360e+02
1.839200922831e+02
1.841745058810e+02
1.841366528898e+02
3.945978285077e+01
4.893458248987e+01
5.843772595679e+01
6.797208893508e+01
7.793384717731e+01
8.804111998941e+01
9.835458550500e+01
1.087800669022e+02
1.195850207659e+02
5.047118579644e+01
3.002565652515e+01
5.120171362796e+01
4.652806814856e+01
4.447984969120e+01
4.238181166097e+01
4.106020250431e+01
3.384465094625e+01
2.213853177020e+01
2.016558003048e+01
2.322025430086e+01
9.660246137892e+00
7.965175787006e+00
1.309271836268e+01
2.110091963180e+01
2.902846244725e+01
2.948043566605e+01
2.946184634542e+01
2.926732747380e+01
3.032909955238e+01
2.915630440512e+01
2.887823178781e+01
2.882233744564e+01
2.886124403724e+01
2.865735953828e+01
2.847656086046e+01
2.840480273076e+01
2.851154741619e+01
2.894914688402e+01
3.796592929187e+01
3.577508315305e+01
3.769661227984e+01
3.713032188570e+01
3.828842704982e+01
2.739877727656e+01
1.160766141372e+01
6.815528261072e+00
5.142792423909e+00
4.937780458277e+00
4.716404576387e+00
4.646708741129e+00
4.850568315473e+00
4.667827266990e+00
4.396439864512e+00
4.279125945766e+00
4.227569316299e+00
4.207492955551e+00
4.369331985128e+00
8.528907699753e+00
8.262179411864e+00
8.263793559907e+00
8.224672094512e+00
8.145056888891e+00
8.038420998278e+00
7.935384094790e+00
7.794993664860e+00
7.607379908545e+00
7.376986797062e+00
7.120770768349e+00
6.853143259918e+00
6.601529465912e+00
6.429611032257e+00
6.472677993788e+00
6.787754471973e+00
7.675938833707e+00
9.234801205247e+00
1.332646096901e+01
2.141020623636e+01
1.523673393389e+01
1.284968394003e+01
1.055083494291e+01
9.560029554772e+00
8.880514121756e+00
8.475783463757e+00
8.234232255291e+00
8.082613111071e+00
7.971446952306e+00
7.883613129655e+00
7.818024440216e+00
7.790849839012e+00
7.772825024667e+00
7.768141187293e+00
7.778412002209e+00
7.790160989964e+00
7.800383340727e+00
7.814561992260e+00
7.911365370916e+00
1.305182503785e+01
1.298909430362e+01
1.297969067628e+01
1.298428056266e+01
1.297301188678e+01
1.296401605820e+01
1.295590875379e+01
1.293321599847e+01
1.291902016275e+01
1.296345748946e+01
1.304501259346e+01
1.315315548077e+01
1.333471311346e+01
1.367115594743e+01
1.429391693860e+01
1.583536492268e+01
1.637581394935e+01
2.078679914238e+01
2.150933894115e+01
2.060200050500e+01
2.041064952133e+01
2.040264155123e+01
2.046117081865e+01
2.050800763743e+01
2.061173173348e+01
2.074254001643e+01
2.083578063639e+01
2.090782124510e+01
2.097132655243e+01
2.103692190374e+01
2.103915644019e+01
2.115023761237e+01
2.125769600696e+01
5.586977753317e+01
4.861295608292e+01
4.523014600138e+01
4.358758004374e+01
4.267005820829e+01
4.157666698231e+01
2.705942546470e+01
2.098899586813e+01
2.180082852598e+01
2.675512496851e+01
4.905545448916e+01
1.766687369377e+02
6.405815441700e+00
4.095800675564e+01
1.805236127469e+02
4.418435780276e+01
9.897168065274e+01
1.701581479515e+02
4.066248979685e+01
1.613230330646e+02
2.759145734518e+01
1.813937643725e+02
6.902354351728e+00
1.490868797770e+02
3.486711439503e+01
6.093425747580e+01
1.272416634795e+02
1.392986140038e+02
1.302423566396e+02
1.224255846439e+02
1.225430209244e+02
1.262914605132e+02
3.705518471955e+01
3.685176505203e+01
3.800283479939e+01
7.294597647167e+01
1.807740655558e+02
3.986418512226e+01
8.033190354150e+00
1.582958137310e+02
3.745625249482e+01
3.764724301098e+01
1.322901297576e+02
1.666565358695e+02
1.554166455206e+02
1.731915106916e+02
1.789582541730e+02
2.294562455355e+01
3.634013163330e+01
1.798768030138e+02
9.299476254444e+01
6.298541814847e+00
7.867044572193e+01
1.236487682420e+02
4.364663204501e+01
4.601434345264e+01
3.209199293391e+01
2.914455884867e+01
5.542920400043e+01
5.434864821300e+01
1.819676159106e+02
7.618002545504e+00
1.135807153510e+02
3.841724066981e+01
4.385372687511e+01
4.725521481427e+01
5.418635264409e+01
5.805941633997e+01
6.457468417448e+01
6.106838203344e+01
7.164538659172e+01
6.860372812751e+01
6.861319344282e+01
7.923723283859e+01
7.666452981843e+01
8.722343299936e+01
8.509601026102e+01
7.478239967992e+01
8.364986465949e+01
7.345187978239e+01
8.271614652110e+01
9.254744525056e+01
9.191996046874e+01
8.226235218722e+01
9.157876727912e+01
8.234613699129e+01
9.154203065308e+01
8.277880837637e+01
9.161649395525e+01
1.004307307410e+02
1.001370771732e+02
9.170362792569e+01
9.979678366379e+01
9.178438166663e+01
9.951398638263e+01
1.074393482357e+02
1.064600548536e+02
9.875694976406e+01
1.052308030351e+02
9.801247575189e+01
1.043471987307e+02
9.748634360627e+01
1.034933630291e+02
1.102041063505e+02
1.089222360735e+02
1.022006395525e+02
1.070298143963e+02
1.137333746051e+02
1.111282007125e+02
1.178706736424e+02
1.146131112750e+02
1.079096278288e+02
1.106432550646e+02
1.175620340596e+02
1.131027847603e+02
1.060688805832e+02
1.082439401371e+02
1.161781689557e+02
1.108337433786e+02
1.030783619074e+02
1.048495219388e+02
1.128297756075e+02
1.065276137185e+02
9.814131675771e+01
9.997830863653e+01
1.088979322991e+02
1.023589896547e+02
1.117563929050e+02
9.321005694078e+01
9.569967677507e+01
8.636074072134e+01
8.904051621131e+01
1.145526378995e+02
7.961995791022e+01
7.719786637460e+01
8.254308739386e+01
9.221387658269e+01
7.310003821357e+01
7.627701150850e+01
6.689839492574e+01
9.081060226606e+01
1.013261183213e+02
7.028203629081e+01
6.103755448850e+01
5.752852837800e+01
5.191579779899e+01
6.249579144314e+01
7.309304249697e+01
6.689104496592e+01
7.782833392899e+01
7.204102724942e+01
5.556523339247e+01
9.010902606751e+01
8.401953990697e+01
7.291193929100e+01
8.367489890904e+01
1.205790643240e+02
7.968964134850e+01
7.384792701551e+01
8.319220473831e+01
1.182381089930e+02
1.215918223289e+02
1.281588498344e+02
1.316339512088e+02
1.380054357424e+02
1.412269361540e+02
1.349577952716e+02
1.443123492216e+02
1.381712294841e+02
1.467405784301e+02
1.436476067853e+02
1.474165381983e+02
1.414631917363e+02
1.505314531853e+02
1.448249276825e+02
1.350188948412e+02
1.385358346884e+02
1.285344025652e+02
1.249006438459e+02
1.280570772871e+02
1.327335481728e+02
1.358038131998e+02
1.403754277671e+02
1.430625811795e+02
1.476510285808e+02
1.447115779207e+02
9.547541001066e+01
1.003803309831e+02
9.551454690942e+01
9.392205435438e+01
8.895056563854e+01
8.759338447264e+01
8.240411312385e+01
8.128335884266e+01
8.554081745567e+01
7.944130636379e+01
8.257054477238e+01
7.687994226704e+01
7.852004874833e+01
1.088686546535e+02
1.383718055029e+02
1.453363361318e+02
1.402864745962e+02
4.811930312452e+01
1.482358715834e+02
1.516912329700e+02
1.485905922083e+02
1.520542122982e+02
4.673432713679e+01
7.592665226588e+01
7.635827237642e+01
8.283324268983e+01
7.720825282872e+01
1.561724218270e+02
5.044432875154e+01
1.526957440434e+02
7.395611089426e+01
1.421848238585e+02
1.516501731834e+02
1.283798036477e+02
1.473563387782e+02
1.420141712781e+02
8.463686015825e+01
7.935431470932e+01
7.314524810798e+01
7.279976509595e+01
7.979652953303e+01
7.255635890528e+01
6.493582523237e+01
6.404025067724e+01
7.247876417779e+01
6.371258359244e+01
5.380583911926e+01
5.401731186443e+01
1.568099142626e+02
7.213190257511e+01
6.436478709353e+01
1.592235843235e+02
1.545786788045e+02
8.806675365156e+01
8.259886349808e+01
7.194528528448e+01
7.748953145178e+01
8.821708999818e+01
8.313738432182e+01
7.265124687162e+01
7.826941784236e+01
6.798940273170e+01
7.360169920734e+01
8.396898303273e+01
7.930920943177e+01
6.913982431670e+01
7.478005955027e+01
6.476990452601e+01
7.028121939932e+01
8.047330580309e+01
4.239737883100e+01
1.490097772821e+02
1.561846001896e+02
7.748728624340e+01
8.634913664555e+01
9.267082957943e+01
9.607442620455e+01
7.585415633640e+01
8.624672335546e+01
6.990509703284e+01
6.976322514436e+01
9.390641034847e+01
1.459673692731e+02
1.359143283210e+02
8.420841888654e+01
7.599801020826e+01
7.681611174221e+01
6.846746363892e+01
6.760824478381e+01
6.947942006525e+01
1.401929938250e+02
8.978595023099e+01
5.393221084778e+01
4.398981594666e+01
1.551055278234e+02
1.412670213317e+02
1.091543625037e+02
1.171482038094e+02
1.175073768105e+02
1.251329857281e+02
1.258569573948e+02
1.332070595526e+02
1.322477114709e+02
1.491660660146e+02
1.400798503826e+02
6.564288671674e+01
1.331018526837e+02
7.283388101183e+01
3.824880327932e+01
4.273561312842e+01
4.551222554836e+01
5.365994404313e+01
1.634111989139e+02
1.343250626489e+02
1.267307755417e+02
6.029353040822e+01
5.919422810957e+01
1.543252668150e+02
6.148834551319e+01
6.249138042183e+01
5.801870911971e+01
3.690439790577e+01
4.327834494049e+01
9.394288142894e+01
7.658367020884e+01
6.978432282086e+01
6.942878777806e+01
6.916949329566e+01
8.133393972532e+01
9.172685850102e+01
1.023164823888e+02
1.058778742758e+02
1.602141507267e+02
4.460962593093e+01
9.674818083582e+01
1.453965090043e+02
1.372596143458e+02
8.970985001375e+01
6.330482915766e+01
6.383963511248e+01
8.074989095784e+01
5.563544661916e+01
4.867369392477e+01
1.671707014714e+02
9.918014080079e+01
1.388115079193e+02
1.312929563653e+02
1.464418299978e+02
3.322230526093e+01
1.665815113714e+02
1.498377748102e+02
1.352514694296e+02
1.279394979256e+02
7.678896349217e+01
6.990238051807e+01
6.276660838184e+01
6.271206623198e+01
5.804501542309e+01
7.693471527014e+01
6.335910114448e+01
5.422391163660e+01
5.382782906599e+01
6.662753450820e+01
5.786184483751e+01
8.984782977278e+01
1.229590295825e+02
9.902572875442e+01
1.250651231667e+02
1.246322297764e+02
9.458775836165e+01
1.005638140056e+02
5.924630061178e+01
5.492196998709e+01
3.831665124496e+01
3.357475079273e+01
1.150302014354e+02
1.621973013234e+02
9.911372157221e+01
1.051858041906e+02
1.000393425589e+02
1.637306382159e+02
9.798983441505e+01
1.290766788249e+02
6.856798998880e+01
1.157544786894e+02
2.829454755505e+01
1.022030757036e+02
1.585427488564e+02
1.632929520304e+02
1.562620408112e+02
4.073276932361e+01
1.226109159117e+02
1.210433576213e+02
4.473010254893e+01
4.498597430374e+01
5.449437718488e+01
4.663849751323e+01
8.179847062572e+01
7.401699810608e+01
1.435072282945e+02
1.479103973098e+02
1.371176972451e+02
1.297560380879e+02
1.612577554816e+02
1.591237870034e+02
5.648536354892e+01
5.091138386552e+01
1.049055486963e+02
4.563170668843e+01
1.693122016245e+02
1.651417095265e+02
6.602160100437e+01
6.218036380896e+01
1.025090810189e+02
5.551305591984e+01
5.484719050306e+01
5.609125844663e+01
1.749986239515e+02
3.734983669763e+01
1.667339526076e+02
6.544527048216e+01
1.076444780997e+02
1.288694754395e+02
8.472603151854e+01
1.568312949481e+02
9.683568442937e+01
1.086171775127e+02
5.261011489801e+01
4.811940214083e+01
5.681885035717e+01
6.953978628883e+01
6.409136742160e+01
9.562035739005e+01
6.803379897785e+01
7.208700362806e+01
4.731614066152e+01
5.791256070696e+01
1.087315613920e+02
1.054313973525e+02
1.106657357055e+02
1.119792014391e+02
1.093881516133e+02
1.412063926671e+02
1.324675037949e+02
1.289805708305e+02
1.053596456190e+02
1.125931691140e+02
8.902856127258e+01
8.788959528320e+01
8.282745374924e+01
1.103994159684e+02
1.712621280249e+02
1.679502255585e+02
2.330556577573e+01
2.884502473847e+01
5.771856624393e+01
5.914321793866e+01
1.113584606279e+02
1.066890015944e+02
1.175371267490e+02
5.121371093360e+01
1.375305707882e+02
1.700658541639e+02
1.666582403183e+02
1.743059500429e+02
1.508782224515e+02
1.579752045955e+02
1.539422099989e+02
6.267564338702e+01
1.048487248955e+02
4.915737387142e+01
5.362669001772e+01
4.505636533668e+01
5.065743649788e+01
4.046508400013e+01
4.409371267459e+01
4.565210156984e+01
5.147797624772e+01
1.648145108671e+01
1.160859819885e+02
1.842547993101e+01
2.322304849013e+01
1.723640131418e+02
1.680431346957e+02
1.750975989282e+02
1.707067095203e+02
1.634135853558e+02
1.665327050550e+02
4.367589815282e+01
1.748584218670e+02
1.697577321276e+02
1.783084217468e+02
3.688195764330e+01
6.207359584822e+01
5.419602101788e+01
4.775629018047e+01
1.407570649212e+02
1.313948588588e+02
1.538780148186e+02
1.443062791163e+02
4.594614316840e+01
4.557339006749e+01
5.413298641330e+01
5.307447701824e+01
6.185077388860e+01
6.054461227398e+01
6.963616038823e+01
1.557318590624e+02
4.960798127785e+01
3.634574299315e+01
1.658948388027e+02
1.631410605840e+02
4.880461079877e+01
4.200218258276e+01
1.742812615973e+02
8.376263460179e+01
1.234839673406e+02
4.903923644292e+01
5.940652294641e+01
8.398786906697e+01
5.611441812420e+01
6.110441744912e+01
5.374808696474e+01
1.493480795538e+02
2.501787935620e+01
5.680496582341e+01
7.061739543036e+01
5.203680320395e+01
1.492841589622e+02
9.045826119068e+01
7.446082002681e+01
6.298842764962e+01
7.026850400868e+01
6.616904726975e+01
5.067677576586e+01
4.775303584606e+01
9.663745670745e+01
5.229184156935e+01
4.601873399707e+01
7.278968682632e+01
9.520796064180e+01
1.019667971273e+02
1.132012790896e+02
1.090449195922e+02
9.772092348319e+01
1.050269174843e+02
1.163411261265e+02
1.129155841476e+02
1.261226597328e+02
1.207847424043e+02
1.093142050448e+02
1.170115456370e+02
1.275128231106e+02
1.061728778333e+02
1.679077433395e+02
9.126718485813e+01
6.619976500662e+01
6.109287219152e+01
7.363701262313e+01
1.364295257337e+02
1.316420418596e+02
8.309341891597e+01
1.520984146605e+02
5.568231834213e+01
7.512536814197e+01
1.584144691974e+02
9.064167714575e+01
8.635987664177e+01
7.946593194869e+01
1.288382437092e+02
6.159171676571e+01
1.685620301341e+02
1.308200279030e+02
1.251168778934e+02
1.173427679946e+02
1.013356331912e+02
1.753238051740e+02
1.709576606724e+02
1.721421334574e+02
1.658549129686e+02
1.778604655545e+02
1.431139112003e+02
1.464840234250e+02
8.029466826868e+01
8.698315185428e+01
9.402097393860e+01
9.273181636985e+01
8.598947404210e+01
9.103157857274e+01
9.742220029900e+01
8.872436097105e+01
1.218041678806e+02
1.797803974185e+02
1.345182318510e+02
1.308037986936e+02
1.214355256132e+02
9.564097217023e+01
1.020524052641e+02
1.119126597256e+02
8.935372141675e+01
1.245217256625e+02
1.802736321771e+02
1.333547537045e+02
9.868899546333e+01
3.662588327133e+01
4.507664835681e+01
4.581023080669e+01
5.498573028328e+01
4.563155493684e+01
1.121782431175e+02
1.158396387917e+02
1.096748084213e+02
1.196760270125e+02
1.133893995067e+02
1.041242252705e+02
1.234754552678e+02
1.166907431208e+02
3.645019296074e+01
3.753113449823e+01
4.123994737421e+01
2.874568778168e+01
4.391593356566e+01
5.320204296189e+01
5.613619850483e+01
6.209209302924e+01
5.266934664486e+01
1.302180512780e+01
2.071917922567e+01
8.438989335903e+00
1.678789448545e+01
2.979163462038e+01
3.987579170361e+01
1.797133773249e+02
8.828406660426e+01
8.392575465389e+01
7.471610316664e+01
8.024470335892e+01
9.246476360324e+01
6.951456972406e+01
6.670950177490e+01
8.068024328895e+00
1.829281061381e+01
1.727240559546e+01
2.831771077573e+01
2.791882655109e+01
1.830546277436e+01
1.813643550945e+01
7.825557440566e+00
1.765354234715e+01
2.769224499106e+01
7.363088797931e+00
8.304737860170e+01
8.866684438454e+01
1.806039527784e+02
3.779702316939e+01
6.032589221252e+00
1.204152133176e+02
1.229788390743e+02
1.228204541868e+02
1.668200782369e+02
1.709493846808e+02
1.205495015188e+02
6.360126213046e+01
1.201571845215e+02
1.015191343217e+02
6.985722521877e+01
6.591149571835e+01
1.399128502747e+02
1.316494245609e+02
1.600005840322e+02
1.321648229093e+02
1.536598944174e+02
1.729527156657e+02
4.170068818833e+01
6.350027465000e+01
6.037353795075e+01
8.507454085824e+01
6.459763506574e+01
1.000923246954e+02
4.285659928983e+01
1.496703330413e+02
6.330227097127e+01
1.152909534987e+02
8.585207849713e+01
7.021596765537e+01
6.441287632301e+01
9.196677977927e+01
1.052195047880e+02
1.497143309441e+02
9.090459061672e+01
7.729581334119e+00
1.546608971050e+02
1.250186981638e+02
6.710131123869e+01
1.501291168154e+02
5.508927920036e+01
8.884612837071e+01
1.100532190637e+02
5.626086466459e+01
3.345733557185e+01
5.362206897990e+01
1.702533965787e+02
8.881951691398e+01
5.904931349616e+01
1.215633061584e+02
8.322648890506e+01
3.151320234062e+01
1.062162596733e+02
1.128600166258e+02
1.588969286450e+02
1.371264985317e+02
6.228689062186e+01
1.605514957574e+02
1.156781361113e+02
9.969956586857e+01
1.180168458958e+02
1.044639182013e+02
9.349388484566e+01
1.188469305638e+02
1.523107584921e+02
6.414266634244e+01
1.005895620915e+02
9.365644556365e+01
1.082315591507e+02
1.338868281794e+02
1.576145069473e+02
7.319581895092e+01
7.754055906167e+01
6.660764524175e+01
1.412421303588e+02
1.106645704982e+02
7.526718008615e+01
1.556573151357e+02
1.044797786744e+02
1.085129919144e+02
4.563330038548e+01
6.449309384992e+01
9.174420615218e+01
1.114579766782e+02
1.184308301598e+02
1.196067599498e+02
1.586391127439e+02
1.529635724955e+02
5.185600844021e+01
3.800936645188e+01
1.617137168623e+02
1.251798606488e+02
1.568481538149e+02
1.070027033782e+02
1.527501573447e+02
3.925039386604e+01
1.650337748909e+02
1.530867226743e+02
8.352584423023e+01
3.756483107039e+01
1.739460626740e+02
1.601136632046e+02
1.166683422647e+02
1.209531370616e+02
2.766982415779e+01
1.217802912674e+02
1.008491329538e+02
1.276476634986e+02
1.627199493285e+02
7.523477969501e+01
1.152167055236e+02
1.347937721816e+02
2.775385044382e+01
3.583759432586e+01
1.185788218139e+02
9.495863028182e+01
1.241822463625e+02
1.631990078145e+02
1.221518635061e+02
1.013565902975e+02
1.258783463860e+02
2.899349415528e+01
8.250750817276e+01
1.297212212025e+02
1.098277250609e+02
2.794922573845e+01
1.237385475327e+02
1.624328969838e+02
8.424469508213e+01
1.272507891873e+02
9.371642987077e+01
3.535672472766e+01
1.363389741689e+02
1.188655444922e+02
1.301788258518e+02
1.191492043147e+02
1.450752484929e+02
4.450541381702e+01
6.050452445246e+01
5.047397216818e+01
1.039890999153e+02
1.201068661705e+02
3.687195712666e+01
9.810285114365e+01
3.612621395951e+01
9.940138400778e+01
1.435889669544e+02
6.369066944293e+01
1.009231644428e+02
5.290776303213e+01
9.524186546180e+01
1.272169847186e+02
9.700427424029e+01
9.018162204856e+01
1.122997674438e+02
9.126364221123e+01
1.222033476652e+02
1.800512200942e+02
4.473925673533e+01
4.218028977130e+01
3.818066372122e+01
4.886215948762e+01
7.529624305774e+01
1.037628774058e+02
4.502090099150e+01
6.779592001689e+01
1.322698123300e+02
1.641698514032e+02
7.806321006271e+01
1.608356205554e+02
1.363066292467e+02
1.026231752853e+02
3.650354587527e+01
1.484883618899e+01
1.389398925953e+02
4.330086276115e+01
4.871189507109e+01
5.072201371985e+01
6.469956618467e+01
3.440073687396e+01
4.496250693336e+01
1.691189423282e+02
4.408351368344e+01
1.449039087935e+02
4.720459193835e+01
1.156154401557e+02
1.607975678537e+02
1.813405174321e+02
1.525231478831e+02
5.409506888137e+01
5.245344298811e+01
1.462530115978e+02
8.597254187143e+01
1.816326625539e+02
4.271278328635e+01
1.135741373479e+02
6.813049160687e+01
1.136169234609e+02
1.141116728069e+02
5.632143817292e+01
5.337021329749e+01
1.748167336242e+02
1.262692298699e+02
5.726526150218e+01
7.733758583580e+01
8.107399922257e+01
5.728642035296e+01
1.753503900429e+02
1.240439994223e+02
1.746351965109e+02
2.809377584575e+01
1.409135379719e+01
1.761098054481e+02
1.396644647472e+02
6.627094266165e+01
1.262357359471e+02
6.081686188807e+01
3.515307748703e+01
1.616034219615e+01
1.813928792970e+02
1.148515719225e+02
8.844675007103e+01
3.786896479616e+01
5.877234934918e+01
1.484606958674e+02
2.354952888092e+01
1.154720625427e+02
1.754149296375e+02
1.214349612356e+02
1.737212407992e+02
5.584864917501e+01
1.605189190990e+02
1.682546250388e+02
3.662543556639e+01
1.231408437730e+02
7.175434556873e+01
3.526283080615e+01
1.233180948218e+02
6.190070752666e+00
3.644119412922e+01
1.817546152126e+02
3.495978712965e+01
5.157062249160e+01
1.369798212478e+02
1.094933413655e+02
9.659487254988e+01
4.643106929770e+01
3.653169991053e+01
6.879961539370e+01
1.642954615155e+02
1.195555070702e+02
6.173283321471e+01
6.072439679839e+01
1.322325712931e+02
9.593542596963e+01
1.424175818957e+02
1.659962943872e+02
5.689465763593e+01
1.184541447752e+02
1.444193235230e+01
1.767158153851e+02
9.994736199009e+01
1.930532467771e+01
8.592589928506e+00
1.733493907236e+01
9.588183964541e+00
1.936395639172e+01
1.719884913443e+01
2.490348455258e+01
2.528661884674e+01

SCALARS node_materi_strain_total_average_a_ept float
LOOKUP_TABLE default
5.273276356561e-04
3.036874142053e-03
1.981228284634e-03
4.527574057139e-03
4.786959555372e-04
4.964917015047e-04
4.875279240120e-04
5.089112900345e-04
5.191394986244e-04
5.434111811005e-04
5.796270166977e-04
6.271783598913e-04
6.892392776027e-04
7.638078209312e-04
8.516195335059e-04
9.500739762599e-04
1.054840084757e-03
1.170142884764e-03
1.300188754336e-03
1.435001295636e-03
1.577756329981e-03
1.728046556717e-03
1.875079141788e-03
4.536799531588e-03
4.525596362318e-03
4.521973482142e-03
4.512099944672e-03
4.491025182832e-03
4.480823468962e-03
4.453961137509e-03
4.423446299748e-03
4.392029831445e-03
4.353462421725e-03
4.295925520012e-03
4.244943006871e-03
4.171931062544e-03
4.096722807446e-03
4.003457250198e-03
3.902269111064e-03
3.784319728207e-03
3.654933123095e-03
3.521646462203e-03
3.379167605567e-03
3.223405343761e-03
3.056565680601e-03
2.889947506033e-03
2.720981628073e-03
2.556069981262e-03
2.399388801363e-03
2.244183806535e-03
2.110717350895e-03
1.979363327474e-03
1.871956695226e-03
1.771391869831e-03
1.684779210147e-03
1.615023155176e-03
1.578379130169e-03
1.552483386954e-03
1.537113158800e-03
1.555768203069e-03
1.566492131146e-03
1.602532482319e-03
1.635760347489e-03
1.685903310094e-03
1.745591939631e-03
1.793029723443e-03
1.823301893209e-03
1.885104805157e-03
1.912773803322e-03
1.947461226045e-03
1.973895254439e-03
1.985636599172e-03
3.183381528910e-03
3.327686150126e-03
3.474391885227e-03
3.621849262816e-03
3.774354281994e-03
3.929665518749e-03
4.086933002307e-03
4.250382038231e-03
4.408736695983e-03
-1.445592959631e-03
2.669301716498e-03
-3.840394690400e-04
1.726499066065e-04
5.932653424670e-04
9.885141984747e-04
1.389453765626e-03
1.836717901593e-03
2.218347560700e-03
2.362089286208e-03
2.506390205997e-03
2.529579611299e-03
2.616244800097e-03
2.755051893852e-03
2.893255097085e-03
3.018843325043e-03
3.025137332960e-03
3.019905704765e-03
3.009711752345e-03
3.018455735827e-03
2.989798108895e-03
2.971277474361e-03
2.954673905136e-03
2.932516745842e-03
2.902643023095e-03
2.868882946445e-03
2.829666873490e-03
2.784461700864e-03
2.735478112290e-03
-2.074465802302e-03
-2.370735379381e-03
-2.456334898711e-03
-2.231770294802e-03
-1.358160221306e-03
-5.251191625304e-04
-1.828967861154e-04
-4.467601846704e-05
2.618569167435e-05
9.579064429482e-05
1.551087235756e-04
2.220992421705e-04
2.951925476192e-04
3.617860909477e-04
4.132465186913e-04
4.580419507214e-04
4.917052853060e-04
5.151873559358e-04
5.376367990563e-04
2.548828520492e-03
2.557192040699e-03
2.554682739076e-03
2.552931519110e-03
2.551347142395e-03
2.549774133430e-03
2.548520592757e-03
2.547019735737e-03
2.545307763351e-03
2.543332056045e-03
2.540411763485e-03
2.535702868838e-03
2.527572720972e-03
2.521237985458e-03
2.515813139107e-03
2.503943973600e-03
2.477114446251e-03
2.435697633308e-03
2.346678982009e-03
2.206596695295e-03
2.346112953872e-03
2.407621102060e-03
2.465613041856e-03
2.497598012301e-03
2.520180406178e-03
2.536804281023e-03
2.554701834675e-03
2.568920296361e-03
2.579588143247e-03
2.587829127500e-03
2.594639747712e-03
2.600576541948e-03
2.605291857477e-03
2.609382971754e-03
2.613219449855e-03
2.616352775613e-03
2.618843389926e-03
2.620337241607e-03
2.617312909230e-03
2.755480970336e-03
2.754947372210e-03
2.751917774786e-03
2.747390266233e-03
2.741601515417e-03
2.734258121728e-03
2.725440459699e-03
2.714061052524e-03
2.700740127543e-03
2.685365299156e-03
2.667390184553e-03
2.644539998632e-03
2.616068200305e-03
2.582353983265e-03
2.548656370789e-03
2.498969417437e-03
2.442348911580e-03
2.565380296012e-03
2.623482751278e-03
2.674080199551e-03
2.715171805135e-03
2.749695979717e-03
2.778175416859e-03
2.802072404379e-03
2.823422229710e-03
2.841545851073e-03
2.855142744249e-03
2.867093556613e-03
2.875850755903e-03
2.883521243011e-03
2.888962215526e-03
2.893236195084e-03
2.894232765218e-03
-7.835517130152e-04
-7.699692070025e-05
3.937396033846e-04
7.870522832232e-04
1.175371316752e-03
1.565269090253e-03
2.089458318280e-03
2.295987961866e-03
2.436933702432e-03
2.590658232784e-03
5.632150666376e-05
1.600450684628e-03
3.245260933725e-05
-1.461083335577e-03
1.564188755431e-03
9.032885800153e-04
8.066896604959e-04
1.907439685749e-03
1.642494953918e-03
2.438199841185e-03
2.255952528894e-03
1.725458661097e-03
3.017743966787e-04
3.069561064928e-03
2.633241350771e-03
5.588580115801e-04
1.088988616026e-03
3.491251892422e-03
3.954583108123e-03
4.395338819505e-03
4.294560023153e-03
4.172627999129e-03
2.849201799775e-03
3.032115317228e-03
3.114896096985e-03
3.699220110163e-03
1.828033904411e-03
-1.816362009584e-03
4.428374117628e-04
1.499496783706e-03
3.141055927742e-03
4.991131703689e-04
3.727005626966e-03
2.161542185392e-03
2.752584645378e-03
1.732483788064e-03
1.539226393267e-03
-2.801715905767e-04
2.951375546116e-03
1.611308216250e-03
4.002427516913e-03
1.655837590905e-04
6.544017408859e-04
4.447899527241e-03
1.281891751449e-03
5.105086680609e-04
2.020093102005e-03
2.446114340558e-03
-6.095856036495e-04
3.412561221443e-03
1.906772690552e-03
4.862241569967e-04
4.323353057601e-03
2.722511196004e-03
2.707223623116e-03
2.830331869808e-03
2.796903748963e-03
2.930929300090e-03
2.901298709355e-03
2.759299181104e-03
2.866034930625e-03
2.715059682260e-03
3.039018157706e-03
2.824999771091e-03
2.664917831508e-03
2.777853958076e-03
2.609875340444e-03
2.503254168508e-03
2.439021378287e-03
2.339527696107e-03
2.266301488311e-03
2.373300466764e-03
2.193021907040e-03
2.091793591024e-03
2.010713378114e-03
1.913729694825e-03
1.826962426396e-03
1.734258672987e-03
1.644677212098e-03
1.746641338187e-03
1.563216686728e-03
1.469993165922e-03
1.390024608502e-03
1.305641573887e-03
1.233126441544e-03
1.321911113709e-03
1.172939290577e-03
1.092384670538e-03
1.036855318897e-03
9.645597153453e-04
9.231427200790e-04
8.694269869707e-04
8.392865585470e-04
8.830355420609e-04
8.031217795815e-04
7.532332306170e-04
7.256310024694e-04
7.632895963349e-04
6.905872992857e-04
7.251206333818e-04
6.487290693445e-04
6.078385906546e-04
5.708918552303e-04
6.213898431506e-04
5.469109074491e-04
4.912111961158e-04
4.816344014753e-04
5.491511518945e-04
4.967606024635e-04
4.265229516618e-04
4.594701982676e-04
5.203584654672e-04
4.894467669094e-04
4.330150739444e-04
4.682829110924e-04
5.288647344487e-04
5.106261244780e-04
5.841124357791e-04
4.536574559886e-04
4.987087162139e-04
4.452589741805e-04
4.913209184861e-04
1.267257319135e-03
4.405719013729e-04
3.952659976476e-04
4.869613549306e-04
5.442892997501e-04
4.384651190589e-04
4.845904943143e-04
4.395712487375e-04
8.996527921201e-04
2.307911632462e-03
4.838430749077e-04
4.424493372913e-04
3.998057647120e-04
4.057436262842e-04
3.055291496596e-03
3.179960111859e-03
3.188001845041e-03
3.319440192675e-03
3.320017276886e-03
4.471235677957e-04
2.944185967013e-03
3.310853216204e-03
2.005822979246e-03
1.393080301447e-03
8.052533273031e-04
5.326377422911e-04
5.289472108278e-04
5.832264167306e-04
6.100820004651e-04
6.821179415210e-04
7.203791629302e-04
8.051384227820e-04
8.568657019539e-04
9.440540268967e-04
8.939039801451e-04
1.031235388452e-03
9.828979202436e-04
1.002694623721e-03
9.216780480011e-04
1.118404981461e-03
1.071042810510e-03
1.205831936353e-03
1.156778261426e-03
1.025364746287e-03
1.108450316209e-03
9.831281437541e-04
7.775008783865e-04
8.881792196885e-04
8.909765990174e-04
1.038068599570e-03
1.044778437206e-03
1.181668330036e-03
1.179898036911e-03
1.055080167106e-03
2.724321287711e-03
6.503894138074e-04
6.686673407120e-04
5.488657264077e-04
5.663061865704e-04
4.228716817736e-04
4.391416277057e-04
2.551603164875e-04
2.586267452281e-04
4.164595501577e-05
9.234857562760e-05
-1.594047154753e-04
-3.385342979090e-05
1.674325958107e-03
1.189493578047e-03
1.320856047543e-03
1.336184119128e-03
3.627528072851e-04
1.239667787352e-03
1.066955200204e-03
9.940704355220e-04
1.189728899006e-03
4.141409013114e-04
2.788009963895e-04
4.625972370042e-04
3.456926155004e-03
3.450481988602e-03
1.135320389257e-03
4.564174164003e-04
1.169441202045e-03
-2.253468932374e-04
1.188948987176e-03
1.321478571503e-03
8.522888706493e-04
1.463181152533e-03
1.484264818715e-03
1.633053548142e-04
8.957348758960e-05
-7.133198430458e-05
5.041484515285e-05
1.707642407512e-04
1.305789784212e-04
3.118275620931e-05
1.318279671295e-04
1.977141470937e-04
1.894539505077e-04
1.171953427311e-04
1.855151783895e-04
1.375923222536e-03
-4.544493273132e-04
2.411733437526e-03
1.203196664946e-03
1.302738249689e-03
3.593630419195e-03
3.579245713479e-03
3.437222990629e-03
3.558788108412e-03
3.706471417184e-03
3.679155648947e-03
3.532801115787e-03
3.647045103339e-03
3.501885561810e-03
3.610363379628e-03
3.760366172062e-03
3.717923839437e-03
3.569017985627e-03
3.671745813256e-03
3.523495659450e-03
3.621416521433e-03
3.773618055793e-03
4.343106431373e-04
1.075722129193e-03
1.207937271775e-03
5.739275281823e-04
6.370825145262e-04
6.541514516662e-04
7.143022686882e-04
3.717681696785e-03
3.874266147194e-03
3.120124758441e-04
4.897047431719e-04
3.601692250122e-03
1.266185119665e-03
1.138252187638e-03
1.233239656344e-03
1.326599888338e-03
1.165118864947e-03
1.261773246936e-03
1.430638110818e-03
1.088173556956e-03
8.426586337795e-04
3.871849523664e-03
3.559778177783e-04
3.162634773728e-04
1.401169131838e-03
9.303588326170e-04
1.864541200881e-03
1.801656899924e-03
1.992343087586e-03
1.932145263173e-03
2.120321031932e-03
2.057393846113e-03
1.877602037654e-03
1.609813475263e-03
2.001605634451e-03
3.565109025616e-03
1.194469892690e-03
2.445503994928e-04
3.896057048305e-04
1.412633987337e-04
4.653159246393e-04
4.900931060008e-04
1.265917458801e-03
2.246176979642e-03
2.309577818519e-03
1.373104816644e-03
1.545875863003e-03
1.580124717111e-03
3.191495756693e-03
3.392659116265e-03
3.362822203718e-03
4.465707430746e-04
6.812235402576e-05
3.831695968907e-03
6.104309837609e-04
6.380608824011e-04
-5.514956142252e-04
-7.784457193644e-04
3.813077019501e-03
3.970173682174e-03
7.376573979345e-04
8.043919903970e-04
1.209181186093e-03
2.022036501390e-04
4.032634062184e-03
9.662748794100e-04
8.100577629075e-04
6.917901527047e-04
3.359625009183e-04
1.130420418419e-04
2.543169894244e-04
2.479040011150e-04
4.950390678047e-04
1.331114831648e-03
3.860180238691e-03
1.827803666565e-03
1.699493392773e-03
1.945678244364e-03
1.564082655651e-04
1.333053393073e-03
1.340193091793e-03
2.431762049454e-03
2.498505302012e-03
7.403458887018e-04
7.730133099045e-04
6.735316999539e-04
8.360410521833e-04
2.620207279289e-03
8.601196606988e-04
2.259712635042e-03
2.340367198674e-03
2.195421360877e-03
1.597067389591e-03
1.714957521364e-03
6.886844702616e-04
9.094806164482e-04
6.707996438596e-04
9.013058162961e-04
6.467458953435e-04
3.915542914420e-03
4.030834223678e-03
3.424470079562e-03
3.378864398222e-03
3.231829979864e-04
2.738649391324e-04
6.541804674715e-04
1.274469011037e-03
3.744515796040e-03
3.754133977213e-03
3.603529052057e-03
1.282899611883e-03
5.354205532257e-04
7.699113655283e-04
-6.030190017473e-04
1.431425685987e-03
2.873858415992e-04
2.491403135752e-03
1.478987514209e-03
1.539997122615e-03
1.719532424422e-03
2.592302191486e-03
1.390171690323e-03
1.226893697387e-03
2.283970230662e-03
2.151824567374e-03
2.045119846714e-03
2.003621072547e-03
3.048641150545e-04
3.003347586862e-04
2.380225581747e-03
2.117326298493e-03
2.625935374729e-03
2.697237930202e-03
1.684991580467e-03
1.556427780214e-03
5.205052264432e-04
1.670672741679e-03
3.990499698685e-03
2.413919855330e-03
1.398022720043e-03
1.353987216188e-03
-9.684876444640e-04
-6.287393195455e-04
4.131315444861e-03
7.428119521591e-04
9.288048386620e-04
5.617335111000e-04
1.800486108326e-03
3.148140214009e-03
1.623434975291e-03
1.766671197060e-03
4.196544702455e-03
1.365939610660e-03
1.082205815762e-03
1.156316696381e-03
4.054300682330e-03
4.231555574800e-03
3.259044668170e-03
3.222902958138e-03
3.280096492801e-03
-2.015772282590e-04
-5.279336962739e-04
3.981897045145e-03
5.263497521359e-04
5.750047336382e-04
2.620641780644e-04
3.058493556251e-04
7.620694706587e-04
6.889751370468e-04
2.431178290358e-03
2.616414675781e-03
2.055583290672e-03
8.607410418228e-04
7.098021637633e-04
6.859364709243e-04
4.073547484036e-03
4.204722741980e-03
3.192988378616e-04
2.840531317886e-04
3.573736363035e-04
4.020285699545e-03
1.682939730784e-03
1.598802286423e-03
2.312532313178e-04
2.271880420168e-04
1.843953653193e-04
-6.882320916209e-05
3.755542656220e-03
3.597048867157e-03
3.919690400547e-03
5.212935221433e-04
1.665102217471e-03
1.391274935890e-03
1.366696900381e-03
1.458246206507e-03
1.754589954375e-03
1.849046701261e-03
2.051033294501e-03
-1.198072666869e-03
4.186216451800e-03
3.277895271911e-03
-1.423802311882e-03
3.233992092002e-03
3.327677611927e-03
3.174798220743e-03
5.022934274943e-04
3.133007773980e-03
3.165960470040e-03
1.589369758514e-04
4.158290994175e-03
2.512004526172e-04
3.144462938110e-04
1.486689988342e-03
1.438705288201e-03
1.562321462423e-03
1.516026381501e-03
1.388376852379e-03
1.477274842110e-03
3.178026786507e-03
1.625142485699e-03
1.570781582477e-03
1.724538945050e-03
2.128343404711e-03
1.008690763712e-03
1.118457952372e-03
1.045396089420e-03
2.852090363564e-03
2.885176842855e-03
1.417367553482e-03
1.282564524740e-03
3.264340626116e-03
3.268618631878e-03
3.396307995865e-03
3.388373386104e-03
3.518742117370e-03
3.505496023255e-03
3.641560838447e-03
2.245710673645e-03
6.352106828188e-04
2.366378025139e-03
1.650073536871e-03
1.528012988909e-03
1.845469963058e-03
1.823758293434e-03
1.471494933115e-03
8.265276158520e-04
4.206249320897e-03
-1.444299399121e-03
-1.041135467699e-03
9.400905038757e-04
1.882629151565e-03
1.191950179984e-03
1.309852748676e-03
1.015871468120e-03
1.765794562262e-04
3.741744349028e-04
3.647518395874e-03
2.240404694505e-04
1.360740837539e-03
8.009894109031e-04
1.658261196218e-03
5.121658309181e-04
9.188994088722e-04
2.563934049322e-03
2.668841401114e-03
2.540628462861e-03
7.777517539025e-04
1.498829567260e-03
1.437590906272e-03
2.175707778754e-03
3.450395978283e-03
3.437578893080e-03
3.580196980552e-03
3.413782363933e-03
3.273994296369e-03
3.245320043123e-03
3.392759747788e-03
3.212476204483e-03
3.385458646768e-03
3.165647489518e-03
3.028827074979e-03
2.978423950871e-03
3.096754888974e-03
2.846708296090e-03
1.761739392385e-03
1.015368432070e-03
-9.100702418890e-04
-6.341736882779e-04
1.832647522826e-03
3.615510069401e-03
3.855763810645e-03
5.855412794757e-04
2.910736999301e-03
2.479622201126e-03
4.533695401497e-05
2.594502313047e-03
3.295968947761e-03
3.139417364493e-03
3.162982663629e-03
4.037083616530e-03
3.300367732941e-03
2.041226523051e-03
1.034673281944e-03
1.046402504630e-03
9.460315951027e-04
3.072255793048e-03
1.651878051863e-03
1.555017306351e-03
1.509629210137e-03
1.441067456795e-03
1.563236090284e-03
3.369251224511e-03
3.230630007812e-03
2.139508556703e-04
2.643102317196e-04
3.421826592753e-04
3.340058665372e-04
2.275856356813e-04
3.135093866111e-04
4.241511847398e-04
2.844093882317e-04
2.749812950059e-03
1.541041192683e-03
7.729611917064e-04
6.975406381556e-04
5.924044963478e-04
6.051228821390e-04
6.179989245479e-04
7.095433541729e-04
5.939973390271e-04
1.746817772849e-03
1.546306748475e-03
7.803650381053e-04
5.533857107561e-04
2.903562071833e-03
2.974338878065e-03
2.908017002445e-03
3.051998515780e-03
3.043228241747e-03
8.348323646963e-04
9.050658807248e-04
8.674623008610e-04
9.718750608230e-04
9.256654086136e-04
8.337155757484e-04
1.033625663738e-03
9.713865080533e-04
2.990514346703e-03
-7.649934243142e-04
-3.753899335795e-04
-1.029175299533e-04
-1.337514293874e-04
-3.782996328618e-04
-1.177659486848e-04
-2.755826926034e-04
-7.796528889756e-04
-1.153363800151e-04
-1.179235460633e-05
-3.158234355370e-05
4.918371986188e-05
9.234969425540e-05
2.715639549195e-04
1.841669661292e-03
7.219145705508e-04
6.796829512095e-04
6.220966035212e-04
6.371253539306e-04
7.493557070396e-04
6.003300073896e-04
5.780525238886e-04
4.702054917790e-04
4.750602113836e-04
4.897867333286e-04
4.863770604908e-04
4.749806847210e-04
4.561027756163e-04
4.239794888493e-04
4.059390726246e-04
3.860448034734e-04
4.163578275773e-04
3.581376270121e-04
3.852086995677e-03
3.936888477635e-03
1.589013766301e-03
3.072370019237e-03
9.510026521810e-05
4.386295796986e-03
4.344254233568e-03
4.377892978100e-03
1.647422781188e-03
1.713959428059e-03
4.415964168161e-03
3.960639972531e-04
3.551702694108e-03
4.089787435800e-03
9.492874642418e-05
3.008464640444e-04
1.209868711459e-03
9.397658241707e-04
1.458852495072e-03
1.062215580204e-03
1.291924407752e-03
1.471582804040e-03
4.797384022722e-04
3.465433594706e-03
3.473654778510e-03
3.824629958836e-03
4.844771025989e-04
7.778518900251e-04
3.731685365781e-04
2.566955533548e-03
2.101834641227e-03
5.555497772951e-04
5.378789962429e-04
3.942995242718e-04
2.437674535480e-04
1.156482239066e-03
5.660846357083e-04
1.085438257766e-03
3.929897080766e-03
2.348587590471e-04
1.142476918714e-03
7.649598471833e-04
3.417537570893e-03
1.308769686894e-03
2.584657724297e-05
3.797812191642e-03
3.897311101088e-03
3.184925435168e-03
3.440577590717e-04
3.322626913239e-03
1.381253540104e-03
3.457385792138e-03
4.858467029185e-04
6.975336139781e-04
1.559764300445e-03
2.541423466887e-03
4.140375183770e-03
1.120700518233e-03
1.314944030113e-03
9.065140865500e-04
5.227931790861e-04
1.305039435667e-03
8.424802117115e-04
3.953500742027e-03
2.182579196323e-03
6.324518312377e-04
3.728683274548e-03
5.633877226195e-04
1.442881386246e-03
1.937525070512e-03
1.934442907027e-03
2.550866712226e-03
1.491502702947e-03
1.154046762299e-03
1.221891156497e-03
-2.953068367788e-04
1.003095609034e-03
3.315686435350e-03
2.173939782129e-03
4.112909417861e-03
1.490373452848e-03
1.254416947527e-03
3.882986307855e-03
6.336242482627e-04
5.099585610193e-04
-1.560966351623e-04
4.193428013918e-04
9.885637364679e-04
7.340007269289e-04
3.757373454127e-03
1.340597630374e-03
1.072664719671e-03
-2.320254928125e-04
2.481795906884e-03
1.428005545788e-03
6.863727348719e-04
1.424190922935e-03
8.776579774450e-04
2.416842564117e-03
1.989624023705e-03
1.517438178775e-03
1.112502167563e-03
7.119868318570e-04
3.148396300742e-03
1.680986851595e-03
1.241361668108e-03
1.613075354010e-03
6.150573141424e-04
2.353835938577e-03
8.178155554103e-04
2.122468930017e-03
4.114134947473e-03
1.321673370118e-03
3.014415442715e-03
7.881877664125e-04
1.350350651946e-03
4.527592591990e-04
2.254401913745e-03
8.668428357252e-04
4.226645896416e-04
6.179724495299e-04
1.817903821507e-03
9.435457910588e-04
5.258626197261e-04
1.017209736554e-03
2.157165026285e-03
2.982604202232e-03
1.088278010671e-03
2.244507039362e-03
3.776572640485e-04
1.563995718427e-03
1.561346874931e-03
4.017859230786e-04
6.416786791899e-04
3.109589363609e-03
1.863058178519e-03
7.673417128236e-04
2.370800126562e-03
1.530349240950e-03
1.077134012673e-03
9.256852247944e-04
1.640015714827e-03
3.524983280112e-04
3.122256194815e-04
5.145629224053e-04
2.561166690823e-03
4.882734833213e-04
2.897672611916e-03
2.221865709875e-04
4.216830453708e-04
1.638773138248e-03
3.554467243537e-03
4.135733088449e-04
5.280439100979e-04
3.529563234351e-04
1.201743843315e-03
3.897971390575e-04
3.694948325087e-04
4.247224521646e-03
4.137881109592e-04
4.447583646844e-03
1.886515776645e-03
3.262722029299e-03
1.493760059742e-03
-1.890194658120e-03
1.231431488833e-03
3.497885951965e-04
2.669301334629e-03
3.265845928151e-03
3.489120723790e-04
3.285615094845e-03
2.294592327039e-03
3.775448335043e-03
1.408861197863e-03
1.507899699639e-03
4.154737672403e-03
3.104753925557e-03
9.692895192145e-05
1.228108612729e-03
1.083316214850e-03
8.274559469004e-04
4.353673663102e-04
5.535418821030e-04
2.087726935907e-05
7.088205145839e-04
1.597705425071e-03
3.142622282523e-03
1.789584911681e-03
3.012218945564e-04
4.034649804876e-03
2.016621905947e-03
1.680563994489e-03
1.900817556451e-03
-1.022904274062e-05
3.087503000472e-03
2.713771090268e-03
3.888146353009e-03
1.759110546068e-03
3.056787024210e-03
4.301629237732e-03
-3.000388571112e-04
4.319779725607e-03
2.796481077040e-03
3.421934404471e-03
2.956576757186e-03
1.773868933224e-03
3.534962202976e-03
-3.736351533840e-04
3.757254032229e-03
6.206120883265e-04
-1.139070376541e-03
1.510872907499e-03
2.926354839172e-03
1.725942281508e-03
4.956431877307e-04
1.928082990898e-04
1.489062441769e-03
3.041702002339e-03
-6.894448514292e-05
4.298756096199e-03
-8.717428958039e-04
3.057510826147e-03
3.373986520979e-04
1.815333894793e-03
4.207842903073e-03
7.045786561680e-04
2.792137383769e-03
5.454131574703e-04
2.260191318198e-03
1.176828015338e-04
4.272157050414e-03
1.486411917432e-03
3.878780924642e-03
1.843011976133e-03
-1.372031471757e-03
2.157389685822e-03
1.422307744148e-03
3.121501148911e-03
3.698463971109e-03
5.930876958740e-04
4.177502088407e-04
4.474083297975e-03
5.053359774974e-04
3.134104744319e-03
1.931423872420e-03
4.701084707747e-04
3.367910281352e-03
3.182954840791e-03
9.059068367334e-04
4.061679729064e-03
-1.810430733098e-05
-1.930541680449e-03
3.633363151453e-03
1.923498835630e-03
4.026275568715e-03
3.509656496534e-03
-3.321162392132e-04
3.027833884253e-03
7.570279412379e-04
2.550011631381e-03
1.504555088553e-03
-1.042064955036e-03
9.949815042729e-04
2.891215431495e-04
1.619469969996e-03
8.041624398936e-04
2.286899447520e-03
2.550147524883e-03
2.358968595953e-03
2.681330613386e-03
2.474937910080e-03
2.829434570095e-03
2.610496408320e-03
2.958866496565e-03

SCALARS node_materi_strain_total_size_dev_sd_ept float
LOOKUP_TABLE default
2.561337955437e-03
9.479272530497e-03
4.961104106623e-03
1.123234020993e-02
1.893973187886e-03
1.057609365135e-03
6.056572000146e-04
1.143903156509e-03
1.831252523697e-03
2.390392350745e-03
2.831419311880e-03
3.161150327342e-03
3.400228874913e-03
3.581516975085e-03
3.725184142841e-03
3.859880783838e-03
3.985653226672e-03
4.112377830030e-03
4.265506836717e-03
4.425745084373e-03
4.592762576656e-03
4.757172386217e-03
4.900817146855e-03
1.121904253760e-02
1.120630150042e-02
1.120766684051e-02
1.119760408772e-02
1.119166837489e-02
1.118538527227e-02
1.117372627262e-02
1.114881315050e-02
1.113140326455e-02
1.109678823405e-02
1.107151606872e-02
1.103275173128e-02
1.098442665802e-02
1.091749363483e-02
1.085047079361e-02
1.074531102350e-02
1.063669742835e-02
1.050348358783e-02
1.033864004543e-02
1.014392632411e-02
9.899040819533e-03
9.622225385477e-03
9.292934560599e-03
8.917778780805e-03
8.509281260008e-03
8.064385872358e-03
7.580880773145e-03
7.065962123163e-03
6.535888371724e-03
6.040658851528e-03
5.512527790510e-03
4.988620775780e-03
4.509239381484e-03
4.157698650402e-03
3.877799365429e-03
3.718356177507e-03
3.659195185594e-03
3.686893393630e-03
3.772086615358e-03
3.915842794098e-03
4.090551013029e-03
4.282654200892e-03
4.431705054269e-03
4.537975747509e-03
4.695251389245e-03
4.776015861447e-03
4.852817583322e-03
4.914943560009e-03
4.945379678150e-03
9.801401590005e-03
1.009880273988e-02
1.035807301826e-02
1.057872774750e-02
1.076983901539e-02
1.092750214832e-02
1.105175750913e-02
1.114240657208e-02
1.121744809422e-02
4.631265461717e-03
9.837139289525e-03
5.630511672313e-03
5.571431238652e-03
5.961332440598e-03
6.402134953388e-03
7.164527801028e-03
8.250281571151e-03
8.463514824329e-03
8.897864000327e-03
9.380267244606e-03
8.130219123600e-03
8.362650254677e-03
8.740104521544e-03
9.109679202921e-03
9.430960317140e-03
9.460114060982e-03
9.476477199661e-03
9.489750010553e-03
9.554871406953e-03
9.542099654407e-03
9.569802529866e-03
9.601804525418e-03
9.652611558247e-03
9.690533240911e-03
9.724918775379e-03
9.757153978529e-03
9.779595495436e-03
9.799612864579e-03
3.186353362380e-03
3.017623314535e-03
3.219138493222e-03
3.172666878030e-03
3.323426240398e-03
2.511976009662e-03
1.034674967512e-03
5.153137757012e-04
2.925631954774e-04
2.527862592187e-04
4.986053292347e-04
8.742445093161e-04
1.288545480069e-03
1.655166902275e-03
1.916696150766e-03
2.146267798858e-03
2.326032081415e-03
2.487667598614e-03
2.600326870361e-03
8.172239057794e-03
8.147299305955e-03
8.146002063597e-03
8.146859677741e-03
8.146622807268e-03
8.143832903895e-03
8.136397486452e-03
8.125094791146e-03
8.109470938455e-03
8.089863614909e-03
8.067062784169e-03
8.040915692973e-03
8.011491449833e-03
7.964252606023e-03
7.895942210268e-03
7.832734203527e-03
7.779321126193e-03
7.759918622491e-03
7.827928133638e-03
8.166974138280e-03
8.253558244292e-03
8.273068990289e-03
8.250756031005e-03
8.281528510989e-03
8.319134543800e-03
8.348185007473e-03
8.359412520552e-03
8.364608604825e-03
8.369076520394e-03
8.372910641590e-03
8.375292734702e-03
8.374227847763e-03
8.371831790371e-03
8.368058496999e-03
8.362681269975e-03
8.358564614588e-03
8.356320544190e-03
8.357756338914e-03
8.363644422260e-03
8.744575794570e-03
8.749655704410e-03
8.754488878773e-03
8.762360797028e-03
8.773786172596e-03
8.789113643131e-03
8.805944304145e-03
8.826470729533e-03
8.844838151277e-03
8.861924050152e-03
8.877577023947e-03
8.893683237846e-03
8.908983786309e-03
8.911963608376e-03
8.895720751919e-03
8.903409266826e-03
8.846180938587e-03
9.353613639327e-03
9.417818893804e-03
9.404038956576e-03
9.382607992671e-03
9.356884749915e-03
9.327757398124e-03
9.296232368569e-03
9.262857103313e-03
9.230197113736e-03
9.200880510494e-03
9.176484495347e-03
9.156193537245e-03
9.141965064229e-03
9.128809927951e-03
9.121895016449e-03
9.121219623776e-03
6.266415628130e-03
5.385026686164e-03
5.750004883114e-03
6.172151268495e-03
6.801323854776e-03
7.848088382632e-03
8.477648749413e-03
8.745916110281e-03
9.208079982551e-03
9.657107265410e-03
5.513713443208e-03
3.903323546966e-03
7.449918886834e-04
3.299311708208e-03
3.382444591517e-03
6.282906978453e-03
3.645548102415e-03
5.866853267472e-03
7.920927381092e-03
8.007090595042e-03
8.994796323499e-03
4.197925077000e-03
1.133799412410e-03
9.635557557480e-03
9.914518167359e-03
2.640027888701e-03
3.991124760185e-03
1.038896125566e-02
1.092415483003e-02
1.120324904874e-02
1.117666923284e-02
1.109616979755e-02
1.008442424621e-02
9.982104090633e-03
9.898970557389e-03
1.068251816392e-02
4.637657859893e-03
2.996868509133e-03
1.776123703444e-03
4.479975308547e-03
9.776424569253e-03
8.171629216026e-04
1.070356233514e-02
7.035290256080e-03
8.912382317904e-03
4.836546597264e-03
3.386643306969e-03
2.650325344959e-03
1.004054564758e-02
3.675486683559e-03
1.099347318294e-02
5.278826690797e-04
3.280799054310e-03
1.121881579312e-02
6.967481420172e-03
5.850178536478e-03
8.498093907689e-03
9.468546502650e-03
5.927794664755e-03
1.025471554765e-02
4.857612612071e-03
2.054039725027e-03
1.117124701375e-02
1.009463984081e-02
1.012763450705e-02
1.027796404664e-02
1.026187231249e-02
1.041804096934e-02
1.035099162284e-02
1.017806847142e-02
1.023176522757e-02
1.001974891587e-02
1.051841074769e-02
1.005040162402e-02
9.794348331351e-03
9.811912640898e-03
9.510953145964e-03
9.500455127690e-03
9.178618235663e-03
9.149756925481e-03
8.792053122074e-03
8.807890731834e-03
8.388781154559e-03
8.351615801009e-03
7.932579080438e-03
7.893478527828e-03
7.463152730954e-03
7.428445192449e-03
7.003760990426e-03
7.032411027383e-03
6.594550580299e-03
6.579863184180e-03
6.199821252839e-03
6.206265322284e-03
5.878964918190e-03
5.851970980152e-03
5.629691639388e-03
5.751121877096e-03
5.642168933879e-03
5.838277465831e-03
5.781163231893e-03
5.946192796622e-03
5.899633835162e-03
5.686709016840e-03
5.803224034563e-03
5.983731828698e-03
5.857937035743e-03
5.636350013520e-03
5.656838558542e-03
5.367522922802e-03
5.353671799813e-03
5.606969721517e-03
5.258158356541e-03
4.873142241012e-03
4.736397756542e-03
5.125308890088e-03
4.553429776155e-03
4.075049616071e-03
3.941173528218e-03
4.364859329433e-03
3.860415441199e-03
3.553758463247e-03
3.552005951507e-03
3.826074663145e-03
3.553048516419e-03
3.253059803580e-03
3.284044783190e-03
3.003630673427e-03
3.536200301934e-03
3.302451429247e-03
3.483728221591e-03
3.290848288414e-03
5.551291983418e-03
3.379257636176e-03
3.573691896169e-03
3.237789496815e-03
3.173388906228e-03
3.224103876906e-03
3.139852858094e-03
3.023472017313e-03
5.964106444316e-03
8.398030776808e-03
2.992569411974e-03
2.771484655294e-03
2.812176030226e-03
2.447452986840e-03
1.055835410137e-02
1.066332130565e-02
1.067994269972e-02
1.079824645279e-02
1.079994434303e-02
2.468254679323e-03
1.008794928164e-02
1.075445516501e-02
8.313850596397e-03
6.576667731061e-03
5.278316230993e-03
3.121087092546e-03
3.024791189023e-03
3.163173058591e-03
2.920937815119e-03
2.717833841004e-03
2.569306720237e-03
2.435295183722e-03
2.204100943420e-03
2.198770087252e-03
2.462056502730e-03
2.379621624545e-03
2.631320660656e-03
1.922251464488e-03
1.950245832735e-03
2.679421253536e-03
2.895308827240e-03
3.032003523891e-03
3.207739353601e-03
3.101853408037e-03
3.374234037005e-03
3.282155845635e-03
4.878865754730e-03
4.698778988211e-03
4.119454922767e-03
3.953360702234e-03
3.370141843412e-03
3.398422030392e-03
2.901409652493e-03
2.829207838073e-03
9.527180943937e-03
6.040220422774e-03
6.096794464185e-03
6.122043992127e-03
6.127480510148e-03
6.117983468766e-03
6.123889284418e-03
6.073211333567e-03
6.036107845299e-03
5.924513365342e-03
5.915128609947e-03
5.722565565388e-03
5.844158517243e-03
6.604787662552e-03
3.921284233328e-03
3.594038129517e-03
4.067606439855e-03
2.476275793320e-03
3.532016378540e-03
1.670021877050e-03
1.706821706901e-03
2.427146835478e-03
2.035510945105e-03
6.068316924247e-03
6.078408454140e-03
1.091033666823e-02
1.090126910391e-02
1.499313697838e-03
2.108077010018e-03
2.465936083373e-03
5.674164907314e-03
3.651915545765e-03
3.832830642741e-03
2.699162973736e-03
3.953368051920e-03
4.376353950243e-03
5.846183308633e-03
5.792786690222e-03
5.856615319533e-03
5.654665083750e-03
5.551170025693e-03
5.346174475338e-03
5.430763639949e-03
5.050008625126e-03
4.969891760407e-03
4.554839740210e-03
4.402424815159e-03
3.971719083802e-03
3.744685558378e-03
5.447470653813e-03
9.452664253288e-03
1.741598121569e-03
2.715922769614e-03
1.100389858055e-02
1.098489090341e-02
1.085438240001e-02
1.093513152301e-02
1.104954995705e-02
1.100154948289e-02
1.086077778599e-02
1.093221387725e-02
1.076598200228e-02
1.084422866634e-02
1.099354718968e-02
1.091217643410e-02
1.073987986954e-02
1.081784284669e-02
1.062376046737e-02
1.071183249998e-02
1.088731500058e-02
1.591166526028e-03
2.311488207819e-03
2.007113810821e-03
3.100389101121e-03
3.250566534556e-03
3.254576187174e-03
3.369897960586e-03
1.079205904663e-02
1.094969359871e-02
6.040826482247e-03
5.985885127524e-03
1.098983420533e-02
3.909226725851e-03
3.755085375132e-03
6.222466235556e-03
6.576449720384e-03
6.234543399004e-03
6.550560361301e-03
6.950674922711e-03
6.199989316987e-03
2.221460768486e-03
1.104306632408e-02
2.904258268995e-03
2.546402622506e-03
4.096934960364e-03
2.895569844685e-03
7.043603551018e-03
6.577139045338e-03
7.041515448284e-03
6.578347885353e-03
7.114177598655e-03
6.694060840706e-03
6.135526910844e-03
4.451304012561e-03
6.307267795114e-03
1.059514002135e-02
4.450262622674e-03
4.482086425275e-03
1.511803619583e-03
3.633211819906e-03
1.694593656730e-03
2.239591240913e-03
1.715566597775e-03
7.302204538387e-03
7.676796955259e-03
6.906884312489e-03
7.332899107269e-03
4.083006586641e-03
1.065390752627e-02
1.067845093983e-02
1.055354226949e-02
1.052027740661e-03
4.098398117188e-03
1.110051998217e-02
6.027084877638e-03
5.941120708208e-03
5.305390163094e-03
5.032365276712e-03
1.086518070336e-02
1.100503999209e-02
3.319337188687e-03
3.459221787134e-03
1.483561510119e-03
3.371367598985e-03
1.106862956193e-02
2.348966069364e-03
3.046779230389e-03
3.382891972125e-03
5.887063207932e-03
5.924385402633e-03
4.787890603675e-03
3.670728898593e-03
1.870397948275e-03
1.862267258014e-03
1.112255179898e-02
5.718765911871e-03
5.645824090147e-03
5.943846247146e-03
2.930896769474e-03
2.136161469220e-03
4.135751231679e-03
7.914174122036e-03
8.235437383737e-03
5.979525088035e-03
5.929639312590e-03
5.876493662016e-03
5.966195493198e-03
9.963568774206e-03
5.959842913044e-03
9.094585215270e-03
9.375891718730e-03
9.034671872968e-03
7.373179774388e-03
7.785444248279e-03
6.083361854675e-03
5.105228468538e-03
3.206410147919e-03
3.069721991397e-03
2.841681164673e-03
1.110066260763e-02
1.113425489580e-02
1.052645284740e-02
1.038840875905e-02
2.015660187555e-03
2.066442834766e-03
2.856718687360e-03
2.150670523624e-03
1.106826659429e-02
1.103737185250e-02
1.094711212995e-02
1.669567412306e-03
6.038343712414e-03
4.283920757225e-03
5.522084253462e-03
5.819857596179e-03
1.502457996106e-03
8.819608189335e-03
4.323761860450e-03
4.309895436969e-03
4.716615880740e-03
9.914020203268e-03
5.434191324831e-03
5.259263584047e-03
9.275989373646e-03
8.961973287797e-03
8.657001783477e-03
8.600270725076e-03
4.279819875848e-03
4.052338617145e-03
7.654489628839e-03
6.631789559985e-03
8.493704448932e-03
8.782037491516e-03
4.418404030311e-03
3.745244720884e-03
2.392010568777e-03
7.726986720664e-03
1.116156156165e-02
9.568357189346e-03
2.615137561963e-03
2.629107261751e-03
4.852965643113e-03
5.672855265616e-03
1.111066391452e-02
5.915140412031e-03
6.113393069280e-03
5.787386415069e-03
4.810521439610e-03
9.738764400243e-03
4.518750788724e-03
7.827340259367e-03
1.115717283148e-02
5.010454344831e-03
5.995572719113e-03
1.530052633595e-03
1.105007664415e-02
1.114913874606e-02
1.044860449602e-02
1.029508382812e-02
1.057236566761e-02
5.849196211995e-03
5.495325960658e-03
1.108499846640e-02
2.876144632050e-03
3.018440595349e-03
3.194404636733e-03
3.462253729301e-03
3.221581487746e-03
3.114810373087e-03
8.439148247707e-03
8.897452312679e-03
7.505926599898e-03
2.495620403447e-03
3.160424484854e-03
3.690157495507e-03
1.115969678903e-02
1.118230909249e-02
4.509680995734e-03
5.009489834341e-03
3.932340826074e-03
1.116307706644e-02
4.525376757754e-03
4.290987597649e-03
1.498102915358e-03
2.118735938889e-03
5.806418953456e-03
5.867320189670e-03
1.096804922432e-02
1.087632043641e-02
1.104774604536e-02
2.009625550633e-03
5.220917795248e-03
2.175949404884e-03
2.059967736441e-03
2.572629257867e-03
5.028370330841e-03
5.378722906652e-03
6.336168229611e-03
4.237873916719e-03
1.111553939428e-02
1.025626602665e-02
3.650081846177e-03
1.009769629500e-02
1.023865235623e-02
9.920301350215e-03
1.399173962797e-03
1.029062777088e-02
1.046570327763e-02
1.301316903279e-03
1.117018024704e-02
9.940099984840e-04
1.046932572526e-03
3.096184517437e-03
3.099906600463e-03
3.539261701647e-03
3.520512643744e-03
3.163517363213e-03
3.581677044616e-03
1.012665272802e-02
3.955898182056e-03
3.962989955792e-03
4.322115224008e-03
8.866043636168e-03
6.169584687402e-03
6.417434544137e-03
6.384932319034e-03
9.102112466927e-03
9.259053359132e-03
4.325393444311e-03
4.155248797842e-03
1.006921071679e-02
1.003141902635e-02
1.028839147874e-02
1.024051110887e-02
1.047176859203e-02
1.042370231269e-02
1.063538124398e-02
7.159071140041e-03
5.872959343298e-03
9.418907490349e-03
4.149534630115e-03
3.434236366976e-03
8.182775261780e-03
8.119056696781e-03
2.801702798271e-03
5.996753390128e-03
1.113978273429e-02
3.978739928796e-03
4.516682736948e-03
5.963199486059e-03
8.238749334134e-03
6.491464781215e-03
6.852640620993e-03
1.867751960654e-03
2.199859792004e-03
5.740050077440e-03
1.067598529058e-02
5.680044307186e-03
4.311147013590e-03
6.025010706173e-03
7.400857121381e-03
5.846678199225e-03
5.996312921868e-03
9.765222354050e-03
1.008371579293e-02
9.840350814695e-03
6.034394241583e-03
7.279008658690e-03
7.212111198958e-03
8.744765163055e-03
1.082352856178e-02
1.072900271103e-02
1.076581474576e-02
1.060491262706e-02
1.054877430203e-02
1.039613398954e-02
1.046071184988e-02
1.021875286993e-02
1.034261744118e-02
1.001256853418e-02
9.911801243907e-03
9.674241302152e-03
9.800049511884e-03
9.581251013920e-03
4.944384929122e-03
5.880222585642e-03
4.638384087229e-03
5.752714723204e-03
7.860037294891e-03
1.055674930970e-02
1.084679530747e-02
6.093767299242e-03
9.297458003912e-03
9.687448531414e-03
5.965761769027e-03
8.481464726023e-03
1.067187190371e-02
1.048897880852e-02
1.060065998994e-02
1.100386946395e-02
1.067972858643e-02
6.523629592670e-03
4.516960379569e-03
4.951986504445e-03
5.359374831121e-03
1.013708608235e-02
4.330297404733e-03
3.446637090196e-03
3.071989652491e-03
2.706477458622e-03
3.578089310698e-03
1.018608023343e-02
9.946485830722e-03
5.219078809101e-03
5.391925751089e-03
5.206776817092e-03
5.558084321365e-03
5.684658703075e-03
5.804178832918e-03
5.728819918038e-03
5.955300960226e-03
9.045640927403e-03
3.295041405532e-03
2.410177035816e-03
2.769301384479e-03
3.201174650166e-03
3.148976842741e-03
3.079683061873e-03
2.986768371839e-03
3.178713342195e-03
6.103480699070e-03
3.297075680178e-03
3.633324905663e-03
3.139829403017e-03
1.007894915025e-02
1.031129526548e-02
1.032831246679e-02
1.051362107612e-02
1.033078589170e-02
3.370493329185e-03
3.536421030616e-03
3.603906944319e-03
3.703768816262e-03
3.739499378231e-03
3.632810552181e-03
3.862825640128e-03
3.849658356862e-03
1.001794995157e-02
3.551389051294e-03
4.544111419270e-03
3.496086900864e-03
4.730182751706e-03
5.331343772036e-03
5.244307613200e-03
5.869753732118e-03
4.957256829113e-03
1.581055581103e-03
2.497659179479e-03
1.050178263727e-03
1.884615747117e-03
3.061434019294e-03
2.656634921849e-03
4.731038317799e-03
3.483013503924e-03
3.373617170042e-03
3.159280767297e-03
3.243044855254e-03
3.535854504589e-03
3.009275692706e-03
2.876504553887e-03
1.915493157330e-03
1.232414972419e-03
1.376081331103e-03
6.909430090930e-04
7.192654899314e-04
1.168272432130e-03
1.062783860249e-03
1.586038420289e-03
9.557149429470e-04
8.118458475508e-04
1.378567750083e-03
1.085679780025e-02
1.093793328595e-02
3.520810623483e-03
9.968493573035e-03
5.609753576658e-04
1.120406522989e-02
1.119295947937e-02
1.119940246955e-02
4.656252398988e-03
4.695639950947e-03
1.120611010592e-02
3.120595663122e-03
1.066771290254e-02
1.111971086904e-02
6.053694256750e-03
3.793754186186e-03
3.971769938949e-03
2.864459388840e-03
4.049925605929e-03
3.517268406012e-03
3.397492577959e-03
2.717778449669e-03
1.254130213103e-03
1.065157285266e-02
1.049870594954e-02
1.097172767734e-02
2.797093190625e-03
3.506593675887e-03
1.997224136580e-03
8.273929608614e-03
8.704685783626e-03
3.221559101106e-03
3.169667916715e-03
3.375254925222e-03
4.101200708267e-03
5.931639796222e-03
3.079550950145e-03
2.121511399881e-03
1.102351010228e-02
7.873034009367e-04
1.893917661256e-03
2.643253592125e-03
1.077836946069e-02
3.135309425976e-03
4.901510386474e-03
1.105592116955e-02
1.109077400359e-02
1.057424628182e-02
1.476030032223e-03
1.041355147059e-02
2.239548457851e-03
1.088533419291e-02
2.546779949044e-03
4.936331164852e-03
6.982413482223e-03
9.697615228135e-03
1.115187594959e-02
5.440382758150e-03
2.360348675648e-03
3.479669492609e-03
2.670664381505e-03
2.725515507098e-03
5.530422769457e-03
1.114029326069e-02
7.543255195670e-03
5.874820795857e-03
1.107315751215e-02
3.581076631537e-03
3.541389526356e-03
8.278677885367e-03
7.497037355884e-03
9.180348393165e-03
6.201275096732e-03
4.005416367049e-03
2.277306819331e-03
5.722482124897e-03
6.020923615126e-03
1.075732210282e-02
6.928725591118e-03
1.118605419077e-02
6.969424890562e-03
2.866300213851e-03
1.112030194238e-02
2.979146058801e-03
1.558976839691e-03
5.928438172822e-03
6.063225910476e-03
5.525872345242e-03
2.828189878833e-03
1.088802019687e-02
3.271018774198e-03
1.541998073522e-03
5.472672197298e-03
9.673569847939e-03
3.655624760422e-03
4.318223699418e-03
3.158969091491e-03
3.740169477123e-03
7.778175469591e-03
8.524768828603e-03
4.007470003556e-03
1.849628481455e-03
6.037042065515e-03
9.760083192304e-03
4.331536717510e-03
1.725440717871e-03
6.166770936760e-03
4.214861415572e-03
9.238350318325e-03
2.908029373203e-03
7.955925898730e-03
1.105477509317e-02
2.096548362702e-03
1.042688139086e-02
3.082583705167e-03
4.547963457922e-03
7.380045067819e-04
9.160235673353e-03
3.239185638059e-03
5.951219108006e-03
3.637281874427e-03
5.166072641518e-03
3.428745839760e-03
5.832480551040e-03
3.629520612917e-03
8.765615577169e-03
1.028379078961e-02
3.830210430262e-03
7.970124483339e-03
9.869750843027e-04
5.717651725582e-03
4.509648148320e-03
3.704721779073e-03
3.197028391317e-03
1.033492437604e-02
8.194937841511e-03
2.658598658223e-03
8.055263202074e-03
5.268801931107e-03
5.243142755782e-03
2.017232771253e-03
7.688983006758e-03
3.274759011112e-03
3.034101226029e-03
5.525251772813e-03
8.568243674387e-03
8.184527317542e-04
9.849739943701e-03
2.768498743697e-03
5.391948326921e-03
4.829108150053e-03
1.049025544457e-02
4.959061579492e-03
2.155366381963e-03
4.749377028580e-03
4.909949046334e-03
4.194885608149e-03
4.050928219873e-03
1.117636920898e-02
3.784074918976e-03
1.121930922564e-02
4.869774727670e-03
9.977509030816e-03
7.487969205518e-03
2.748319225832e-03
6.745238834538e-03
3.789357559010e-03
9.217635774996e-03
9.998026921554e-03
3.578901804850e-03
1.010687474488e-02
7.545072487372e-03
1.078414983516e-02
2.847624227460e-03
4.821190584958e-03
1.109533642472e-02
9.809952190916e-03
1.513693214828e-03
4.152817693980e-03
6.573885536117e-03
6.057694284154e-03
5.752855059422e-03
2.779747175028e-03
3.841167195791e-03
6.027436211305e-03
3.837477077068e-03
1.020901455275e-02
5.352621603193e-03
5.687962012024e-03
1.112650323057e-02
6.192853136829e-03
4.006840934708e-03
5.653262043430e-03
5.738595226260e-03
1.049405249341e-02
8.714634857040e-03
1.092482624393e-02
4.353220231532e-03
1.024064086687e-02
1.117494845915e-02
5.983499370304e-03
1.117193087685e-02
9.311937982924e-03
1.037254715376e-02
1.043730807950e-02
4.702756700565e-03
1.055744601221e-02
5.857081589893e-03
1.079093790021e-02
3.214744241103e-03
4.401671908891e-03
3.128975151520e-03
9.444859125668e-03
4.512391404391e-03
7.132314284225e-04
8.869774781482e-04
2.828139061982e-03
9.576018645769e-03
5.761568886426e-03
1.115812860629e-02
5.382391138639e-03
9.839408654831e-03
9.061073603956e-04
4.556147243489e-03
1.118295084969e-02
3.443518572834e-03
1.008796073107e-02
2.501272353041e-03
7.207592597774e-03
2.374362590665e-03
1.118865565566e-02
2.783386233893e-03
1.097629742627e-02
5.566913308736e-03
3.826644921241e-03
6.846622634872e-03
2.477878381908e-03
9.771565339732e-03
1.077173279981e-02
3.046172335221e-03
1.131462939824e-03
1.122203274764e-02
2.262632522779e-03
9.701834736388e-03
4.931029122107e-03
7.979435053196e-04
1.018961983612e-02
9.880847768968e-03
3.794330847393e-03
1.103480233452e-02
4.602285886750e-03
2.738643213508e-03
1.061053092604e-02
5.802202106669e-03
1.109681821663e-02
1.049204887040e-02
5.882768677909e-03
9.599572477130e-03
3.531742497202e-03
8.239195409946e-03
3.203875275963e-03
5.550945250450e-03
3.900284992098e-03
8.626404519525e-04
3.833958988814e-03
3.628491063070e-03
8.216186310340e-03
8.193858065727e-03
8.641241505778e-03
8.539851990819e-03
9.159652160263e-03
8.941118284951e-03
9.618200869132e-03
9.284580934294e-03


CELL_DATA 2085

SCALARS element_number int
LOOKUP_TABLE default
407
408
409
410
411
412
413
414
415
416
417
418
419
420
421
422
423
424
425
426
427
428
429
430
431
432
433
434
435
436
437
438
439
440
441
442
443
444
445
446
447
448
449
450
451
452
453
454
455
456
457
458
459
460
461
462
463
464
465
466
467
468
469
470
471
472
473
474
475
476
477
478
479
480
481
482
483
484
485
486
487
488
489
490
491
492
493
494
495
496
497
498
499
500
501
502
503
504
505
506
507
508
509
510
511
512
513
514
515
516
517
518
519
520
521
522
523
524
525
526
527
528
529
530
531
532
533
534
535
536
537
538
539
540
541
542
543
544
545
546
547
548
549
550
551
552
553
554
555
556
557
558
559
560
561
562
563
564
565
566
567
568
569
570
571
572
573
574
575
576
577
578
579
580
581
582
583
584
585
586
587
588
589
590
591
592
593
594
595
596
597
598
599
600
601
602
603
604
605
606
607
608
609
610
611
612
613
614
615
616
617
618
619
620
621
622
623
624
625
626
627
628
629
630
631
632
633
634
635
636
637
638
639
640
641
642
643
644
645
646
647
648
649
650
651
652
653
654
655
656
657
658
659
660
661
662
663
664
665
666
667
668
669
670
671
672
673
674
675
676
677
678
679
680
681
682
683
684
685
686
687
688
689
690
691
692
693
694
695
696
697
698
699
700
701
702
703
704
705
706
707
708
709
710
711
712
713
714
715
716
717
718
719
720
721
722
723
724
725
726
727
728
729
730
731
732
733
734
735
736
737
738
739
740
741
742
743
744
745
746
747
748
749
750
751
752
753
754
755
756
757
758
759
760
761
762
763
764
765
766
767
768
769
770
771
772
773
774
775
776
777
778
779
780
781
782
783
784
785
786
787
788
789
790
791
792
793
794
795
796
797
798
799
800
801
802
803
804
805
806
807
808
809
810
811
812
813
814
815
816
817
818
819
820
821
822
823
824
825
826
827
828
829
830
831
832
833
834
835
836
837
838
839
840
841
842
843
844
845
846
847
848
849
850
851
852
853
854
855
856
857
858
859
860
861
862
863
864
865
866
867
868
869
870
871
872
873
874
875
876
877
878
879
880
881
882
883
884
885
886
887
888
889
890
891
892
893
894
895
896
897
898
899
900
901
902
903
904
905
906
907
908
909
910
911
912
913
914
915
916
917
918
919
920
921
922
923
924
925
926
927
928
929
930
931
932
933
934
935
936
937
938
939
940
941
942
943
944
945
946
947
948
949
950
951
952
953
954
955
956
957
958
959
960
961
962
963
964
965
966
967
968
969
970
971
972
973
974
975
976
977
978
979
980
981
982
983
984
985
986
987
988
989
990
991
992
993
994
995
996
997
998
999
1000
1001
1002
1003
1004
1005
1006
1007
1008
1009
1010
1011
1012
1013
1014
1015
1016
1017
1018
1019
1020
1021
1022
1023
1024
1025
1026
1027
1028
1029
1030
1031
1032
1033
1034
1035
1036
1037
1038
1039
1040
1041
1042
1043
1044
1045
1046
1047
1048
1049
1050
1051
1052
1053
1054
1055
1056
1057
1058
1059
1060
1061
1062
1063
1064
1065
1066
1067
1068
1069
1070
1071
1072
1073
1074
1075
1076
1077
1078
1079
1080
1081
1082
1083
1084
1085
1086
1087
1088
1089
1090
1091
1092
1093
1094
1095
1096
1097
1098
1099
1100
1101
1102
1103
1104
1105
1106
1107
1108
1109
1110
1111
1112
1113
1114
1115
1116
1117
1118
1119
1120
1121
1122
1123
1124
1125
1126
1127
1128
1129
1130
1131
1132
1133
1134
1135
1136
1137
1138
1139
1140
1141
1142
1143
1144
1145
1146
1147
1148
1149
1150
1151
1152
1153
1154
1155
1156
1157
1158
1159
1160
1161
1162
1163
1164
1165
1166
1167
1168
1169
1170
1171
1172
1173
1174
1175
1176
1177
1178
1179
1180
1181
1182
1183
1184
1185
1186
1187
1188
1189
1190
1191
1192
1193
1194
1195
1196
1197
1198
1199
1200
1201
1202
1203
1204
1205
1206
1207
1208
1209
1210
1211
1212
1213
1214
1215
1216
1217
1218
1219
1220
1221
1222
1223
1224
1225
1226
1227
1228
1229
1230
1231
1232
1233
1234
1235
1236
1237
1238
1239
1240
1241
1242
1243
1244
1245
1246
1247
1248
1249
1250
1251
1252
1253
1254
1255
1256
1257
1258
1259
1260
1261
1262
1263
1264
1265
1266
1267
1268
1269
1270
1271
1272
1273
1274
1275
1276
1277
1278
1279
1280
1281
1282
1283
1284
1285
1286
1287
1288
1289
1290
1291
1292
1293
1294
1295
1296
1297
1298
1299
1300
1301
1302
1303
1304
1305
1306
1307
1308
1309
1310
1311
1312
1313
1314
1315
1316
1317
1318
1319
1320
1321
1322
1323
1324
1325
1326
1327
1328
1329
1330
1331
1332
1333
1334
1335
1336
1337
1338
1339
1340
1341
1342
1343
1344
1345
1346
1347
1348
1349
1350
1351
1352
1353
1354
1355
1356
1357
1358
1359
1360
1361
1362
1363
1364
1365
1366
1367
1368
1369
1370
1371
1372
1373
1374
1375
1376
1377
1378
1379
1380
1381
1382
1383
1384
1385
1386
1387
1388
1389
1390
1391
1392
1393
1394
1395
1396
1397
1398
1399
1400
1401
1402
1403
1404
1405
1406
1407
1408
1409
1410
1411
1412
1413
1414
1415
1416
1417
1418
1419
1420
1421
1422
1423
1424
1425
1426
1427
1428
1429
1430
1431
1432
1433
1434
1435
1436
1437
1438
1439
1440
1441
1442
1443
1444
1445
1446
1447
1448
1449
1450
1451
1452
1453
1454
1455
1456
1457
1458
1459
1460
1461
1462
1463
1464
1465
1466
1467
1468
1469
1470
1471
1472
1473
1474
1475
1476
1477
1478
1479
1480
1481
1482
1483
1484
1485
1486
1487
1488
1489
1490
1491
1492
1493
1494
1495
1496
1497
1498
1499
1500
1501
1502
1503
1504
1505
1506
1507
1508
1509
1510
1511
1512
1513
1514
1515
1516
1517
1518
1519
1520
1521
1522
1523
1524
1525
1526
1527
1528
1529
1530
1531
1532
1533
1534
1535
1536
1537
1538
1539
1540
1541
1542
1543
1544
1545
1546
1547
1548
1549
1550
1551
1552
1553
1554
1555
1556
1557
1558
1559
1560
1561
1562
1563
1564
1565
1566
1567
1568
1569
1570
1571
1572
1573
1574
1575
1576
1577
1578
1579
1580
1581
1582
1583
1584
1585
1586
1587
1588
1589
1590
1591
1592
1593
1594
1595
1596
1597
1598
1599
1600
1601
1602
1603
1604
1605
1606
1607
1608
1609
1610
1611
1612
1613
1614
1615
1616
1617
1618
1619
1620
1621
1622
1623
1624
1625
1626
1627
1628
1629
1630
1631
1632
1633
1634
1635
1636
1637
1638
1639
1640
1641
1642
1643
1644
1645
1646
1647
1648
1649
1650
1651
1652
1653
1654
1655
1656
1657
1658
1659
1660
1661
1662
1663
1664
1665
1666
1667
1668
1669
1670
1671
1672
1673
1674
1675
1676
1677
1678
1679
1680
1681
1682
1683
1684
1685
1686
1687
1688
1689
1690
1691
1692
1693
1694
1695
1696
1697
1698
1699
1700
1701
1702
1703
1704
1705
1706
1707
1708
1709
1710
1711
1712
1713
1714
1715
1716
1717
1718
1719
1720
1721
1722
1723
1724
1725
1726
1727
1728
1729
1730
1731
1732
1733
1734
1735
1736
1737
1738
1739
1740
1741
1742
1743
1744
1745
1746
1747
1748
1749
1750
1751
1752
1753
1754
1755
1756
1757
1758
1759
1760
1761
1762
1763
1764
1765
1766
1767
1768
1769
1770
1771
1772
1773
1774
1775
1776
1777
1778
1779
1780
1781
1782
1783
1784
1785
1786
1787
1788
1789
1790
1791
1792
1793
1794
1795
1796
1797
1798
1799
1800
1801
1802
1803
1804
1805
1806
1807
1808
1809
1810
1811
1812
1813
1814
1815
1816
1817
1818
1819
1820
1821
1822
1823
1824
1825
1826
1827
1828
1829
1830
1831
1832
1833
1834
1835
1836
1837
1838
1839
1840
1841
1842
1843
1844
1845
1846
1847
1848
1849
1850
1851
1852
1853
1854
1855
1856
1857
1858
1859
1860
1861
1862
1863
1864
1865
1866
1867
1868
1869
1870
1871
1872
1873
1874
1875
1876
1877
1878
1879
1880
1881
1882
1883
1884
1885
1886
1887
1888
1889
1890
1891
1892
1893
1894
1895
1896
1897
1898
1899
1900
1901
1902
1903
1904
1905
1906
1907
1908
1909
1910
1911
1912
1913
1914
1915
1916
1917
1918
1919
1920
1921
1922
1923
1924
1925
1926
1927
1928
1929
1930
1931
1932
1933
1934
1935
1936
1937
1938
1939
1940
1941
1942
1943
1944
1945
1946
1947
1948
1949
1950
1951
1952
1953
1954
1955
1956
1957
1958
1959
1960
1961
1962
1963
1964
1965
1966
1967
1968
1969
1970
1971
1972
1973
1974
1975
1976
1977
1978
1979
1980
1981
1982
1983
1984
1985
1986
1987
1988
1989
1990
1991
1992
1993
1994
1995
1996
1997
1998
1999
2000
2001
2002
2003
2004
2005
2006
2007
2008
2009
2010
2011
2012
2013
2014
2015
2016
2017
2018
2019
2020
2021
2022
2023
2024
2025
2026
2027
2028
2029
2030
2031
2032
2033
2034
2035
2036
2037
2038
2039
2040
2041
2042
2043
2044
2045
2046
2047
2048
2049
2050
2051
2052
2053
2054
2055
2056
2057
2058
2059
2060
2061
2062
2063
2064
2065
2066
2067
2068
2069
2070
2071
2072
2073
2074
2075
2076
2077
2078
2079
2080
2081
2082
2083
2084
2085
2086
2087
2088
2089
2090
2091
2092
2093
2094
2095
2096
2097
2098
2099
2100
2101
2102
2103
2104
2105
2106
2107
2108
2109
2110
2111
2112
2113
2114
2115
2116
2117
2118
2119
2120
2121
2122
2123
2124
2125
2126
2127
2128
2129
2130
2131
2132
2133
2134
2135
2136
2137
2138
2139
2140
2141
2142
2143
2144
2145
2146
2147
2148
2149
2150
2151
2152
2153
2154
2155
2156
2157
2158
2159
2160
2161
2162
2163
2164
2165
2166
2167
2168
2169
2170
2171
2172
2173
2174
2175
2176
2177
2178
2179
2180
2181
2182
2183
2184
2185
2186
2187
2188
2189
2190
2191
2192
2193
2194
2195
2196
2197
2198
2199
2200
2201
2202
2203
2204
2205
2206
2207
2208
2209
2210
2211
2212
2213
2214
2215
2216
2217
2218
2219
2220
2221
2222
2223
2224
2225
2226
2227
2228
2229
2230
2231
2232
2233
2234
2235
2236
2237
2238
2239
2240
2241
2242
2243
2244
2245
2246
2247
2248
2249
2250
2251
2252
2253
2254
2255
2256
2257
2258
2259
2260
2261
2262
2263
2264
2265
2266
2267
2268
2269
2270
2271
2272
2273
2274
2275
2276
2277
2278
2279
2280
2281
2282
2283
2284
2285
2286
2287
2288
2289
2290
2291
2292
2293
2294
2295
2296
2297
2298
2299
2300
2301
2302
2303
2304
2305
2306
2307
2308
2309
2310
2311
2312
2313
2314
2315
2316
2317
2318
2319
2320
2321
2322
2323
2324
2325
2665
2666
2667
2668
2669
2670
2671
2672
2673
2674
2675
2676
2677
2678
2679
2680
2681
2682
2683
2684
2685
2686
2687
2688
2689
2690
2691
2692
2693
2694
2695
2696
2697
2698
2699
2700
2701
2702
2703
2704
2705
2706
2707
2708
2709
2710
2711
2712
2713
2714
2715
2716
2717
2718
2719
2720
2721
2722
2723
2724
2725
2726
2727
2728
2729
2730
2731
2732
2733
2734
2735
2736
2737
2738
2739
2740
2741
2742
2743
2744
2745
2746
2747
2748
2749
2750
2751
2752
2753
2754
2755
2756
2757
2758
2759
2760
2761
2762
2763
2764
2765
2766
2767
2768
2769
2770
2771
2772
2773
2774
2775
2776
2777
2778
2779
2780
2781
2782
2783
2784
2785
2786
2787
2788
2789
2790
2791
2792
2793
2794
2795
2796
2797
2798
2799
2800
2801
2802
2803
2804
2805
2806
2807
2808
2809
2810
2811
2812
2813
2814
2815
2816
2817
2818
2819
2820
2821
2822
2823
2824
2825
2826
2827
2828
2829
2830

SCALARS element_group int
LOOKUP_TABLE default
0
0
0
0
0
0
0
0
0
0
0
0
0
0
0
0
0
0
0
0
0
0
0
0
0
0
0
0
0
0
0
0
0
0
0
0
0
0
0
0
0
0
0
0
0
0
0
0
0
0
0
0
0
0
0
0
0
0
0
0
0
0
0
0
0
0
0
0
0
0
0
0
0
0
0
0
0
0
0
0
0
0
0
0
0
0
0
0
0
0
0
0
0
0
0
0
0
0
0
0
0
0
0
0
0
0
0
0
0
0
0
0
0
0
0
0
0
0
0
0
0
0
0
0
0
0
0
0
0
0
0
0
0
0
0
0
0
0
0
0
0
0
0
0
0
0
0
0
0
0
0
0
0
0
0
0
0
0
0
0
0
0
0
0
0
0
0
0
0
0
0
0
0
0
0
0
0
0
0
0
0
0
0
0
0
0
0
0
0
0
0
0
0
0
0
0
0
0
0
0
0
0
0
0
0
0
0
0
0
0
0
0
0
0
0
0
0
0
0
0
0
0
0
0
0
0
0
0
0
0
0
0
0
0
0
0
0
0
0
0
0
0
0
0
0
0
0
0
0
0
0
0
0
0
0
0
0
0
0
0
0
0
0
0
0
0
0
0
0
0
0
0
0
0
0
0
0
0
0
0
0
0
0
0
0
0
0
0
0
0
0
0
0
0
0
0
0
0
0
0
0
0
0
0
0
0
0
0
0
0
0
0
0
0
0
0
0
0
0
0
0
0
0
0
0
0
0
0
0
0
0
0
0
0
0
0
0
0
0
0
0
0
0
0
0
0
0
0
0
0
0
0
0
0
0
0
0
0
0
0
0
0
0
0
0
0
0
0
0
0
0
0
0
0
0
0
0
0
0
0
0
0
0
0
0
0
0
0
0
0
0
0
0
0
0
0
0
0
0
0
0
0
0
0
0
0
0
0
0
0
0
0
0
0
0
0
0
0
0
0
0
0
0
0
0
0
0
0
0
0
0
0
0
0
0
0
0
0
0
0
0
0
0
0
0
0
0
0
0
0
0
0
0
0
0
0
0
0
0
0
0
0
0
0
0
0
0
0
0
0
0
0
0
0
0
0
0
0
0
0
0
0
0
0
0
0
0
0
0
0
0
0
0
0
0
0
0
0
0
0
0
0
0
0
0
0
0
0
0
0
0
0
0
0
0
0
0
0
0
0
0
0
0
0
0
0
0
0
0
0
0
0
0
0
0
0
0
0
0
0
0
0
0
0
0
0
0
0
0
0
0
0
0
0
0
0
0
0
0
0
0
0
0
0
0
0
0
0
0
0
0
0
0
0
0
0
0
0
0
0
0
0
0
0
0
0
0
0
0
0
0
0
0
0
0
0
0
0
0
0
0
0
0
0
0
0
0
0
0
0
0
0
0
0
0
0
0
0
0
0
0
0
0
0
0
0
0
0
0
0
0
0
0
0
0
0
0
0
0
0
0
0
0
0
0
0
0
0
0
0
0
0
0
0
0
0
0
0
0
0
0
0
0
0
0
0
0
0
0
0
0
0
0
0
0
0
0
0
0
0
0
0
0
0
0
0
0
0
0
0
0
0
0
0
0
0
0
0
0
0
0
0
0
0
0
0
0
0
0
0
0
0
0
0
0
0
0
0
0
0
0
0
0
0
0
0
0
0
0
0
0
0
0
0
0
0
0
0
0
0
0
0
0
0
0
0
0
0
0
0
0
0
0
0
0
0
0
0
0
0
0
0
0
0
0
0
0
0
0
0
0
0
0
0
0
0
0
0
0
0
0
0
0
0
0
0
0
0
0
0
0
0
0
0
0
0
0
0
0
0
0
0
0
0
0
0
0
0
0
0
0
0
0
0
0
0
0
0
0
0
0
0
0
0
0
0
0
0
0
0
0
0
0
0
0
0
0
0
0
0
0
0
0
0
0
0
0
0
0
0
0
0
0
0
0
0
0
0
0
0
0
0
0
0
0
0
0
0
0
0
0
0
0
0
0
0
0
0
0
0
0
0
0
0
0
0
0
0
0
0
0
0
0
0
0
0
0
0
0
0
0
0
0
0
0
0
0
0
0
0
0
0
0
0
0
0
0
0
0
0
0
0
0
0
0
0
0
0
0
0
0
0
0
0
0
0
0
0
0
0
0
0
0
0
0
0
0
0
0
0
0
0
0
0
0
0
0
0
0
0
0
0
0
0
0
0
0
0
0
0
0
0
0
0
0
0
0
0
0
0
0
0
0
0
0
0
0
0
0
0
0
0
0
0
0
0
0
0
0
0
0
0
0
0
0
0
0
0
0
0
0
0
0
0
0
0
0
0
0
0
0
0
0
0
0
0
0
0
0
0
0
0
0
0
0
0
0
0
0
0
0
0
0
0
0
0
0
0
0
0
0
0
0
0
0
0
0
0
0
0
0
0
0
0
0
0
0
0
0
0
0
0
0
0
0
0
0
0
0
0
0
0
0
0
0
0
0
0
0
0
0
0
0
0
0
0
0
0
0
0
0
0
0
0
0
0
0
0
0
0
0
0
0
0
0
0
0
0
0
0
0
0
0
0
0
0
0
0
0
0
0
0
0
0
0
0
0
0
0
0
0
0
0
0
0
0
0
0
0
0
0
0
0
0
0
0
0
0
0
0
0
0
0
0
0
0
0
0
0
0
0
0
0
0
0
0
0
0
0
0
0
0
0
0
0
0
0
0
0
0
0
0
0
0
0
0
0
0
0
0
0
0
0
0
0
0
0
0
0
0
0
0
0
0
0
0
0
0
0
0
0
0
0
0
0
0
0
0
0
0
0
0
0
0
0
0
0
0
0
0
0
0
0
0
0
0
0
0
0
0
0
0
0
0
0
0
0
0
0
0
0
0
0
0
0
0
0
0
0
0
0
0
0
0
0
0
0
0
0
0
0
0
0
0
0
0
0
0
0
0
0
0
0
0
0
0
0
0
0
0
0
0
0
0
0
0
0
0
0
0
0
0
0
0
0
0
0
0
0
0
0
0
0
0
0
0
0
0
0
0
0
0
0
0
0
0
0
0
0
0
0
0
0
0
0
0
0
0
0
0
0
0
0
0
0
0
0
0
0
0
0
0
0
0
0
0
0
0
0
0
0
0
0
0
0
0
0
0
0
0
0
0
0
0
0
0
0
0
0
0
0
0
0
0
0
0
0
0
0
0
0
0
0
0
0
0
0
0
0
0
0
0
0
0
0
0
0
0
0
0
0
0
0
0
0
0
0
0
0
0
0
0
0
0
0
0
0
0
0
0
0
0
0
0
0
0
0
0
0
0
0
0
0
0
0
0
0
0
0
0
0
0
0
0
0
0
0
0
0
0
0
0
0
0
0
0
0
0
0
0
0
0
0
0
0
0
0
0
0
0
0
0
0
0
0
0
0
0
0
0
0
0
0
0
0
0
0
0
0
0
0
0
0
0
0
0
0
0
0
0
0
0
0
0
0
0
0
0
0
0
0
0
0
0
0
0
0
0
0
0
0
0
0
0
0
0
0
0
0
0
0
0
0
0
0
0
0
0
0
0
0
0
0
0
0
0
0
0
0
0
0
0
0
0
0
0
0
0
0
0
0
0
0
0
0
0
0
0
0
0
0
0
0
0
0
0
0
0
0
0
0
0
0
0
0
0
0
0
0
0
0
0
0
0
0
0
0
0
0
0
0
0
0
0
0
0
0
0
0
0
0
0
0
0
0
0
0
0
0
0
0
0
0
0
0
0
0
0
0
0
0
0
0
0
0
0
0
0
0
0
0
0
0
0
0
0
0
0
0
0
0
0
0
0
0
0
0
0
0
0
0
0
0
0
0
0
0
0
0
0
0
0
0
0
0
0
0
0
0
0
0
0
0
0
0
0
0
0
0
0
0
0
0
0
0
0
0
0
0
0
0
0
0
0
0
0
0
0
0
0
0
0
0
0
0
0
0
0
0
0
0
0
0
0
0
0
0
0
0
0
0
0
0
0
0
0
0
0
0
0
0
0
0
0
0
0
0
0
0
0
0
0
0
0
0
0
0
0
0
0
0
0
0
0
0
0
0
0
0
0
0
0
0
0
0
0
0
0
0
0
0
0
0
0
0
0
0
0
0
0
0
0
0
0
0
0
0
0
0
0
0
0
0
0
0
0
0
0
0
0
0
0
0
0
0
0
0
0
0
0
0
0
0
0
0
0
0
0
0
0
0
0
0
0
0
0
0
0
0
0
0
0
0
0
0
0
0
0
0
0
0
0
0
0
0
0
0
0
0
0
0
0
0
0
0
0
0
0
0
0
0
0
0
0
0
0
0
0
0
0
0
0
0
0
0
0
0
0
0
0
0
0
0
0
0
0
0
0
0
0
0
0
0
0
0
0
0
0
0
0
0
0
0
0
0
0
0
0
0
0
0
0
0
0
0
0
0
0
0
0
0
0
0
0
0
0
0
0
0
0
0
0
0
0
0
0
0
0
0
0
0
0
0
0
0
0
0
0
0
0
0
0
0
0
0
0
0
0
0
0
0
0
0
0
0
0
0
0
0
0
0
0
0
0
0
0
0
0
0
0
0
0
0
0
0
0
0
0
0
0
0
0
0
0
0
0
0
0
0
0
0
0
0
0
0
0
0
0
0
0
0
0
0
0
0
0
0
0
0
0
0
0
0
0
0
0
0
0
0
0
0
0
0
0
0
0
0
0
0
0
0
0
0
0
0
0
0
0
0
0
0
0
0
0
0


VECTORS element_materi_velocity float
1.425682927617e-03 4.191593455117e-03 0.0 
1.446195780482e-03 3.703480526115e-03 0.0 
7.738222686146e-04 8.384568617828e-04 0.0 
1.016872201375e-04 1.487466952743e-03 0.0 
9.486476652168e-04 8.371334250125e-03 0.0 
1.334453851299e-04 3.769422683037e-04 0.0 
7.169635551205e-04 8.304344013870e-03 0.0 
1.237438355858e-03 3.219104092043e-03 0.0 
7.921123415573e-04 8.354238601437e-03 0.0 
1.493895724396e-04 1.521780650367e-03 0.0 
8.105029342242e-05 -1.443779881153e-04 0.0 
9.984693904731e-04 3.163527403792e-03 0.0 
3.551491477638e-05 -1.878720064720e-06 0.0 
1.471640116206e-03 7.363404126338e-03 0.0 
2.923880049007e-05 9.101400085110e-07 0.0 
8.232975028256e-05 1.050171479209e-03 0.0 
1.214914434491e-03 8.666974585385e-03 0.0 
1.639893313087e-04 2.785086753433e-04 0.0 
6.051640773933e-05 -4.344426140520e-04 0.0 
4.743469440100e-05 -4.261164881806e-04 0.0 
1.779788608466e-04 1.558666504118e-03 0.0 
1.766862212464e-03 5.804885007035e-03 0.0 
2.013960712484e-03 5.882077092068e-03 0.0 
5.441372383526e-04 7.715956172965e-05 0.0 
1.749965528264e-03 6.253490045671e-03 0.0 
8.913259586891e-05 -1.247141488097e-04 0.0 
1.862207808811e-03 9.078545637649e-03 0.0 
8.576256018457e-04 3.970040713450e-04 0.0 
1.859250249410e-03 6.193386157555e-03 0.0 
4.430796837630e-04 6.614985402684e-05 0.0 
3.239694497927e-04 -2.277660968041e-04 0.0 
1.953850601546e-04 -4.674377742771e-04 0.0 
8.968161079529e-04 1.046838153229e-03 0.0 
2.507506773056e-05 -4.520961795510e-05 0.0 
2.017317284835e-04 1.447833923868e-05 0.0 
5.526014994617e-05 3.604231817716e-06 0.0 
5.038973958328e-05 3.078711199291e-06 0.0 
5.814569316216e-04 1.547735633533e-04 0.0 
5.925826174525e-04 9.265869664886e-03 0.0 
5.398575160229e-04 9.278875880768e-03 0.0 
2.403370135614e-03 7.513312010495e-03 0.0 
2.013983188138e-04 2.304072295458e-05 0.0 
5.380803170837e-04 2.221306048643e-03 0.0 
1.979911852418e-03 8.663336390840e-03 0.0 
5.395063089789e-05 2.109782903387e-03 0.0 
5.385811021776e-04 1.939638425771e-03 0.0 
2.574420861298e-04 -2.211279479599e-04 0.0 
6.145641520600e-05 1.790843575012e-03 0.0 
1.657298575712e-04 -2.577286104870e-04 0.0 
1.426363616491e-03 7.841902278005e-03 0.0 
2.248545763622e-03 6.800531676590e-03 0.0 
6.173348946190e-05 -4.132915465589e-04 0.0 
4.988172516780e-04 -2.039292860681e-04 0.0 
2.203910614964e-03 7.622579043428e-03 0.0 
5.923110640120e-04 9.478053085348e-04 0.0 
1.096693782393e-04 -3.743913860948e-04 0.0 
4.959085172875e-05 -4.038462510751e-04 0.0 
5.085643772447e-05 -4.592625099508e-05 0.0 
1.284873596171e-04 -4.561449340521e-04 0.0 
9.900046054688e-05 1.058458621817e-03 0.0 
6.926950568757e-05 -1.117829684125e-04 0.0 
1.132902756029e-03 4.278653357221e-04 0.0 
2.076993730670e-03 2.724277961558e-03 0.0 
4.382492900292e-04 -2.223025944797e-04 0.0 
5.805569402189e-05 -1.025394415842e-06 0.0 
2.002757661251e-03 6.825408040649e-03 0.0 
7.896455963317e-05 -6.422262448751e-05 0.0 
9.377804067567e-04 9.729693431317e-04 0.0 
3.252184096640e-04 -4.205957543952e-04 0.0 
8.045814587375e-04 5.429350518239e-04 0.0 
1.337324449030e-04 -1.049425203390e-04 0.0 
1.010875521967e-04 2.908656240120e-04 0.0 
1.122370045480e-03 5.301255869039e-04 0.0 
9.293925443016e-06 -4.689589670024e-04 0.0 
9.828784746673e-05 -3.620206502977e-04 0.0 
3.516766850255e-04 1.354511369331e-03 0.0 
7.335561909036e-04 1.138041743765e-03 0.0 
2.267187545861e-04 1.272154723428e-03 0.0 
1.453338180457e-04 -4.533145303340e-04 0.0 
2.053185169257e-04 1.467984640455e-03 0.0 
3.395175316659e-04 -4.050389956825e-04 0.0 
1.152397660587e-03 8.408785086497e-03 0.0 
1.742608881707e-03 4.898603931853e-03 0.0 
1.533558356226e-03 4.831650107158e-03 0.0 
9.029694683880e-04 7.798621691060e-03 0.0 
8.272514640003e-04 7.770143214075e-03 0.0 
7.805183436885e-05 -8.969541478260e-05 0.0 
1.355424614820e-05 -5.774315229182e-05 0.0 
2.159166771766e-03 2.694258490412e-03 0.0 
1.021036609549e-03 8.331129094936e-03 0.0 
2.074185561100e-04 -4.603260479360e-04 0.0 
1.981152532396e-03 7.875477242802e-03 0.0 
1.610963673244e-04 4.227656935718e-03 0.0 
1.947738606515e-04 4.572241812306e-03 0.0 
2.018264311936e-04 5.373674179300e-04 0.0 
4.234839080683e-04 1.183318299576e-04 0.0 
1.292520213817e-03 8.415475504192e-03 0.0 
2.301763308037e-04 2.288134589392e-05 0.0 
1.174527829211e-04 6.723169029810e-03 0.0 
1.942652495840e-03 2.981638191846e-03 0.0 
9.133235062975e-04 8.862902543949e-03 0.0 
3.761915678570e-05 1.144223139038e-06 0.0 
1.787194328586e-03 5.900499690391e-04 0.0 
1.097562870316e-03 3.900382585996e-04 0.0 
1.432993332483e-03 1.538917970720e-03 0.0 
2.277341813949e-04 -2.638933790053e-04 0.0 
4.163032971184e-05 -1.428950407067e-05 0.0 
1.637804643683e-04 3.641018301025e-03 0.0 
1.191118839727e-04 -2.123021374575e-04 0.0 
7.003217213022e-05 3.159657661599e-06 0.0 
2.344568280730e-03 2.988066010674e-03 0.0 
1.634430986124e-05 -4.747348637578e-04 0.0 
2.066300016394e-03 1.327792820581e-03 0.0 
2.377490543075e-03 8.180353676724e-03 0.0 
1.733164351246e-04 -3.172232419106e-04 0.0 
1.705256284256e-03 2.812539989660e-03 0.0 
1.993976373998e-03 2.362621202146e-03 0.0 
1.425240292212e-04 1.262407570468e-05 0.0 
1.485772213557e-04 7.138473119727e-03 0.0 
1.774253350925e-03 2.225303202881e-03 0.0 
2.826580190791e-04 -4.498965438601e-04 0.0 
2.046200430217e-03 8.054789984888e-03 0.0 
1.295508475856e-04 3.336999894304e-03 0.0 
1.706914213539e-03 1.921185465115e-03 0.0 
4.268901091860e-05 8.067298765318e-04 0.0 
2.475832789877e-03 8.193725704834e-03 0.0 
1.507928605844e-04 -3.261094480411e-04 0.0 
2.359876453360e-03 8.477338878233e-03 0.0 
2.686170161982e-04 9.560179589763e-04 0.0 
1.551001401980e-04 7.259170830663e-04 0.0 
1.253146694625e-04 -1.227577099943e-04 0.0 
8.045117564883e-05 1.472699392716e-03 0.0 
2.858918292189e-03 4.492432984513e-03 0.0 
2.464002973901e-03 7.988552794710e-03 0.0 
2.187553213990e-04 1.736930138347e-05 0.0 
2.432285174907e-05 -1.991132234986e-06 0.0 
1.101809320714e-04 -8.914626352618e-05 0.0 
2.961795390014e-03 4.554777961203e-03 0.0 
3.058409468173e-04 4.556293887871e-05 0.0 
2.792773497459e-03 5.550566340694e-03 0.0 
2.039923441819e-04 1.079528059623e-03 0.0 
9.466025814898e-04 6.838779202628e-04 0.0 
1.564229065881e-03 7.289163308167e-03 0.0 
3.729678101654e-04 5.547718832159e-03 0.0 
2.771051207423e-03 4.954958116580e-03 0.0 
2.312002277635e-03 8.187799732876e-03 0.0 
3.000689152771e-03 4.115860850062e-03 0.0 
1.746295699099e-03 1.505431327832e-03 0.0 
6.816431655185e-04 8.789384000657e-03 0.0 
1.972516065531e-03 1.126792759644e-03 0.0 
1.992786892662e-04 -4.712438289099e-04 0.0 
1.674653234740e-04 8.046287087364e-03 0.0 
5.251875065153e-05 -4.454308554576e-04 0.0 
2.443584644833e-03 8.248603774018e-03 0.0 
2.444389591084e-04 3.584217150311e-05 0.0 
1.494206157578e-03 1.797983212705e-03 0.0 
5.895201592922e-05 -7.372394561087e-05 0.0 
7.801826978342e-04 2.418675837570e-03 0.0 
1.857744583659e-03 6.681549873150e-04 0.0 
3.891520094636e-04 8.466508746666e-03 0.0 
1.822186563952e-03 1.048398530352e-03 0.0 
5.706932840788e-05 -3.397405510794e-05 0.0 
2.986655278682e-04 -4.423775437765e-04 0.0 
5.840870693936e-05 -1.405389548493e-05 0.0 
2.721522075445e-03 6.759312194304e-03 0.0 
8.002502766422e-05 1.713491972411e-06 0.0 
1.656582891556e-04 8.547219909872e-03 0.0 
1.555544615237e-03 1.404212027919e-03 0.0 
2.329460604439e-03 8.538774775164e-03 0.0 
5.198416280237e-05 -1.494750630276e-04 0.0 
7.744737739022e-04 2.758243392834e-03 0.0 
1.743268416703e-03 8.766918856976e-04 0.0 
3.273423139128e-04 5.023816474267e-03 0.0 
4.422360496844e-04 8.803815653462e-03 0.0 
1.832998002178e-03 1.367645279744e-03 0.0 
2.362867556433e-03 8.576470363419e-03 0.0 
1.958199141034e-03 1.614922443315e-03 0.0 
1.774168586521e-04 -2.949893035929e-04 0.0 
6.778781283922e-04 2.950624964485e-04 0.0 
9.567050302036e-04 6.209377080951e-04 0.0 
1.570771493793e-03 3.048075096435e-03 0.0 
1.570595969705e-04 -2.834158767408e-04 0.0 
8.449797668975e-04 1.338261651647e-04 0.0 
2.653878023766e-03 6.121373073257e-03 0.0 
1.322081544504e-03 2.844006365472e-03 0.0 
2.508777483065e-03 7.600800129711e-03 0.0 
2.005293653999e-03 1.461302613692e-03 0.0 
1.469975774593e-04 1.145150097287e-03 0.0 
2.132809086095e-03 3.329066765379e-03 0.0 
3.964723101086e-05 -2.324034843815e-05 0.0 
3.590135150319e-04 1.573328524467e-03 0.0 
1.528275356717e-03 6.591265449503e-04 0.0 
2.093515053318e-03 2.790681148822e-03 0.0 
-2.033550305538e-04 4.376854741753e-04 0.0 
2.623548948896e-03 6.781563883949e-03 0.0 
8.766264465759e-04 7.379040145668e-05 0.0 
1.574621439650e-04 -4.723612526307e-04 0.0 
8.452123934349e-04 1.184627069988e-03 0.0 
1.993229378174e-03 5.044818417772e-03 0.0 
6.542367413747e-04 -2.982796950236e-04 0.0 
9.270693515421e-04 9.301644107134e-05 0.0 
2.009006998339e-03 7.362199569259e-03 0.0 
1.708808064097e-03 6.740437608836e-03 0.0 
4.135911062074e-04 5.708979507292e-05 0.0 
4.478426723047e-04 -3.840495726546e-04 0.0 
2.961140651852e-03 3.331079789495e-03 0.0 
2.885694530233e-03 5.890904254709e-03 0.0 
1.872588031617e-03 4.611850254685e-03 0.0 
2.695143006502e-03 6.467813950859e-03 0.0 
2.622036628898e-03 7.331567353476e-03 0.0 
1.914682048604e-03 5.569764593549e-04 0.0 
2.151231832739e-03 1.912001678456e-03 0.0 
-5.120866735066e-05 3.380946870797e-04 0.0 
1.644574817331e-03 3.541902203247e-03 0.0 
2.032640371204e-03 3.431611527477e-03 0.0 
2.950808924051e-03 3.685016307858e-03 0.0 
1.948054625080e-03 2.969914673287e-03 0.0 
3.734400498073e-04 3.473501773476e-04 0.0 
8.663405138667e-04 3.791834145297e-05 0.0 
4.975701753120e-04 8.678504103979e-03 0.0 
1.596270131522e-03 8.059332811197e-04 0.0 
8.405641618861e-04 4.746122987155e-07 0.0 
1.816546339034e-04 -4.775101417818e-04 0.0 
1.837204655644e-03 4.117117176086e-03 0.0 
1.694558853849e-04 -4.808219463194e-04 0.0 
1.507925780980e-04 -4.673725287086e-04 0.0 
3.492933224120e-04 1.806066046286e-03 0.0 
4.009080213656e-04 -4.100826241647e-04 0.0 
1.685142904154e-03 3.688195767733e-03 0.0 
3.903985149852e-04 -4.184375139619e-04 0.0 
6.813607874797e-04 1.154993110860e-03 0.0 
4.433793179152e-04 -3.222162075912e-04 0.0 
3.001612421904e-04 -4.470430792936e-04 0.0 
9.214123011138e-04 1.270584860495e-04 0.0 
2.821547490182e-03 6.447959343445e-03 0.0 
6.926067152044e-05 -5.722745443782e-07 0.0 
-1.426312425050e-04 3.467708896468e-04 0.0 
9.930833048241e-04 1.124615604685e-03 0.0 
1.804169402383e-03 7.909279406889e-04 0.0 
2.478334359142e-03 6.031073832965e-03 0.0 
9.185822743711e-04 5.581588063502e-05 0.0 
8.680063496905e-05 3.469906841640e-06 0.0 
2.214939262198e-03 3.787241968326e-03 0.0 
1.104686664149e-03 4.826209650359e-04 0.0 
8.723170819248e-04 1.063799992042e-04 0.0 
6.542127360685e-05 -1.074481104108e-04 0.0 
3.052209459260e-03 4.123260309277e-03 0.0 
2.077808868397e-03 4.470585682324e-03 0.0 
9.627571003779e-04 3.725152513333e-04 0.0 
1.723085920600e-03 6.494362356049e-04 0.0 
8.508432003737e-04 1.238362530113e-03 0.0 
2.691958235706e-03 5.612422280100e-03 0.0 
1.631008996008e-04 4.949416392934e-04 0.0 
2.893264355932e-03 2.970502212218e-03 0.0 
1.858308604202e-03 4.633192324935e-04 0.0 
3.782073384014e-04 7.865190340296e-03 0.0 
3.099899235571e-04 -3.957794343754e-04 0.0 
2.589238484585e-03 6.704771311857e-03 0.0 
1.149753940058e-03 6.113707750835e-04 0.0 
5.917752645189e-04 3.058574772876e-04 0.0 
3.715733600100e-04 -1.933955722599e-04 0.0 
1.589792975674e-03 3.734055688379e-03 0.0 
2.843817360423e-03 5.646891275685e-03 0.0 
1.836452472307e-03 1.763339523043e-03 0.0 
1.429955236420e-03 3.290605224151e-03 0.0 
2.210087710980e-03 3.225679643570e-03 0.0 
3.076566341421e-03 4.474908401188e-03 0.0 
1.004652472399e-04 6.981895829467e-06 0.0 
1.828443807747e-03 4.167210497443e-04 0.0 
3.032763886309e-03 4.716378019073e-03 0.0 
2.211548680214e-03 1.410822403073e-03 0.0 
1.872770404174e-03 4.588156788301e-04 0.0 
8.072673947868e-04 2.805243113899e-04 0.0 
1.792984740685e-03 8.108772064985e-03 0.0 
1.679762951610e-03 4.649675758378e-04 0.0 
8.776647705252e-04 -1.253678856056e-04 0.0 
2.125522697747e-03 3.886929111559e-03 0.0 
-1.602447066824e-04 2.660986481715e-04 0.0 
2.547247648675e-03 6.356813197141e-03 0.0 
1.193450932777e-03 4.177793439898e-04 0.0 
9.572896492665e-04 9.415709261763e-04 0.0 
7.798757956530e-04 1.856716587090e-04 0.0 
2.704702984851e-03 5.095810882501e-03 0.0 
2.328596764715e-04 -4.567781743324e-04 0.0 
2.341507716041e-03 4.099091230873e-03 0.0 
1.816672097711e-03 4.133252968805e-04 0.0 
2.753291251430e-03 5.912448120976e-03 0.0 
1.817479210211e-03 7.484954604124e-03 0.0 
2.736043567639e-04 2.157317623778e-04 0.0 
9.187050810384e-04 -7.277706071657e-05 0.0 
7.552772851096e-04 -1.989833541304e-04 0.0 
1.869047483159e-03 3.756340432103e-03 0.0 
2.176920195095e-03 4.376428760451e-03 0.0 
2.257410820548e-03 3.587919649380e-03 0.0 
1.568786842273e-03 4.109535517298e-04 0.0 
1.594190160115e-03 5.883934444443e-04 0.0 
3.692337696518e-04 2.454446003587e-04 0.0 
2.239525452820e-03 1.280088748244e-03 0.0 
3.831188497706e-04 1.005136771555e-03 0.0 
3.055264143704e-04 4.639468990828e-04 0.0 
3.866040514543e-04 4.578233074805e-04 0.0 
2.882832777428e-03 2.686367676699e-03 0.0 
9.681494969042e-04 4.320662822939e-04 0.0 
7.748776392205e-04 7.201896987188e-04 0.0 
3.020295366403e-03 4.250910765632e-03 0.0 
8.651934764391e-04 5.031225907031e-04 0.0 
7.907376501819e-04 -1.542606631962e-04 0.0 
3.067103374255e-03 4.538691489573e-03 0.0 
2.653971309236e-04 1.311504414510e-03 0.0 
1.386654442393e-03 5.969471907269e-04 0.0 
1.998035744535e-03 6.467141140525e-04 0.0 
5.177029518965e-04 9.099820102794e-04 0.0 
1.564885882280e-04 3.018352939525e-05 0.0 
8.947258436644e-04 6.341485142641e-04 0.0 
3.050490056391e-03 3.716326703772e-03 0.0 
4.726901788091e-04 1.755780402336e-04 0.0 
1.292806750224e-03 9.176034864093e-05 0.0 
1.762176781549e-03 5.816475442160e-04 0.0 
7.976378177698e-04 -2.122246620519e-04 0.0 
2.961283313694e-03 5.562651948689e-03 0.0 
3.731164085256e-04 3.038105816894e-04 0.0 
1.397117646935e-03 4.117817006759e-04 0.0 
1.731329659840e-03 3.376436351047e-04 0.0 
5.112060670926e-04 7.565538211201e-04 0.0 
1.268000001093e-03 5.806977592794e-03 0.0 
8.930641068658e-04 1.647217262274e-05 0.0 
1.079649585284e-03 1.562725554349e-03 0.0 
1.248524329256e-03 6.312245379873e-03 0.0 
3.963899683354e-04 2.318570370590e-04 0.0 
7.822516651300e-04 4.050249314750e-05 0.0 
3.896744903127e-04 3.580145828923e-04 0.0 
1.538414345937e-03 6.285177441221e-03 0.0 
2.397843535135e-03 2.856504022857e-03 0.0 
7.187386843712e-04 1.575826554575e-03 0.0 
2.906300005298e-03 6.306973103640e-03 0.0 
2.986438885413e-03 5.043961238437e-03 0.0 
2.931910895625e-03 4.849318062499e-03 0.0 
2.720986561496e-03 2.570833403000e-03 0.0 
3.723697131441e-04 1.776180360315e-04 0.0 
1.935529041760e-03 6.599413525132e-03 0.0 
2.502358407694e-03 7.265502331537e-03 0.0 
1.522304911727e-03 4.665907289474e-04 0.0 
3.512407560051e-04 -4.311346852021e-04 0.0 
2.707879610926e-03 7.282401229533e-03 0.0 
1.227945429528e-03 1.430761843083e-03 0.0 
3.337727054555e-04 8.775287427283e-03 0.0 
7.584712402881e-04 -2.474357811534e-04 0.0 
1.327381980999e-03 4.714050619494e-04 0.0 
1.872262452537e-03 3.571676582551e-03 0.0 
1.173924447757e-03 1.210634746984e-03 0.0 
2.978368353682e-03 5.745014308258e-03 0.0 
1.665770143069e-03 3.044111389701e-04 0.0 
8.668270426902e-04 -1.420948064727e-04 0.0 
2.910305415751e-04 1.044850367431e-04 0.0 
2.739570397878e-03 6.741490201707e-03 0.0 
9.001356576282e-04 1.866114472540e-05 0.0 
6.551090330090e-04 -3.111533111624e-04 0.0 
1.234812480331e-03 2.457948782429e-03 0.0 
1.130282770989e-03 1.824476943484e-03 0.0 
1.888536805357e-03 2.463039375579e-03 0.0 
3.057420891509e-03 3.685834594399e-03 0.0 
2.455982709551e-03 5.336111798708e-03 0.0 
2.880544661408e-03 6.476760269144e-03 0.0 
2.296982660596e-04 5.799450454977e-05 0.0 
5.827926390348e-04 1.445393217934e-04 0.0 
1.820355002003e-03 2.538885778235e-03 0.0 
1.935960222621e-03 4.051640122028e-03 0.0 
8.952317924874e-04 -1.554795950242e-04 0.0 
2.290189990625e-03 2.866009664289e-03 0.0 
9.321714455197e-04 3.220291975693e-04 0.0 
1.143588805800e-03 3.105069057332e-04 0.0 
3.009301477703e-03 3.354990726194e-03 0.0 
1.356479332549e-03 9.905597479740e-05 0.0 
4.520554720714e-04 -2.666620817674e-04 0.0 
1.591057627678e-03 2.716310666891e-03 0.0 
8.629518519966e-04 -4.620964659435e-05 0.0 
2.506818659506e-03 2.176758479507e-03 0.0 
3.058514673163e-03 4.850636913662e-03 0.0 
2.294421385317e-03 2.281379480195e-03 0.0 
3.916682423917e-04 4.062340955959e-04 0.0 
3.572834055428e-04 4.778572764652e-04 0.0 
8.837822879916e-04 1.165093091702e-03 0.0 
8.888505531594e-04 -1.140228219763e-04 0.0 
1.340693971043e-03 3.313935314895e-03 0.0 
8.833884990622e-04 1.456345383678e-03 0.0 
1.333937747399e-03 3.074159746452e-04 0.0 
5.771355263387e-04 2.077964429451e-04 0.0 
2.546773120339e-03 4.255216587819e-03 0.0 
1.612961912786e-03 8.219963086397e-03 0.0 
1.439033981132e-03 6.306638301396e-03 0.0 
4.016779571962e-04 7.342851951041e-05 0.0 
2.011066454290e-03 2.300887494776e-03 0.0 
2.591819154867e-03 5.819829995267e-03 0.0 
2.915328644443e-03 4.371775078355e-03 0.0 
6.683115605846e-04 1.509042823608e-04 0.0 
2.444561993378e-04 -4.171761086226e-04 0.0 
2.021850132354e-03 1.021868961455e-03 0.0 
2.637789849576e-03 2.051241160742e-03 0.0 
2.143610855824e-03 1.092135367563e-03 0.0 
2.152453966228e-05 9.607946323825e-04 0.0 
3.153902883504e-04 7.605973077134e-03 0.0 
3.363992430896e-04 -4.369363757025e-04 0.0 
1.082700189760e-03 8.452227019029e-04 0.0 
8.395232422308e-05 1.701268346275e-05 0.0 
1.734006935932e-03 4.257542779896e-04 0.0 
2.391954591664e-03 7.458533393091e-03 0.0 
3.506349630019e-05 -4.496386823378e-04 0.0 
2.806506501936e-03 2.909707134624e-03 0.0 
1.932421616455e-03 8.577107871544e-04 0.0 
2.787096794249e-03 4.872941241418e-03 0.0 
3.894161690125e-04 2.821473468159e-04 0.0 
2.825067925259e-03 6.681665832806e-03 0.0 
3.038083073381e-03 3.939246370552e-03 0.0 
4.937415654038e-04 -2.642201729352e-04 0.0 
1.609066818823e-03 3.216358210604e-03 0.0 
8.491527245967e-04 -1.006309982738e-04 0.0 
4.065135959392e-04 2.649950407875e-04 0.0 
2.006332696080e-04 1.951372733321e-04 0.0 
1.438120874981e-04 2.328161078342e-04 0.0 
1.955690786706e-04 2.467264852166e-04 0.0 
2.764452456992e-03 4.390608432869e-03 0.0 
1.697430800230e-03 3.165316079480e-03 0.0 
1.723407090017e-03 2.058766424674e-03 0.0 
2.387453149915e-03 2.618671434695e-03 0.0 
2.380619205139e-03 3.279678016480e-03 0.0 
3.867273134062e-04 -2.887522558036e-04 0.0 
1.670551383420e-03 2.663831934637e-03 0.0 
3.865498258407e-04 2.038217701437e-04 0.0 
1.343090517416e-03 2.825556650491e-03 0.0 
1.832052403554e-03 4.470143626460e-04 0.0 
1.426852171340e-03 2.797169557590e-03 0.0 
2.405179637324e-03 1.367606686200e-03 0.0 
2.534425426144e-03 1.978961001728e-03 0.0 
2.609804084139e-03 4.830802814887e-03 0.0 
6.346919970802e-04 6.664367688152e-04 0.0 
3.883605426195e-04 1.048970857682e-03 0.0 
2.114140869355e-03 2.167060950377e-03 0.0 
1.190563977128e-03 6.335784648954e-04 0.0 
4.259276797828e-04 -2.874702948651e-04 0.0 
6.523644860419e-04 -3.004795845606e-04 0.0 
3.085371593398e-04 5.536584422861e-05 0.0 
1.300900757103e-03 1.098149745436e-03 0.0 
1.890412207047e-04 1.628773095602e-04 0.0 
6.423406199326e-04 9.009098195296e-04 0.0 
3.019925895560e-03 3.312586516782e-03 0.0 
2.060002023692e-04 -4.167255441987e-04 0.0 
2.053409811915e-04 1.412140746867e-04 0.0 
3.836251576730e-04 8.442632305311e-05 0.0 
6.862643548011e-04 -2.716960121828e-04 0.0 
1.668709002673e-03 3.347896387205e-04 0.0 
2.817691364787e-04 9.258296453945e-05 0.0 
1.674295590400e-04 -4.286521638142e-04 0.0 
2.364252946537e-03 2.082472832299e-03 0.0 
2.993107950630e-03 3.534469260574e-03 0.0 
2.982595629964e-03 3.022082657791e-03 0.0 
3.068603261544e-03 4.028985111519e-03 0.0 
7.974903951012e-04 8.742314246305e-04 0.0 
1.952173535877e-04 1.080760709582e-04 0.0 
1.495128163775e-03 3.103948381567e-04 0.0 
2.858118679800e-04 1.186898025613e-04 0.0 
1.303211018748e-04 8.203983732682e-06 0.0 
1.928178846062e-04 -4.305788649934e-04 0.0 
2.876938601313e-03 6.112680755153e-03 0.0 
3.569785870376e-04 -2.736137948663e-04 0.0 
2.604873729302e-03 7.620949899343e-03 0.0 
1.997325741980e-04 4.564903389991e-05 0.0 
1.810372408910e-04 8.187233684608e-05 0.0 
2.864878154096e-03 5.123995793727e-03 0.0 
2.609903471764e-04 -3.025668968564e-04 0.0 
2.050578301187e-04 9.153089247112e-05 0.0 
3.237073891563e-04 -3.056491638732e-04 0.0 
4.135550242185e-04 -7.478992930752e-06 0.0 
1.687475372874e-03 8.481515830063e-03 0.0 
2.367438108145e-03 7.082456374076e-03 0.0 
1.501124718593e-04 5.615793859983e-05 0.0 
1.513408623635e-03 8.574731288666e-03 0.0 
2.692272251683e-04 4.627184657932e-04 0.0 
2.265242466222e-03 1.199302185553e-03 0.0 
1.314360335156e-03 6.834928842157e-03 0.0 
1.398120641377e-03 2.267339283839e-03 0.0 
1.749648825286e-03 4.017112006206e-04 0.0 
4.915361971448e-04 3.755446515649e-04 0.0 
1.408510667630e-04 4.425586639619e-05 0.0 
1.910349727837e-04 2.110968222639e-04 0.0 
1.617143268722e-04 2.311307912486e-04 0.0 
7.948397126146e-04 -1.133004992219e-04 0.0 
3.242071851841e-04 -3.086255995759e-04 0.0 
2.436307047330e-03 1.721361402928e-03 0.0 
7.524880722999e-04 -9.857153513562e-05 0.0 
1.252457608686e-04 3.326854033791e-05 0.0 
1.042749140038e-03 6.918420159025e-04 0.0 
9.205033149726e-04 -1.420976343441e-04 0.0 
9.067364151899e-04 -1.926776342143e-04 0.0 
1.157202083694e-03 6.303039501284e-03 0.0 
1.371272121538e-04 2.416135302324e-05 0.0 
2.352472159758e-04 -3.314463571800e-04 0.0 
9.528006900690e-05 2.092306968805e-05 0.0 
7.896139340893e-04 -2.527391487714e-04 0.0 
1.840751878210e-04 1.409332721292e-04 0.0 
1.780285020503e-03 1.993037202280e-03 0.0 
1.476281246809e-04 -4.110374703345e-04 0.0 
2.310558643343e-03 1.640589489626e-03 0.0 
1.176658528493e-03 2.856411125260e-03 0.0 
2.011726147477e-04 1.237809661008e-04 0.0 
2.825651565657e-03 4.164120001033e-03 0.0 
2.054225631927e-03 9.389982146239e-04 0.0 
3.851665931008e-04 7.060005709936e-04 0.0 
6.005876298037e-04 1.150763991889e-04 0.0 
7.695836527153e-04 -2.789610722780e-04 0.0 
8.595801994713e-04 -2.259739440281e-04 0.0 
1.486368653121e-04 -2.931021283942e-04 0.0 
1.913324722530e-04 9.574569918547e-05 0.0 
7.103428978986e-04 3.438179693841e-04 0.0 
7.365425778362e-04 5.549949321720e-05 0.0 
1.275503658462e-03 7.393706776456e-03 0.0 
5.417969837023e-04 -3.707447185786e-04 0.0 
8.759367272895e-04 -1.842317198561e-04 0.0 
2.957388114325e-03 4.100951000852e-03 0.0 
1.409180697157e-04 4.832709814326e-05 0.0 
3.114574484885e-04 -2.900209263466e-04 0.0 
8.031246643310e-04 -3.688730268797e-05 0.0 
2.775718322918e-03 2.155453067229e-03 0.0 
1.148083475687e-03 -2.302499975697e-06 0.0 
1.003881233108e-03 -1.105480773522e-04 0.0 
8.586352132156e-04 -7.386626597803e-05 0.0 
2.804369771199e-03 2.386948258990e-03 0.0 
2.557621468036e-03 1.848639937241e-03 0.0 
1.626783290575e-03 3.802616443852e-04 0.0 
2.627978398898e-03 1.856788419922e-03 0.0 
5.501821938164e-04 -2.791679045324e-04 0.0 
1.245470154664e-03 9.157823788642e-04 0.0 
3.610583676063e-04 -3.082136395611e-04 0.0 
2.204281374085e-03 1.076124032282e-03 0.0 
1.700996151693e-03 2.999852676285e-04 0.0 
1.792323932300e-04 3.793575315080e-05 0.0 
1.159351573194e-03 2.397096831345e-03 0.0 
4.929673322012e-04 -3.880206077185e-04 0.0 
1.044525051911e-04 2.472596421186e-05 0.0 
4.448497143433e-04 9.093388005556e-05 0.0 
2.155297561554e-03 9.885129255144e-04 0.0 
1.848980579353e-04 -3.281463572360e-04 0.0 
1.218789655522e-04 1.971991562367e-05 0.0 
1.389251829464e-03 2.328464508592e-03 0.0 
6.829056651128e-04 -3.033949431732e-04 0.0 
7.253626400493e-05 1.317084593250e-05 0.0 
7.558640470763e-04 -7.343999580807e-05 0.0 
2.649577921136e-03 3.873231045047e-03 0.0 
2.435851088264e-03 6.541467197806e-03 0.0 
1.742011993137e-03 3.335723003185e-04 0.0 
8.117968789675e-04 -1.553321426576e-04 0.0 
1.223618202221e-03 5.766475354955e-05 0.0 
2.099694647978e-03 4.969030899469e-03 0.0 
2.980967433813e-03 5.048684457408e-03 0.0 
1.649054911285e-03 4.534934868831e-04 0.0 
2.995419773751e-04 7.031170335004e-03 0.0 
5.074143647396e-04 -2.828962792911e-04 0.0 
1.579677357001e-03 3.014798431625e-04 0.0 
7.264150320694e-04 -2.995883741594e-04 0.0 
4.028604094596e-04 -1.261505518547e-04 0.0 
1.245097775306e-04 -3.701984095073e-04 0.0 
1.477473021628e-03 1.183570898734e-03 0.0 
7.479482276731e-04 -2.799147384134e-04 0.0 
4.353738221174e-04 -2.473334529388e-04 0.0 
2.341342625732e-03 1.221513445620e-03 0.0 
8.076981760099e-04 -6.140422759854e-05 0.0 
1.129499803150e-03 6.800501903755e-03 0.0 
6.464164865919e-04 -3.252012598335e-04 0.0 
6.459094814890e-05 1.099050709074e-05 0.0 
2.986133142844e-03 3.250959923924e-03 0.0 
3.757911806011e-04 -2.295554082669e-04 0.0 
2.986289212703e-03 3.010170557752e-03 0.0 
3.948332751398e-04 -2.490338678874e-04 0.0 
1.517872753936e-04 -3.947861385666e-04 0.0 
2.375914572231e-03 6.163601333592e-03 0.0 
1.122122757529e-04 -3.048632317728e-04 0.0 
1.489757202899e-04 -4.861838126632e-04 0.0 
3.171247520234e-04 -2.511937215663e-04 0.0 
7.417324100508e-04 -2.642417744892e-05 0.0 
3.264054445342e-04 3.070426212204e-03 0.0 
1.267052038403e-03 2.905870400169e-05 0.0 
1.215570899705e-03 2.753980178712e-05 0.0 
2.281220112313e-03 8.019173843616e-03 0.0 
1.482235526820e-03 9.203336591420e-03 0.0 
4.656682748269e-04 9.567559826168e-04 0.0 
2.924003225610e-03 2.714037185573e-03 0.0 
1.390163256527e-04 -4.887825201580e-04 0.0 
2.816826136879e-04 -4.517209788039e-04 0.0 
1.983784424514e-04 -3.794949944453e-04 0.0 
4.409561280858e-04 -3.951543528064e-04 0.0 
1.964961759100e-03 1.515033311970e-03 0.0 
3.736226357281e-04 3.101820661285e-03 0.0 
4.407878482559e-04 -2.183021821391e-05 0.0 
3.844189774615e-04 -3.756310479660e-04 0.0 
3.644777215617e-04 -1.292546352077e-04 0.0 
6.425090909650e-04 5.349011189185e-05 0.0 
4.650201773829e-04 8.930843888562e-05 0.0 
7.955657991077e-05 -3.044963942524e-04 0.0 
5.749233117936e-05 -3.511161424704e-04 0.0 
1.104772499110e-04 1.608084120116e-05 0.0 
5.728801740332e-05 8.729408532925e-06 0.0 
8.143420251968e-05 -2.703781468356e-04 0.0 
3.365013399803e-04 -2.308585514174e-04 0.0 
7.795073774546e-04 -1.399296591093e-04 0.0 
6.191239299837e-04 7.436060557509e-05 0.0 
2.937645275227e-04 -4.458716242731e-04 0.0 
6.557025288060e-04 2.934183503922e-05 0.0 
1.331814470948e-04 -4.701123783055e-04 0.0 
3.338958762216e-04 -2.705011681829e-04 0.0 
4.572419260726e-04 -2.256362670055e-04 0.0 
1.015413205184e-04 -4.749230846123e-04 0.0 
6.539618185921e-05 -2.869487111595e-04 0.0 
1.082180849647e-03 2.404621215369e-03 0.0 
1.195885655976e-04 -4.888991613459e-04 0.0 
1.641279641920e-03 9.074188075212e-03 0.0 
1.694132863946e-03 9.295966299029e-03 0.0 
1.289109576540e-03 1.199834547831e-04 0.0 
2.865226496522e-05 -3.521806102801e-04 0.0 
6.682904285063e-04 -3.223483569551e-04 0.0 
6.638016377649e-04 9.739066838863e-04 0.0 
2.754058134716e-04 4.777116442173e-07 0.0 
7.374523803455e-04 3.969593002193e-04 0.0 
6.793734510484e-04 3.726326578685e-03 0.0 
1.339791440328e-03 1.951578474203e-03 0.0 
2.491015544430e-04 -4.579997009981e-04 0.0 
2.938316415361e-03 6.025579998278e-03 0.0 
1.060479315868e-03 9.304689186167e-03 0.0 
9.893273355157e-04 9.620266897480e-03 0.0 
1.309808963247e-04 -4.865586706358e-04 0.0 
1.269843061165e-04 -4.771501945471e-04 0.0 
6.363367586109e-05 -4.601807706574e-04 0.0 
3.175485621764e-04 -4.176093953545e-04 0.0 
8.634809279056e-05 -4.773715968396e-04 0.0 
6.623851372565e-05 -2.513434310280e-04 0.0 
5.803448494430e-05 -2.052111551649e-04 0.0 
3.520012013861e-04 -3.910761009178e-04 0.0 
2.692143723435e-04 5.902532608749e-03 0.0 
1.387635326456e-03 9.542553686811e-03 0.0 
1.739142015253e-03 1.425564761693e-03 0.0 
7.040359738098e-04 -6.020919998375e-05 0.0 
2.401247603459e-04 6.803163180750e-03 0.0 
1.503322187621e-05 -3.368668439689e-04 0.0 
7.707241029474e-05 -4.652332837079e-04 0.0 
5.718332025844e-05 2.651107036659e-04 0.0 
1.308615050248e-04 5.509880169237e-04 0.0 
1.181965372018e-03 7.368485716642e-03 0.0 
1.195593785128e-03 9.306371145678e-03 0.0 
7.488215198733e-05 -3.359462548807e-04 0.0 
8.422772622730e-05 5.257215556396e-04 0.0 
3.495842179921e-04 -4.044642675435e-04 0.0 
1.535593085017e-03 9.441240634301e-03 0.0 
1.333812194344e-03 9.279376039610e-03 0.0 
2.659555759901e-03 7.527310445622e-03 0.0 
1.254151376702e-04 2.299023579590e-04 0.0 
1.026468925201e-04 5.228778641285e-04 0.0 
1.123084256842e-04 -4.793686994270e-04 0.0 
1.092094097255e-04 -4.856079475431e-04 0.0 
2.521764088340e-04 -4.598314997014e-04 0.0 
4.998288866909e-04 -2.228022772075e-04 0.0 
2.688383791696e-05 -7.255304466401e-06 0.0 
5.349743314082e-06 -1.522993395897e-04 0.0 
8.637212611216e-05 3.884015007576e-03 0.0 
9.784601519101e-05 -2.862516581565e-04 0.0 
1.155992238761e-03 5.573807328464e-05 0.0 
9.322229501551e-05 -3.157606747453e-04 0.0 
5.386160842173e-05 -2.437871579567e-04 0.0 
1.092432064610e-03 9.313764772379e-07 0.0 
1.084167448172e-04 -1.088777863920e-05 0.0 
2.251553372765e-04 6.237020096973e-03 0.0 
3.034755111565e-03 5.025198526563e-03 0.0 
7.402163252003e-05 -4.728804722053e-04 0.0 
2.974271330098e-04 -1.144214886457e-04 0.0 
1.983486161796e-05 3.144482333266e-04 0.0 
3.919118707812e-05 5.325970067847e-04 0.0 
1.249654940202e-03 9.594408969624e-03 0.0 
1.207835615537e-03 1.118144756834e-04 0.0 
4.546357226168e-05 2.577671604626e-04 0.0 
1.993663907188e-03 8.424110193419e-04 0.0 
4.602591974765e-05 -4.638740887686e-04 0.0 
5.894096549270e-05 -4.759050471353e-04 0.0 
4.438398715397e-05 -4.719511767491e-04 0.0 
1.613801861646e-05 -3.038773009454e-04 0.0 
2.140644872166e-05 1.509113023654e-06 0.0 
1.056109989053e-05 1.451027106847e-03 0.0 
5.760920707216e-05 -4.830951987766e-04 0.0 
3.406247444872e-05 -2.498024680387e-04 0.0 
7.227805997031e-06 5.720865053055e-07 0.0 
3.037508944048e-05 2.171092861561e-06 0.0 
1.004439363046e-04 1.318449692715e-05 0.0 
4.802378343667e-05 4.862277994205e-03 0.0 
1.910904649481e-05 3.391782820071e-03 0.0 
1.417864272463e-05 9.370265183483e-07 0.0 
1.619644671585e-05 1.234066343213e-06 0.0 
4.225663004273e-05 3.884493847865e-03 0.0 
4.336778135946e-05 -4.860650138748e-04 0.0 
7.502661672962e-04 9.637914780801e-03 0.0 
1.119068240641e-03 9.617606639710e-03 0.0 
8.428732882156e-05 -4.842139344759e-04 0.0 
2.750524985822e-05 2.757618705981e-06 0.0 
9.330809019669e-05 1.092603250086e-05 0.0 
4.605338639977e-05 5.092968241943e-06 0.0 
7.062911013050e-05 -4.869129614828e-04 0.0 
9.638154059071e-05 -4.880046703646e-04 0.0 
5.318923250769e-05 7.351432668234e-06 0.0 
4.725470379693e-05 5.833064258915e-06 0.0 
2.487619988875e-05 5.365976390143e-03 0.0 
3.985124287851e-04 9.649880623613e-03 0.0 
2.314758354792e-05 4.367856725605e-03 0.0 
2.988942862254e-05 7.351073563889e-03 0.0 
1.713266328163e-04 9.647821657016e-03 0.0 
1.544471505424e-04 -4.869403114126e-04 0.0 
1.714323783542e-04 -4.744869254799e-04 0.0 
1.707450342589e-04 -4.609392283021e-04 0.0 
1.627997975349e-04 -4.403739913263e-04 0.0 
1.721400860330e-05 -2.310485945657e-04 0.0 
1.684846584542e-05 -2.683619692609e-04 0.0 
1.781936966955e-04 -4.685152613855e-04 0.0 
1.718838620669e-05 -1.226682348867e-04 0.0 
1.762072715289e-04 -4.523653275696e-04 0.0 
1.007388789969e-04 2.465017939180e-04 0.0 
3.876415396562e-05 2.679543951770e-04 0.0 
7.367818476638e-05 2.858773132578e-04 0.0 
1.131138765342e-05 -4.379046664773e-04 0.0 
1.361904308900e-05 -3.668544769622e-04 0.0 
3.650557188228e-05 3.227353759348e-04 0.0 
1.152082158236e-05 -3.301288926091e-05 0.0 
1.935632546016e-05 2.181487734582e-04 0.0 
8.359272596891e-06 -1.407510394566e-05 0.0 
5.020645036730e-06 -2.654820679735e-06 0.0 
3.298648446188e-05 -2.864734965741e-04 0.0 
7.526972584791e-05 5.906897711118e-04 0.0 
5.586189734244e-05 5.408841493930e-04 0.0 
1.988009417925e-05 -2.299581563109e-05 0.0 
1.337991763362e-05 -7.285437148449e-06 0.0 
1.746523518212e-04 -8.605782417967e-05 0.0 
1.286518742511e-04 -3.484365136481e-04 0.0 
2.756107652041e-04 -2.902296549660e-04 0.0 
1.352776208850e-04 -4.810489519531e-04 0.0 
2.552133152442e-04 -3.109331523199e-06 0.0 
3.723145587171e-04 -2.696444576545e-04 0.0 
1.990577738063e-04 -3.746721584609e-05 0.0 
3.117300455472e-04 -4.286798928282e-04 0.0 
1.728698099571e-04 -4.709090324073e-04 0.0 
1.365330585134e-04 -1.812271468058e-05 0.0 
2.795747640430e-04 -2.519165890110e-04 0.0 
6.218010438966e-05 -3.209222692528e-04 0.0 
1.742901483895e-04 -3.967502213544e-05 0.0 
1.199493839743e-04 2.458438808900e-03 0.0 
3.117124049268e-05 -3.207783905312e-04 0.0 
7.222252279950e-04 -5.468700300266e-06 0.0 
5.245133980876e-04 -1.135099827758e-04 0.0 
2.061255438272e-04 -8.418290750126e-05 0.0 
1.489585882060e-04 -7.125311206127e-05 0.0 
1.385466333693e-03 2.616662893437e-04 0.0 
2.899812626024e-03 5.581947704832e-03 0.0 
2.347722779199e-03 1.349612080484e-03 0.0 
3.330972969637e-04 -1.118718382225e-04 0.0 
1.230980290492e-04 -3.084277406669e-05 0.0 
9.731323992913e-05 -5.897869687838e-05 0.0 
4.181611554261e-04 -4.118933758071e-04 0.0 
2.282983388143e-04 2.534421383617e-03 0.0 
2.896255482689e-04 3.515964260027e-03 0.0 
5.161851146171e-04 8.148838075638e-03 0.0 
3.707262028776e-04 -8.923559084856e-05 0.0 
2.673768587222e-04 -9.774278167714e-05 0.0 
1.553021847758e-04 2.509612333487e-03 0.0 
1.983427232828e-04 3.014936994055e-03 0.0 
5.619032540512e-04 -1.307115627603e-04 0.0 
9.192813307407e-05 -1.235681301287e-05 0.0 
6.148455289353e-04 3.699415548648e-03 0.0 
6.915456311081e-05 -5.935030441101e-05 0.0 
1.858669481609e-04 -6.884423635522e-07 0.0 
2.666237437854e-04 2.558694492652e-03 0.0 
5.055680875676e-04 5.091891806487e-03 0.0 
6.944778484632e-04 -3.771030653516e-05 0.0 
1.622248529551e-04 -4.135504938815e-04 0.0 
4.255037226371e-04 -4.079627038260e-04 0.0 
2.370985727004e-04 -4.632567573290e-04 0.0 
1.695367870498e-04 -3.539717259011e-04 0.0 
2.403072352835e-04 3.013719489170e-03 0.0 
9.818686835321e-05 -2.141866684240e-05 0.0 
1.847710275157e-04 -3.985475112516e-04 0.0 
1.602144585100e-03 2.191170750297e-03 0.0 
6.088696295202e-04 7.652232832203e-03 0.0 
2.322557575467e-04 -4.937681373852e-05 0.0 
1.256848119992e-04 -4.350120237491e-05 0.0 
6.434014569689e-04 -3.313176000214e-04 0.0 
1.014173714728e-04 -4.504641040614e-05 0.0 
5.823111640510e-04 8.166357033623e-03 0.0 
1.553393534258e-03 3.229087714581e-04 0.0 
1.406923454356e-04 2.819913939459e-06 0.0 
8.753731145000e-05 -4.113606017691e-04 0.0 
2.384281472165e-04 7.752094371466e-06 0.0 
3.917806418236e-04 4.543737948805e-03 0.0 
1.296875087261e-04 -3.997506791735e-04 0.0 
4.624118111502e-04 -3.970397745873e-04 0.0 
1.485643940675e-04 -1.963470149898e-04 0.0 
6.813948984570e-04 6.164309705766e-03 0.0 
3.430901014565e-04 -3.441153944225e-04 0.0 
2.906238412144e-04 3.992855253126e-03 0.0 
4.338977251065e-04 5.549321332317e-03 0.0 
3.158326230284e-04 -2.114552415069e-04 0.0 
1.192397904501e-04 -7.280318682181e-05 0.0 
1.512994782115e-04 -5.588341408659e-05 0.0 
3.367383721948e-04 4.508607269855e-03 0.0 
1.931272220755e-04 -4.374351736488e-04 0.0 
2.610101717709e-04 -2.326838826248e-04 0.0 
1.366881135772e-03 4.289012079364e-04 0.0 
4.491475739887e-04 4.092152231303e-03 0.0 
2.604992049567e-04 -2.714327642470e-04 0.0 
4.826154937666e-04 -1.184063416182e-04 0.0 
3.157958142466e-04 8.394910547302e-06 0.0 
4.433144984826e-04 5.060549653375e-03 0.0 
2.130084685757e-04 1.239701095774e-05 0.0 
2.013554018032e-04 -4.697233657488e-04 0.0 
6.489023785558e-04 6.827624589602e-05 0.0 
1.449556074663e-04 -2.901585627855e-05 0.0 
5.595502561266e-04 5.611295162065e-03 0.0 
1.064075343615e-04 -1.613914145927e-04 0.0 
7.075906428297e-04 7.179410305806e-03 0.0 
6.068345917471e-04 4.182577008298e-05 0.0 
2.562678749676e-04 -1.934222544144e-04 0.0 
1.780472361847e-04 -5.388415163527e-05 0.0 
1.372605695193e-04 -4.124133588521e-04 0.0 
2.039567543973e-04 2.028318570291e-06 0.0 
2.778914427996e-04 -2.125577052695e-04 0.0 
1.033086672715e-04 -3.995170743530e-04 0.0 
2.248274601137e-04 -2.327880802083e-04 0.0 
2.996007711481e-04 -3.267330940679e-04 0.0 
3.214446061336e-04 -3.914686166399e-04 0.0 
1.402794285716e-04 -1.587470759688e-04 0.0 
1.639310516819e-04 -4.836849006810e-04 0.0 
1.741988465191e-04 -4.782193694812e-04 0.0 
2.342814708956e-04 -9.995375604527e-05 0.0 
1.673262847879e-04 -4.253863863942e-04 0.0 
3.353580266676e-04 -9.249313692214e-05 0.0 
4.068481610714e-04 -1.055102087959e-04 0.0 
4.771256905837e-04 -3.038924420194e-04 0.0 
5.867512022586e-04 -3.455578695137e-04 0.0 
5.305030907605e-04 3.191898160196e-03 0.0 
1.933626408511e-04 4.364669347672e-04 0.0 
2.543684869976e-04 -3.086674559153e-04 0.0 
5.823504971282e-04 6.196321072997e-05 0.0 
1.495681885105e-04 -4.357094062054e-04 0.0 
6.613529019500e-04 6.655172315727e-03 0.0 
6.783001812466e-04 7.683852657875e-03 0.0 
2.730938519731e-04 -4.480846864264e-04 0.0 
4.059069646823e-04 1.058161506899e-05 0.0 
7.766447972608e-04 4.722215839287e-03 0.0 
1.909664653875e-04 -4.266781333091e-04 0.0 
5.524095162924e-04 2.755532281465e-03 0.0 
4.974818078626e-04 2.726237082848e-03 0.0 
2.127767949353e-04 -4.159538430629e-04 0.0 
1.619874496013e-03 2.417861760107e-03 0.0 
2.908172502663e-04 -4.179483500558e-04 0.0 
2.071795381851e-04 -6.737893293155e-05 0.0 
1.976731242596e-04 -1.758113560047e-04 0.0 
1.313410354533e-03 2.358281268167e-03 0.0 
4.752030732871e-04 3.163106629055e-03 0.0 
2.686618275991e-04 -7.967240152573e-05 0.0 
3.009728315906e-04 -7.697240719393e-05 0.0 
2.811057560108e-04 -4.395120510500e-04 0.0 
2.366204341304e-04 -6.507940132414e-05 0.0 
7.053402304607e-04 4.695974366193e-03 0.0 
1.622923412044e-04 -1.769965912880e-04 0.0 
6.268577818136e-04 5.643207349891e-03 0.0 
6.310529152428e-04 4.182322194687e-03 0.0 
1.788816031207e-03 4.155200610949e-04 0.0 
4.403242026082e-04 3.611525008335e-03 0.0 
2.072127995192e-04 -2.524186797305e-04 0.0 
2.196249271127e-04 -1.945317643779e-04 0.0 
2.426088196993e-04 -3.434421827929e-04 0.0 
5.286193047252e-04 -3.337506892865e-04 0.0 
6.355596456552e-04 5.154874948525e-03 0.0 
7.338861925969e-04 -1.929615313010e-04 0.0 
2.642453750072e-04 -4.047195203504e-04 0.0 
2.366479332816e-04 -4.624980809148e-04 0.0 
7.048300754334e-04 5.184185020852e-03 0.0 
2.922963108295e-04 -4.051957379669e-04 0.0 
2.540103525911e-04 1.100837338440e-05 0.0 
5.097428897745e-04 4.606812787144e-03 0.0 
2.601283378562e-04 -4.672144532437e-05 0.0 
3.449094550913e-04 6.916927436511e-05 0.0 
2.243199520901e-04 -2.718306573830e-04 0.0 
2.385087632138e-04 -4.169360476688e-04 0.0 
2.454834625858e-04 -4.566006221705e-04 0.0 
3.675609301314e-04 -7.043522571355e-05 0.0 
4.825786728366e-04 6.070293231443e-03 0.0 
2.141106172352e-04 -4.685698242775e-04 0.0 
3.086127931797e-04 -3.441369217221e-04 0.0 
9.721272751500e-05 -4.222079918391e-04 0.0 
7.537290966976e-04 6.194572727032e-03 0.0 
2.656087562460e-04 -3.265662217880e-04 0.0 
4.454388364945e-04 -1.015302746766e-04 0.0 
2.095745065867e-04 -3.417588462686e-04 0.0 
3.373983525485e-04 3.548397874027e-03 0.0 
3.196812015742e-04 -3.766303188101e-04 0.0 
4.746067210671e-04 -5.661652332273e-05 0.0 
4.008717763844e-04 -4.176786559326e-04 0.0 
4.440920736358e-04 -8.121803875061e-05 0.0 
1.693860332975e-04 -2.144014281451e-04 0.0 
3.280239407623e-04 -5.644440317139e-05 0.0 
1.054153854257e-03 -6.059598051710e-05 0.0 
1.205571441297e-04 -4.230271441015e-04 0.0 
5.700503331052e-04 7.116317870274e-03 0.0 
1.092293525167e-03 2.884699797514e-05 0.0 
2.601888235173e-03 2.487662978637e-03 0.0 
5.459776147717e-04 6.100924908080e-03 0.0 
4.733486227297e-04 -3.931582568318e-04 0.0 
1.003067436356e-03 5.773637328439e-03 0.0 
1.277633312881e-04 -4.344872989421e-04 0.0 
3.287521905986e-04 -5.482589111313e-06 0.0 
1.143906825760e-03 8.166468927639e-05 0.0 
1.578938161018e-03 3.931792371367e-04 0.0 
4.021027467968e-04 2.210024246475e-03 0.0 
7.274995645850e-04 -1.502555329754e-04 0.0 
2.149331353213e-04 -4.386096874052e-04 0.0 
6.121220748345e-04 -1.010598679646e-04 0.0 
3.381448704091e-04 1.347010241843e-05 0.0 
6.297612753579e-04 -3.384888271163e-04 0.0 
2.968040184314e-04 -5.972403857820e-05 0.0 
5.724269221750e-04 4.637883741356e-03 0.0 
5.868655333857e-04 -3.214288077029e-04 0.0 
5.258439621417e-04 -9.165166634103e-05 0.0 
1.012683412345e-03 7.284766031154e-03 0.0 
1.484216903772e-04 -3.868508293968e-04 0.0 
3.487017478732e-04 -3.607544597865e-04 0.0 
2.690818510303e-03 1.906261130304e-03 0.0 
4.023361254666e-04 -6.639760773494e-05 0.0 
2.567520901429e-03 3.408864055201e-03 0.0 
2.533801338715e-03 1.624264506595e-03 0.0 
8.515046281751e-04 5.237022131595e-03 0.0 
5.932431439519e-04 6.623699705867e-03 0.0 
1.043885626523e-03 6.784697896055e-03 0.0 
2.050657832875e-04 -2.137714128165e-04 0.0 
5.058376624158e-04 1.346143259387e-05 0.0 
7.021131491205e-04 -1.086143239789e-04 0.0 
7.813931391466e-04 7.215806274440e-03 0.0 
1.452750924779e-03 1.699933440400e-03 0.0 
1.575893465020e-03 4.547292201037e-04 0.0 
4.825992949620e-04 -7.623578925750e-05 0.0 
5.674100367352e-04 4.153541642177e-03 0.0 
4.848668845350e-04 -3.214016696296e-04 0.0 
4.143376470677e-04 -3.426015094391e-04 0.0 
2.588689205156e-04 -4.398641399624e-04 0.0 
6.570096300236e-04 -6.987220964503e-05 0.0 
3.709292618471e-04 -3.262996067536e-04 0.0 
8.438323957742e-04 5.729376081132e-03 0.0 
9.865984543896e-04 6.271168133242e-03 0.0 
1.604342017675e-03 2.177858308906e-04 0.0 
4.180926832796e-04 -3.738363592683e-04 0.0 
1.214339954486e-03 2.597668976621e-04 0.0 
3.828829285080e-04 -3.601477046646e-04 0.0 
4.514083131547e-04 -3.407428089185e-04 0.0 
2.627618981419e-04 -4.293709364419e-04 0.0 
6.168466120372e-04 1.824086055598e-05 0.0 
6.869760012010e-04 -2.599057914837e-04 0.0 
4.959026329543e-04 3.641843464997e-03 0.0 
7.733749921047e-04 -2.243283951753e-04 0.0 
6.584627801107e-04 -9.314579431268e-05 0.0 
7.077860746249e-04 -1.761092894524e-04 0.0 
2.244832005083e-03 1.048367671331e-03 0.0 
2.385043469117e-04 -4.288348516714e-04 0.0 
4.328749444786e-04 1.721633688905e-05 0.0 
3.753325422129e-04 2.487677273197e-05 0.0 
2.642180059245e-03 1.905879472385e-03 0.0 
5.249838001512e-04 -3.179312976218e-04 0.0 
6.924569765656e-04 -1.336691619313e-04 0.0 
7.684624098326e-04 5.702780443483e-03 0.0 
4.373250989592e-04 -3.060245487612e-04 0.0 
2.266111309188e-03 1.803903441218e-03 0.0 
2.881808391361e-04 -3.763526724083e-04 0.0 
5.548799362397e-04 -3.626617840999e-04 0.0 
5.600104352767e-04 -2.966936952529e-04 0.0 
2.618933078732e-04 -3.907147526216e-04 0.0 
1.825352184990e-04 -4.018050220267e-04 0.0 
6.583201614928e-04 -1.840657625168e-04 0.0 
5.682123531465e-04 -8.540873883625e-05 0.0 
1.962681683145e-03 1.320406887275e-03 0.0 
1.662318060687e-04 -4.824306091654e-04 0.0 
1.005231001805e-03 -1.638437917271e-04 0.0 
8.380722118911e-04 -2.239957556551e-04 0.0 
6.037092876794e-04 -2.910955174556e-04 0.0 
9.057746931846e-04 6.248782822542e-03 0.0 
7.054234091284e-04 -2.187432610262e-04 0.0 
2.827240771582e-04 -3.604983406842e-04 0.0 
6.396832170978e-04 -2.679258260315e-04 0.0 
3.934389151228e-04 4.060419546076e-03 0.0 
2.507121185799e-04 -3.599704740349e-04 0.0 
2.059093654502e-04 -4.643825832457e-04 0.0 
2.328736640785e-04 -4.491677361984e-04 0.0 
5.760160674246e-04 -3.584456445810e-04 0.0 
4.907213763673e-04 -3.529725678221e-04 0.0 
9.359777353435e-04 -1.783048368715e-04 0.0 
7.227457096914e-04 -2.349661271958e-04 0.0 
4.004870521552e-04 -4.098364215783e-04 0.0 
2.131954301145e-04 -4.484493684117e-04 0.0 
1.409930513858e-03 6.833501355108e-03 0.0 
2.328268810241e-04 -3.898940611703e-04 0.0 
6.517804074691e-04 2.012037235039e-06 0.0 
2.109812984847e-03 1.318547505224e-03 0.0 
2.512779535007e-03 5.478644361802e-03 0.0 
8.522661974746e-04 3.308328583806e-03 0.0 
1.762112300799e-03 1.265994122833e-03 0.0 
1.703746424184e-03 3.257190926712e-04 0.0 
2.413394673812e-03 1.617132167052e-03 0.0 
4.740853385720e-04 -3.807510458337e-04 0.0 
5.807557210858e-04 -2.565321502508e-04 0.0 
1.959994751146e-03 7.743428311649e-04 0.0 
6.767015948142e-04 -2.246613583017e-04 0.0 
3.908118314130e-04 -3.924314101084e-04 0.0 
4.079956268235e-04 -3.253924768921e-04 0.0 
7.859921390763e-04 -2.382270056298e-04 0.0 
8.797675096143e-04 -1.963038180374e-04 0.0 
2.271024537086e-04 -3.750041143076e-04 0.0 
7.858891840699e-04 -1.825102583724e-04 0.0 
9.474312297554e-04 -1.871814890349e-04 0.0 
1.116686754129e-03 -1.043789924601e-04 0.0 
4.536273004131e-04 -3.564943154462e-04 0.0 
1.340852958601e-03 1.829343486968e-04 0.0 
9.299159075523e-04 5.258898068202e-03 0.0 
1.190977793257e-03 -6.937810087812e-05 0.0 
5.387016411659e-04 2.198465927927e-05 0.0 
5.577414281233e-04 -3.447007759957e-04 0.0 
4.778752279416e-04 5.570210793062e-05 0.0 
8.623681277094e-04 -1.838609289139e-04 0.0 
1.486059842814e-03 1.131484376195e-03 0.0 
2.924921524709e-03 3.419092325742e-03 0.0 
5.010421430460e-04 -3.800985072107e-04 0.0 
2.607184313823e-03 4.797051128051e-03 0.0 
1.095815114545e-03 2.862573352027e-03 0.0 
9.529894711655e-04 -1.383443488861e-04 0.0 
1.743674862994e-03 1.155741257340e-03 0.0 
2.652596387652e-03 4.133026361867e-03 0.0 
2.729281409261e-03 2.332209062885e-03 0.0 
4.213751477739e-04 -3.956845132070e-04 0.0 
4.308159698903e-04 1.387970033706e-03 0.0 
3.556246137925e-04 -4.221400771924e-04 0.0 
8.993892697923e-04 2.138873651021e-04 0.0 
3.510739634700e-04 2.637885629423e-03 0.0 
1.181044169497e-03 1.341533447060e-04 0.0 
8.074895965076e-04 6.721831305625e-03 0.0 
8.911756378397e-04 3.790246217542e-03 0.0 
1.054086590116e-03 -1.328224144508e-04 0.0 
1.617762022633e-03 2.327608887424e-04 0.0 
6.672057917727e-04 2.348026453784e-03 0.0 
5.126402862890e-04 -5.059471600274e-05 0.0 
1.009270307209e-03 4.782684911602e-03 0.0 
1.022507498695e-03 3.132972839953e-05 0.0 
4.989133576305e-04 -3.624572292049e-04 0.0 
1.078459145274e-03 4.302072650134e-03 0.0 
8.828671157423e-04 4.567668229768e-04 0.0 
3.974475555642e-04 3.148742430981e-05 0.0 
6.265578919646e-04 -2.508882495471e-04 0.0 
8.841652070528e-04 6.749445763487e-03 0.0 
9.337867540795e-04 7.271899209287e-03 0.0 
8.080556830147e-04 -1.976542560771e-04 0.0 
6.054578227897e-04 -5.634859889345e-05 0.0 
6.341274607834e-04 -2.688797239809e-05 0.0 
2.275001101865e-04 -4.573315830302e-04 0.0 
1.018846485787e-03 2.653114420548e-04 0.0 
1.318170031738e-03 8.809331272186e-06 0.0 
1.126603261407e-03 -1.055028718002e-04 0.0 
2.445494410579e-03 1.561117648615e-03 0.0 
5.329626762567e-04 1.870519210455e-03 0.0 
1.533019887198e-03 2.243748321356e-03 0.0 
3.970759706828e-04 2.668853140531e-03 0.0 
2.800475969702e-03 3.986292140047e-03 0.0 
1.309335647547e-03 3.810616243178e-03 0.0 
5.630012511888e-04 -6.397105443273e-05 0.0 
5.007580197962e-04 2.285238675233e-03 0.0 
1.272602288366e-03 4.800923365828e-03 0.0 
6.565283755048e-04 -2.266453488297e-04 0.0 
1.397683207354e-03 7.251801323127e-05 0.0 
9.951857747734e-04 4.291668161824e-03 0.0 
7.317808254302e-04 2.813711048010e-03 0.0 
7.668854041560e-04 4.235474697819e-03 0.0 
9.281186687870e-04 4.766549744839e-03 0.0 
4.435529467392e-04 -1.150900511730e-06 0.0 
1.098926475933e-03 2.864263894054e-04 0.0 
5.431394276632e-04 -4.155091409999e-07 0.0 
6.071435397933e-04 -1.245043754539e-04 0.0 
2.671392280862e-03 7.273991390088e-03 0.0 
1.200856515325e-03 1.843798125291e-04 0.0 
1.768706564698e-03 4.670020337809e-03 0.0 
2.094469798797e-04 -4.029166242932e-04 0.0 
1.248432837019e-03 -3.411676739691e-05 0.0 
1.240281061836e-03 -4.018439184267e-06 0.0 
1.585019391353e-03 2.438047056757e-04 0.0 
7.679770445345e-04 -7.654770370609e-05 0.0 
1.326312886360e-03 1.902066715588e-05 0.0 
1.504185118137e-03 2.482708285245e-04 0.0 
3.014978117824e-03 5.471361017112e-03 0.0 
6.355252458412e-04 -2.088200921689e-04 0.0 
1.362939474267e-03 5.802798001365e-03 0.0 
8.325061870257e-04 8.874285372246e-03 0.0 
-1.105183611819e-04 1.198216026875e-03 0.0 
6.438280725146e-04 -1.416451397544e-04 0.0 
1.083007120479e-03 1.240754676911e-04 0.0 
1.248703297474e-03 1.923931664928e-03 0.0 
1.576312699184e-03 1.937642376789e-04 0.0 
6.294047474019e-04 -1.661879838629e-04 0.0 
1.088056889034e-03 5.789704688781e-03 0.0 
2.435418553503e-05 1.795939551414e-03 0.0 
1.244088916485e-03 1.670761381053e-04 0.0 
1.488491386054e-03 1.560808545790e-04 0.0 
3.029274712256e-03 5.360582492596e-03 0.0 
5.921337788961e-04 -3.586325509509e-05 0.0 
6.468552419874e-04 -2.621628972525e-04 0.0 
6.109372018452e-04 -8.121105776540e-06 0.0 
5.171309703923e-04 4.109035147277e-05 0.0 
1.410383517001e-03 2.248171957888e-04 0.0 
8.399479963050e-04 4.257932666763e-03 0.0 
1.944388003200e-03 9.022655811036e-04 0.0 
4.878539365800e-04 3.235021515230e-05 0.0 
3.080900483107e-04 2.679777528048e-03 0.0 
1.184677865149e-03 5.299167620731e-03 0.0 
1.231282263091e-03 4.000782636787e-04 0.0 
8.170894977931e-04 3.772645889244e-03 0.0 
1.512466012093e-03 2.209741907881e-04 0.0 
1.464386180693e-03 1.127125847118e-04 0.0 
3.706720954250e-04 -1.892163403502e-04 0.0 
3.737712794417e-04 6.213303919422e-05 0.0 
6.499587213034e-04 3.248104388851e-03 0.0 
1.763051167143e-04 -3.877680372205e-04 0.0 
1.066221129698e-03 3.969516568008e-03 0.0 
2.164501496381e-03 1.157816466634e-03 0.0 
3.569969270903e-04 2.181431835299e-03 0.0 
5.498510946368e-04 -3.143952362973e-04 0.0 
2.808018910647e-03 2.182879864546e-03 0.0 
1.181164544207e-03 4.801156425335e-03 0.0 
5.202044866904e-04 -2.001109870572e-04 0.0 
7.368031532330e-04 -1.320078954188e-04 0.0 
1.578900966306e-03 1.072886176243e-03 0.0 
4.100871245507e-04 -3.730157874831e-04 0.0 
5.759409344793e-04 -2.839128982247e-04 0.0 
4.872920917139e-04 -3.331850493382e-04 0.0 
1.567344779065e-03 2.098128229242e-04 0.0 
2.335865896524e-04 4.598882302010e-04 0.0 
1.213157949086e-03 6.454976317290e-03 0.0 
3.535599859991e-04 -8.216692211610e-07 0.0 
1.525102842223e-03 2.688554490569e-04 0.0 
1.469512909907e-03 5.279600339344e-03 0.0 
5.500563428837e-04 3.889880513243e-05 0.0 
4.483302004236e-04 4.649359048229e-05 0.0 
4.654784599700e-04 -3.579750739529e-04 0.0 
1.880678025382e-04 -3.572727158273e-04 0.0 
1.442176757434e-03 2.888368581187e-04 0.0 
9.763360321168e-04 -1.487267016098e-04 0.0 
1.314869575709e-03 3.818767473623e-04 0.0 
2.023956105050e-03 1.871897009040e-03 0.0 
1.637973260246e-03 4.221147179855e-03 0.0 
9.264376375391e-04 2.364823417371e-04 0.0 
1.096056998652e-03 5.291100595308e-03 0.0 
1.312977599466e-03 1.891694209946e-03 0.0 
1.133070948396e-03 3.819385544713e-03 0.0 
1.167808771264e-03 3.336561931255e-03 0.0 
7.322909281664e-04 4.563791639727e-04 0.0 
3.565388549250e-04 -1.768750630342e-05 0.0 
1.254138452919e-03 4.306624922301e-03 0.0 
1.947492947019e-03 5.658726052295e-04 0.0 
1.478172145334e-03 8.647753841921e-03 0.0 
7.783829332710e-04 2.096820177325e-04 0.0 
8.636753788751e-04 1.353623803206e-04 0.0 
1.974924507795e-04 -3.739896926244e-04 0.0 
1.424238593473e-03 3.949090972550e-04 0.0 
2.298445323587e-05 -4.282029466209e-04 0.0 
2.413833237873e-03 1.276354074706e-03 0.0 
1.261896019480e-03 2.193751244192e-04 0.0 
9.353334070640e-04 2.413852392334e-03 0.0 
8.928895563815e-04 1.953720989513e-03 0.0 
1.374658979040e-03 2.439542970874e-04 0.0 
9.266465740440e-04 3.322278090993e-03 0.0 
1.701227622259e-03 4.128344673662e-04 0.0 
2.286871705350e-03 1.535571630232e-03 0.0 
1.893141725036e-03 9.483106959612e-03 0.0 
1.602798488577e-03 1.655748828557e-03 0.0 
2.045312793318e-03 9.522763049621e-03 0.0 
2.047859567285e-03 9.369254912778e-03 0.0 
1.686807182569e-03 2.903695146440e-04 0.0 
2.011461131676e-03 9.141438034437e-03 0.0 
2.252721058375e-03 9.285812608263e-04 0.0 
2.061109972776e-03 8.348785634170e-04 0.0 
1.372715520244e-03 4.614871541559e-05 0.0 
6.503100393249e-04 -1.580217344959e-04 0.0 
1.541832533546e-03 1.754817478754e-04 0.0 
6.682129439014e-04 2.794948522967e-03 0.0 
1.399670223216e-03 1.756491363367e-03 0.0 
4.263479239565e-04 -4.375240592994e-05 0.0 
1.141794902072e-03 3.212065021187e-04 0.0 
1.036645114840e-03 -1.265819764970e-04 0.0 
1.084249102479e-03 3.337421753940e-03 0.0 
1.447561348205e-03 9.655462277987e-05 0.0 
2.808969452644e-04 -1.343965856650e-05 0.0 
1.048829384910e-03 3.814600213039e-03 0.0 
1.401377433378e-03 3.794151853585e-03 0.0 
1.359082172617e-03 1.581805343971e-04 0.0 
1.627119540281e-03 2.792499598832e-04 0.0 
1.946373884285e-03 1.220974553420e-03 0.0 
2.906989395381e-03 3.673909670940e-03 0.0 
6.256688459784e-04 -2.059525064445e-04 0.0 
8.310152662250e-04 5.638877129336e-05 0.0 
2.106094983663e-03 1.707646147776e-03 0.0 
2.877840807110e-03 2.442044565181e-03 0.0 
2.134338594233e-04 -9.341524778786e-06 0.0 
1.346843483285e-03 4.298715443451e-03 0.0 
1.547670814536e-03 2.015962988408e-04 0.0 
2.753657469710e-03 2.150170782999e-03 0.0 
1.087250546260e-03 1.666661412294e-04 0.0 
7.146121758991e-04 3.271965730465e-03 0.0 
1.768356069588e-03 1.190692435545e-03 0.0 
1.560777666497e-03 5.766182510739e-03 0.0 
7.786755987777e-04 7.088986234434e-05 0.0 
1.496978382566e-03 1.353021927318e-04 0.0 
1.032445898401e-03 1.392845897907e-04 0.0 
2.508520319477e-03 1.467599567550e-03 0.0 
7.311992263305e-04 2.375879163180e-03 0.0 
1.502267510294e-03 1.071802868681e-03 0.0 
1.430593611222e-03 1.418652902951e-04 0.0 
7.278065009741e-04 2.407001321693e-05 0.0 
1.764501150586e-03 7.709426073952e-04 0.0 
2.411209014433e-03 1.189491347043e-03 0.0 
1.620226191370e-03 3.172810541584e-04 0.0 
1.436893624973e-03 1.727667437527e-04 0.0 
7.370861153178e-04 2.600917677840e-05 0.0 
7.019520849152e-04 -4.399567046276e-05 0.0 
1.459574313004e-03 1.205668754500e-04 0.0 
2.577722053881e-03 4.316599415966e-03 0.0 
1.936474435338e-04 -1.197381007220e-05 0.0 
2.590881735543e-03 3.683067664503e-03 0.0 
1.993702775517e-03 9.979056798415e-04 0.0 
2.515399944818e-03 4.972476892185e-03 0.0 
2.265108537950e-03 6.299572258230e-03 0.0 
2.845143944252e-03 3.045830907083e-03 0.0 
1.214870870797e-03 2.995749632920e-04 0.0 
4.085794743629e-04 -2.737781169642e-05 0.0 
1.463765146156e-03 4.777859256527e-03 0.0 
8.268855277461e-04 1.956789939710e-03 0.0 
2.408271512781e-03 5.637761699462e-03 0.0 
1.320624664191e-03 1.761147862800e-04 0.0 
1.615803025698e-03 7.159229933701e-04 0.0 
5.519079928093e-04 2.300793575121e-03 0.0 
2.223934601398e-03 9.470282756603e-04 0.0 
2.374603777488e-03 1.150782544883e-03 0.0 
1.451708616601e-03 1.870274998569e-04 0.0 
1.538818983327e-03 4.257913254318e-03 0.0 
2.641992823801e-03 3.107193554244e-03 0.0 
2.172743007796e-03 8.323897275921e-04 0.0 
2.552354286801e-03 2.730669285929e-03 0.0 
1.448646435980e-03 3.468932990003e-04 0.0 
1.215069815324e-03 5.212247483255e-04 0.0 
1.394841985674e-03 9.149032147002e-05 0.0 
3.715771855816e-04 -1.266800382089e-05 0.0 
1.024763244395e-03 1.933187262525e-03 0.0 
2.853472838807e-03 3.617792574533e-03 0.0 
1.138645377869e-03 -6.852245437281e-05 0.0 
1.405307109785e-03 5.903694498885e-04 0.0 
1.563698860367e-03 4.753521456986e-03 0.0 
4.965898630714e-04 -3.218300512743e-05 0.0 
1.870833398023e-03 6.397712933105e-04 0.0 
2.915684125770e-04 -3.524512196717e-05 0.0 
1.363902533438e-04 -7.061716315008e-06 0.0 
2.745283101763e-03 1.959692740471e-03 0.0 
1.776970099629e-03 5.129192509188e-04 0.0 
1.731051694115e-03 1.015587508557e-03 0.0 
1.477568734837e-04 -6.053737432279e-06 0.0 
5.336267840776e-04 -2.507399975907e-05 0.0 
1.297790670080e-03 6.720712828149e-04 0.0 
1.665420613065e-03 5.731857183116e-03 0.0 
5.080042703993e-04 -1.585059772495e-04 0.0 
1.467383240003e-03 1.577994439160e-04 0.0 
2.572072956799e-04 -1.695509088824e-05 0.0 
2.340882032949e-03 1.066927335226e-03 0.0 
1.356892268651e-03 1.430153858930e-04 0.0 
2.735858485287e-03 1.960526193859e-03 0.0 
2.929476418728e-04 -1.039172562663e-04 0.0 
2.371013184831e-03 1.470724813810e-03 0.0 
1.385274788713e-03 2.999037929094e-04 0.0 
1.245079843071e-03 9.505752873285e-04 0.0 
2.077600452411e-03 1.207388066736e-03 0.0 
1.003606471659e-03 5.404816913487e-05 0.0 
3.925845496822e-04 -4.855124084904e-05 0.0 
4.812327588222e-04 1.842048856835e-03 0.0 
6.305203672200e-04 1.886995072920e-04 0.0 
1.367108314701e-03 3.473874258980e-04 0.0 
1.793190578193e-03 4.646043415147e-04 0.0 
2.590114248572e-03 1.722487830975e-03 0.0 
1.557600148875e-04 -1.628537904831e-05 0.0 
1.141427599345e-04 -1.975813126323e-04 0.0 
2.212277683932e-03 1.278004838502e-03 0.0 
1.371055082483e-03 5.294754969795e-03 0.0 
3.288761078182e-04 -2.205753259119e-05 0.0 
5.078226917829e-04 -8.393120426527e-06 0.0 
3.392499293891e-04 9.359699098065e-03 0.0 
2.270306333950e-04 9.360901358231e-03 0.0 
2.447178550470e-03 4.007831693086e-03 0.0 
2.463174168381e-03 1.518840942589e-03 0.0 
4.349230667305e-04 -1.440031604810e-04 0.0 
2.740641039465e-03 2.907712337731e-03 0.0 
2.229660024032e-03 8.949652478858e-04 0.0 
7.334670480033e-04 1.181309467147e-04 0.0 
1.880382524019e-03 5.748611990807e-04 0.0 
2.089103309791e-04 4.764876661599e-04 0.0 
2.244990969745e-03 7.262277503261e-03 0.0 
2.281215761662e-03 9.946025201266e-04 0.0 
5.519221445151e-04 -1.538750144883e-04 0.0 
9.777420182763e-04 1.734972774870e-04 0.0 
5.886922438886e-04 -2.146287490184e-04 0.0 
2.640761886304e-03 1.746893095806e-03 0.0 
2.925790772197e-03 2.698824007243e-03 0.0 
1.674089570686e-03 5.220937212180e-03 0.0 
2.626004809743e-03 2.562418716627e-03 0.0 
2.485043820995e-03 2.405149022077e-03 0.0 
6.810904455456e-05 -4.515946974780e-04 0.0 
5.638932026735e-04 -2.380979063829e-04 0.0 
2.777046712613e-03 3.203060978576e-03 0.0 
2.770282778335e-03 3.724587270580e-03 0.0 
2.647369017562e-03 3.501117005052e-03 0.0 
1.022113795496e-03 2.280767954223e-04 0.0 
1.167306558245e-05 -4.174366103246e-04 0.0 
5.891396475114e-04 -1.292259941670e-04 0.0 
2.646464569852e-03 1.717616395119e-03 0.0 
5.196468760681e-04 -2.420575543086e-04 0.0 
2.147040253281e-03 9.155250732243e-03 0.0 
2.113126363721e-03 8.978121608050e-03 0.0 
1.779942998099e-03 5.174202167466e-03 0.0 
6.216376532514e-04 5.336521576303e-04 0.0 
4.942042004363e-04 -1.810555143151e-04 0.0 
1.026725792808e-03 9.848580581703e-05 0.0 
6.096078018003e-04 -7.066012184661e-05 0.0 
7.130018021286e-04 3.455016297472e-04 0.0 
9.435156015060e-04 2.865871595866e-03 0.0 
3.942850829311e-04 -2.084661147965e-04 0.0 
3.471533529819e-04 -3.654667290329e-05 0.0 
1.228484163977e-04 -4.650313260025e-04 0.0 
1.003133438579e-03 5.497001085751e-05 0.0 
2.668628573583e-03 1.743621207970e-03 0.0 
9.374172030051e-05 -4.624248511593e-04 0.0 
8.701546365574e-04 2.855513264593e-03 0.0 
5.366161821871e-04 -3.197187893051e-05 0.0 
2.809561138177e-03 3.505201017990e-03 0.0 
2.875934770958e-03 2.438743486889e-03 0.0 
1.163638592296e-03 -7.128731694925e-05 0.0 
9.147521347773e-04 -5.881507800621e-05 0.0 
8.665935628099e-04 2.416290813488e-03 0.0 
8.555066250864e-04 -2.288467800045e-05 0.0 
2.500261594550e-03 1.358942055008e-03 0.0 
2.558343439209e-03 1.511478745692e-03 0.0 
-1.538299394498e-04 9.807076986602e-04 0.0 
4.493859228262e-04 -5.636328819243e-05 0.0 
1.854404769216e-03 9.383966014128e-04 0.0 
2.191175559224e-03 5.887671497465e-03 0.0 
1.656391872011e-03 7.877368886499e-04 0.0 
1.353555834965e-03 8.231022005952e-04 0.0 
1.867375704400e-03 3.042283258630e-03 0.0 
1.707416600825e-03 9.334630100641e-04 0.0 
2.260336988353e-03 8.405696329076e-03 0.0 
1.890526258559e-03 1.027690616440e-03 0.0 
3.173679393972e-04 -4.040221724704e-05 0.0 
2.464559809956e-03 1.388094071071e-03 0.0 
5.648215172827e-04 -1.958971067939e-04 0.0 
5.827391051444e-04 -1.722106712905e-04 0.0 
1.095060371810e-03 1.922758792248e-03 0.0 
9.466432287888e-04 -9.799617370628e-05 0.0 
2.796688258020e-03 2.180412239642e-03 0.0 
1.960861633889e-03 5.518924491303e-04 0.0 
7.686750190748e-04 7.427464759853e-06 0.0 
2.130048600577e-03 8.060710843055e-04 0.0 
1.059533831624e-03 2.239972591173e-05 0.0 
1.338771923244e-03 6.647928192059e-05 0.0 
1.215164459265e-03 1.330824232852e-04 0.0 
2.722990362718e-03 3.112265103440e-03 0.0 
1.159236203033e-03 6.035982356544e-05 0.0 
2.842135271230e-03 2.816127153064e-03 0.0 
1.165106558106e-03 2.638203459440e-04 0.0 
1.253972354743e-03 2.646433024591e-04 0.0 
2.056758415484e-03 7.537761178788e-04 0.0 
1.880558761624e-03 5.625018250286e-03 0.0 
2.754010446490e-04 -2.942850925667e-05 0.0 
2.493813654389e-04 -3.246810192720e-05 0.0 
3.864654254464e-04 5.730094983775e-04 0.0 
2.737477827634e-03 2.495485405296e-03 0.0 
1.518266706670e-04 -5.093892843645e-06 0.0 
2.237397165265e-03 5.162238693753e-03 0.0 
3.842179549980e-04 -1.682123530890e-04 0.0 
-8.596889873851e-05 1.042208027089e-03 0.0 
2.114012005803e-04 -2.262696885219e-05 0.0 
1.048552719657e-03 1.299106928692e-04 0.0 
9.399881286130e-05 -1.808752275544e-04 0.0 
1.852787234580e-03 5.887567715715e-04 0.0 
1.989963674781e-03 5.553804583717e-03 0.0 
2.079567188729e-03 5.986008710999e-03 0.0 
2.591644049549e-03 1.561295157842e-03 0.0 
2.099152090596e-03 9.192415975235e-03 0.0 
2.147016056076e-03 9.234153681943e-03 0.0 
1.889501892572e-04 -2.497071435693e-05 0.0 
9.161970583270e-04 -3.235041493921e-05 0.0 
1.171738802465e-03 -3.613498806808e-05 0.0 
1.060834052050e-03 7.841389642487e-05 0.0 
1.346527370468e-03 3.810402820675e-05 0.0 
1.160408335853e-03 1.709848493659e-04 0.0 
1.999256926757e-03 9.566486120360e-03 0.0 
2.202597915583e-03 6.857259251630e-03 0.0 
2.851741607722e-04 9.650565006534e-03 0.0 
1.198111363904e-03 2.289971950002e-04 0.0 
1.965192319850e-03 6.283302913970e-04 0.0 
8.118410629750e-04 2.326206356129e-04 0.0 
7.947158533788e-05 -3.346582205164e-05 0.0 
1.383969128867e-03 7.377461828928e-05 0.0 
1.264384838312e-04 1.046748752785e-06 0.0 
1.142165553598e-03 -2.513982692912e-05 0.0 
1.040239994337e-03 3.260483733168e-04 0.0 
2.511398201158e-03 1.382753654307e-03 0.0 
2.273248408088e-03 1.093968717491e-03 0.0 
7.214155447621e-04 8.127787586411e-05 0.0 
6.092785704716e-04 -3.066917791294e-04 0.0 
2.795345566562e-03 2.365837300426e-03 0.0 
1.274559188279e-03 -2.268451347892e-06 0.0 
2.888232356111e-03 2.656159277423e-03 0.0 
1.510414382083e-03 8.947848446766e-04 0.0 
2.072669915329e-03 8.583028656932e-04 0.0 
1.231010143335e-03 -3.714986280814e-05 0.0 
4.760874756145e-04 -1.402388843639e-04 0.0 
2.914938043900e-03 2.905879235074e-03 0.0 
-3.391108022373e-05 6.160815220150e-04 0.0 
1.917015568085e-03 5.299362645930e-04 0.0 
1.253910408075e-04 1.025689850319e-03 0.0 
1.909543233799e-04 -4.566529676375e-04 0.0 
4.244176168683e-04 -1.655726649951e-04 0.0 
2.151770120220e-03 1.553023472638e-03 0.0 
2.208037315081e-03 5.379679851880e-03 0.0 
1.830752333035e-03 8.527083649839e-03 0.0 
1.081714519822e-04 2.299858722420e-04 0.0 
-1.787876847548e-04 7.795691330144e-04 0.0 
2.001865391534e-03 8.967276800776e-03 0.0 
1.131022355015e-03 -3.290014664494e-05 0.0 
3.315094761431e-04 -1.909023239102e-04 0.0 
2.750988730344e-03 7.096362214399e-03 0.0 
9.983067736833e-04 -1.673694334397e-04 0.0 
9.630623217877e-04 -6.955316203201e-05 0.0 
2.573201978745e-03 1.563733592291e-03 0.0 
1.814076994719e-03 4.980976347769e-04 0.0 
1.886363647205e-03 1.872055007617e-03 0.0 
4.994505556094e-04 4.907781373190e-04 0.0 
4.351952814250e-04 -2.062473884837e-04 0.0 
3.071830390212e-04 -1.719624760667e-04 0.0 
4.145219840198e-04 -3.877396708361e-04 0.0 
2.179774464250e-03 8.163352808459e-03 0.0 
2.314327234356e-03 5.265740978515e-03 0.0 
2.913306896052e-05 -7.283342653166e-05 0.0 
1.058841702536e-04 -4.676235274295e-04 0.0 
6.657177237576e-05 4.415821606737e-05 0.0 
3.270846689407e-04 -4.353920342625e-04 0.0 
2.698826180745e-04 -1.733799428084e-04 0.0 
1.248472714916e-03 -5.174090002967e-06 0.0 
9.805696624189e-04 -1.626232140440e-04 0.0 
1.011816246635e-03 -3.955471261995e-05 0.0 
3.563407169624e-04 -1.497469319280e-04 0.0 
2.362901447782e-03 4.142594868548e-03 0.0 
2.455137453251e-04 -1.549593819679e-04 0.0 
1.314001271697e-03 5.118772947250e-05 0.0 
2.717393810755e-03 2.294915510309e-03 0.0 
1.325797337448e-03 7.870777441074e-03 0.0 
1.638215747371e-03 5.154481816070e-04 0.0 
2.099471993652e-04 -1.562812852007e-04 0.0 
3.184684202674e-04 -1.518110713458e-04 0.0 
1.378061344014e-03 6.706497862085e-03 0.0 
1.192345209515e-03 -6.384151344573e-05 0.0 
1.853912489645e-04 -1.384966551913e-04 0.0 
5.223073714986e-05 5.850553732096e-03 0.0 
5.724396588365e-05 6.825749545820e-03 0.0 
1.605542324892e-03 7.768125599570e-03 0.0 
2.909352609129e-04 -1.338684250487e-04 0.0 
8.314785608661e-04 -2.532765247988e-04 0.0 
3.755811544892e-04 1.174648017290e-03 0.0 
1.002764193382e-03 2.942010723309e-04 0.0 
3.582676230280e-04 -4.300244845878e-04 0.0 
8.427534225894e-04 -2.492011612880e-04 0.0 
1.989726491958e-03 5.893239691277e-04 0.0 
1.720074967583e-03 9.197293684805e-03 0.0 
1.511042612261e-04 -1.397772106761e-04 0.0 
2.592664652099e-05 -3.805589768820e-04 0.0 
2.168061805201e-03 7.782533487120e-03 0.0 
2.552810069173e-04 -1.355992689291e-04 0.0 
1.074252064426e-03 -9.537369192986e-05 0.0 
4.517819557892e-04 -1.843579259435e-04 0.0 
3.572997610856e-05 4.375319556805e-04 0.0 
6.669834035910e-05 2.994346166064e-03 0.0 
1.009995768280e-03 -1.678234783922e-04 0.0 
8.911007097806e-04 1.552303480959e-04 0.0 
2.202198674072e-03 9.727347461851e-04 0.0 
2.286774911875e-04 -1.183633068943e-04 0.0 
1.943542791947e-04 -1.199387899236e-04 0.0 
1.168832857508e-03 -4.187844707171e-05 0.0 
2.891205775869e-04 -4.302187194596e-04 0.0 
4.039542407169e-05 5.437115250167e-04 0.0 
1.684850668968e-04 -1.034041557530e-04 0.0 
7.646141229429e-04 9.754197310932e-05 0.0 
6.949129675905e-04 -3.092551226405e-04 0.0 
2.591147122695e-03 2.022009457738e-03 0.0 
1.938263352017e-03 4.314361676118e-03 0.0 
2.625850270934e-03 2.379895538211e-03 0.0 
2.504838008235e-04 2.879692174335e-05 0.0 
-1.056125043203e-04 1.018193291139e-04 0.0 
9.921023887153e-06 2.601418312861e-04 0.0 
5.798286428995e-06 7.029433878213e-07 0.0 
3.543143457359e-05 8.374017781635e-03 0.0 
8.454287388361e-04 -2.344511880616e-04 0.0 
2.393589672858e-03 1.237634255634e-03 0.0 
1.291726178077e-03 7.348473795462e-05 0.0 
1.890418126077e-04 -4.644223356398e-04 0.0 
-1.325212952748e-04 8.392948908012e-04 0.0 
2.813773198272e-04 2.148274454871e-03 0.0 
2.401660582187e-03 4.626788355562e-03 0.0 
2.057226108245e-03 8.713191720306e-03 0.0 
3.419218564220e-04 1.478143556653e-04 0.0 
2.398066901443e-05 -4.059048564007e-04 0.0 
3.109970873904e-04 1.220999574191e-04 0.0 
2.305095893951e-03 4.760935104232e-03 0.0 
6.959602426856e-04 -2.746633988022e-04 0.0 
2.421985993258e-03 1.234732273319e-03 0.0 
7.968710137874e-04 -2.606377872762e-04 0.0 
5.325570045330e-04 1.463430273138e-03 0.0 
7.003548820860e-04 -2.994923641809e-04 0.0 
2.376494989770e-03 3.549091671054e-03 0.0 
7.882786516838e-05 -2.249650679611e-05 0.0 
9.525508218598e-04 -1.975852346550e-04 0.0 
2.487188796344e-03 2.082861506595e-03 0.0 
-4.597648526167e-05 2.383940546095e-05 0.0 
1.124129776738e-03 -9.818257829756e-05 0.0 
1.962713600965e-03 3.501122493955e-03 0.0 
5.692152226429e-04 -3.281093485914e-04 0.0 
6.032659272920e-04 -3.432562628571e-04 0.0 
2.340522405166e-03 1.088356662204e-03 0.0 
4.648607039220e-04 -2.910129874181e-04 0.0 
1.315079656602e-03 4.328233611580e-03 0.0 
1.392908292056e-03 5.486409637545e-03 0.0 
5.257861026072e-04 -3.606919721168e-04 0.0 
1.067007773527e-03 -5.802090124104e-05 0.0 
2.096708938204e-03 7.271038453746e-04 0.0 
2.472569664983e-03 1.925545321109e-03 0.0 
1.249639601950e-03 1.336632369667e-03 0.0 
1.227944507675e-03 7.726407506039e-03 0.0 
9.758247845232e-05 4.839798052103e-03 0.0 
1.275558325708e-03 8.453866762324e-04 0.0 
1.199530317385e-03 3.386153862174e-05 0.0 
1.052349533093e-04 1.190768066240e-03 0.0 
2.185953135555e-03 4.500804352985e-03 0.0 
9.823773969977e-04 -1.089329120646e-04 0.0 
2.468119050809e-03 2.563099940020e-03 0.0 
1.043330907535e-03 -8.810698022123e-05 0.0 
2.884180999228e-04 4.279533957526e-04 0.0 
1.030836526399e-03 -2.204919036114e-05 0.0 
7.344829746357e-04 1.819297185389e-03 0.0 
2.005719380280e-03 6.123511927805e-04 0.0 
1.022473355989e-03 -5.040382141017e-05 0.0 
2.241076350749e-03 9.700246732131e-04 0.0 
3.665548441600e-04 6.038320831420e-03 0.0 
4.885074475186e-04 -3.666245134627e-04 0.0 
2.544125373658e-04 9.375652617721e-04 0.0 
9.728704157474e-04 -1.473386791597e-05 0.0 
9.959664833246e-04 2.279278432936e-03 0.0 
5.256454916234e-05 1.115117810041e-04 0.0 
2.495783429821e-05 1.956990556124e-03 0.0 
3.350578090249e-05 2.922894552487e-03 0.0 
2.076702814931e-04 -4.427649992477e-04 0.0 
9.646799274865e-04 1.072942934680e-05 0.0 
3.717038763723e-04 -4.141606993364e-04 0.0 
3.784312948077e-04 -4.029225261596e-04 0.0 
2.160293964964e-03 1.672348210045e-03 0.0 
2.161457927954e-03 8.524038130010e-04 0.0 
2.312521041863e-03 1.670615263791e-03 0.0 
1.064926962943e-03 -1.361422743857e-04 0.0 
6.367283442286e-04 9.687056555471e-03 0.0 
1.752753346943e-04 1.811808810843e-05 0.0 
3.370382829275e-04 -4.267729381940e-04 0.0 
1.022337891856e-03 1.758442204194e-04 0.0 
2.139039201394e-03 7.684237644886e-04 0.0 
8.449061886523e-05 -4.324650625002e-04 0.0 
2.555086377496e-03 3.094388049301e-03 0.0 
1.257943107898e-03 -1.836884408083e-05 0.0 
2.646878428706e-04 -4.006735796763e-04 0.0 
1.033147892654e-03 -1.226277426939e-04 0.0 
1.557882281232e-05 -8.767063140829e-05 0.0 
2.445323841072e-03 3.407900696569e-03 0.0 
3.380371309179e-04 -4.326121880953e-04 0.0 
6.326776127008e-05 -1.856979839516e-04 0.0 
2.333364503809e-03 2.087020523750e-03 0.0 
1.538572435888e-03 5.026525193324e-04 0.0 
6.095315888366e-04 -3.328547324578e-04 0.0 
5.256762757780e-05 -3.791516939192e-04 0.0 
2.076914501538e-03 6.911026318919e-04 0.0 
2.735453726111e-05 6.360293464607e-03 0.0 
2.613467634767e-04 -3.589472298459e-04 0.0 
9.035844607499e-04 5.204303319916e-04 0.0 
7.102311604007e-04 8.613418722591e-04 0.0 
1.237998388918e-04 7.715459219817e-03 0.0 
4.844245972884e-04 1.433508843021e-03 0.0 
7.446676012385e-04 7.036238865050e-04 0.0 
1.068767863869e-03 -1.379259804560e-04 0.0 
8.989323566001e-04 -2.220599615623e-04 0.0 
4.950672375409e-04 1.115146028407e-04 0.0 
-9.274680146115e-05 1.777091276684e-04 0.0 
1.230760343198e-05 -3.937716021413e-04 0.0 
4.661035215019e-05 -1.713112459023e-04 0.0 
5.685959493736e-04 -3.413986857810e-04 0.0 
8.798094012059e-04 -2.274649861909e-04 0.0 
5.181313380973e-04 2.885571476342e-03 0.0 
8.584661562366e-04 3.499946510503e-03 0.0 
1.137922854032e-03 7.839199035527e-03 0.0 
1.110087817713e-03 -8.941426600140e-05 0.0 
1.392394664041e-04 -3.731011287504e-04 0.0 
1.838233669555e-03 7.346096922520e-04 0.0 
5.903224109761e-05 5.987632705940e-06 0.0 
7.758037763915e-05 8.322982241901e-06 0.0 
8.985775309712e-04 -2.156359026073e-04 0.0 
1.442353047523e-03 8.374411478919e-03 0.0 
2.351053257503e-05 6.516041999552e-06 0.0 
1.646502895347e-04 1.924004027718e-03 0.0 
4.241743009455e-04 -2.689274430003e-04 0.0 
3.223301033650e-04 2.355079655612e-03 0.0 
2.087557273596e-03 7.214525820549e-04 0.0 
7.393973895425e-04 -2.936663669398e-04 0.0 
9.447027281889e-04 -1.989148957728e-04 0.0 
2.068833475834e-04 -1.703535918796e-04 0.0 
7.658209046397e-05 2.643795915854e-03 0.0 
7.938408719118e-04 -2.689637015476e-04 0.0 
2.441442913366e-04 2.100477767181e-03 0.0 
2.014193021209e-04 3.511631540519e-03 0.0 
2.975588550512e-05 5.745900646127e-04 0.0 
1.302609242603e-05 1.275029893127e-06 0.0 
6.532086319613e-05 7.825479147968e-03 0.0 
7.478694459137e-04 -2.755776942087e-04 0.0 
1.332876104615e-03 5.101722522209e-03 0.0 
7.443470981476e-04 -2.636223449688e-04 0.0 
2.229524039148e-05 2.059916294461e-06 0.0 
-2.318101027937e-05 1.281880848089e-03 0.0 
5.530222030621e-05 1.572657685970e-03 0.0 
9.850274335730e-04 2.030825192374e-04 0.0 
1.074488086452e-03 8.735264193247e-03 0.0 
1.461979559206e-04 2.013292249380e-03 0.0 
2.335664017967e-03 1.947256186684e-03 0.0 
1.276733560037e-03 4.430247795287e-04 0.0 
2.061553231395e-03 2.217360665906e-03 0.0 
4.198508397437e-04 7.486615554071e-03 0.0 
5.188624767369e-04 -3.716183198861e-04 0.0 
5.554066619587e-04 -3.627265639496e-04 0.0 
1.215849723628e-04 5.326109601781e-03 0.0 
1.476976752758e-03 5.353367065631e-04 0.0 
1.806956614966e-03 8.883669715018e-03 0.0 
2.240906100877e-04 8.802686324303e-03 0.0 
2.693191674885e-04 7.939942358045e-03 0.0 
4.812620300240e-04 7.603113650040e-03 0.0 
3.653792165867e-04 -1.408478007898e-04 0.0 
4.746972774295e-04 -3.886556413838e-04 0.0 
2.186718440919e-04 1.279542504662e-03 0.0 
4.683626519544e-04 6.561467805053e-03 0.0 
4.390892139628e-04 1.293191560159e-04 0.0 
1.342809235263e-03 1.358176980218e-03 0.0 
2.591429362810e-03 2.924922400279e-03 0.0 
7.125981097433e-04 1.973964048201e-03 0.0 
2.090975631402e-04 -2.900019891758e-04 0.0 
2.022404939362e-04 -3.242573263375e-04 0.0 
3.036026936766e-04 2.374647589378e-05 0.0 
1.305574692500e-04 -1.676925498955e-04 0.0 
6.455876720312e-05 -3.903057138530e-04 0.0 
1.608846155310e-04 6.594201881927e-05 0.0 
1.861091222286e-05 -4.468594980200e-04 0.0 
2.767569135314e-04 8.507938301824e-03 0.0 
6.289102689410e-04 1.107170120050e-04 0.0 
2.139474046395e-04 -4.689632675478e-04 0.0 
1.538069978072e-04 -4.819108708215e-04 0.0 
1.356915321705e-04 4.899533285391e-04 0.0 
9.312908879239e-04 9.396131526999e-03 0.0 
3.256195600011e-04 1.378190254243e-03 0.0 
6.460986326510e-04 1.390556681382e-04 0.0 
8.110772313054e-04 9.408885725780e-03 0.0 
-1.694069823681e-05 1.772491855671e-04 0.0 
5.165840422091e-05 1.077396977009e-03 0.0 
1.750523688688e-04 -4.544830874691e-04 0.0 
3.602980962150e-04 1.804253611718e-03 0.0 
1.742483002860e-05 1.534395676036e-06 0.0 
1.165192898408e-03 1.451099553800e-03 0.0 
5.085708296075e-04 -1.500454139206e-04 0.0 
1.635952986912e-03 7.652536548515e-03 0.0 
1.266884957579e-04 -2.885674527375e-04 0.0 
1.773410322484e-03 6.570421826597e-04 0.0 
2.337027725012e-04 7.107356498033e-05 0.0 
1.168217746330e-04 4.344897943214e-03 0.0 
2.180974666068e-04 6.008623892205e-05 0.0 
2.170560674027e-04 -1.167912847089e-04 0.0 
1.059249069364e-04 5.768592646740e-06 0.0 
5.547448762355e-04 -2.310406382630e-04 0.0 
8.539531370272e-05 -4.492482749768e-04 0.0 
3.432748402289e-04 5.680333667439e-05 0.0 
5.852113899929e-04 1.146657860355e-03 0.0 
2.960263836286e-04 9.610062697305e-04 0.0 
6.164213261755e-04 8.683016846083e-03 0.0 
2.095538816050e-03 6.922599525010e-03 0.0 
5.277244063300e-04 1.260579682988e-03 0.0 
8.703069464829e-04 7.890809840380e-04 0.0 
1.031677011544e-04 -3.348214643349e-04 0.0 
1.843732594497e-04 6.054301363412e-04 0.0 
1.603216755928e-03 5.661415021092e-04 0.0 
5.070789401682e-04 9.697495909695e-03 0.0 
7.846365861549e-04 1.574779650490e-03 0.0 
4.182138707333e-06 5.462519739781e-04 0.0 
4.182138707333e-06 2.304691824823e-04 0.0 
1.665986248727e-05 -4.858212307981e-04 0.0 
7.050384418226e-06 -4.815122653779e-04 0.0 
2.763638465175e-05 9.346183226245e-03 0.0 
6.579613957876e-05 9.685868838266e-03 0.0 
2.246854717134e-06 4.464447383366e-07 0.0 
2.246854717134e-06 5.158323634569e-07 0.0 
3.115496134489e-05 -4.757678920059e-04 0.0 
5.139178780028e-06 -1.034807403993e-04 0.0 
1.054548425159e-04 -2.377160254985e-06 0.0 
1.265864050663e-03 5.783672279051e-04 0.0 
1.555687093923e-04 -4.446709539584e-04 0.0 
1.779683371436e-04 7.274363547724e-06 0.0 
2.741240066103e-05 -1.403990224882e-04 0.0 
2.902858415781e-05 -2.118960105718e-04 0.0 
3.192136847471e-04 6.179127051879e-03 0.0 
3.901261121403e-04 -3.399335819714e-04 0.0 
2.001573938872e-03 7.616143432586e-04 0.0 
1.573060058295e-04 -4.594610726875e-04 0.0 
1.741486809327e-04 -2.496172785824e-04 0.0 
1.156589385314e-03 1.079971051215e-03 0.0 
1.439673440768e-05 2.419551955014e-03 0.0 
5.591000773204e-05 -2.075215134124e-04 0.0 
2.051138021960e-04 7.171781122851e-03 0.0 
1.318925950978e-03 7.481219947483e-04 0.0 
1.922531318202e-03 1.800894252199e-03 0.0 
2.296861333636e-03 2.355231239909e-03 0.0 
6.963246141034e-04 9.373392110495e-03 0.0 
1.973247825600e-03 6.636728101272e-04 0.0 
9.669793252784e-04 1.554506630333e-03 0.0 
9.247276075781e-05 -3.879074819205e-04 0.0 
1.956894299209e-04 -4.528296343119e-04 0.0 
1.558440902506e-03 9.253157007911e-04 0.0 
1.072159205344e-03 2.031799623001e-04 0.0 
3.426675657048e-04 -3.343514696184e-04 0.0 
1.681653588675e-04 5.431582305246e-03 0.0 
5.779277500308e-05 2.259322848409e-06 0.0 
1.511593430908e-03 7.757579311351e-04 0.0 
1.285443107149e-03 6.554347872248e-04 0.0 
3.276720901902e-05 -1.063138461157e-04 0.0 
-3.925867751850e-05 4.209639206472e-04 0.0 
5.518128079917e-04 3.261627540181e-03 0.0 
9.497659750322e-04 1.961567403627e-03 0.0 
1.734960916527e-03 7.290271831320e-03 0.0 
2.051484274819e-03 7.584253635384e-04 0.0 
2.801867376737e-04 1.751042833897e-03 0.0 
4.364204149344e-04 1.060058540254e-04 0.0 
2.398392608377e-04 -3.811704984460e-04 0.0 
2.344455231158e-04 -4.413091098954e-04 0.0 
1.381878555816e-04 2.191350014172e-03 0.0 
2.772664385069e-04 4.982036094632e-03 0.0 
1.576982444999e-04 -3.573013597771e-04 0.0 
6.661575233477e-04 1.577744481725e-03 0.0 
9.377923092560e-05 -4.411068814046e-04 0.0 
7.526702729373e-04 1.768527995376e-04 0.0 
1.054255070986e-03 7.771283357739e-03 0.0 
5.871849796029e-04 2.117264560362e-04 0.0 
1.718908541681e-03 6.998739138256e-04 0.0 
1.911961696220e-03 7.152052591719e-03 0.0 
2.761881967663e-04 3.644092746005e-05 0.0 
5.154926701332e-04 1.146637255676e-03 0.0 
4.238464249348e-05 1.261885400922e-03 0.0 
-5.171350562207e-05 1.467940550791e-03 0.0 
6.505647382125e-04 1.943910729166e-03 0.0 
7.538545209929e-04 4.510737680169e-04 0.0 
7.573294439470e-04 1.658603970671e-04 0.0 
1.527845191440e-03 5.915016086871e-04 0.0 
3.152699123939e-05 3.230013999958e-06 0.0 
2.262928803276e-03 2.479169673725e-03 0.0 
-1.757228434282e-04 5.059179609414e-04 0.0 
2.629571654999e-04 7.918572503698e-04 0.0 
1.658390338175e-03 1.618293462764e-03 0.0 
1.601899828338e-03 6.737799676763e-03 0.0 
5.485427817179e-05 -6.907283710397e-06 0.0 
1.362941884432e-03 5.370167587752e-04 0.0 
1.111833361239e-04 9.269636903616e-06 0.0 
2.443821070672e-04 3.987305028733e-03 0.0 
5.321009717468e-04 1.752943946124e-04 0.0 
3.400906483370e-04 3.475433491174e-05 0.0 
3.616962593840e-04 4.102036476375e-05 0.0 
1.149656374532e-04 -3.476292760326e-04 0.0 
4.980049024971e-05 4.817535000442e-06 0.0 
1.357356818595e-03 8.739839134473e-03 0.0 
1.772295979584e-04 2.039318804396e-03 0.0 
2.580491231975e-04 -4.295735400650e-04 0.0 
1.144281481159e-04 2.835944231613e-03 0.0 
2.535174278945e-04 5.382996530308e-03 0.0 
1.659345001246e-05 -4.619679558473e-04 0.0 
4.418087245355e-04 -1.158709508621e-04 0.0 
2.131653432752e-03 2.022261476672e-03 0.0 
2.377298640281e-04 1.040731532273e-03 0.0 
8.960911063054e-05 1.947351164766e-03 0.0 
6.754657610265e-04 2.131653463293e-04 0.0 
5.085687830428e-04 7.084717646096e-03 0.0 
1.848537939720e-04 -4.760537600195e-04 0.0 
9.693802421936e-05 2.303695320735e-04 0.0 
1.892210465167e-04 -4.759781670024e-04 0.0 
2.801551786657e-04 -4.415283979380e-04 0.0 
-2.040453988768e-04 6.044377915892e-04 0.0 
1.562664984589e-04 -2.630037747342e-04 0.0 
6.901470112167e-05 -6.288041192047e-06 0.0 
1.147624972559e-03 1.533724829321e-03 0.0 
2.046441067921e-03 6.463249745144e-03 0.0 
2.240345378003e-04 -3.080418969892e-04 0.0 
2.933830016691e-04 1.897452740031e-05 0.0 
5.840113534259e-04 8.906010041402e-05 0.0 
7.178821230507e-04 2.708218171076e-04 0.0 
1.177361169997e-03 6.947813846020e-04 0.0 
1.723052592408e-03 1.501276772360e-03 0.0 
2.479057919051e-04 -4.478258713560e-04 0.0 
1.504252430149e-04 -6.656989879978e-05 0.0 
9.670829036331e-05 -4.365886946909e-06 0.0 
3.304603408979e-05 -4.594958424695e-04 0.0 
7.299524569439e-06 -4.547594318613e-04 0.0 
-4.349578330727e-05 7.467304633794e-04 0.0 
2.064879247267e-04 -4.716097532829e-04 0.0 
2.068174357177e-04 2.767010424884e-05 0.0 
7.326099065124e-04 5.468711813556e-04 0.0 
2.505691376234e-04 1.748852964577e-03 0.0 
5.826123005540e-04 2.295224166338e-04 0.0 
7.021966232378e-04 1.025252415047e-04 0.0 
4.132687382189e-04 6.531097905187e-03 0.0 
6.201334740411e-05 2.040760152813e-04 0.0 
5.348633175632e-04 -2.714994910924e-04 0.0 
8.684358382167e-04 9.722820922569e-03 0.0 
3.060500712258e-04 -3.587700752674e-04 0.0 
1.481443277303e-04 -4.789998596336e-04 0.0 
3.362127674445e-05 2.768462019249e-06 0.0 
1.859612760752e-03 8.289147726123e-03 0.0 
9.758925501502e-05 -4.550259156076e-04 0.0 
1.100708205762e-04 -2.716300508932e-04 0.0 
8.535415401734e-04 6.862514775340e-04 0.0 
4.040256607846e-04 1.850172841860e-03 0.0 
4.969417923166e-04 8.826062157735e-04 0.0 
6.910009035996e-05 -3.643827261897e-04 0.0 
1.257990118132e-04 1.404337090178e-04 0.0 
1.486217378478e-04 1.081311166042e-05 0.0 
1.410316259449e-05 4.906110137684e-04 0.0 
8.045141146128e-06 1.149388126158e-06 0.0 
6.306781922534e-05 8.804099370354e-03 0.0 
5.299408555854e-04 9.083373801699e-05 0.0 
1.153706481876e-04 -4.513381999273e-04 0.0 
6.206099495991e-04 1.592480169061e-03 0.0 
1.648032617627e-04 -4.798044152093e-04 0.0 
2.558172172660e-04 4.261152893177e-05 0.0 
6.583113042880e-04 1.136562267266e-03 0.0 
6.983971696286e-06 2.569625035032e-04 0.0 
1.496690191437e-03 7.193258247478e-04 0.0 
2.404207626417e-04 4.461276665827e-03 0.0 
1.560905463958e-04 9.908467043438e-04 0.0 
9.285170573825e-05 2.681769858414e-05 0.0 
9.938081460822e-05 5.833166885837e-03 0.0 
6.993890233782e-04 5.844049525545e-04 0.0 
8.393395506221e-04 1.561770307526e-03 0.0 
1.988082708057e-04 5.125802216299e-03 0.0 
1.117318881591e-03 9.308151880372e-04 0.0 
1.231213493989e-04 -3.201643162274e-04 0.0 
4.461192450724e-04 9.402775859627e-03 0.0 
1.002558934320e-03 4.125219728234e-04 0.0 
1.474323859786e-05 1.045188631217e-03 0.0 
3.147051397091e-05 -4.826915774903e-04 0.0 
1.224680809561e-04 9.398411276534e-03 0.0 
7.267499753864e-06 3.853030857511e-08 0.0 
1.754875623577e-04 -4.451049744868e-04 0.0 
6.903944682436e-04 1.361099074839e-04 0.0 
1.044780776011e-03 1.585496262588e-03 0.0 
1.823548257455e-04 1.287539870056e-03 0.0 
1.137075267338e-04 -4.423099655842e-04 0.0 
1.290069497660e-04 5.445653764054e-04 0.0 
1.181457555451e-05 -1.932222062094e-04 0.0 
9.641710202085e-05 3.462755593359e-03 0.0 
-5.465278511106e-05 -3.859703301286e-05 0.0 
3.841498639556e-04 8.962712971778e-04 0.0 
1.788154808893e-04 6.023264107479e-03 0.0 
3.786475505197e-04 -3.659431372486e-04 0.0 
3.345718667093e-04 6.741621694357e-03 0.0 
7.684561006648e-04 3.206126188172e-04 0.0 
2.203859000885e-05 -1.744609710005e-04 0.0 
-1.582180087792e-04 6.577338255896e-04 0.0 
1.448059463215e-04 -3.442002428564e-04 0.0 
1.560835915373e-04 -2.306166943888e-04 0.0 
1.022401445434e-05 -1.563033866306e-04 0.0 
8.942622577366e-04 2.889337756362e-04 0.0 
8.109975475649e-05 -2.371805685550e-04 0.0 
1.033068396650e-04 -2.136074554088e-04 0.0 
1.861662966814e-04 -4.742952695335e-04 0.0 
1.922472317354e-04 9.411096181483e-06 0.0 
1.579437479120e-03 1.000988293925e-03 0.0 
2.935291170972e-04 5.383792310285e-04 0.0 
2.466426248501e-05 9.895476710070e-04 0.0 
1.306578618286e-05 6.720860712760e-07 0.0 
1.197397606027e-04 8.856024563319e-03 0.0 
1.347134317569e-04 6.240326102338e-03 0.0 
1.118863621002e-04 -2.416574297457e-04 0.0 
1.244260320378e-04 -2.285884240100e-04 0.0 
7.580513905378e-05 -2.187248997916e-04 0.0 
8.669620788790e-04 1.779006864466e-04 0.0 
3.298446492733e-04 -3.760991985668e-04 0.0 
1.346484525745e-03 8.498737887645e-04 0.0 
2.184598983632e-04 7.733757558017e-03 0.0 
4.625125233993e-04 1.177888864688e-03 0.0 
8.228566685753e-04 1.573842571859e-04 0.0 
3.920636790270e-04 6.937849650261e-03 0.0 
1.491260503173e-03 1.360609293444e-03 0.0 
9.061338367689e-04 3.099771450691e-04 0.0 
6.874043430116e-04 2.382799475093e-04 0.0 
-1.023669162157e-04 5.868106420119e-04 0.0 
1.519755086409e-03 1.314753358459e-03 0.0 
1.294864509510e-03 1.058132258924e-03 0.0 
1.745482576778e-04 -4.754411837979e-04 0.0 
1.256617391259e-04 -2.570721962763e-04 0.0 
-1.030490655473e-04 4.978726099804e-04 0.0 
1.249448803627e-03 1.119858730235e-03 0.0 
1.718846792978e-04 1.333924907727e-02 0.0 
2.172045597785e-04 1.367793658848e-02 0.0 
2.817212494413e-04 1.333442119512e-02 0.0 
3.240037786354e-04 1.367137910327e-02 0.0 
3.916533497449e-04 1.333153601730e-02 0.0 
4.353178536689e-04 1.366965211011e-02 0.0 
5.028253592055e-04 1.333134761939e-02 0.0 
5.485273131122e-04 1.367006492184e-02 0.0 
6.127781867133e-04 1.333187298321e-02 0.0 
6.597310927423e-04 1.366992982977e-02 0.0 
7.190002986565e-04 1.333098044919e-02 0.0 
7.657627322469e-04 1.366693469356e-02 0.0 
8.189155251089e-04 1.332642044833e-02 0.0 
8.635657371500e-04 1.365899057760e-02 0.0 
9.099596222139e-04 1.331602245012e-02 0.0 
9.499786099326e-04 1.364352847297e-02 0.0 
7.209905194969e-04 1.014522096579e-02 0.0 
9.894137201692e-04 1.329639793082e-02 0.0 
1.021615996485e-03 1.361635551243e-02 0.0 
2.331755233852e-04 1.030752561228e-02 0.0 
1.054497886479e-03 1.326287726368e-02 0.0 
1.075047529120e-03 1.357264639308e-02 0.0 
8.939767776198e-04 1.036650556793e-02 0.0 
1.102545614636e-03 1.321049223856e-02 0.0 
1.106780584741e-03 1.350694436719e-02 0.0 
1.131000634053e-03 1.313288494461e-02 0.0 
1.113393564673e-03 1.341225698192e-02 0.0 
1.137946514976e-03 1.302187550843e-02 0.0 
1.092525686748e-03 1.328001904378e-02 0.0 
1.044311092087e-03 9.351952013890e-03 0.0 
1.123125688146e-03 1.286594600168e-02 0.0 
1.036487353460e-03 1.309109743159e-02 0.0 
1.080402523213e-03 1.264030431908e-02 0.0 
9.388964591212e-04 1.282104842500e-02 0.0 
8.078488206178e-04 1.244217594161e-02 0.0 
1.014934716155e-03 1.232086356251e-02 0.0 
6.609218958872e-04 1.191835374075e-02 0.0 
9.415882860580e-04 1.187326774198e-02 0.0 
5.356151321537e-04 1.119283037876e-02 0.0 
8.809105327718e-04 1.125095498918e-02 0.0 
5.564960959754e-04 9.514256660388e-03 0.0 
2.313598371173e-05 1.350880550448e-02 0.0 
1.154733639425e-04 1.350877860636e-02 0.0 
7.525166803747e-05 1.385285114604e-02 0.0 
6.335767961679e-05 1.316473296481e-02 0.0 
6.127593320053e-04 8.768340394889e-03 0.0 
1.592167424527e-04 1.265558407895e-02 0.0 
1.978188848171e-04 1.231575473791e-02 0.0 
2.750035113250e-04 1.265590434287e-02 0.0 
3.126648468722e-04 1.231570444582e-02 0.0 
3.870321560981e-04 1.265437821211e-02 0.0 
4.252465428354e-04 1.231558519699e-02 0.0 
4.973752420188e-04 1.265443851147e-02 0.0 
5.360100454573e-04 1.231681572391e-02 0.0 
6.057110362450e-04 1.265553289320e-02 0.0 
6.443579075933e-04 1.231842770040e-02 0.0 
7.106942639758e-04 1.265581840983e-02 0.0 
7.491257521933e-04 1.231858239530e-02 0.0 
8.105845797359e-04 1.265323018944e-02 0.0 
8.489355765992e-04 1.231509538364e-02 0.0 
9.036604070361e-04 1.264531751506e-02 0.0 
1.478610115348e-03 1.051880427655e-02 0.0 
9.424712346640e-04 1.230512482421e-02 0.0 
1.538217220232e-03 1.058467311846e-02 0.0 
9.882055600784e-04 1.262869921713e-02 0.0 
1.028417492099e-03 1.228464519474e-02 0.0 
1.062507542184e-03 1.259886565968e-02 0.0 
1.105651123565e-03 1.224862133655e-02 0.0 
1.125139553377e-03 1.255047878602e-02 0.0 
1.173626534140e-03 1.219087256077e-02 0.0 
1.272512061225e-03 1.072893465765e-02 0.0 
1.175252644712e-03 1.247682659072e-02 0.0 
1.232662041557e-03 1.210329710470e-02 0.0 
1.212962981201e-03 1.236897398510e-02 0.0 
1.284586922863e-03 1.197479563124e-02 0.0 
1.240170458036e-03 1.221362411247e-02 0.0 
1.333242596607e-03 1.178809417833e-02 0.0 
1.260112996470e-03 1.198962295503e-02 0.0 
1.384154989499e-03 1.151805499421e-02 0.0 
1.446045106528e-03 1.113202049844e-02 0.0 
1.280482773276e-03 1.166855149577e-02 0.0 
1.644591184073e-03 1.001742832294e-02 0.0 
1.314236514847e-03 1.121542436554e-02 0.0 
1.438493129950e-03 1.022755870404e-02 0.0 
1.956057533434e-05 1.248231519844e-02 0.0 
9.923001872007e-05 1.248407273942e-02 0.0 
5.900832281501e-05 1.214269584167e-02 0.0 
5.978227123940e-05 1.282369209618e-02 0.0 
1.405253246963e-03 9.923254224734e-03 0.0 
1.520015113086e-04 1.129449909372e-02 0.0 
1.933132095412e-04 1.163540076241e-02 0.0 
2.663315192179e-04 1.129705256200e-02 0.0 
3.084985300410e-04 1.163720664045e-02 0.0 
3.790982463022e-04 1.129873795403e-02 0.0 
4.214789498707e-04 1.163844274429e-02 0.0 
4.902221939607e-04 1.130108534036e-02 0.0 
5.326245903638e-04 1.164060500551e-02 0.0 
5.999122628633e-04 1.130401479005e-02 0.0 
6.419445893051e-04 1.164312031566e-02 0.0 
7.081105880213e-04 1.130641699402e-02 0.0 
7.489553945270e-04 1.164448836423e-02 0.0 
8.144188423152e-04 1.130633105383e-02 0.0 
1.762144065386e-03 1.035805619151e-02 0.0 
8.529401968448e-04 1.164229027911e-02 0.0 
9.185539554784e-04 1.130123949601e-02 0.0 
1.660299124816e-03 1.062496592249e-02 0.0 
9.533601628608e-04 1.163385190969e-02 0.0 
1.020310242584e-03 1.128788826343e-02 0.0 
1.764709158449e-03 1.031747853792e-02 0.0 
1.049633246408e-03 1.161510715555e-02 0.0 
1.119607619512e-03 1.126144037170e-02 0.0 
1.141535446585e-03 1.158073408776e-02 0.0 
1.216976150475e-03 1.121597905922e-02 0.0 
1.229578808219e-03 1.152426008276e-02 0.0 
1.887826976902e-03 9.978792159182e-03 0.0 
1.313796536177e-03 1.114401816230e-02 0.0 
1.315253658942e-03 1.143710115428e-02 0.0 
1.401605263988e-03 1.130735137340e-02 0.0 
1.412572939711e-03 1.103533377684e-02 0.0 
1.493591493950e-03 1.111809541109e-02 0.0 
1.517537696504e-03 1.087618108738e-02 0.0 
1.595994190935e-03 1.084495725820e-02 0.0 
1.632301095249e-03 1.064652645177e-02 0.0 
1.785982036333e-03 1.024570189017e-02 0.0 
1.894586219494e-05 1.146236182944e-02 0.0 
9.590574971248e-05 1.146331512385e-02 0.0 
5.839360967560e-05 1.180266923584e-02 0.0 
5.645800223182e-05 1.112300771745e-02 0.0 
1.795708723429e-03 1.012200521902e-02 0.0 
1.507135187550e-04 1.061493358730e-02 0.0 
1.896963152301e-04 1.027604844769e-02 0.0 
2.640026174604e-04 1.061726575370e-02 0.0 
3.037764624239e-04 1.027870261133e-02 0.0 
3.767050804425e-04 1.062002073321e-02 0.0 
4.173652781869e-04 1.028206465396e-02 0.0 
4.885016881366e-04 1.062342447085e-02 0.0 
5.306085338306e-04 1.028596049057e-02 0.0 
5.996167121543e-04 1.062703114462e-02 0.0 
6.437153909826e-04 1.028959618691e-02 0.0 
7.101769404079e-04 1.062987651070e-02 0.0 
7.571314468467e-04 1.029185954957e-02 0.0 
1.802858959567e-03 9.845516801679e-03 0.0 
8.205285422483e-04 1.063024272249e-02 0.0 
1.772082592670e-03 9.741157168618e-03 0.0 
8.710218696091e-04 1.029023315051e-02 0.0 
9.305259283096e-04 1.062527069876e-02 0.0 
9.859763445091e-04 1.028199384129e-02 0.0 
1.040954451401e-03 1.061199899228e-02 0.0 
1.102894367180e-03 1.026318950201e-02 0.0 
1.152224531467e-03 1.058541198931e-02 0.0 
1.222459560002e-03 1.022786695096e-02 0.0 
1.760025327594e-03 1.013926601411e-02 0.0 
1.265283351937e-03 1.053914030481e-02 0.0 
1.346301864250e-03 1.016885997068e-02 0.0 
1.382212390745e-03 1.046545680462e-02 0.0 
1.476903411149e-03 1.007705456363e-02 0.0 
1.617349733243e-03 9.939812838349e-03 0.0 
1.505806837349e-03 1.035384854386e-02 0.0 
1.640048268122e-03 1.019012778531e-02 0.0 
1.905203600071e-03 9.552789621777e-03 0.0 
1.862369968097e-03 9.846538834203e-03 0.0 
1.861464830502e-05 1.044331390384e-02 0.0 
9.428654326890e-05 1.044406245654e-02 0.0 
5.677440323203e-05 1.010405580382e-02 0.0 
5.612678834190e-05 1.078332055657e-02 0.0 
1.903360703267e-03 9.826320551591e-03 0.0 

VECTORS element_materi_displacement float
0.0 0.0 0.0 
0.0 0.0 0.0 
0.0 0.0 0.0 
0.0 0.0 0.0 
0.0 0.0 0.0 
0.0 0.0 0.0 
0.0 0.0 0.0 
0.0 0.0 0.0 
0.0 0.0 0.0 
0.0 0.0 0.0 
0.0 0.0 0.0 
0.0 0.0 0.0 
0.0 0.0 0.0 
0.0 0.0 0.0 
0.0 0.0 0.0 
0.0 0.0 0.0 
0.0 0.0 0.0 
0.0 0.0 0.0 
0.0 0.0 0.0 
0.0 0.0 0.0 
0.0 0.0 0.0 
0.0 0.0 0.0 
0.0 0.0 0.0 
0.0 0.0 0.0 
0.0 0.0 0.0 
0.0 0.0 0.0 
0.0 0.0 0.0 
0.0 0.0 0.0 
0.0 0.0 0.0 
0.0 0.0 0.0 
0.0 0.0 0.0 
0.0 0.0 0.0 
0.0 0.0 0.0 
0.0 0.0 0.0 
0.0 0.0 0.0 
0.0 0.0 0.0 
0.0 0.0 0.0 
0.0 0.0 0.0 
0.0 0.0 0.0 
0.0 0.0 0.0 
0.0 0.0 0.0 
0.0 0.0 0.0 
0.0 0.0 0.0 
0.0 0.0 0.0 
0.0 0.0 0.0 
0.0 0.0 0.0 
0.0 0.0 0.0 
0.0 0.0 0.0 
0.0 0.0 0.0 
0.0 0.0 0.0 
0.0 0.0 0.0 
0.0 0.0 0.0 
0.0 0.0 0.0 
0.0 0.0 0.0 
0.0 0.0 0.0 
0.0 0.0 0.0 
0.0 0.0 0.0 
0.0 0.0 0.0 
0.0 0.0 0.0 
0.0 0.0 0.0 
0.0 0.0 0.0 
0.0 0.0 0.0 
0.0 0.0 0.0 
0.0 0.0 0.0 
0.0 0.0 0.0 
0.0 0.0 0.0 
0.0 0.0 0.0 
0.0 0.0 0.0 
0.0 0.0 0.0 
0.0 0.0 0.0 
0.0 0.0 0.0 
0.0 0.0 0.0 
0.0 0.0 0.0 
0.0 0.0 0.0 
0.0 0.0 0.0 
0.0 0.0 0.0 
0.0 0.0 0.0 
0.0 0.0 0.0 
0.0 0.0 0.0 
0.0 0.0 0.0 
0.0 0.0 0.0 
0.0 0.0 0.0 
0.0 0.0 0.0 
0.0 0.0 0.0 
0.0 0.0 0.0 
0.0 0.0 0.0 
0.0 0.0 0.0 
0.0 0.0 0.0 
0.0 0.0 0.0 
0.0 0.0 0.0 
0.0 0.0 0.0 
0.0 0.0 0.0 
0.0 0.0 0.0 
0.0 0.0 0.0 
0.0 0.0 0.0 
0.0 0.0 0.0 
0.0 0.0 0.0 
0.0 0.0 0.0 
0.0 0.0 0.0 
0.0 0.0 0.0 
0.0 0.0 0.0 
0.0 0.0 0.0 
0.0 0.0 0.0 
0.0 0.0 0.0 
0.0 0.0 0.0 
0.0 0.0 0.0 
0.0 0.0 0.0 
0.0 0.0 0.0 
0.0 0.0 0.0 
0.0 0.0 0.0 
0.0 0.0 0.0 
0.0 0.0 0.0 
0.0 0.0 0.0 
0.0 0.0 0.0 
0.0 0.0 0.0 
0.0 0.0 0.0 
0.0 0.0 0.0 
0.0 0.0 0.0 
0.0 0.0 0.0 
0.0 0.0 0.0 
0.0 0.0 0.0 
0.0 0.0 0.0 
0.0 0.0 0.0 
0.0 0.0 0.0 
0.0 0.0 0.0 
0.0 0.0 0.0 
0.0 0.0 0.0 
0.0 0.0 0.0 
0.0 0.0 0.0 
0.0 0.0 0.0 
0.0 0.0 0.0 
0.0 0.0 0.0 
0.0 0.0 0.0 
0.0 0.0 0.0 
0.0 0.0 0.0 
0.0 0.0 0.0 
0.0 0.0 0.0 
0.0 0.0 0.0 
0.0 0.0 0.0 
0.0 0.0 0.0 
0.0 0.0 0.0 
0.0 0.0 0.0 
0.0 0.0 0.0 
0.0 0.0 0.0 
0.0 0.0 0.0 
0.0 0.0 0.0 
0.0 0.0 0.0 
0.0 0.0 0.0 
0.0 0.0 0.0 
0.0 0.0 0.0 
0.0 0.0 0.0 
0.0 0.0 0.0 
0.0 0.0 0.0 
0.0 0.0 0.0 
0.0 0.0 0.0 
0.0 0.0 0.0 
0.0 0.0 0.0 
0.0 0.0 0.0 
0.0 0.0 0.0 
0.0 0.0 0.0 
0.0 0.0 0.0 
0.0 0.0 0.0 
0.0 0.0 0.0 
0.0 0.0 0.0 
0.0 0.0 0.0 
0.0 0.0 0.0 
0.0 0.0 0.0 
0.0 0.0 0.0 
0.0 0.0 0.0 
0.0 0.0 0.0 
0.0 0.0 0.0 
0.0 0.0 0.0 
0.0 0.0 0.0 
0.0 0.0 0.0 
0.0 0.0 0.0 
0.0 0.0 0.0 
0.0 0.0 0.0 
0.0 0.0 0.0 
0.0 0.0 0.0 
0.0 0.0 0.0 
0.0 0.0 0.0 
0.0 0.0 0.0 
0.0 0.0 0.0 
0.0 0.0 0.0 
0.0 0.0 0.0 
0.0 0.0 0.0 
0.0 0.0 0.0 
0.0 0.0 0.0 
0.0 0.0 0.0 
0.0 0.0 0.0 
0.0 0.0 0.0 
0.0 0.0 0.0 
0.0 0.0 0.0 
0.0 0.0 0.0 
0.0 0.0 0.0 
0.0 0.0 0.0 
0.0 0.0 0.0 
0.0 0.0 0.0 
0.0 0.0 0.0 
0.0 0.0 0.0 
0.0 0.0 0.0 
0.0 0.0 0.0 
0.0 0.0 0.0 
0.0 0.0 0.0 
0.0 0.0 0.0 
0.0 0.0 0.0 
0.0 0.0 0.0 
0.0 0.0 0.0 
0.0 0.0 0.0 
0.0 0.0 0.0 
0.0 0.0 0.0 
0.0 0.0 0.0 
0.0 0.0 0.0 
0.0 0.0 0.0 
0.0 0.0 0.0 
0.0 0.0 0.0 
0.0 0.0 0.0 
0.0 0.0 0.0 
0.0 0.0 0.0 
0.0 0.0 0.0 
0.0 0.0 0.0 
0.0 0.0 0.0 
0.0 0.0 0.0 
0.0 0.0 0.0 
0.0 0.0 0.0 
0.0 0.0 0.0 
0.0 0.0 0.0 
0.0 0.0 0.0 
0.0 0.0 0.0 
0.0 0.0 0.0 
0.0 0.0 0.0 
0.0 0.0 0.0 
0.0 0.0 0.0 
0.0 0.0 0.0 
0.0 0.0 0.0 
0.0 0.0 0.0 
0.0 0.0 0.0 
0.0 0.0 0.0 
0.0 0.0 0.0 
0.0 0.0 0.0 
0.0 0.0 0.0 
0.0 0.0 0.0 
0.0 0.0 0.0 
0.0 0.0 0.0 
0.0 0.0 0.0 
0.0 0.0 0.0 
0.0 0.0 0.0 
0.0 0.0 0.0 
0.0 0.0 0.0 
0.0 0.0 0.0 
0.0 0.0 0.0 
0.0 0.0 0.0 
0.0 0.0 0.0 
0.0 0.0 0.0 
0.0 0.0 0.0 
0.0 0.0 0.0 
0.0 0.0 0.0 
0.0 0.0 0.0 
0.0 0.0 0.0 
0.0 0.0 0.0 
0.0 0.0 0.0 
0.0 0.0 0.0 
0.0 0.0 0.0 
0.0 0.0 0.0 
0.0 0.0 0.0 
0.0 0.0 0.0 
0.0 0.0 0.0 
0.0 0.0 0.0 
0.0 0.0 0.0 
0.0 0.0 0.0 
0.0 0.0 0.0 
0.0 0.0 0.0 
0.0 0.0 0.0 
0.0 0.0 0.0 
0.0 0.0 0.0 
0.0 0.0 0.0 
0.0 0.0 0.0 
0.0 0.0 0.0 
0.0 0.0 0.0 
0.0 0.0 0.0 
0.0 0.0 0.0 
0.0 0.0 0.0 
0.0 0.0 0.0 
0.0 0.0 0.0 
0.0 0.0 0.0 
0.0 0.0 0.0 
0.0 0.0 0.0 
0.0 0.0 0.0 
0.0 0.0 0.0 
0.0 0.0 0.0 
0.0 0.0 0.0 
0.0 0.0 0.0 
0.0 0.0 0.0 
0.0 0.0 0.0 
0.0 0.0 0.0 
0.0 0.0 0.0 
0.0 0.0 0.0 
0.0 0.0 0.0 
0.0 0.0 0.0 
0.0 0.0 0.0 
0.0 0.0 0.0 
0.0 0.0 0.0 
0.0 0.0 0.0 
0.0 0.0 0.0 
0.0 0.0 0.0 
0.0 0.0 0.0 
0.0 0.0 0.0 
0.0 0.0 0.0 
0.0 0.0 0.0 
0.0 0.0 0.0 
0.0 0.0 0.0 
0.0 0.0 0.0 
0.0 0.0 0.0 
0.0 0.0 0.0 
0.0 0.0 0.0 
0.0 0.0 0.0 
0.0 0.0 0.0 
0.0 0.0 0.0 
0.0 0.0 0.0 
0.0 0.0 0.0 
0.0 0.0 0.0 
0.0 0.0 0.0 
0.0 0.0 0.0 
0.0 0.0 0.0 
0.0 0.0 0.0 
0.0 0.0 0.0 
0.0 0.0 0.0 
0.0 0.0 0.0 
0.0 0.0 0.0 
0.0 0.0 0.0 
0.0 0.0 0.0 
0.0 0.0 0.0 
0.0 0.0 0.0 
0.0 0.0 0.0 
0.0 0.0 0.0 
0.0 0.0 0.0 
0.0 0.0 0.0 
0.0 0.0 0.0 
0.0 0.0 0.0 
0.0 0.0 0.0 
0.0 0.0 0.0 
0.0 0.0 0.0 
0.0 0.0 0.0 
0.0 0.0 0.0 
0.0 0.0 0.0 
0.0 0.0 0.0 
0.0 0.0 0.0 
0.0 0.0 0.0 
0.0 0.0 0.0 
0.0 0.0 0.0 
0.0 0.0 0.0 
0.0 0.0 0.0 
0.0 0.0 0.0 
0.0 0.0 0.0 
0.0 0.0 0.0 
0.0 0.0 0.0 
0.0 0.0 0.0 
0.0 0.0 0.0 
0.0 0.0 0.0 
0.0 0.0 0.0 
0.0 0.0 0.0 
0.0 0.0 0.0 
0.0 0.0 0.0 
0.0 0.0 0.0 
0.0 0.0 0.0 
0.0 0.0 0.0 
0.0 0.0 0.0 
0.0 0.0 0.0 
0.0 0.0 0.0 
0.0 0.0 0.0 
0.0 0.0 0.0 
0.0 0.0 0.0 
0.0 0.0 0.0 
0.0 0.0 0.0 
0.0 0.0 0.0 
0.0 0.0 0.0 
0.0 0.0 0.0 
0.0 0.0 0.0 
0.0 0.0 0.0 
0.0 0.0 0.0 
0.0 0.0 0.0 
0.0 0.0 0.0 
0.0 0.0 0.0 
0.0 0.0 0.0 
0.0 0.0 0.0 
0.0 0.0 0.0 
0.0 0.0 0.0 
0.0 0.0 0.0 
0.0 0.0 0.0 
0.0 0.0 0.0 
0.0 0.0 0.0 
0.0 0.0 0.0 
0.0 0.0 0.0 
0.0 0.0 0.0 
0.0 0.0 0.0 
0.0 0.0 0.0 
0.0 0.0 0.0 
0.0 0.0 0.0 
0.0 0.0 0.0 
0.0 0.0 0.0 
0.0 0.0 0.0 
0.0 0.0 0.0 
0.0 0.0 0.0 
0.0 0.0 0.0 
0.0 0.0 0.0 
0.0 0.0 0.0 
0.0 0.0 0.0 
0.0 0.0 0.0 
0.0 0.0 0.0 
0.0 0.0 0.0 
0.0 0.0 0.0 
0.0 0.0 0.0 
0.0 0.0 0.0 
0.0 0.0 0.0 
0.0 0.0 0.0 
0.0 0.0 0.0 
0.0 0.0 0.0 
0.0 0.0 0.0 
0.0 0.0 0.0 
0.0 0.0 0.0 
0.0 0.0 0.0 
0.0 0.0 0.0 
0.0 0.0 0.0 
0.0 0.0 0.0 
0.0 0.0 0.0 
0.0 0.0 0.0 
0.0 0.0 0.0 
0.0 0.0 0.0 
0.0 0.0 0.0 
0.0 0.0 0.0 
0.0 0.0 0.0 
0.0 0.0 0.0 
0.0 0.0 0.0 
0.0 0.0 0.0 
0.0 0.0 0.0 
0.0 0.0 0.0 
0.0 0.0 0.0 
0.0 0.0 0.0 
0.0 0.0 0.0 
0.0 0.0 0.0 
0.0 0.0 0.0 
0.0 0.0 0.0 
0.0 0.0 0.0 
0.0 0.0 0.0 
0.0 0.0 0.0 
0.0 0.0 0.0 
0.0 0.0 0.0 
0.0 0.0 0.0 
0.0 0.0 0.0 
0.0 0.0 0.0 
0.0 0.0 0.0 
0.0 0.0 0.0 
0.0 0.0 0.0 
0.0 0.0 0.0 
0.0 0.0 0.0 
0.0 0.0 0.0 
0.0 0.0 0.0 
0.0 0.0 0.0 
0.0 0.0 0.0 
0.0 0.0 0.0 
0.0 0.0 0.0 
0.0 0.0 0.0 
0.0 0.0 0.0 
0.0 0.0 0.0 
0.0 0.0 0.0 
0.0 0.0 0.0 
0.0 0.0 0.0 
0.0 0.0 0.0 
0.0 0.0 0.0 
0.0 0.0 0.0 
0.0 0.0 0.0 
0.0 0.0 0.0 
0.0 0.0 0.0 
0.0 0.0 0.0 
0.0 0.0 0.0 
0.0 0.0 0.0 
0.0 0.0 0.0 
0.0 0.0 0.0 
0.0 0.0 0.0 
0.0 0.0 0.0 
0.0 0.0 0.0 
0.0 0.0 0.0 
0.0 0.0 0.0 
0.0 0.0 0.0 
0.0 0.0 0.0 
0.0 0.0 0.0 
0.0 0.0 0.0 
0.0 0.0 0.0 
0.0 0.0 0.0 
0.0 0.0 0.0 
0.0 0.0 0.0 
0.0 0.0 0.0 
0.0 0.0 0.0 
0.0 0.0 0.0 
0.0 0.0 0.0 
0.0 0.0 0.0 
0.0 0.0 0.0 
0.0 0.0 0.0 
0.0 0.0 0.0 
0.0 0.0 0.0 
0.0 0.0 0.0 
0.0 0.0 0.0 
0.0 0.0 0.0 
0.0 0.0 0.0 
0.0 0.0 0.0 
0.0 0.0 0.0 
0.0 0.0 0.0 
0.0 0.0 0.0 
0.0 0.0 0.0 
0.0 0.0 0.0 
0.0 0.0 0.0 
0.0 0.0 0.0 
0.0 0.0 0.0 
0.0 0.0 0.0 
0.0 0.0 0.0 
0.0 0.0 0.0 
0.0 0.0 0.0 
0.0 0.0 0.0 
0.0 0.0 0.0 
0.0 0.0 0.0 
0.0 0.0 0.0 
0.0 0.0 0.0 
0.0 0.0 0.0 
0.0 0.0 0.0 
0.0 0.0 0.0 
0.0 0.0 0.0 
0.0 0.0 0.0 
0.0 0.0 0.0 
0.0 0.0 0.0 
0.0 0.0 0.0 
0.0 0.0 0.0 
0.0 0.0 0.0 
0.0 0.0 0.0 
0.0 0.0 0.0 
0.0 0.0 0.0 
0.0 0.0 0.0 
0.0 0.0 0.0 
0.0 0.0 0.0 
0.0 0.0 0.0 
0.0 0.0 0.0 
0.0 0.0 0.0 
0.0 0.0 0.0 
0.0 0.0 0.0 
0.0 0.0 0.0 
0.0 0.0 0.0 
0.0 0.0 0.0 
0.0 0.0 0.0 
0.0 0.0 0.0 
0.0 0.0 0.0 
0.0 0.0 0.0 
0.0 0.0 0.0 
0.0 0.0 0.0 
0.0 0.0 0.0 
0.0 0.0 0.0 
0.0 0.0 0.0 
0.0 0.0 0.0 
0.0 0.0 0.0 
0.0 0.0 0.0 
0.0 0.0 0.0 
0.0 0.0 0.0 
0.0 0.0 0.0 
0.0 0.0 0.0 
0.0 0.0 0.0 
0.0 0.0 0.0 
0.0 0.0 0.0 
0.0 0.0 0.0 
0.0 0.0 0.0 
0.0 0.0 0.0 
0.0 0.0 0.0 
0.0 0.0 0.0 
0.0 0.0 0.0 
0.0 0.0 0.0 
0.0 0.0 0.0 
0.0 0.0 0.0 
0.0 0.0 0.0 
0.0 0.0 0.0 
0.0 0.0 0.0 
0.0 0.0 0.0 
0.0 0.0 0.0 
0.0 0.0 0.0 
0.0 0.0 0.0 
0.0 0.0 0.0 
0.0 0.0 0.0 
0.0 0.0 0.0 
0.0 0.0 0.0 
0.0 0.0 0.0 
0.0 0.0 0.0 
0.0 0.0 0.0 
0.0 0.0 0.0 
0.0 0.0 0.0 
0.0 0.0 0.0 
0.0 0.0 0.0 
0.0 0.0 0.0 
0.0 0.0 0.0 
0.0 0.0 0.0 
0.0 0.0 0.0 
0.0 0.0 0.0 
0.0 0.0 0.0 
0.0 0.0 0.0 
0.0 0.0 0.0 
0.0 0.0 0.0 
0.0 0.0 0.0 
0.0 0.0 0.0 
0.0 0.0 0.0 
0.0 0.0 0.0 
0.0 0.0 0.0 
0.0 0.0 0.0 
0.0 0.0 0.0 
0.0 0.0 0.0 
0.0 0.0 0.0 
0.0 0.0 0.0 
0.0 0.0 0.0 
0.0 0.0 0.0 
0.0 0.0 0.0 
0.0 0.0 0.0 
0.0 0.0 0.0 
0.0 0.0 0.0 
0.0 0.0 0.0 
0.0 0.0 0.0 
0.0 0.0 0.0 
0.0 0.0 0.0 
0.0 0.0 0.0 
0.0 0.0 0.0 
0.0 0.0 0.0 
0.0 0.0 0.0 
0.0 0.0 0.0 
0.0 0.0 0.0 
0.0 0.0 0.0 
0.0 0.0 0.0 
0.0 0.0 0.0 
0.0 0.0 0.0 
0.0 0.0 0.0 
0.0 0.0 0.0 
0.0 0.0 0.0 
0.0 0.0 0.0 
0.0 0.0 0.0 
0.0 0.0 0.0 
0.0 0.0 0.0 
0.0 0.0 0.0 
0.0 0.0 0.0 
0.0 0.0 0.0 
0.0 0.0 0.0 
0.0 0.0 0.0 
0.0 0.0 0.0 
0.0 0.0 0.0 
0.0 0.0 0.0 
0.0 0.0 0.0 
0.0 0.0 0.0 
0.0 0.0 0.0 
0.0 0.0 0.0 
0.0 0.0 0.0 
0.0 0.0 0.0 
0.0 0.0 0.0 
0.0 0.0 0.0 
0.0 0.0 0.0 
0.0 0.0 0.0 
0.0 0.0 0.0 
0.0 0.0 0.0 
0.0 0.0 0.0 
0.0 0.0 0.0 
0.0 0.0 0.0 
0.0 0.0 0.0 
0.0 0.0 0.0 
0.0 0.0 0.0 
0.0 0.0 0.0 
0.0 0.0 0.0 
0.0 0.0 0.0 
0.0 0.0 0.0 
0.0 0.0 0.0 
0.0 0.0 0.0 
0.0 0.0 0.0 
0.0 0.0 0.0 
0.0 0.0 0.0 
0.0 0.0 0.0 
0.0 0.0 0.0 
0.0 0.0 0.0 
0.0 0.0 0.0 
0.0 0.0 0.0 
0.0 0.0 0.0 
0.0 0.0 0.0 
0.0 0.0 0.0 
0.0 0.0 0.0 
0.0 0.0 0.0 
0.0 0.0 0.0 
0.0 0.0 0.0 
0.0 0.0 0.0 
0.0 0.0 0.0 
0.0 0.0 0.0 
0.0 0.0 0.0 
0.0 0.0 0.0 
0.0 0.0 0.0 
0.0 0.0 0.0 
0.0 0.0 0.0 
0.0 0.0 0.0 
0.0 0.0 0.0 
0.0 0.0 0.0 
0.0 0.0 0.0 
0.0 0.0 0.0 
0.0 0.0 0.0 
0.0 0.0 0.0 
0.0 0.0 0.0 
0.0 0.0 0.0 
0.0 0.0 0.0 
0.0 0.0 0.0 
0.0 0.0 0.0 
0.0 0.0 0.0 
0.0 0.0 0.0 
0.0 0.0 0.0 
0.0 0.0 0.0 
0.0 0.0 0.0 
0.0 0.0 0.0 
0.0 0.0 0.0 
0.0 0.0 0.0 
0.0 0.0 0.0 
0.0 0.0 0.0 
0.0 0.0 0.0 
0.0 0.0 0.0 
0.0 0.0 0.0 
0.0 0.0 0.0 
0.0 0.0 0.0 
0.0 0.0 0.0 
0.0 0.0 0.0 
0.0 0.0 0.0 
0.0 0.0 0.0 
0.0 0.0 0.0 
0.0 0.0 0.0 
0.0 0.0 0.0 
0.0 0.0 0.0 
0.0 0.0 0.0 
0.0 0.0 0.0 
0.0 0.0 0.0 
0.0 0.0 0.0 
0.0 0.0 0.0 
0.0 0.0 0.0 
0.0 0.0 0.0 
0.0 0.0 0.0 
0.0 0.0 0.0 
0.0 0.0 0.0 
0.0 0.0 0.0 
0.0 0.0 0.0 
0.0 0.0 0.0 
0.0 0.0 0.0 
0.0 0.0 0.0 
0.0 0.0 0.0 
0.0 0.0 0.0 
0.0 0.0 0.0 
0.0 0.0 0.0 
0.0 0.0 0.0 
0.0 0.0 0.0 
0.0 0.0 0.0 
0.0 0.0 0.0 
0.0 0.0 0.0 
0.0 0.0 0.0 
0.0 0.0 0.0 
0.0 0.0 0.0 
0.0 0.0 0.0 
0.0 0.0 0.0 
0.0 0.0 0.0 
0.0 0.0 0.0 
0.0 0.0 0.0 
0.0 0.0 0.0 
0.0 0.0 0.0 
0.0 0.0 0.0 
0.0 0.0 0.0 
0.0 0.0 0.0 
0.0 0.0 0.0 
0.0 0.0 0.0 
0.0 0.0 0.0 
0.0 0.0 0.0 
0.0 0.0 0.0 
0.0 0.0 0.0 
0.0 0.0 0.0 
0.0 0.0 0.0 
0.0 0.0 0.0 
0.0 0.0 0.0 
0.0 0.0 0.0 
0.0 0.0 0.0 
0.0 0.0 0.0 
0.0 0.0 0.0 
0.0 0.0 0.0 
0.0 0.0 0.0 
0.0 0.0 0.0 
0.0 0.0 0.0 
0.0 0.0 0.0 
0.0 0.0 0.0 
0.0 0.0 0.0 
0.0 0.0 0.0 
0.0 0.0 0.0 
0.0 0.0 0.0 
0.0 0.0 0.0 
0.0 0.0 0.0 
0.0 0.0 0.0 
0.0 0.0 0.0 
0.0 0.0 0.0 
0.0 0.0 0.0 
0.0 0.0 0.0 
0.0 0.0 0.0 
0.0 0.0 0.0 
0.0 0.0 0.0 
0.0 0.0 0.0 
0.0 0.0 0.0 
0.0 0.0 0.0 
0.0 0.0 0.0 
0.0 0.0 0.0 
0.0 0.0 0.0 
0.0 0.0 0.0 
0.0 0.0 0.0 
0.0 0.0 0.0 
0.0 0.0 0.0 
0.0 0.0 0.0 
0.0 0.0 0.0 
0.0 0.0 0.0 
0.0 0.0 0.0 
0.0 0.0 0.0 
0.0 0.0 0.0 
0.0 0.0 0.0 
0.0 0.0 0.0 
0.0 0.0 0.0 
0.0 0.0 0.0 
0.0 0.0 0.0 
0.0 0.0 0.0 
0.0 0.0 0.0 
0.0 0.0 0.0 
0.0 0.0 0.0 
0.0 0.0 0.0 
0.0 0.0 0.0 
0.0 0.0 0.0 
0.0 0.0 0.0 
0.0 0.0 0.0 
0.0 0.0 0.0 
0.0 0.0 0.0 
0.0 0.0 0.0 
0.0 0.0 0.0 
0.0 0.0 0.0 
0.0 0.0 0.0 
0.0 0.0 0.0 
0.0 0.0 0.0 
0.0 0.0 0.0 
0.0 0.0 0.0 
0.0 0.0 0.0 
0.0 0.0 0.0 
0.0 0.0 0.0 
0.0 0.0 0.0 
0.0 0.0 0.0 
0.0 0.0 0.0 
0.0 0.0 0.0 
0.0 0.0 0.0 
0.0 0.0 0.0 
0.0 0.0 0.0 
0.0 0.0 0.0 
0.0 0.0 0.0 
0.0 0.0 0.0 
0.0 0.0 0.0 
0.0 0.0 0.0 
0.0 0.0 0.0 
0.0 0.0 0.0 
0.0 0.0 0.0 
0.0 0.0 0.0 
0.0 0.0 0.0 
0.0 0.0 0.0 
0.0 0.0 0.0 
0.0 0.0 0.0 
0.0 0.0 0.0 
0.0 0.0 0.0 
0.0 0.0 0.0 
0.0 0.0 0.0 
0.0 0.0 0.0 
0.0 0.0 0.0 
0.0 0.0 0.0 
0.0 0.0 0.0 
0.0 0.0 0.0 
0.0 0.0 0.0 
0.0 0.0 0.0 
0.0 0.0 0.0 
0.0 0.0 0.0 
0.0 0.0 0.0 
0.0 0.0 0.0 
0.0 0.0 0.0 
0.0 0.0 0.0 
0.0 0.0 0.0 
0.0 0.0 0.0 
0.0 0.0 0.0 
0.0 0.0 0.0 
0.0 0.0 0.0 
0.0 0.0 0.0 
0.0 0.0 0.0 
0.0 0.0 0.0 
0.0 0.0 0.0 
0.0 0.0 0.0 
0.0 0.0 0.0 
0.0 0.0 0.0 
0.0 0.0 0.0 
0.0 0.0 0.0 
0.0 0.0 0.0 
0.0 0.0 0.0 
0.0 0.0 0.0 
0.0 0.0 0.0 
0.0 0.0 0.0 
0.0 0.0 0.0 
0.0 0.0 0.0 
0.0 0.0 0.0 
0.0 0.0 0.0 
0.0 0.0 0.0 
0.0 0.0 0.0 
0.0 0.0 0.0 
0.0 0.0 0.0 
0.0 0.0 0.0 
0.0 0.0 0.0 
0.0 0.0 0.0 
0.0 0.0 0.0 
0.0 0.0 0.0 
0.0 0.0 0.0 
0.0 0.0 0.0 
0.0 0.0 0.0 
0.0 0.0 0.0 
0.0 0.0 0.0 
0.0 0.0 0.0 
0.0 0.0 0.0 
0.0 0.0 0.0 
0.0 0.0 0.0 
0.0 0.0 0.0 
0.0 0.0 0.0 
0.0 0.0 0.0 
0.0 0.0 0.0 
0.0 0.0 0.0 
0.0 0.0 0.0 
0.0 0.0 0.0 
0.0 0.0 0.0 
0.0 0.0 0.0 
0.0 0.0 0.0 
0.0 0.0 0.0 
0.0 0.0 0.0 
0.0 0.0 0.0 
0.0 0.0 0.0 
0.0 0.0 0.0 
0.0 0.0 0.0 
0.0 0.0 0.0 
0.0 0.0 0.0 
0.0 0.0 0.0 
0.0 0.0 0.0 
0.0 0.0 0.0 
0.0 0.0 0.0 
0.0 0.0 0.0 
0.0 0.0 0.0 
0.0 0.0 0.0 
0.0 0.0 0.0 
0.0 0.0 0.0 
0.0 0.0 0.0 
0.0 0.0 0.0 
0.0 0.0 0.0 
0.0 0.0 0.0 
0.0 0.0 0.0 
0.0 0.0 0.0 
0.0 0.0 0.0 
0.0 0.0 0.0 
0.0 0.0 0.0 
0.0 0.0 0.0 
0.0 0.0 0.0 
0.0 0.0 0.0 
0.0 0.0 0.0 
0.0 0.0 0.0 
0.0 0.0 0.0 
0.0 0.0 0.0 
0.0 0.0 0.0 
0.0 0.0 0.0 
0.0 0.0 0.0 
0.0 0.0 0.0 
0.0 0.0 0.0 
0.0 0.0 0.0 
0.0 0.0 0.0 
0.0 0.0 0.0 
0.0 0.0 0.0 
0.0 0.0 0.0 
0.0 0.0 0.0 
0.0 0.0 0.0 
0.0 0.0 0.0 
0.0 0.0 0.0 
0.0 0.0 0.0 
0.0 0.0 0.0 
0.0 0.0 0.0 
0.0 0.0 0.0 
0.0 0.0 0.0 
0.0 0.0 0.0 
0.0 0.0 0.0 
0.0 0.0 0.0 
0.0 0.0 0.0 
0.0 0.0 0.0 
0.0 0.0 0.0 
0.0 0.0 0.0 
0.0 0.0 0.0 
0.0 0.0 0.0 
0.0 0.0 0.0 
0.0 0.0 0.0 
0.0 0.0 0.0 
0.0 0.0 0.0 
0.0 0.0 0.0 
0.0 0.0 0.0 
0.0 0.0 0.0 
0.0 0.0 0.0 
0.0 0.0 0.0 
0.0 0.0 0.0 
0.0 0.0 0.0 
0.0 0.0 0.0 
0.0 0.0 0.0 
0.0 0.0 0.0 
0.0 0.0 0.0 
0.0 0.0 0.0 
0.0 0.0 0.0 
0.0 0.0 0.0 
0.0 0.0 0.0 
0.0 0.0 0.0 
0.0 0.0 0.0 
0.0 0.0 0.0 
0.0 0.0 0.0 
0.0 0.0 0.0 
0.0 0.0 0.0 
0.0 0.0 0.0 
0.0 0.0 0.0 
0.0 0.0 0.0 
0.0 0.0 0.0 
0.0 0.0 0.0 
0.0 0.0 0.0 
0.0 0.0 0.0 
0.0 0.0 0.0 
0.0 0.0 0.0 
0.0 0.0 0.0 
0.0 0.0 0.0 
0.0 0.0 0.0 
0.0 0.0 0.0 
0.0 0.0 0.0 
0.0 0.0 0.0 
0.0 0.0 0.0 
0.0 0.0 0.0 
0.0 0.0 0.0 
0.0 0.0 0.0 
0.0 0.0 0.0 
0.0 0.0 0.0 
0.0 0.0 0.0 
0.0 0.0 0.0 
0.0 0.0 0.0 
0.0 0.0 0.0 
0.0 0.0 0.0 
0.0 0.0 0.0 
0.0 0.0 0.0 
0.0 0.0 0.0 
0.0 0.0 0.0 
0.0 0.0 0.0 
0.0 0.0 0.0 
0.0 0.0 0.0 
0.0 0.0 0.0 
0.0 0.0 0.0 
0.0 0.0 0.0 
0.0 0.0 0.0 
0.0 0.0 0.0 
0.0 0.0 0.0 
0.0 0.0 0.0 
0.0 0.0 0.0 
0.0 0.0 0.0 
0.0 0.0 0.0 
0.0 0.0 0.0 
0.0 0.0 0.0 
0.0 0.0 0.0 
0.0 0.0 0.0 
0.0 0.0 0.0 
0.0 0.0 0.0 
0.0 0.0 0.0 
0.0 0.0 0.0 
0.0 0.0 0.0 
0.0 0.0 0.0 
0.0 0.0 0.0 
0.0 0.0 0.0 
0.0 0.0 0.0 
0.0 0.0 0.0 
0.0 0.0 0.0 
0.0 0.0 0.0 
0.0 0.0 0.0 
0.0 0.0 0.0 
0.0 0.0 0.0 
0.0 0.0 0.0 
0.0 0.0 0.0 
0.0 0.0 0.0 
0.0 0.0 0.0 
0.0 0.0 0.0 
0.0 0.0 0.0 
0.0 0.0 0.0 
0.0 0.0 0.0 
0.0 0.0 0.0 
0.0 0.0 0.0 
0.0 0.0 0.0 
0.0 0.0 0.0 
0.0 0.0 0.0 
0.0 0.0 0.0 
0.0 0.0 0.0 
0.0 0.0 0.0 
0.0 0.0 0.0 
0.0 0.0 0.0 
0.0 0.0 0.0 
0.0 0.0 0.0 
0.0 0.0 0.0 
0.0 0.0 0.0 
0.0 0.0 0.0 
0.0 0.0 0.0 
0.0 0.0 0.0 
0.0 0.0 0.0 
0.0 0.0 0.0 
0.0 0.0 0.0 
0.0 0.0 0.0 
0.0 0.0 0.0 
0.0 0.0 0.0 
0.0 0.0 0.0 
0.0 0.0 0.0 
0.0 0.0 0.0 
0.0 0.0 0.0 
0.0 0.0 0.0 
0.0 0.0 0.0 
0.0 0.0 0.0 
0.0 0.0 0.0 
0.0 0.0 0.0 
0.0 0.0 0.0 
0.0 0.0 0.0 
0.0 0.0 0.0 
0.0 0.0 0.0 
0.0 0.0 0.0 
0.0 0.0 0.0 
0.0 0.0 0.0 
0.0 0.0 0.0 
0.0 0.0 0.0 
0.0 0.0 0.0 
0.0 0.0 0.0 
0.0 0.0 0.0 
0.0 0.0 0.0 
0.0 0.0 0.0 
0.0 0.0 0.0 
0.0 0.0 0.0 
0.0 0.0 0.0 
0.0 0.0 0.0 
0.0 0.0 0.0 
0.0 0.0 0.0 
0.0 0.0 0.0 
0.0 0.0 0.0 
0.0 0.0 0.0 
0.0 0.0 0.0 
0.0 0.0 0.0 
0.0 0.0 0.0 
0.0 0.0 0.0 
0.0 0.0 0.0 
0.0 0.0 0.0 
0.0 0.0 0.0 
0.0 0.0 0.0 
0.0 0.0 0.0 
0.0 0.0 0.0 
0.0 0.0 0.0 
0.0 0.0 0.0 
0.0 0.0 0.0 
0.0 0.0 0.0 
0.0 0.0 0.0 
0.0 0.0 0.0 
0.0 0.0 0.0 
0.0 0.0 0.0 
0.0 0.0 0.0 
0.0 0.0 0.0 
0.0 0.0 0.0 
0.0 0.0 0.0 
0.0 0.0 0.0 
0.0 0.0 0.0 
0.0 0.0 0.0 
0.0 0.0 0.0 
0.0 0.0 0.0 
0.0 0.0 0.0 
0.0 0.0 0.0 
0.0 0.0 0.0 
0.0 0.0 0.0 
0.0 0.0 0.0 
0.0 0.0 0.0 
0.0 0.0 0.0 
0.0 0.0 0.0 
0.0 0.0 0.0 
0.0 0.0 0.0 
0.0 0.0 0.0 
0.0 0.0 0.0 
0.0 0.0 0.0 
0.0 0.0 0.0 
0.0 0.0 0.0 
0.0 0.0 0.0 
0.0 0.0 0.0 
0.0 0.0 0.0 
0.0 0.0 0.0 
0.0 0.0 0.0 
0.0 0.0 0.0 
0.0 0.0 0.0 
0.0 0.0 0.0 
0.0 0.0 0.0 
0.0 0.0 0.0 
0.0 0.0 0.0 
0.0 0.0 0.0 
0.0 0.0 0.0 
0.0 0.0 0.0 
0.0 0.0 0.0 
0.0 0.0 0.0 
0.0 0.0 0.0 
0.0 0.0 0.0 
0.0 0.0 0.0 
0.0 0.0 0.0 
0.0 0.0 0.0 
0.0 0.0 0.0 
0.0 0.0 0.0 
0.0 0.0 0.0 
0.0 0.0 0.0 
0.0 0.0 0.0 
0.0 0.0 0.0 
0.0 0.0 0.0 
0.0 0.0 0.0 
0.0 0.0 0.0 
0.0 0.0 0.0 
0.0 0.0 0.0 
0.0 0.0 0.0 
0.0 0.0 0.0 
0.0 0.0 0.0 
0.0 0.0 0.0 
0.0 0.0 0.0 
0.0 0.0 0.0 
0.0 0.0 0.0 
0.0 0.0 0.0 
0.0 0.0 0.0 
0.0 0.0 0.0 
0.0 0.0 0.0 
0.0 0.0 0.0 
0.0 0.0 0.0 
0.0 0.0 0.0 
0.0 0.0 0.0 
0.0 0.0 0.0 
0.0 0.0 0.0 
0.0 0.0 0.0 
0.0 0.0 0.0 
0.0 0.0 0.0 
0.0 0.0 0.0 
0.0 0.0 0.0 
0.0 0.0 0.0 
0.0 0.0 0.0 
0.0 0.0 0.0 
0.0 0.0 0.0 
0.0 0.0 0.0 
0.0 0.0 0.0 
0.0 0.0 0.0 
0.0 0.0 0.0 
0.0 0.0 0.0 
0.0 0.0 0.0 
0.0 0.0 0.0 
0.0 0.0 0.0 
0.0 0.0 0.0 
0.0 0.0 0.0 
0.0 0.0 0.0 
0.0 0.0 0.0 
0.0 0.0 0.0 
0.0 0.0 0.0 
0.0 0.0 0.0 
0.0 0.0 0.0 
0.0 0.0 0.0 
0.0 0.0 0.0 
0.0 0.0 0.0 
0.0 0.0 0.0 
0.0 0.0 0.0 
0.0 0.0 0.0 
0.0 0.0 0.0 
0.0 0.0 0.0 
0.0 0.0 0.0 
0.0 0.0 0.0 
0.0 0.0 0.0 
0.0 0.0 0.0 
0.0 0.0 0.0 
0.0 0.0 0.0 
0.0 0.0 0.0 
0.0 0.0 0.0 
0.0 0.0 0.0 
0.0 0.0 0.0 
0.0 0.0 0.0 
0.0 0.0 0.0 
0.0 0.0 0.0 
0.0 0.0 0.0 
0.0 0.0 0.0 
0.0 0.0 0.0 
0.0 0.0 0.0 
0.0 0.0 0.0 
0.0 0.0 0.0 
0.0 0.0 0.0 
0.0 0.0 0.0 
0.0 0.0 0.0 
0.0 0.0 0.0 
0.0 0.0 0.0 
0.0 0.0 0.0 
0.0 0.0 0.0 
0.0 0.0 0.0 
0.0 0.0 0.0 
0.0 0.0 0.0 
0.0 0.0 0.0 
0.0 0.0 0.0 
0.0 0.0 0.0 
0.0 0.0 0.0 
0.0 0.0 0.0 
0.0 0.0 0.0 
0.0 0.0 0.0 
0.0 0.0 0.0 
0.0 0.0 0.0 
0.0 0.0 0.0 
0.0 0.0 0.0 
0.0 0.0 0.0 
0.0 0.0 0.0 
0.0 0.0 0.0 
0.0 0.0 0.0 
0.0 0.0 0.0 
0.0 0.0 0.0 
0.0 0.0 0.0 
0.0 0.0 0.0 
0.0 0.0 0.0 
0.0 0.0 0.0 
0.0 0.0 0.0 
0.0 0.0 0.0 
0.0 0.0 0.0 
0.0 0.0 0.0 
0.0 0.0 0.0 
0.0 0.0 0.0 
0.0 0.0 0.0 
0.0 0.0 0.0 
0.0 0.0 0.0 
0.0 0.0 0.0 
0.0 0.0 0.0 
0.0 0.0 0.0 
0.0 0.0 0.0 
0.0 0.0 0.0 
0.0 0.0 0.0 
0.0 0.0 0.0 
0.0 0.0 0.0 
0.0 0.0 0.0 
0.0 0.0 0.0 
0.0 0.0 0.0 
0.0 0.0 0.0 
0.0 0.0 0.0 
0.0 0.0 0.0 
0.0 0.0 0.0 
0.0 0.0 0.0 
0.0 0.0 0.0 
0.0 0.0 0.0 
0.0 0.0 0.0 
0.0 0.0 0.0 
0.0 0.0 0.0 
0.0 0.0 0.0 
0.0 0.0 0.0 
0.0 0.0 0.0 
0.0 0.0 0.0 
0.0 0.0 0.0 
0.0 0.0 0.0 
0.0 0.0 0.0 
0.0 0.0 0.0 
0.0 0.0 0.0 
0.0 0.0 0.0 
0.0 0.0 0.0 
0.0 0.0 0.0 
0.0 0.0 0.0 
0.0 0.0 0.0 
0.0 0.0 0.0 
0.0 0.0 0.0 
0.0 0.0 0.0 
0.0 0.0 0.0 
0.0 0.0 0.0 
0.0 0.0 0.0 
0.0 0.0 0.0 
0.0 0.0 0.0 
0.0 0.0 0.0 
0.0 0.0 0.0 
0.0 0.0 0.0 
0.0 0.0 0.0 
0.0 0.0 0.0 
0.0 0.0 0.0 
0.0 0.0 0.0 
0.0 0.0 0.0 
0.0 0.0 0.0 
0.0 0.0 0.0 
0.0 0.0 0.0 
0.0 0.0 0.0 
0.0 0.0 0.0 
0.0 0.0 0.0 
0.0 0.0 0.0 
0.0 0.0 0.0 
0.0 0.0 0.0 
0.0 0.0 0.0 
0.0 0.0 0.0 
0.0 0.0 0.0 
0.0 0.0 0.0 
0.0 0.0 0.0 
0.0 0.0 0.0 
0.0 0.0 0.0 
0.0 0.0 0.0 
0.0 0.0 0.0 
0.0 0.0 0.0 
0.0 0.0 0.0 
0.0 0.0 0.0 
0.0 0.0 0.0 
0.0 0.0 0.0 
0.0 0.0 0.0 
0.0 0.0 0.0 
0.0 0.0 0.0 
0.0 0.0 0.0 
0.0 0.0 0.0 
0.0 0.0 0.0 
0.0 0.0 0.0 
0.0 0.0 0.0 
0.0 0.0 0.0 
0.0 0.0 0.0 
0.0 0.0 0.0 
0.0 0.0 0.0 
0.0 0.0 0.0 
0.0 0.0 0.0 
0.0 0.0 0.0 
0.0 0.0 0.0 
0.0 0.0 0.0 
0.0 0.0 0.0 
0.0 0.0 0.0 
0.0 0.0 0.0 
0.0 0.0 0.0 
0.0 0.0 0.0 
0.0 0.0 0.0 
0.0 0.0 0.0 
0.0 0.0 0.0 
0.0 0.0 0.0 
0.0 0.0 0.0 
0.0 0.0 0.0 
0.0 0.0 0.0 
0.0 0.0 0.0 
0.0 0.0 0.0 
0.0 0.0 0.0 
0.0 0.0 0.0 
0.0 0.0 0.0 
0.0 0.0 0.0 
0.0 0.0 0.0 
0.0 0.0 0.0 
0.0 0.0 0.0 
0.0 0.0 0.0 
0.0 0.0 0.0 
0.0 0.0 0.0 
0.0 0.0 0.0 
0.0 0.0 0.0 
0.0 0.0 0.0 
0.0 0.0 0.0 
0.0 0.0 0.0 
0.0 0.0 0.0 
0.0 0.0 0.0 
0.0 0.0 0.0 
0.0 0.0 0.0 
0.0 0.0 0.0 
0.0 0.0 0.0 
0.0 0.0 0.0 
0.0 0.0 0.0 
0.0 0.0 0.0 
0.0 0.0 0.0 
0.0 0.0 0.0 
0.0 0.0 0.0 
0.0 0.0 0.0 
0.0 0.0 0.0 
0.0 0.0 0.0 
0.0 0.0 0.0 
0.0 0.0 0.0 
0.0 0.0 0.0 
0.0 0.0 0.0 
0.0 0.0 0.0 
0.0 0.0 0.0 
0.0 0.0 0.0 
0.0 0.0 0.0 
0.0 0.0 0.0 
0.0 0.0 0.0 
0.0 0.0 0.0 
0.0 0.0 0.0 
0.0 0.0 0.0 
0.0 0.0 0.0 
0.0 0.0 0.0 
0.0 0.0 0.0 
0.0 0.0 0.0 
0.0 0.0 0.0 
0.0 0.0 0.0 
0.0 0.0 0.0 
0.0 0.0 0.0 
0.0 0.0 0.0 
0.0 0.0 0.0 
0.0 0.0 0.0 
0.0 0.0 0.0 
0.0 0.0 0.0 
0.0 0.0 0.0 
0.0 0.0 0.0 
0.0 0.0 0.0 
0.0 0.0 0.0 
0.0 0.0 0.0 
0.0 0.0 0.0 
0.0 0.0 0.0 
0.0 0.0 0.0 
0.0 0.0 0.0 
0.0 0.0 0.0 
0.0 0.0 0.0 
0.0 0.0 0.0 
0.0 0.0 0.0 
0.0 0.0 0.0 
0.0 0.0 0.0 
0.0 0.0 0.0 
0.0 0.0 0.0 
0.0 0.0 0.0 
0.0 0.0 0.0 
0.0 0.0 0.0 
0.0 0.0 0.0 
0.0 0.0 0.0 
0.0 0.0 0.0 
0.0 0.0 0.0 
0.0 0.0 0.0 
0.0 0.0 0.0 
0.0 0.0 0.0 
0.0 0.0 0.0 
0.0 0.0 0.0 
0.0 0.0 0.0 
0.0 0.0 0.0 
0.0 0.0 0.0 
0.0 0.0 0.0 
0.0 0.0 0.0 
0.0 0.0 0.0 
0.0 0.0 0.0 
0.0 0.0 0.0 
0.0 0.0 0.0 
0.0 0.0 0.0 
0.0 0.0 0.0 
0.0 0.0 0.0 
0.0 0.0 0.0 
0.0 0.0 0.0 
0.0 0.0 0.0 
0.0 0.0 0.0 
0.0 0.0 0.0 
0.0 0.0 0.0 
0.0 0.0 0.0 
0.0 0.0 0.0 
0.0 0.0 0.0 
0.0 0.0 0.0 
0.0 0.0 0.0 
0.0 0.0 0.0 
0.0 0.0 0.0 
0.0 0.0 0.0 
0.0 0.0 0.0 
0.0 0.0 0.0 
0.0 0.0 0.0 
0.0 0.0 0.0 
0.0 0.0 0.0 
0.0 0.0 0.0 
0.0 0.0 0.0 
0.0 0.0 0.0 
0.0 0.0 0.0 
0.0 0.0 0.0 
0.0 0.0 0.0 
0.0 0.0 0.0 
0.0 0.0 0.0 
0.0 0.0 0.0 
0.0 0.0 0.0 
0.0 0.0 0.0 
0.0 0.0 0.0 
0.0 0.0 0.0 
0.0 0.0 0.0 
0.0 0.0 0.0 
0.0 0.0 0.0 
0.0 0.0 0.0 
0.0 0.0 0.0 
0.0 0.0 0.0 
0.0 0.0 0.0 
0.0 0.0 0.0 
0.0 0.0 0.0 
0.0 0.0 0.0 
0.0 0.0 0.0 
0.0 0.0 0.0 
0.0 0.0 0.0 
0.0 0.0 0.0 
0.0 0.0 0.0 
0.0 0.0 0.0 
0.0 0.0 0.0 
0.0 0.0 0.0 
0.0 0.0 0.0 
0.0 0.0 0.0 
0.0 0.0 0.0 
0.0 0.0 0.0 
0.0 0.0 0.0 
0.0 0.0 0.0 
0.0 0.0 0.0 
0.0 0.0 0.0 
0.0 0.0 0.0 
0.0 0.0 0.0 
0.0 0.0 0.0 
0.0 0.0 0.0 
0.0 0.0 0.0 
0.0 0.0 0.0 
0.0 0.0 0.0 
0.0 0.0 0.0 
0.0 0.0 0.0 
0.0 0.0 0.0 
0.0 0.0 0.0 
0.0 0.0 0.0 
0.0 0.0 0.0 
0.0 0.0 0.0 
0.0 0.0 0.0 
0.0 0.0 0.0 
0.0 0.0 0.0 
0.0 0.0 0.0 
0.0 0.0 0.0 
0.0 0.0 0.0 
0.0 0.0 0.0 
0.0 0.0 0.0 
0.0 0.0 0.0 
0.0 0.0 0.0 
0.0 0.0 0.0 
0.0 0.0 0.0 
0.0 0.0 0.0 
0.0 0.0 0.0 
0.0 0.0 0.0 
0.0 0.0 0.0 
0.0 0.0 0.0 
0.0 0.0 0.0 
0.0 0.0 0.0 
0.0 0.0 0.0 
0.0 0.0 0.0 
0.0 0.0 0.0 
0.0 0.0 0.0 
0.0 0.0 0.0 
0.0 0.0 0.0 
0.0 0.0 0.0 
0.0 0.0 0.0 
0.0 0.0 0.0 
0.0 0.0 0.0 
0.0 0.0 0.0 
0.0 0.0 0.0 
0.0 0.0 0.0 
0.0 0.0 0.0 
0.0 0.0 0.0 
0.0 0.0 0.0 
0.0 0.0 0.0 
0.0 0.0 0.0 
0.0 0.0 0.0 
0.0 0.0 0.0 
0.0 0.0 0.0 
0.0 0.0 0.0 
0.0 0.0 0.0 
0.0 0.0 0.0 
0.0 0.0 0.0 
0.0 0.0 0.0 
0.0 0.0 0.0 
0.0 0.0 0.0 
0.0 0.0 0.0 
0.0 0.0 0.0 
0.0 0.0 0.0 
0.0 0.0 0.0 
0.0 0.0 0.0 
0.0 0.0 0.0 
0.0 0.0 0.0 
0.0 0.0 0.0 
0.0 0.0 0.0 
0.0 0.0 0.0 
0.0 0.0 0.0 
0.0 0.0 0.0 
0.0 0.0 0.0 
0.0 0.0 0.0 
0.0 0.0 0.0 
0.0 0.0 0.0 
0.0 0.0 0.0 
0.0 0.0 0.0 
0.0 0.0 0.0 
0.0 0.0 0.0 
0.0 0.0 0.0 
0.0 0.0 0.0 
0.0 0.0 0.0 
0.0 0.0 0.0 
0.0 0.0 0.0 
0.0 0.0 0.0 
0.0 0.0 0.0 
0.0 0.0 0.0 
0.0 0.0 0.0 
0.0 0.0 0.0 
0.0 0.0 0.0 
0.0 0.0 0.0 
0.0 0.0 0.0 
0.0 0.0 0.0 
0.0 0.0 0.0 
0.0 0.0 0.0 
0.0 0.0 0.0 
0.0 0.0 0.0 
0.0 0.0 0.0 
0.0 0.0 0.0 
0.0 0.0 0.0 
0.0 0.0 0.0 
0.0 0.0 0.0 
0.0 0.0 0.0 
0.0 0.0 0.0 
0.0 0.0 0.0 
0.0 0.0 0.0 
0.0 0.0 0.0 
0.0 0.0 0.0 
0.0 0.0 0.0 
0.0 0.0 0.0 
0.0 0.0 0.0 
0.0 0.0 0.0 
0.0 0.0 0.0 
0.0 0.0 0.0 
0.0 0.0 0.0 
0.0 0.0 0.0 
0.0 0.0 0.0 
0.0 0.0 0.0 
0.0 0.0 0.0 
0.0 0.0 0.0 
0.0 0.0 0.0 
0.0 0.0 0.0 
0.0 0.0 0.0 
0.0 0.0 0.0 
0.0 0.0 0.0 
0.0 0.0 0.0 
0.0 0.0 0.0 
0.0 0.0 0.0 
0.0 0.0 0.0 
0.0 0.0 0.0 
0.0 0.0 0.0 
0.0 0.0 0.0 
0.0 0.0 0.0 
0.0 0.0 0.0 
0.0 0.0 0.0 
0.0 0.0 0.0 
0.0 0.0 0.0 
0.0 0.0 0.0 
0.0 0.0 0.0 
0.0 0.0 0.0 
0.0 0.0 0.0 
0.0 0.0 0.0 
0.0 0.0 0.0 
0.0 0.0 0.0 
0.0 0.0 0.0 
0.0 0.0 0.0 
0.0 0.0 0.0 
0.0 0.0 0.0 
0.0 0.0 0.0 
0.0 0.0 0.0 
0.0 0.0 0.0 
0.0 0.0 0.0 
0.0 0.0 0.0 
0.0 0.0 0.0 
0.0 0.0 0.0 
0.0 0.0 0.0 
0.0 0.0 0.0 
0.0 0.0 0.0 
0.0 0.0 0.0 
0.0 0.0 0.0 
0.0 0.0 0.0 
0.0 0.0 0.0 
0.0 0.0 0.0 
0.0 0.0 0.0 
0.0 0.0 0.0 
0.0 0.0 0.0 
0.0 0.0 0.0 
0.0 0.0 0.0 
0.0 0.0 0.0 
0.0 0.0 0.0 
0.0 0.0 0.0 
0.0 0.0 0.0 
0.0 0.0 0.0 
0.0 0.0 0.0 
0.0 0.0 0.0 
0.0 0.0 0.0 
0.0 0.0 0.0 
0.0 0.0 0.0 
0.0 0.0 0.0 
0.0 0.0 0.0 
0.0 0.0 0.0 
0.0 0.0 0.0 
0.0 0.0 0.0 
0.0 0.0 0.0 
0.0 0.0 0.0 
0.0 0.0 0.0 
0.0 0.0 0.0 
0.0 0.0 0.0 
0.0 0.0 0.0 
0.0 0.0 0.0 
0.0 0.0 0.0 
0.0 0.0 0.0 
0.0 0.0 0.0 
0.0 0.0 0.0 
0.0 0.0 0.0 
0.0 0.0 0.0 
0.0 0.0 0.0 
0.0 0.0 0.0 
0.0 0.0 0.0 
0.0 0.0 0.0 
0.0 0.0 0.0 
0.0 0.0 0.0 
0.0 0.0 0.0 
0.0 0.0 0.0 
0.0 0.0 0.0 
0.0 0.0 0.0 
0.0 0.0 0.0 
0.0 0.0 0.0 
0.0 0.0 0.0 
0.0 0.0 0.0 
0.0 0.0 0.0 
0.0 0.0 0.0 
0.0 0.0 0.0 
0.0 0.0 0.0 
0.0 0.0 0.0 
0.0 0.0 0.0 
0.0 0.0 0.0 
0.0 0.0 0.0 
0.0 0.0 0.0 
0.0 0.0 0.0 
0.0 0.0 0.0 
0.0 0.0 0.0 
0.0 0.0 0.0 
0.0 0.0 0.0 
0.0 0.0 0.0 
0.0 0.0 0.0 
0.0 0.0 0.0 
0.0 0.0 0.0 
0.0 0.0 0.0 
0.0 0.0 0.0 
0.0 0.0 0.0 
0.0 0.0 0.0 
0.0 0.0 0.0 
0.0 0.0 0.0 
0.0 0.0 0.0 
0.0 0.0 0.0 
0.0 0.0 0.0 
0.0 0.0 0.0 
0.0 0.0 0.0 
0.0 0.0 0.0 
0.0 0.0 0.0 
0.0 0.0 0.0 
0.0 0.0 0.0 
0.0 0.0 0.0 
0.0 0.0 0.0 
0.0 0.0 0.0 
0.0 0.0 0.0 
0.0 0.0 0.0 
0.0 0.0 0.0 
0.0 0.0 0.0 
0.0 0.0 0.0 
0.0 0.0 0.0 
0.0 0.0 0.0 
0.0 0.0 0.0 
0.0 0.0 0.0 
0.0 0.0 0.0 
0.0 0.0 0.0 
0.0 0.0 0.0 
0.0 0.0 0.0 
0.0 0.0 0.0 
0.0 0.0 0.0 
0.0 0.0 0.0 
0.0 0.0 0.0 
0.0 0.0 0.0 
0.0 0.0 0.0 
0.0 0.0 0.0 
0.0 0.0 0.0 
0.0 0.0 0.0 
0.0 0.0 0.0 
0.0 0.0 0.0 
0.0 0.0 0.0 
0.0 0.0 0.0 
0.0 0.0 0.0 
0.0 0.0 0.0 
0.0 0.0 0.0 
0.0 0.0 0.0 
0.0 0.0 0.0 
0.0 0.0 0.0 
0.0 0.0 0.0 
0.0 0.0 0.0 
0.0 0.0 0.0 
0.0 0.0 0.0 
0.0 0.0 0.0 
0.0 0.0 0.0 
0.0 0.0 0.0 
0.0 0.0 0.0 
0.0 0.0 0.0 
0.0 0.0 0.0 
0.0 0.0 0.0 
0.0 0.0 0.0 
0.0 0.0 0.0 
0.0 0.0 0.0 
0.0 0.0 0.0 
0.0 0.0 0.0 
0.0 0.0 0.0 
0.0 0.0 0.0 
0.0 0.0 0.0 
0.0 0.0 0.0 
0.0 0.0 0.0 
0.0 0.0 0.0 
0.0 0.0 0.0 
0.0 0.0 0.0 
0.0 0.0 0.0 
0.0 0.0 0.0 
0.0 0.0 0.0 
0.0 0.0 0.0 
0.0 0.0 0.0 
0.0 0.0 0.0 
0.0 0.0 0.0 
0.0 0.0 0.0 
0.0 0.0 0.0 
0.0 0.0 0.0 
0.0 0.0 0.0 
0.0 0.0 0.0 
0.0 0.0 0.0 
0.0 0.0 0.0 
0.0 0.0 0.0 
0.0 0.0 0.0 
0.0 0.0 0.0 
0.0 0.0 0.0 
0.0 0.0 0.0 
0.0 0.0 0.0 
0.0 0.0 0.0 
0.0 0.0 0.0 
0.0 0.0 0.0 
0.0 0.0 0.0 
0.0 0.0 0.0 
0.0 0.0 0.0 
0.0 0.0 0.0 
0.0 0.0 0.0 
0.0 0.0 0.0 
0.0 0.0 0.0 
0.0 0.0 0.0 
0.0 0.0 0.0 
0.0 0.0 0.0 
0.0 0.0 0.0 
0.0 0.0 0.0 
0.0 0.0 0.0 
0.0 0.0 0.0 
0.0 0.0 0.0 
0.0 0.0 0.0 
0.0 0.0 0.0 
0.0 0.0 0.0 
0.0 0.0 0.0 
0.0 0.0 0.0 
0.0 0.0 0.0 
0.0 0.0 0.0 
0.0 0.0 0.0 
0.0 0.0 0.0 
0.0 0.0 0.0 
0.0 0.0 0.0 
0.0 0.0 0.0 
0.0 0.0 0.0 
0.0 0.0 0.0 
0.0 0.0 0.0 
0.0 0.0 0.0 
0.0 0.0 0.0 
0.0 0.0 0.0 
0.0 0.0 0.0 
0.0 0.0 0.0 
0.0 0.0 0.0 
0.0 0.0 0.0 
0.0 0.0 0.0 
0.0 0.0 0.0 
0.0 0.0 0.0 
0.0 0.0 0.0 
0.0 0.0 0.0 
0.0 0.0 0.0 
0.0 0.0 0.0 
0.0 0.0 0.0 
0.0 0.0 0.0 
0.0 0.0 0.0 
0.0 0.0 0.0 
0.0 0.0 0.0 
0.0 0.0 0.0 
0.0 0.0 0.0 
0.0 0.0 0.0 
0.0 0.0 0.0 
0.0 0.0 0.0 
0.0 0.0 0.0 
0.0 0.0 0.0 
0.0 0.0 0.0 
0.0 0.0 0.0 
0.0 0.0 0.0 
0.0 0.0 0.0 
0.0 0.0 0.0 
0.0 0.0 0.0 
0.0 0.0 0.0 
0.0 0.0 0.0 
0.0 0.0 0.0 
0.0 0.0 0.0 
0.0 0.0 0.0 
0.0 0.0 0.0 
0.0 0.0 0.0 
0.0 0.0 0.0 
0.0 0.0 0.0 
0.0 0.0 0.0 
0.0 0.0 0.0 
0.0 0.0 0.0 
0.0 0.0 0.0 
0.0 0.0 0.0 
0.0 0.0 0.0 
0.0 0.0 0.0 
0.0 0.0 0.0 
0.0 0.0 0.0 
0.0 0.0 0.0 
0.0 0.0 0.0 
0.0 0.0 0.0 
0.0 0.0 0.0 
0.0 0.0 0.0 
0.0 0.0 0.0 
0.0 0.0 0.0 
0.0 0.0 0.0 
0.0 0.0 0.0 
0.0 0.0 0.0 
0.0 0.0 0.0 
0.0 0.0 0.0 
0.0 0.0 0.0 
0.0 0.0 0.0 
0.0 0.0 0.0 
0.0 0.0 0.0 
0.0 0.0 0.0 
0.0 0.0 0.0 
0.0 0.0 0.0 
0.0 0.0 0.0 
0.0 0.0 0.0 
0.0 0.0 0.0 
0.0 0.0 0.0 
0.0 0.0 0.0 
0.0 0.0 0.0 
0.0 0.0 0.0 
0.0 0.0 0.0 
0.0 0.0 0.0 
0.0 0.0 0.0 
0.0 0.0 0.0 
0.0 0.0 0.0 
0.0 0.0 0.0 
0.0 0.0 0.0 
0.0 0.0 0.0 
0.0 0.0 0.0 
0.0 0.0 0.0 
0.0 0.0 0.0 
0.0 0.0 0.0 
0.0 0.0 0.0 
0.0 0.0 0.0 
0.0 0.0 0.0 
0.0 0.0 0.0 
0.0 0.0 0.0 
0.0 0.0 0.0 
0.0 0.0 0.0 
0.0 0.0 0.0 
0.0 0.0 0.0 
0.0 0.0 0.0 
0.0 0.0 0.0 
0.0 0.0 0.0 
0.0 0.0 0.0 
0.0 0.0 0.0 
0.0 0.0 0.0 
0.0 0.0 0.0 
0.0 0.0 0.0 
0.0 0.0 0.0 
0.0 0.0 0.0 
0.0 0.0 0.0 
0.0 0.0 0.0 
0.0 0.0 0.0 
0.0 0.0 0.0 
0.0 0.0 0.0 
0.0 0.0 0.0 
0.0 0.0 0.0 
0.0 0.0 0.0 
0.0 0.0 0.0 
0.0 0.0 0.0 
0.0 0.0 0.0 
0.0 0.0 0.0 
0.0 0.0 0.0 
0.0 0.0 0.0 
0.0 0.0 0.0 
0.0 0.0 0.0 
0.0 0.0 0.0 
0.0 0.0 0.0 
0.0 0.0 0.0 
0.0 0.0 0.0 
0.0 0.0 0.0 
0.0 0.0 0.0 
0.0 0.0 0.0 
0.0 0.0 0.0 
0.0 0.0 0.0 
0.0 0.0 0.0 
0.0 0.0 0.0 
0.0 0.0 0.0 
0.0 0.0 0.0 
0.0 0.0 0.0 
0.0 0.0 0.0 
0.0 0.0 0.0 
0.0 0.0 0.0 
0.0 0.0 0.0 
0.0 0.0 0.0 
0.0 0.0 0.0 
0.0 0.0 0.0 

TENSORS element_materi_stress float
-4.405931500194e+01 2.967899308586e+01 0.0 
2.967899308586e+01 -4.751325843024e+01 0.0 
0.0 0.0 -2.313181209452e+01 
-4.554503021560e+01 2.856819973758e+01 0.0 
2.856819973758e+01 -4.979861166465e+01 0.0 
0.0 0.0 -2.565914293950e+01 
-1.230669819609e+02 2.303962566343e+01 0.0 
2.303962566343e+01 -2.785923003781e+02 0.0 
0.0 0.0 -1.200977847017e+02 
-1.105601416227e+02 3.126249652776e+00 0.0 
3.126249652776e+00 -2.487734240910e+02 0.0 
0.0 0.0 -1.074000697141e+02 
-6.344813698363e+01 1.023170161347e+00 0.0 
1.023170161347e+00 -1.093162510823e+02 0.0 
0.0 0.0 -5.142931641979e+01 
-3.866046609659e+01 3.006612430951e+01 0.0 
3.006612430951e+01 -9.370694696564e+01 0.0 
0.0 0.0 -4.049451639273e+01 
-6.242724887105e+01 2.636134705574e-01 0.0 
2.636134705574e-01 -1.093636635122e+02 0.0 
0.0 0.0 -5.113727371496e+01 
-4.609297331350e+01 3.124007539423e+01 0.0 
3.124007539423e+01 -5.348122420462e+01 0.0 
0.0 0.0 -2.604438449317e+01 
-6.369654187295e+01 2.734581226405e+00 0.0 
2.734581226405e+00 -1.102817386749e+02 0.0 
0.0 0.0 -5.179348416437e+01 
-1.098836421318e+02 2.971166620454e+00 0.0 
2.971166620454e+00 -2.471305026357e+02 0.0 
0.0 0.0 -1.067042434303e+02 
-1.128894835853e+02 -1.191889872377e+00 0.0 
-1.191889872377e+00 -2.598969076763e+02 0.0 
0.0 0.0 -1.086560025563e+02 
-4.006753513381e+01 2.801334757737e+01 0.0 
2.801334757737e+01 -4.238921810825e+01 0.0 
0.0 0.0 -2.189781832666e+01 
-1.562208375315e+02 9.741798773955e-03 0.0 
9.741798773955e-03 -3.717809781534e+02 0.0 
0.0 0.0 -1.580005447055e+02 
-7.417523249499e+01 4.526855266810e+00 0.0 
4.526855266810e+00 -1.281710679961e+02 0.0 
0.0 0.0 -6.030389014734e+01 
-1.606862714085e+02 2.042752554903e+00 0.0 
2.042752554903e+00 -3.798284256271e+02 0.0 
0.0 0.0 -1.617544091107e+02 
-1.121121586217e+02 2.313197741140e+00 0.0 
2.313197741140e+00 -2.569948474690e+02 0.0 
0.0 0.0 -1.103321018272e+02 
-6.378593200156e+01 2.747399102469e+00 0.0 
2.747399102469e+00 -1.057833796171e+02 0.0 
0.0 0.0 -5.047079348560e+01 
-2.982061700121e+01 1.927136704160e+01 0.0 
1.927136704160e+01 -1.100944652370e+02 0.0 
0.0 0.0 -4.431388145771e+01 
-2.133033564281e+01 -4.728635576229e-01 0.0 
-4.728635576229e-01 -7.735818310253e+01 0.0 
0.0 0.0 -2.920655562360e+01 
-3.123222672582e+01 -1.868465914462e+00 0.0 
-1.868465914462e+00 -7.998925977306e+01 0.0 
0.0 0.0 -3.078633598506e+01 
-1.114478377336e+02 5.112911253076e+00 0.0 
5.112911253076e+00 -2.483082529554e+02 0.0 
0.0 0.0 -1.075268272067e+02 
-4.685924097493e+01 2.356640367506e+01 0.0 
2.356640367506e+01 -4.753837623384e+01 0.0 
0.0 0.0 -2.357546405841e+01 
-5.194796036837e+01 2.616106640244e+01 0.0 
2.616106640244e+01 -5.371894311906e+01 0.0 
0.0 0.0 -2.651184423667e+01 
-1.400518317292e+02 1.416057456529e+01 0.0 
1.416057456529e+01 -3.495084813359e+02 0.0 
0.0 0.0 -1.464680939195e+02 
-8.333317372053e+01 7.691096181845e+00 0.0 
7.691096181845e+00 -1.485175395580e+02 0.0 
0.0 0.0 -6.915521398356e+01 
-1.176647700547e+02 5.203544583271e-02 0.0 
5.203544583271e-02 -2.736774988264e+02 0.0 
0.0 0.0 -1.145713953687e+02 
-6.170984812466e+01 6.124974630056e+00 0.0 
6.124974630056e+00 -9.138245376732e+01 0.0 
0.0 0.0 -4.552769056759e+01 
-1.357167068400e+02 2.820267770829e+01 0.0 
2.820267770829e+01 -3.240749744643e+02 0.0 
0.0 0.0 -1.375375043913e+02 
-8.616042729671e+01 1.083403927164e+01 0.0 
1.083403927164e+01 -1.501113608089e+02 0.0 
0.0 0.0 -7.048153643169e+01 
-1.442974375223e+02 1.249132895617e+01 0.0 
1.249132895617e+01 -3.581517355976e+02 0.0 
0.0 0.0 -1.503347519360e+02 
-4.100551256006e+01 -2.263376292071e+01 0.0 
-2.263376292071e+01 -9.876363597382e+01 0.0 
0.0 0.0 -3.835439398245e+01 
-1.569117049899e+01 -4.931672176091e-02 0.0 
-4.931672176091e-02 -2.495230642676e+01 0.0 
0.0 0.0 -1.179304307772e+01 
-1.252250374234e+02 2.317022743579e+01 0.0 
2.317022743579e+01 -2.787820120239e+02 0.0 
0.0 0.0 -1.208021148342e+02 
-1.323741348671e+02 9.478712230731e-01 0.0 
9.478712230731e-01 -3.226534166949e+02 0.0 
0.0 0.0 -1.361082654686e+02 
-1.532528687875e+02 7.557802257782e+00 0.0 
7.557802257782e+00 -3.700916929256e+02 0.0 
0.0 0.0 -1.566033685139e+02 
-1.634364767893e+02 2.562207165718e+00 0.0 
2.562207165718e+00 -3.879546265812e+02 0.0 
0.0 0.0 -1.650173310112e+02 
-1.640556238616e+02 5.313510195466e+00 0.0 
5.313510195466e+00 -3.879770142006e+02 0.0 
0.0 0.0 -1.652097914187e+02 
-1.426511032506e+02 2.036015713657e+01 0.0 
2.036015713657e+01 -3.493614346564e+02 0.0 
0.0 0.0 -1.472037613721e+02 
-5.467171301718e+01 1.908080393285e+00 0.0 
1.908080393285e+00 -9.059533636557e+01 0.0 
0.0 0.0 -4.318011481483e+01 
-5.419848500862e+01 -8.708222935524e-01 0.0 
-8.708222935524e-01 -9.104750894280e+01 0.0 
0.0 0.0 -4.317379818543e+01 
-5.810754195837e+01 2.010344895053e+01 0.0 
2.010344895053e+01 -6.179819308056e+01 0.0 
0.0 0.0 -3.110185794333e+01 
-1.560215936676e+02 9.077034672726e+00 0.0 
9.077034672726e+00 -3.736719372971e+02 0.0 
0.0 0.0 -1.585080592894e+02 
-4.240703021705e+01 3.048307508484e+01 0.0 
3.048307508484e+01 -4.728058642931e+01 0.0 
0.0 0.0 -2.371082090704e+01 
-6.428916910908e+01 5.956903512388e+00 0.0 
5.956903512388e+00 -9.192113126532e+01 0.0 
0.0 0.0 -4.615252030574e+01 
-1.071279071994e+02 1.265597975847e+00 0.0 
1.265597975847e+00 -2.371929678530e+02 0.0 
0.0 0.0 -1.028962625157e+02 
-4.428160004066e+01 3.000140611670e+01 0.0 
3.000140611670e+01 -4.840780796507e+01 0.0 
0.0 0.0 -2.432466517050e+01 
-3.774393863738e+01 -2.499930207801e+01 0.0 
-2.499930207801e+01 -9.526715132630e+01 0.0 
0.0 0.0 -3.907187929118e+01 
-1.060395678744e+02 1.081908596958e+00 0.0 
1.081908596958e+00 -2.383668154772e+02 0.0 
0.0 0.0 -1.029219150055e+02 
-3.642854040401e+01 -2.683095026994e+01 0.0 
-2.683095026994e+01 -5.760073716746e+01 0.0 
0.0 0.0 -2.854756402194e+01 
-7.203708950842e+01 5.393085890501e+00 0.0 
5.393085890501e+00 -1.194693564088e+02 0.0 
0.0 0.0 -5.705193377518e+01 
-5.540777535828e+01 2.322019175655e+01 0.0 
2.322019175655e+01 -5.793872868839e+01 0.0 
0.0 0.0 -2.782044862579e+01 
-3.516151530569e+01 -7.078807016419e-01 0.0 
-7.078807016419e-01 -9.756600042259e+01 0.0 
0.0 0.0 -3.835759357502e+01 
-4.338481964420e+01 -1.674096860219e+01 0.0 
-1.674096860219e+01 -1.254583835401e+02 0.0 
0.0 0.0 -4.613479840357e+01 
-5.069591750119e+01 1.637090731164e+01 0.0 
1.637090731164e+01 -5.099452846228e+01 0.0 
0.0 0.0 -2.535682200353e+01 
-1.189196381430e+02 1.807427144381e+01 0.0 
1.807427144381e+01 -2.677783668543e+02 0.0 
0.0 0.0 -1.156094014992e+02 
-5.915275878712e+01 -1.990219103091e+00 0.0 
-1.990219103091e+00 -1.305873887964e+02 0.0 
0.0 0.0 -5.259732839329e+01 
-4.531267684267e+01 -2.136448022900e+00 0.0 
-2.136448022900e+00 -1.008061369694e+02 0.0 
0.0 0.0 -4.005032628180e+01 
-1.318395380908e+02 -5.467304296564e-01 0.0 
-5.467304296564e-01 -3.224831674946e+02 0.0 
0.0 0.0 -1.358968116756e+02 
-1.829516159631e+01 -8.979635878937e-01 0.0 
-8.979635878937e-01 -5.944012639299e+01 0.0 
0.0 0.0 -2.152202853681e+01 
-1.128335321279e+02 4.225105579379e+00 0.0 
4.225105579379e+00 -2.573428633236e+02 0.0 
0.0 0.0 -1.106529186354e+02 
-6.277720974004e+01 -2.496933454763e+01 0.0 
-2.496933454763e+01 -9.380362997462e+01 0.0 
0.0 0.0 -4.800415219759e+01 
-1.290393407268e+02 2.358164441888e+01 0.0 
2.358164441888e+01 -3.185928830188e+02 0.0 
0.0 0.0 -1.338896671237e+02 
-5.618531318016e+01 3.204398569334e+01 0.0 
3.204398569334e+01 -1.075863006626e+02 0.0 
0.0 0.0 -4.682475290734e+01 
-3.872104200684e+01 -1.720216555005e+01 0.0 
-1.720216555005e+01 -1.123455562534e+02 0.0 
0.0 0.0 -3.833631034674e+01 
-1.559647262004e+02 2.515884288137e+00 0.0 
2.515884288137e+00 -3.715269297517e+02 0.0 
0.0 0.0 -1.578474967856e+02 
-4.839689011397e+01 1.956606788708e+01 0.0 
1.956606788708e+01 -4.657470126361e+01 0.0 
0.0 0.0 -2.291732426843e+01 
-4.717495852938e+01 -8.346970431909e+00 0.0 
-8.346970431909e+00 -1.194073346448e+02 0.0 
0.0 0.0 -5.120957483491e+01 
-1.272111262584e+02 2.499131496517e+01 0.0 
2.499131496517e+01 -2.824780146689e+02 0.0 
0.0 0.0 -1.225067422782e+02 
-4.139196290658e+01 -1.168685123549e+01 0.0 
-1.168685123549e+01 -7.136894303570e+01 0.0 
0.0 0.0 -2.822559360253e+01 
-1.302864309900e+02 2.692550900159e+01 0.0 
2.692550900159e+01 -3.020224023735e+02 0.0 
0.0 0.0 -1.292926500090e+02 
-1.204436593419e+02 2.694047878438e-01 0.0 
2.694047878438e-01 -2.845988980316e+02 0.0 
0.0 0.0 -1.192464050315e+02 
-1.174843247278e+02 1.201091366970e+01 0.0 
1.201091366970e+01 -2.754634243650e+02 0.0 
0.0 0.0 -1.174843247278e+02 
-1.301366016959e+02 2.598954091856e+01 0.0 
2.598954091856e+01 -3.098813752466e+02 0.0 
0.0 0.0 -1.316053930827e+02 
-1.030686230233e+01 -6.292624458030e-01 0.0 
-6.292624458030e-01 -2.990048564612e+01 0.0 
0.0 0.0 -9.287016186341e+00 
-6.529873743822e+01 -3.297432210095e+00 0.0 
-3.297432210095e+00 -1.355228121604e+02 0.0 
0.0 0.0 -5.483749126829e+01 
-1.142435090082e+02 9.715428134318e+00 0.0 
9.715428134318e+00 -2.534236529853e+02 0.0 
0.0 0.0 -1.099001485981e+02 
-1.231620231222e+02 1.958266836972e+01 0.0 
1.958266836972e+01 -2.712552838482e+02 0.0 
0.0 0.0 -1.179251920911e+02 
-4.479008358259e+01 3.142481027917e+01 0.0 
3.142481027917e+01 -4.953865580972e+01 0.0 
0.0 0.0 -2.423901209075e+01 
-1.917717020468e+01 -2.988724907648e+00 0.0 
-2.988724907648e+00 -5.880878903515e+01 0.0 
0.0 0.0 -2.148367023655e+01 
-4.416564653366e+01 3.167960949350e+01 0.0 
3.167960949350e+01 -4.938123642575e+01 0.0 
0.0 0.0 -2.375731983040e+01 
-4.278230967376e+01 -1.460575243101e+01 0.0 
-1.460575243101e+01 -7.228383348043e+01 0.0 
0.0 0.0 -2.895929396919e+01 
-6.325298984930e+01 2.334305095715e+00 0.0 
2.334305095715e+00 -1.049675828688e+02 0.0 
0.0 0.0 -5.006617181544e+01 
-5.083544895514e+01 2.825226494161e+01 0.0 
2.825226494161e+01 -5.282803325841e+01 0.0 
0.0 0.0 -2.661974317047e+01 
-4.470328956338e+01 2.629838996446e+01 0.0 
2.629838996446e+01 -4.246690646335e+01 0.0 
0.0 0.0 -2.286982774273e+01 
-6.862166204196e+01 3.266075326227e+00 0.0 
3.266075326227e+00 -1.208514794969e+02 0.0 
0.0 0.0 -5.644194246167e+01 
-6.700552667682e+01 1.095298872511e+00 0.0 
1.095298872511e+00 -1.201273456549e+02 0.0 
0.0 0.0 -5.573986169950e+01 
-1.229629173250e+02 6.461489349521e-01 0.0 
6.461489349521e-01 -2.928903324013e+02 0.0 
0.0 0.0 -1.229486311416e+02 
-1.283348377369e+02 -7.951912941018e-01 0.0 
-7.951912941018e-01 -3.141793699673e+02 0.0 
0.0 0.0 -1.323357959518e+02 
-1.097320746414e+02 2.316641832527e+01 0.0 
2.316641832527e+01 -2.262801246577e+02 0.0 
0.0 0.0 -1.004036597898e+02 
-6.466929275560e+01 3.461008219369e+00 0.0 
3.461008219369e+00 -1.090481830359e+02 0.0 
0.0 0.0 -5.171524273746e+01 
-1.824093787354e+01 -3.345586770834e+00 0.0 
-3.345586770834e+00 -2.663622342004e+01 0.0 
0.0 0.0 -1.244102010422e+01 
-7.037217443445e+01 7.392863297859e+00 0.0 
7.392863297859e+00 -1.098156751698e+02 0.0 
0.0 0.0 -5.365635488126e+01 
-9.017709877745e+01 1.514946153345e+00 0.0 
1.514946153345e+00 -1.891413392353e+02 0.0 
0.0 0.0 -8.339553140383e+01 
-9.011544464690e+01 9.884040303628e-01 0.0 
9.884040303628e-01 -1.857908501889e+02 0.0 
0.0 0.0 -8.237188845073e+01 
-1.226416043349e+02 1.325201821115e+01 0.0 
1.325201821115e+01 -2.784267329382e+02 0.0 
0.0 0.0 -1.199205011819e+02 
-1.487228688120e+02 2.334741085997e+01 0.0 
2.334741085997e+01 -3.552326094394e+02 0.0 
0.0 0.0 -1.507866434754e+02 
-6.469410192330e+01 3.505336781822e+00 0.0 
3.505336781822e+00 -1.049231479692e+02 0.0 
0.0 0.0 -5.048517496775e+01 
-1.526624557896e+02 8.697932662261e+00 0.0 
8.697932662261e+00 -3.727117403397e+02 0.0 
0.0 0.0 -1.572122588388e+02 
-7.274585491066e+01 9.413896076799e-01 0.0 
9.413896076799e-01 -1.398560129187e+02 0.0 
0.0 0.0 -6.338056034880e+01 
-5.345404412846e+01 3.107295691876e+01 0.0 
3.107295691876e+01 -8.959577674489e+01 0.0 
0.0 0.0 -3.899913164582e+01 
-6.039873870618e+01 2.323996643101e+00 0.0 
2.323996643101e+00 -1.002728681891e+02 0.0 
0.0 0.0 -4.780148206859e+01 
-1.601251900058e+02 6.778778387802e-01 0.0 
6.778778387802e-01 -3.794664522171e+02 0.0 
0.0 0.0 -1.614774926669e+02 
-1.052303422529e+02 2.226113014985e+01 0.0 
2.226113014985e+01 -2.770344702195e+02 0.0 
0.0 0.0 -1.142794437417e+02 
-1.307322454001e+02 2.511482468498e+01 0.0 
2.511482468498e+01 -3.196589466385e+02 0.0 
0.0 0.0 -1.347173576116e+02 
-4.878030853237e+01 3.185898624878e+01 0.0 
3.185898624878e+01 -1.060310258101e+02 0.0 
0.0 0.0 -4.361968657554e+01 
-5.152940017977e+01 -2.980634211005e+01 0.0 
-2.980634211005e+01 -7.796017182729e+01 0.0 
0.0 0.0 -3.659943072387e+01 
-1.464138808841e+02 1.502457746338e+00 0.0 
1.502457746338e+00 -3.518380949286e+02 0.0 
0.0 0.0 -1.490755927438e+02 
-9.677859437781e+01 1.383727713499e+00 0.0 
1.383727713499e+00 -2.052903312783e+02 0.0 
0.0 0.0 -9.022067769684e+01 
-5.529022905294e+01 -3.742433206158e+01 0.0 
-3.742433206158e+01 -7.184418322386e+01 0.0 
0.0 0.0 -3.929752105502e+01 
-1.597130583907e+02 3.346312123177e+00 0.0 
3.346312123177e+00 -3.776238874784e+02 0.0 
0.0 0.0 -1.608010837607e+02 
-1.045031646553e+02 2.111154665783e+01 0.0 
2.111154665783e+01 -2.168108348334e+02 0.0 
0.0 0.0 -9.599419984662e+01 
-1.059901673637e+01 4.536852912557e-02 0.0 
4.536852912557e-02 -2.153948679013e+01 0.0 
0.0 0.0 -7.476066221093e+00 
-6.268322656164e+01 3.002210037803e+01 0.0 
3.002210037803e+01 -1.589481042284e+02 0.0 
0.0 0.0 -6.697342487396e+01 
-6.916641656586e+01 1.208021325776e+01 0.0 
1.208021325776e+01 -9.420061813411e+01 0.0 
0.0 0.0 -4.746978439796e+01 
-8.001282877279e+01 -3.490940287037e+00 0.0 
-3.490940287037e+00 -1.667121688119e+02 0.0 
0.0 0.0 -6.789407493572e+01 
-5.022274463064e+01 3.207799561053e+01 0.0 
3.207799561053e+01 -8.634458905823e+01 0.0 
0.0 0.0 -3.897182640787e+01 
-5.543961785417e+01 3.128575445725e+01 0.0 
3.128575445725e+01 -1.073504656585e+02 0.0 
0.0 0.0 -4.596958883626e+01 
-1.573086748779e+02 5.701653759949e+00 0.0 
5.701653759949e+00 -3.767729085753e+02 0.0 
0.0 0.0 -1.598244750360e+02 
-7.054366099592e+01 -2.656500035859e-01 0.0 
-2.656500035859e-01 -1.332066880017e+02 0.0 
0.0 0.0 -6.072510469928e+01 
-5.253753892115e+01 3.328493946154e+01 0.0 
3.328493946154e+01 -1.065908041628e+02 0.0 
0.0 0.0 -4.583793585952e+01 
-3.284993539468e+01 -6.091161098811e+00 0.0 
-6.091161098811e+00 -6.303823641840e+01 0.0 
0.0 0.0 -2.378225102801e+01 
-7.095330494501e+01 7.757328457551e+00 0.0 
7.757328457551e+00 -1.108161204670e+02 0.0 
0.0 0.0 -5.413082762360e+01 
-9.628468723085e+01 1.694511267386e+00 0.0 
1.694511267386e+00 -2.065590703002e+02 0.0 
0.0 0.0 -9.045312725931e+01 
-5.201889030597e+01 3.151464602354e+01 0.0 
3.151464602354e+01 -1.062340740691e+02 0.0 
0.0 0.0 -4.510128258617e+01 
-4.679451962649e+01 3.542458473158e+01 0.0 
3.542458473158e+01 -5.429938263585e+01 0.0 
0.0 0.0 -2.757175021204e+01 
-6.446712627988e+01 1.502829154384e+01 0.0 
1.502829154384e+01 -7.752771215177e+01 0.0 
0.0 0.0 -3.955452076204e+01 
-7.694341848800e+01 -3.800882131356e+00 0.0 
-3.800882131356e+00 -1.644922435384e+02 0.0 
0.0 0.0 -6.692663788193e+01 
-5.651905034152e+01 1.132415717567e+01 0.0 
1.132415717567e+01 -6.499639696225e+01 0.0 
0.0 0.0 -3.313570655306e+01 
-1.150985819962e+02 9.418526641193e+00 0.0 
9.418526641193e+00 -2.620003425087e+02 0.0 
0.0 0.0 -1.127296773515e+02 
-4.520246139141e+01 3.490093177172e+01 0.0 
3.490093177172e+01 -7.660688527187e+01 0.0 
0.0 0.0 -3.157643929772e+01 
-1.156539429447e+02 -1.281152142436e+00 0.0 
-1.281152142436e+00 -2.723516684007e+02 0.0 
0.0 0.0 -1.139209094759e+02 
-1.099045894069e+02 1.262058384854e+00 0.0 
1.262058384854e+00 -2.485718380646e+02 0.0 
0.0 0.0 -1.071429282415e+02 
-6.919300016937e+01 2.684104685189e+01 0.0 
2.684104685189e+01 -1.145936517361e+02 0.0 
0.0 0.0 -5.016604362990e+01 
-6.177312551351e+01 1.709284158057e+01 0.0 
1.709284158057e+01 -6.975793621469e+01 0.0 
0.0 0.0 -3.558242477707e+01 
-1.517584302422e+02 6.111354669903e+00 0.0 
6.111354669903e+00 -3.694928704978e+02 0.0 
0.0 0.0 -1.559753902220e+02 
-1.566923540759e+02 1.820616257193e+00 0.0 
1.820616257193e+00 -3.724751574023e+02 0.0 
0.0 0.0 -1.583502534435e+02 
-1.214475692048e+02 -8.140608322034e-01 0.0 
-8.140608322034e-01 -2.927252216951e+02 0.0 
0.0 0.0 -1.227464151770e+02 
-7.059613857819e+01 2.748912003948e+01 0.0 
2.748912003948e+01 -1.176433044120e+02 0.0 
0.0 0.0 -5.228330032948e+01 
-1.506243040317e+02 1.272426981446e+01 0.0 
1.272426981446e+01 -3.698012586020e+02 0.0 
0.0 0.0 -1.557276687901e+02 
-6.571103173613e+01 2.390367463316e+01 0.0 
2.390367463316e+01 -9.610539691062e+01 0.0 
0.0 0.0 -4.305466797277e+01 
-1.124234997332e+02 6.857648780365e+00 0.0 
6.857648780365e+00 -2.552993757875e+02 0.0 
0.0 0.0 -1.099168626562e+02 
-1.306080877537e+02 2.780410613253e+01 0.0 
2.780410613253e+01 -3.006148418590e+02 0.0 
0.0 0.0 -1.289668788838e+02 
-7.586449371886e+01 7.139812881193e+00 0.0 
7.139812881193e+00 -1.281358115224e+02 0.0 
0.0 0.0 -6.080009157238e+01 
-8.259290086252e+01 1.194921433615e+00 0.0 
1.194921433615e+00 -1.644977408038e+02 0.0 
0.0 0.0 -7.372719249988e+01 
-6.407637465411e+01 2.761239616006e+01 0.0 
2.761239616006e+01 -9.574183793340e+01 0.0 
0.0 0.0 -4.251700985620e+01 
-5.409813782495e+01 1.327759628144e+01 0.0 
1.327759628144e+01 -5.802034969524e+01 0.0 
0.0 0.0 -2.938339028862e+01 
-7.552260025316e+01 2.680011019099e+01 0.0 
2.680011019099e+01 -1.352594831176e+02 0.0 
0.0 0.0 -5.850602419713e+01 
-5.232910658147e+01 3.118462965125e+01 0.0 
3.118462965125e+01 -1.244881179521e+02 0.0 
0.0 0.0 -5.060858457034e+01 
-6.016069415812e+01 1.889776042009e+00 0.0 
1.889776042009e+00 -1.029388442031e+02 0.0 
0.0 0.0 -4.852986150838e+01 
-5.858638078541e+01 2.761632802349e+01 0.0 
2.761632802349e+01 -1.557358135612e+02 0.0 
0.0 0.0 -6.322174702591e+01 
-1.305632544009e+01 -9.263437371231e-01 0.0 
-9.263437371231e-01 -2.566515159446e+01 0.0 
0.0 0.0 -1.040175290737e+01 
-6.450111323980e+01 4.156733195344e-01 0.0 
4.156733195344e-01 -1.178652724371e+02 0.0 
0.0 0.0 -5.430991570307e+01 
-1.598593487811e+01 -1.032680613724e+00 0.0 
-1.032680613724e+00 -5.987218705496e+01 0.0 
0.0 0.0 -2.171293072399e+01 
-6.688712801260e+01 1.340242840918e+01 0.0 
1.340242840918e+01 -8.608363312987e+01 0.0 
0.0 0.0 -4.362586619616e+01 
-1.550306095538e+02 1.187899654731e+01 0.0 
1.187899654731e+01 -3.719607567908e+02 0.0 
0.0 0.0 -1.576974099034e+02 
-5.039690352732e+01 3.367082054866e+01 0.0 
3.367082054866e+01 -1.067505928400e+02 0.0 
0.0 0.0 -4.534072786379e+01 
-1.248667763956e+02 -7.785770636631e-01 0.0 
-7.785770636631e-01 -3.029334481956e+02 0.0 
0.0 0.0 -1.273202051275e+02 
-4.434149383100e+01 2.964042182858e+01 0.0 
2.964042182858e+01 -4.771392650080e+01 0.0 
0.0 0.0 -2.437261915405e+01 
-1.047675200512e+02 2.104226690614e+01 0.0 
2.104226690614e+01 -2.766793276969e+02 0.0 
0.0 0.0 -1.140340543244e+02 
-5.890573816814e+01 5.260489046636e-01 0.0 
5.260489046636e-01 -1.041790986578e+02 0.0 
0.0 0.0 -4.852545104777e+01 
-5.897045085017e+01 2.923702275139e+01 0.0 
2.923702275139e+01 -1.568491975098e+02 0.0 
0.0 0.0 -6.417197420759e+01 
-1.366754170882e+02 1.421344793222e+00 0.0 
1.421344793222e+00 -3.321547555512e+02 0.0 
0.0 0.0 -1.402490517918e+02 
-3.777690218161e+01 -1.031307902825e+01 0.0 
-1.031307902825e+01 -6.415804362887e+01 0.0 
0.0 0.0 -2.705569810778e+01 
-1.460414740538e+02 -9.104174078149e-02 0.0 
-9.104174078149e-02 -3.514384937892e+02 0.0 
0.0 0.0 -1.488439903529e+02 
-7.564909560728e+01 1.488426963858e+01 0.0 
1.488426963858e+01 -1.180237762613e+02 0.0 
0.0 0.0 -5.652455858664e+01 
-1.570538574034e+02 2.615311725715e+00 0.0 
2.615311725715e+00 -3.759388203404e+02 0.0 
0.0 0.0 -1.594978033231e+02 
-5.817076462139e+01 1.283870769671e-01 0.0 
1.283870769671e-01 -1.031237606659e+02 0.0 
0.0 0.0 -4.798835758618e+01 
-5.280088426063e+01 3.201782950711e+01 0.0 
3.201782950711e+01 -1.237919240140e+02 0.0 
0.0 0.0 -5.196344070548e+01 
-6.239689442476e+01 8.876221425770e+00 0.0 
8.876221425770e+00 -8.239146984776e+01 0.0 
0.0 0.0 -4.159493668970e+01 
-1.135519392554e+02 -1.665999347066e-02 0.0 
-1.665999347066e-02 -2.610899099037e+02 0.0 
0.0 0.0 -1.090462513389e+02 
-4.329447335281e+01 3.083088230810e+01 0.0 
3.083088230810e+01 -4.626569856200e+01 0.0 
0.0 0.0 -2.362215798023e+01 
-5.504075941255e+01 2.586557966611e+01 0.0 
2.586557966611e+01 -1.533790798433e+02 0.0 
0.0 0.0 -6.048024084327e+01 
-8.678066918205e+01 2.815114268911e+00 0.0 
2.815114268911e+00 -1.755750248792e+02 0.0 
0.0 0.0 -7.830670821838e+01 
-5.883776410310e+01 -2.297696297734e-02 0.0 
-2.297696297734e-02 -1.030325011093e+02 0.0 
0.0 0.0 -4.816107956373e+01 
-5.738503717149e+01 3.098848489936e+01 0.0 
3.098848489936e+01 -1.410201433966e+02 0.0 
0.0 0.0 -5.940101095666e+01 
-5.973023479362e+01 9.921774388880e+00 0.0 
9.921774388880e+00 -7.335986384017e+01 0.0 
0.0 0.0 -3.729816004702e+01 
-1.152214252917e+02 2.458012995994e+01 0.0 
2.458012995994e+01 -2.600043688575e+02 0.0 
0.0 0.0 -1.121677382447e+02 
-8.574712629375e+01 -3.363863838467e+00 0.0 
-3.363863838467e+00 -1.843546544849e+02 0.0 
0.0 0.0 -7.546181790233e+01 
-1.383150285516e+02 2.640560057673e+01 0.0 
2.640560057673e+01 -3.281592277865e+02 0.0 
0.0 0.0 -1.395422769014e+02 
-1.321918351960e+02 2.877405593336e+01 0.0 
2.877405593336e+01 -3.055836387116e+02 0.0 
0.0 0.0 -1.309326421723e+02 
-4.846776856198e+01 3.073603939094e+01 0.0 
3.073603939094e+01 -6.990751906489e+01 0.0 
0.0 0.0 -3.153347050041e+01 
-8.804085182002e+01 -3.255506839695e+00 0.0 
-3.255506839695e+00 -1.850773104181e+02 0.0 
0.0 0.0 -7.621331147862e+01 
-1.282987292408e+02 1.584091072833e+01 0.0 
1.584091072833e+01 -3.292404310824e+02 0.0 
0.0 0.0 -1.368617480969e+02 
-6.113387566461e+01 2.473740485246e+01 0.0 
2.473740485246e+01 -7.774160723117e+01 0.0 
0.0 0.0 -3.644996742521e+01 
-4.552046603340e+01 3.113629144923e+01 0.0 
3.113629144923e+01 -6.639180208775e+01 0.0 
0.0 0.0 -3.169411992437e+01 
-7.076890736557e+01 1.146874154337e+01 0.0 
1.146874154337e+01 -1.047762902422e+02 0.0 
0.0 0.0 -5.122207437494e+01 
-5.716089944116e+01 3.006696239881e+01 0.0 
3.006696239881e+01 -1.424302815474e+02 0.0 
0.0 0.0 -5.770256379829e+01 
-1.108923054670e+02 4.378682807683e+00 0.0 
4.378682807683e+00 -2.536394099926e+02 0.0 
0.0 0.0 -1.089595146379e+02 
-1.040243854778e+02 1.834237527196e+01 0.0 
1.834237527196e+01 -2.105571806243e+02 0.0 
0.0 0.0 -9.397446983064e+01 
-1.414777944476e+02 -5.558248321335e-01 0.0 
-5.558248321335e-01 -3.420276390716e+02 0.0 
0.0 0.0 -1.446516300558e+02 
-4.481005509311e+01 3.089980137051e+01 0.0 
3.089980137051e+01 -4.891849327901e+01 0.0 
0.0 0.0 -2.423441202159e+01 
-5.198507707656e+01 2.349302377374e+01 0.0 
2.349302377374e+01 -1.519317965673e+02 0.0 
0.0 0.0 -5.796240315064e+01 
-1.076729717994e+02 2.022761066096e+01 0.0 
2.022761066096e+01 -2.243416026609e+02 0.0 
0.0 0.0 -9.920437233809e+01 
-8.859294481010e+01 2.843254507976e+01 0.0 
2.843254507976e+01 -7.841369823285e+01 0.0 
0.0 0.0 -5.036995126539e+01 
-6.121221364661e+01 1.974205958373e+01 0.0 
1.974205958373e+01 -7.782281549958e+01 0.0 
0.0 0.0 -3.674485802807e+01 
-1.192757740865e+02 1.168834263890e+01 0.0 
1.168834263890e+01 -3.150669619046e+02 0.0 
0.0 0.0 -1.299028207973e+02 
-1.694633262164e+01 -4.612630016240e-01 0.0 
-4.612630016240e-01 -4.238554900399e+01 0.0 
0.0 0.0 -1.530171067594e+01 
-1.210605266937e+02 1.952039049156e+01 0.0 
1.952039049156e+01 -2.686190366568e+02 0.0 
0.0 0.0 -1.165038690051e+02 
-9.249472910509e+01 1.208464957044e+01 0.0 
1.208464957044e+01 -1.726187196904e+02 0.0 
0.0 0.0 -7.913403463866e+01 
-7.170476008808e+01 -1.071819494518e+01 0.0 
-1.071819494518e+01 -1.801609205441e+02 0.0 
0.0 0.0 -7.330058163736e+01 
-1.167712944857e+02 1.062213897974e+01 0.0 
1.062213897974e+01 -3.138923608120e+02 0.0 
0.0 0.0 -1.287990965893e+02 
-7.806459296120e+01 9.311006003674e+00 0.0 
9.311006003674e+00 -1.273271382606e+02 0.0 
0.0 0.0 -6.121751936654e+01 
-8.262819204152e+01 8.610677505259e+00 0.0 
8.610677505259e+00 -1.413893387492e+02 0.0 
0.0 0.0 -6.680525923723e+01 
-1.461973806166e+02 1.311880841830e+01 0.0 
1.311880841830e+01 -3.587033836224e+02 0.0 
0.0 0.0 -1.510702292717e+02 
-5.914987535272e+01 -1.308376719511e+01 0.0 
-1.308376719511e+01 -1.340663635500e+02 0.0 
0.0 0.0 -5.435094515649e+01 
-7.800818293041e+01 2.822379022495e+01 0.0 
2.822379022495e+01 -1.527025271636e+02 0.0 
0.0 0.0 -6.495820240946e+01 
-7.994302672129e+01 1.814100118731e+01 0.0 
1.814100118731e+01 -1.324649396025e+02 0.0 
0.0 0.0 -6.207970801656e+01 
-9.803602620350e+01 1.415408970320e+01 0.0 
1.415408970320e+01 -1.837411151065e+02 0.0 
0.0 0.0 -8.413314239301e+01 
-8.004458441579e+01 1.733931813238e+01 0.0 
1.733931813238e+01 -1.273054294753e+02 0.0 
0.0 0.0 -6.128931426265e+01 
-7.364015085949e+01 1.552390202442e+01 0.0 
1.552390202442e+01 -1.057209933202e+02 0.0 
0.0 0.0 -5.218161117230e+01 
-8.860846129397e+01 2.070734308961e+01 0.0 
2.070734308961e+01 -2.528167571063e+02 0.0 
0.0 0.0 -1.027835121901e+02 
-1.119980355296e+02 2.602970342830e+01 0.0 
2.602970342830e+01 -2.457521297152e+02 0.0 
0.0 0.0 -1.069250495734e+02 
-6.233763186790e+01 2.696529040460e+01 0.0 
2.696529040460e+01 -9.073339108976e+01 0.0 
0.0 0.0 -4.704511399246e+01 
-4.904003216158e+01 3.103646613762e+01 0.0 
3.103646613762e+01 -6.961897297459e+01 0.0 
0.0 0.0 -3.291285684665e+01 
-5.398988234972e+01 3.066173930586e+01 0.0 
3.066173930586e+01 -8.923626947050e+01 0.0 
0.0 0.0 -4.003835521574e+01 
-7.258307280831e+01 2.858745335304e+01 0.0 
2.858745335304e+01 -1.350804124045e+02 0.0 
0.0 0.0 -5.830801814012e+01 
-1.093460869352e+02 2.036986392071e+01 0.0 
2.036986392071e+01 -2.208155443520e+02 0.0 
0.0 0.0 -9.864848938617e+01 
-3.730516275707e+01 2.292514914184e+01 0.0 
2.292514914184e+01 -1.152614456743e+02 0.0 
0.0 0.0 -4.381343639104e+01 
-1.148560901752e+02 9.424365423676e+00 0.0 
9.424365423676e+00 -3.069804427315e+02 0.0 
0.0 0.0 -1.261509598720e+02 
-5.891702271534e+01 1.624653646398e+00 0.0 
1.624653646398e+00 -1.017919191445e+02 0.0 
0.0 0.0 -4.781268255796e+01 
-5.543852664313e+01 2.728205679542e+01 0.0 
2.728205679542e+01 -1.556578085355e+02 0.0 
0.0 0.0 -6.172751602608e+01 
-1.108407874955e+02 7.196879807291e+00 0.0 
7.196879807291e+00 -2.984288190089e+02 0.0 
0.0 0.0 -1.223808819513e+02 
-1.362746029251e+01 -9.687355554192e-02 0.0 
-9.687355554192e-02 -2.818247063727e+01 0.0 
0.0 0.0 -1.067715816476e+01 
-9.920701019568e+01 1.348136405551e+01 0.0 
1.348136405551e+01 -1.937551505043e+02 0.0 
0.0 0.0 -8.748864821000e+01 
-1.422545553285e+01 -3.472750533628e-01 0.0 
-3.472750533628e-01 -2.415914419638e+01 0.0 
0.0 0.0 -9.885482175910e+00 
-1.301034977453e+01 -1.474613281278e+00 0.0 
-1.474613281278e+00 -4.276840363826e+01 0.0 
0.0 0.0 -1.472774981072e+01 
-4.290308558422e+01 3.082498427084e+01 0.0 
3.082498427084e+01 -4.808509017089e+01 0.0 
0.0 0.0 -2.354478833535e+01 
-5.204600563523e+01 -1.307509137941e+01 0.0 
-1.307509137941e+01 -1.133474647272e+02 0.0 
0.0 0.0 -4.602326710444e+01 
-1.044773084553e+02 1.541256713429e+01 0.0 
1.541256713429e+01 -2.046340448368e+02 0.0 
0.0 0.0 -9.233340598760e+01 
-4.989742338241e+01 -1.347448209314e+01 0.0 
-1.347448209314e+01 -1.060403417960e+02 0.0 
0.0 0.0 -4.325306188347e+01 
-4.628768252657e+01 3.260447095691e+01 0.0 
3.260447095691e+01 -8.936921908349e+01 0.0 
0.0 0.0 -3.680151873001e+01 
-5.021527835973e+01 -2.170016281002e+01 0.0 
-2.170016281002e+01 -1.107259016943e+02 0.0 
0.0 0.0 -4.245064588628e+01 
-3.822045679180e+01 -1.021034078481e+01 0.0 
-1.021034078481e+01 -7.145662496735e+01 0.0 
0.0 0.0 -2.957812990570e+01 
-1.216418132383e+02 1.269721917045e+01 0.0 
1.269721917045e+01 -3.211950602409e+02 0.0 
0.0 0.0 -1.324510620438e+02 
-7.762662028094e+01 1.895909274687e+01 0.0 
1.895909274687e+01 -1.190147411691e+02 0.0 
0.0 0.0 -5.736263669486e+01 
-1.555040986809e+02 9.469600353923e-01 0.0 
9.469600353923e-01 -3.714533729204e+02 0.0 
0.0 0.0 -1.576872414804e+02 
-6.868073052952e+01 1.293198820671e+01 0.0 
1.293198820671e+01 -1.093263454703e+02 0.0 
0.0 0.0 -5.394382232481e+01 
-4.791084238203e+01 3.195869319701e+01 0.0 
3.195869319701e+01 -1.068534425136e+02 0.0 
0.0 0.0 -4.296252117391e+01 
-6.055849222700e+01 2.646252134428e+01 0.0 
2.646252134428e+01 -1.720267835607e+02 0.0 
0.0 0.0 -6.932942459201e+01 
-5.732626675392e+01 2.260560531505e+01 0.0 
2.260560531505e+01 -7.363536381358e+01 0.0 
0.0 0.0 -3.383216910131e+01 
-1.120900905329e+02 8.483418840863e+00 0.0 
8.483418840863e+00 -3.057054101434e+02 0.0 
0.0 0.0 -1.249386502029e+02 
-1.578912317912e+02 2.392847318474e+00 0.0 
2.392847318474e+00 -3.777005846572e+02 0.0 
0.0 0.0 -1.602775449345e+02 
-1.028214729927e+02 1.932280248970e+01 0.0 
1.932280248970e+01 -1.993007569745e+02 0.0 
0.0 0.0 -9.023666899016e+01 
-4.514624824763e+01 2.111759678810e+01 0.0 
2.111759678810e+01 -1.357428233645e+02 0.0 
0.0 0.0 -4.873954083489e+01 
-1.236226469517e+02 1.368400133421e+01 0.0 
1.368400133421e+01 -3.220536689830e+02 0.0 
0.0 0.0 -1.333028947804e+02 
-1.191274452245e+02 -1.255434769700e+00 0.0 
-1.255434769700e+00 -2.820623488372e+02 0.0 
0.0 0.0 -1.181932545760e+02 
-7.641848308602e+01 2.737618788569e+01 0.0 
2.737618788569e+01 -1.388298128235e+02 0.0 
0.0 0.0 -6.162615405660e+01 
-9.643327143892e+01 1.414408453334e+01 0.0 
1.414408453334e+01 -1.844642271699e+02 0.0 
0.0 0.0 -8.386924958266e+01 
-1.345336230846e+02 2.596301056589e+01 0.0 
2.596301056589e+01 -3.229204979243e+02 0.0 
0.0 0.0 -1.368362363027e+02 
-5.726747888300e+01 2.267661035464e+01 0.0 
2.267661035464e+01 -1.678515443526e+02 0.0 
0.0 0.0 -6.551123106605e+01 
-4.456950611215e+01 3.121783768571e+01 0.0 
3.121783768571e+01 -8.685059993609e+01 0.0 
0.0 0.0 -3.534663543200e+01 
-8.594166656259e+01 1.877178614261e+01 0.0 
1.877178614261e+01 -1.483935164174e+02 0.0 
0.0 0.0 -6.990055489401e+01 
-1.212963340289e+02 1.134470372583e+01 0.0 
1.134470372583e+01 -2.773379697950e+02 0.0 
0.0 0.0 -1.191902911472e+02 
-7.445599517776e+01 2.878899097547e+01 0.0 
2.878899097547e+01 -1.522003938696e+02 0.0 
0.0 0.0 -6.437018361679e+01 
-7.080500106723e+01 1.831875899933e+01 0.0 
1.831875899933e+01 -2.120614486994e+02 0.0 
0.0 0.0 -8.772547979172e+01 
-6.646836266999e+01 1.055020387438e+00 0.0 
1.055020387438e+00 -1.217370135279e+02 0.0 
0.0 0.0 -5.606161285937e+01 
-4.508107602777e+01 -1.582502158820e+01 0.0 
-1.582502158820e+01 -6.947887175556e+01 0.0 
0.0 0.0 -2.794938478672e+01 
-7.714130007378e+01 1.348211998182e+01 0.0 
1.348211998182e+01 -1.253158929784e+02 0.0 
0.0 0.0 -5.989847776748e+01 
-4.833587545226e+01 2.577912964512e+01 0.0 
2.577912964512e+01 -1.396790097441e+02 0.0 
0.0 0.0 -5.314761203012e+01 
-3.980678552512e+01 2.043758020021e+01 0.0 
2.043758020021e+01 -1.276164550162e+02 0.0 
0.0 0.0 -4.763675998392e+01 
-4.092589358353e+01 -2.031866101567e+01 0.0 
-2.031866101567e+01 -1.174084506108e+02 0.0 
0.0 0.0 -4.424221806813e+01 
-1.017109692717e+02 1.289681493344e+01 0.0 
1.289681493344e+01 -2.029941562709e+02 0.0 
0.0 0.0 -9.101153766278e+01 
-8.333088736387e+01 2.024295225342e+01 0.0 
2.024295225342e+01 -1.408416681323e+02 0.0 
0.0 0.0 -6.644209755684e+01 
-5.512241950237e+01 3.317681402524e+01 0.0 
3.317681402524e+01 -1.259607453315e+02 0.0 
0.0 0.0 -5.343929522646e+01 
-1.068572948057e+02 1.473316850533e+01 0.0 
1.473316850533e+01 -2.139446688190e+02 0.0 
0.0 0.0 -9.584058908741e+01 
-1.062690766612e+02 2.127458843607e+01 0.0 
2.127458843607e+01 -2.123564641871e+02 0.0 
0.0 0.0 -9.518766225448e+01 
-7.993632080420e+01 2.589660341375e+01 0.0 
2.589660341375e+01 -1.434149440788e+02 0.0 
0.0 0.0 -6.492214876726e+01 
-1.593584051703e+02 4.291585433184e+00 0.0 
4.291585433184e+00 -3.780181962794e+02 0.0 
0.0 0.0 -1.608129804349e+02 
-7.514408392120e+01 1.791396598482e+01 0.0 
1.791396598482e+01 -2.290654688666e+02 0.0 
0.0 0.0 -9.571255258000e+01 
-8.307786600983e+01 2.429727198591e+01 0.0 
2.429727198591e+01 -1.487841628923e+02 0.0 
0.0 0.0 -6.824534826264e+01 
-6.267785356593e+01 2.820649999985e+01 0.0 
2.820649999985e+01 -1.601127109522e+02 0.0 
0.0 0.0 -6.521467603274e+01 
-7.728063215383e+01 1.780120883810e+01 0.0 
1.780120883810e+01 -2.286618193402e+02 0.0 
0.0 0.0 -9.565205875558e+01 
-4.250640268589e+01 1.825779499131e+01 0.0 
1.825779499131e+01 -1.393257691362e+02 0.0 
0.0 0.0 -5.114270183919e+01 
-6.774399064493e+01 5.630803581700e+00 0.0 
5.630803581700e+00 -1.071119324909e+02 0.0 
0.0 0.0 -5.205677694074e+01 
-5.954674715959e+01 1.909080821083e+01 0.0 
1.909080821083e+01 -1.810616147263e+02 0.0 
0.0 0.0 -7.051344213391e+01 
-5.138750865468e+01 -5.787881348566e+00 0.0 
-5.787881348566e+00 -1.625678502649e+02 0.0 
0.0 0.0 -6.126830988671e+01 
-1.003792044459e+02 1.634947711981e+01 0.0 
1.634947711981e+01 -1.974641582243e+02 0.0 
0.0 0.0 -8.895300880107e+01 
-1.250992049262e+02 5.648909841798e+00 0.0 
5.648909841798e+00 -1.009522846582e+02 0.0 
0.0 0.0 -6.808918804768e+01 
-8.231660513599e+01 1.608575150637e+01 0.0 
1.608575150637e+01 -1.356169291672e+02 0.0 
0.0 0.0 -6.498006029095e+01 
-4.905020603151e+01 2.114594883189e+01 0.0 
2.114594883189e+01 -1.533891243390e+02 0.0 
0.0 0.0 -5.759109315896e+01 
-4.401802394261e+01 2.887241470329e+01 0.0 
2.887241470329e+01 -1.039413523009e+02 0.0 
0.0 0.0 -3.952658502335e+01 
-4.002566609753e+01 1.147714869233e+01 0.0 
1.147714869233e+01 -1.361383086611e+02 0.0 
0.0 0.0 -4.868290444556e+01 
-8.799552620336e+01 1.779435176067e+01 0.0 
1.779435176067e+01 -1.607478050007e+02 0.0 
0.0 0.0 -7.422299936122e+01 
-2.399803107682e+01 -3.009817498114e+00 0.0 
-3.009817498114e+00 -4.203070673262e+01 0.0 
0.0 0.0 -1.597194497673e+01 
-5.767956701869e+01 2.869046028213e+01 0.0 
2.869046028213e+01 -9.131428118903e+01 0.0 
0.0 0.0 -4.078554461359e+01 
-8.151584333667e+01 1.713195590679e+01 0.0 
1.713195590679e+01 -2.445845685175e+02 0.0 
0.0 0.0 -1.029524114481e+02 
-8.157986147140e+01 1.654577672607e+01 0.0 
1.654577672607e+01 -1.391012610895e+02 0.0 
0.0 0.0 -6.533266682935e+01 
-7.613096904326e+01 7.675093333279e+00 0.0 
7.675093333279e+00 -1.264022438506e+02 0.0 
0.0 0.0 -6.035996386816e+01 
-3.549191288895e+01 2.056018444947e+01 0.0 
2.056018444947e+01 -1.205181755944e+02 0.0 
0.0 0.0 -4.931378775478e+01 
-4.785175996688e+01 -1.601139515685e-01 0.0 
-1.601139515685e-01 -1.619309142315e+02 0.0 
0.0 0.0 -5.928164475635e+01 
-5.171168691297e+01 -1.139522398089e+01 0.0 
-1.139522398089e+01 -1.536324566313e+02 0.0 
0.0 0.0 -5.817336117991e+01 
-5.117929159343e+01 3.015269537240e+01 0.0 
3.015269537240e+01 -7.061651023160e+01 0.0 
0.0 0.0 -3.205614480794e+01 
-9.910710830117e+01 1.722304317148e+01 0.0 
1.722304317148e+01 -1.864183235826e+02 0.0 
0.0 0.0 -8.525762956513e+01 
-5.684111546383e+01 3.034356430824e+01 0.0 
3.034356430824e+01 -9.158812166038e+01 0.0 
0.0 0.0 -3.996873628866e+01 
-5.860327687654e+01 1.973355340109e+01 0.0 
1.973355340109e+01 -1.820926556195e+02 0.0 
0.0 0.0 -7.104341031807e+01 
-5.693217197493e+01 2.366167259489e+01 0.0 
2.366167259489e+01 -1.695811057601e+02 0.0 
0.0 0.0 -6.649965265806e+01 
-3.255778235158e+01 1.545351217233e+01 0.0 
1.545351217233e+01 -1.124178715097e+02 0.0 
0.0 0.0 -4.351903482099e+01 
-6.875206615312e+01 2.894551986644e+01 0.0 
2.894551986644e+01 -1.772330886411e+02 0.0 
0.0 0.0 -7.469057991893e+01 
-4.310385024643e+01 3.163293644194e+01 0.0 
3.163293644194e+01 -6.991163834311e+01 0.0 
0.0 0.0 -2.907416554502e+01 
-1.275494194491e+02 2.034185579910e+01 0.0 
2.034185579910e+01 -2.884073763361e+02 0.0 
0.0 0.0 -1.243870387356e+02 
-1.294006076107e+02 2.380001922246e+01 0.0 
2.380001922246e+01 -2.941708084293e+02 0.0 
0.0 0.0 -1.266714248120e+02 
-8.005709870061e+01 2.886455372048e+01 0.0 
2.886455372048e+01 -1.696293499622e+02 0.0 
0.0 0.0 -7.169838191481e+01 
-4.547354067369e+01 2.234419449269e+01 0.0 
2.234419449269e+01 -1.394034606372e+02 0.0 
0.0 0.0 -5.161381768093e+01 
-4.163620343712e+01 2.713581570206e+01 0.0 
2.713581570206e+01 -1.042007234659e+02 0.0 
0.0 0.0 -3.778619577125e+01 
-8.664184421035e+01 2.331083445267e+01 0.0 
2.331083445267e+01 -1.638113439419e+02 0.0 
0.0 0.0 -7.354430149582e+01 
-4.154827462363e+01 2.259653172727e+01 0.0 
2.259653172727e+01 -1.209569104152e+02 0.0 
0.0 0.0 -4.288400417933e+01 
-4.650544318385e+01 -6.468353342584e+00 0.0 
-6.468353342584e+00 -1.523988815333e+02 0.0 
0.0 0.0 -5.558952964122e+01 
-7.864073082300e+01 2.483158705035e+01 0.0 
2.483158705035e+01 -1.384446320571e+02 0.0 
0.0 0.0 -6.159200447161e+01 
-1.151356476539e+02 7.683615649993e+00 0.0 
7.683615649993e+00 -2.571934235466e+02 0.0 
0.0 0.0 -1.112987213602e+02 
-5.208787347023e+01 2.460200921176e+01 0.0 
2.460200921176e+01 -1.544319181336e+02 0.0 
0.0 0.0 -5.955976898843e+01 
-8.997667540251e+01 1.995120633837e+01 0.0 
1.995120633837e+01 -2.532690538402e+02 0.0 
0.0 0.0 -1.055245392172e+02 
-4.514301601019e+01 3.214321839047e+01 0.0 
3.214321839047e+01 -9.076771088133e+01 0.0 
0.0 0.0 -3.653619223595e+01 
-1.583677124851e+02 1.667424905221e+01 0.0 
1.667424905221e+01 -3.802861239856e+02 0.0 
0.0 0.0 -1.611961509412e+02 
-4.554302941467e+01 2.718641727099e+01 0.0 
2.718641727099e+01 -1.248575176513e+02 0.0 
0.0 0.0 -4.716161474724e+01 
-8.131491932946e+01 2.664875959559e+01 0.0 
2.664875959559e+01 -1.557013315784e+02 0.0 
0.0 0.0 -6.757852719260e+01 
-3.715125789920e+01 1.578096951864e+01 0.0 
1.578096951864e+01 -1.292667680632e+02 0.0 
0.0 0.0 -4.948482085583e+01 
-8.998455492675e+01 8.430423144333e+00 0.0 
8.430423144333e+00 -2.676600647628e+02 0.0 
0.0 0.0 -1.112605505280e+02 
-6.218247891752e+01 2.303286000267e+01 0.0 
2.303286000267e+01 -1.856382246138e+02 0.0 
0.0 0.0 -7.427649710671e+01 
-5.058825472116e+01 -9.656584939185e+00 0.0 
-9.656584939185e+00 -1.552941982225e+02 0.0 
0.0 0.0 -5.725515396833e+01 
-8.072472228446e+01 2.194711489549e+01 0.0 
2.194711489549e+01 -1.336491145835e+02 0.0 
0.0 0.0 -6.279227713671e+01 
-1.346153302665e+02 2.818975506470e+01 0.0 
2.818975506470e+01 -3.095979514523e+02 0.0 
0.0 0.0 -1.328639845156e+02 
-5.351988428027e+01 2.028151552528e+01 0.0 
2.028151552528e+01 -1.674078621047e+02 0.0 
0.0 0.0 -6.402360492168e+01 
-8.081663492960e+01 1.609850207156e+01 0.0 
1.609850207156e+01 -2.422515494517e+02 0.0 
0.0 0.0 -1.012206504388e+02 
-4.161734544108e+01 2.963598400357e+01 0.0 
2.963598400357e+01 -8.807751052538e+01 0.0 
0.0 0.0 -3.346580911973e+01 
-8.481235930736e+01 5.606857839813e+00 0.0 
5.606857839813e+00 -1.591103434982e+02 0.0 
0.0 0.0 -7.277681084167e+01 
-1.078247773359e+02 6.320941684761e+00 0.0 
6.320941684761e+00 -2.969877629356e+02 0.0 
0.0 0.0 -1.210437620815e+02 
-4.687589422309e+01 3.140950706192e+01 0.0 
3.140950706192e+01 -8.718457763120e+01 0.0 
0.0 0.0 -3.661395905718e+01 
-8.295219185284e+01 6.416494250197e+00 0.0 
6.416494250197e+00 -1.507119742045e+02 0.0 
0.0 0.0 -6.969924981719e+01 
-1.394941260618e+02 3.023735689366e+01 0.0 
3.023735689366e+01 -3.257745941117e+02 0.0 
0.0 0.0 -1.391806160521e+02 
-1.183292325539e+02 7.845948974788e+00 0.0 
7.845948974788e+00 -3.154530444923e+02 0.0 
0.0 0.0 -1.297346831139e+02 
-1.331946011565e+02 2.690488349542e+01 0.0 
2.690488349542e+01 -3.043532009085e+02 0.0 
0.0 0.0 -1.308643406195e+02 
-8.467939794036e+01 8.324928319596e+00 0.0 
8.324928319596e+00 -1.503015379051e+02 0.0 
0.0 0.0 -7.009428075365e+01 
-1.057137814822e+02 2.388377536863e+01 0.0 
2.388377536863e+01 -2.181230813773e+02 0.0 
0.0 0.0 -9.675105885786e+01 
-4.528743983606e+01 3.103587520337e+01 0.0 
3.103587520337e+01 -6.841014032433e+01 0.0 
0.0 0.0 -3.024936420369e+01 
-7.510906186036e+01 2.085026507160e+01 0.0 
2.085026507160e+01 -1.121557334821e+02 0.0 
0.0 0.0 -5.377246289626e+01 
-8.359735487146e+01 2.099710747075e+01 0.0 
2.099710747075e+01 -1.478941881944e+02 0.0 
0.0 0.0 -6.778915759002e+01 
-8.591798366954e+01 2.274001448562e+01 0.0 
2.274001448562e+01 -1.550459760035e+02 0.0 
0.0 0.0 -7.167456205874e+01 
-7.054711495111e+01 2.919259270483e+01 0.0 
2.919259270483e+01 -1.493683222648e+02 0.0 
0.0 0.0 -6.212024748247e+01 
-1.430240468766e+02 3.010395314249e+01 0.0 
3.010395314249e+01 -3.371337569790e+02 0.0 
0.0 0.0 -1.436473411567e+02 
-8.204334732821e+01 8.972069499488e+00 0.0 
8.972069499488e+00 -1.417776979563e+02 0.0 
0.0 0.0 -6.674631358535e+01 
-7.610001175822e+01 1.424987398850e+01 0.0 
1.424987398850e+01 -1.149218133621e+02 0.0 
0.0 0.0 -5.636614861370e+01 
-5.416909747199e+01 1.982506603154e+01 0.0 
1.982506603154e+01 -1.660718711533e+02 0.0 
0.0 0.0 -6.309999327861e+01 
-4.535634410230e+01 -1.227391972159e+01 0.0 
-1.227391972159e+01 -9.259651025237e+01 0.0 
0.0 0.0 -3.791733819686e+01 
-7.152673945365e+01 1.729949298394e+01 0.0 
1.729949298394e+01 -9.789605050913e+01 0.0 
0.0 0.0 -4.840768015281e+01 
-4.919088731503e+01 3.270857137967e+01 0.0 
3.270857137967e+01 -1.062219213281e+02 0.0 
0.0 0.0 -4.444665283851e+01 
-5.921927256397e+01 6.283702153198e-01 0.0 
6.283702153198e-01 -1.040106730984e+02 0.0 
0.0 0.0 -4.856898369870e+01 
-5.589647105913e+01 -1.351249112899e+01 0.0 
-1.351249112899e+01 -1.577103372081e+02 0.0 
0.0 0.0 -6.163528352429e+01 
-4.933011724866e+01 2.032308199091e+01 0.0 
2.032308199091e+01 -1.508522528068e+02 0.0 
0.0 0.0 -5.572552872699e+01 
-1.030823691958e+02 1.550659624088e+01 0.0 
1.550659624088e+01 -2.061513840187e+02 0.0 
0.0 0.0 -9.237012596437e+01 
-4.616951135238e+01 3.022843055730e+01 0.0 
3.022843055730e+01 -1.045099922303e+02 0.0 
0.0 0.0 -4.139172502159e+01 
-7.763334643702e+01 2.000371231470e+01 0.0 
2.000371231470e+01 -1.263079014512e+02 0.0 
0.0 0.0 -5.869731907211e+01 
-8.468530371272e+01 1.414959587732e+01 0.0 
1.414959587732e+01 -2.539557288735e+02 0.0 
0.0 0.0 -1.072165488557e+02 
-8.840273453321e+01 -1.174546075683e+00 0.0 
-1.174546075683e+00 -2.408717835470e+02 0.0 
0.0 0.0 -9.959510590225e+01 
-1.485324803087e+02 2.760101144074e+01 0.0 
2.760101144074e+01 -3.535113809278e+02 0.0 
0.0 0.0 -1.502131583710e+02 
-6.527887693110e+01 2.201504933201e+01 0.0 
2.201504933201e+01 -8.392148637460e+01 0.0 
0.0 0.0 -4.062336431820e+01 
-4.506309542244e+01 5.348544018504e+00 0.0 
5.348544018504e+00 -1.567424922378e+02 0.0 
0.0 0.0 -5.717452279882e+01 
-7.146311146179e+01 -1.474994336545e+01 0.0 
-1.474994336545e+01 -1.750659897080e+02 0.0 
0.0 0.0 -7.282073470965e+01 
-4.653891375970e+01 3.052190923911e+01 0.0 
3.052190923911e+01 -6.770060262453e+01 0.0 
0.0 0.0 -3.068791886321e+01 
-4.676655354376e+01 3.347279963475e+01 0.0 
3.347279963475e+01 -8.730000123034e+01 0.0 
0.0 0.0 -3.787636819474e+01 
-1.126721691655e+02 2.213658918588e+01 0.0 
2.213658918588e+01 -2.339448945118e+02 0.0 
0.0 0.0 -1.035851191032e+02 
-8.167127833871e+01 2.715928596847e+01 0.0 
2.715928596847e+01 -1.595852825294e+02 0.0 
0.0 0.0 -7.063636341035e+01 
-5.763537414636e+01 2.734976679643e+01 0.0 
2.734976679643e+01 -7.396085988906e+01 0.0 
0.0 0.0 -3.374660672326e+01 
-7.099918581510e+01 1.861015266718e+01 0.0 
1.861015266718e+01 -1.044614858936e+02 0.0 
0.0 0.0 -4.939855484381e+01 
-1.540274319820e+02 2.187269570986e+01 0.0 
2.187269570986e+01 -3.700240669837e+02 0.0 
0.0 0.0 -1.568154496897e+02 
-1.428278588208e+02 2.168282758832e+01 0.0 
2.168282758832e+01 -3.501199637997e+02 0.0 
0.0 0.0 -1.474843467861e+02 
-1.105000509163e+02 1.938757616421e+01 0.0 
1.938757616421e+01 -2.321762079638e+02 0.0 
0.0 0.0 -1.024028776641e+02 
-1.020596756402e+02 1.625543396605e+01 0.0 
1.625543396605e+01 -1.956518551046e+02 0.0 
0.0 0.0 -8.891345922344e+01 
-8.795426821941e+01 -4.981296781883e+00 0.0 
-4.981296781883e+00 -2.361652370042e+02 0.0 
0.0 0.0 -9.913246741794e+01 
-5.923480240705e+01 3.063323346815e+01 0.0 
3.063323346815e+01 -1.098733612944e+02 0.0 
0.0 0.0 -4.682296313403e+01 
-4.237259106307e+01 1.719349891367e+01 0.0 
1.719349891367e+01 -1.358507337596e+02 0.0 
0.0 0.0 -4.817061591278e+01 
-4.688394776108e+01 1.621257133921e+01 0.0 
1.621257133921e+01 -1.499833421932e+02 0.0 
0.0 0.0 -5.395317600379e+01 
-7.814816007055e+01 2.813678840520e+01 0.0 
2.813678840520e+01 -1.556040127538e+02 0.0 
0.0 0.0 -6.753364752180e+01 
-8.684039954521e+01 9.885041879396e+00 0.0 
9.885041879396e+00 -2.594120145947e+02 0.0 
0.0 0.0 -1.088519881465e+02 
-9.121841419243e+01 -6.567425964051e+00 0.0 
-6.567425964051e+00 -2.049647989728e+02 0.0 
0.0 0.0 -8.429241143012e+01 
-1.093104743464e+02 1.684995870975e+01 0.0 
1.684995870975e+01 -2.275784053213e+02 0.0 
0.0 0.0 -1.006666639003e+02 
-4.707183215558e+01 -1.324592751056e+00 0.0 
-1.324592751056e+00 -1.559086139588e+02 0.0 
0.0 0.0 -5.744778068720e+01 
-6.659604701833e+01 2.927270960608e+01 0.0 
2.927270960608e+01 -1.468123835439e+02 0.0 
0.0 0.0 -6.104991363382e+01 
-8.118859869056e+01 2.281962275554e+01 0.0 
2.281962275554e+01 -1.425389613122e+02 0.0 
0.0 0.0 -6.459106782814e+01 
-6.112305820490e+01 3.015759872551e+01 0.0 
3.015759872551e+01 -1.276450096787e+02 0.0 
0.0 0.0 -5.348196494938e+01 
-1.320907120959e+02 2.551978413284e+01 0.0 
2.551978413284e+01 -2.995581940557e+02 0.0 
0.0 0.0 -1.290946718455e+02 
-1.277331740352e+02 2.178379365691e+01 0.0 
2.178379365691e+01 -2.906602223940e+02 0.0 
0.0 0.0 -1.251180189288e+02 
-1.235434050312e+02 2.216175350458e+01 0.0 
2.216175350458e+01 -2.702317361333e+02 0.0 
0.0 0.0 -1.177325423493e+02 
-9.479149773471e+01 -1.491021882048e+00 0.0 
-1.491021882048e+00 -2.541193411143e+02 0.0 
0.0 0.0 -1.066698262018e+02 
-1.040451621297e+02 1.235498709936e+01 0.0 
1.235498709936e+01 -2.123137423795e+02 0.0 
0.0 0.0 -9.450767135275e+01 
-4.650378886337e+01 3.311724990908e+01 0.0 
3.311724990908e+01 -8.792384203509e+01 0.0 
0.0 0.0 -3.736612454698e+01 
-5.163428804561e+01 1.588697235538e+01 0.0 
1.588697235538e+01 -1.643454254909e+02 0.0 
0.0 0.0 -6.085271194410e+01 
-3.617852418312e+01 1.241570692278e+01 0.0 
1.241570692278e+01 -1.242754630317e+02 0.0 
0.0 0.0 -4.523800398937e+01 
-6.035070804654e+01 2.919155480753e+01 0.0 
2.919155480753e+01 -9.351691211697e+01 0.0 
0.0 0.0 -4.092118650389e+01 
-6.717754280717e+01 4.760891958909e+00 0.0 
4.760891958909e+00 -1.065305745766e+02 0.0 
0.0 0.0 -5.171243521513e+01 
-8.174837137079e+01 5.732740264240e+00 0.0 
5.732740264240e+00 -1.487008440204e+02 0.0 
0.0 0.0 -6.873476461735e+01 
-1.475870139246e+02 1.640689341904e+01 0.0 
1.640689341904e+01 -3.635944567601e+02 0.0 
0.0 0.0 -1.529544412054e+02 
-1.107786219010e+02 2.169492286630e+01 0.0 
2.169492286630e+01 -2.378132448134e+02 0.0 
0.0 0.0 -1.041775600143e+02 
-8.405440403089e+01 1.521506135786e+01 0.0 
1.521506135786e+01 -1.468164026703e+02 0.0 
0.0 0.0 -6.886124201037e+01 
-8.878797781821e+01 2.173130942723e+01 0.0 
2.173130942723e+01 -1.690733283235e+02 0.0 
0.0 0.0 -7.658442377797e+01 
-3.959900830404e+01 1.282083766369e+01 0.0 
1.282083766369e+01 -1.382420285619e+02 0.0 
0.0 0.0 -5.113598932368e+01 
-3.571721351878e+01 -9.890120885578e+00 0.0 
-9.890120885578e+00 -4.712021726297e+01 0.0 
0.0 0.0 -2.008719666641e+01 
-6.464099114328e+01 2.812119383496e+01 0.0 
2.812119383496e+01 -1.742612269821e+02 0.0 
0.0 0.0 -7.273869187354e+01 
-7.222086772037e+01 2.828542323715e+01 0.0 
2.828542323715e+01 -1.657790757191e+02 0.0 
0.0 0.0 -6.853820146242e+01 
-6.404336231751e+01 2.642071083667e+01 0.0 
2.642071083667e+01 -1.737640957106e+02 0.0 
0.0 0.0 -7.090036345670e+01 
-4.552451159996e+01 3.446901039138e+01 0.0 
3.446901039138e+01 -5.465902837898e+01 0.0 
0.0 0.0 -2.638100110003e+01 
-6.514219453064e+01 3.916554906939e-01 0.0 
3.916554906939e-01 -1.205220652835e+02 0.0 
0.0 0.0 -5.529927794424e+01 
-4.212728006234e+01 -1.048025070034e+01 0.0 
-1.048025070034e+01 -8.473792245751e+01 0.0 
0.0 0.0 -3.374112150271e+01 
-4.800335633359e+01 2.936766343982e+01 0.0 
2.936766343982e+01 -1.238771687402e+02 0.0 
0.0 0.0 -4.808844484503e+01 
-1.627356101825e+02 1.684970341747e+01 0.0 
1.684970341747e+01 -3.810497570924e+02 0.0 
0.0 0.0 -1.627356101825e+02 
-9.411526265379e+01 1.914804431167e+01 0.0 
1.914804431167e+01 -2.656251786908e+02 0.0 
0.0 0.0 -1.079645049891e+02 
-7.237816728961e+01 1.048703517099e+01 0.0 
1.048703517099e+01 -1.128857005677e+02 0.0 
0.0 0.0 -5.478246849550e+01 
-1.672533950851e+01 -7.915663836699e-01 0.0 
-7.915663836699e-01 -5.902264110931e+01 0.0 
0.0 0.0 -2.093455524573e+01 
-7.408562639527e+01 2.973658622762e+01 0.0 
2.973658622762e+01 -1.501293111839e+02 0.0 
0.0 0.0 -6.421441332591e+01 
-6.041466759043e+01 2.480639110015e+01 0.0 
2.480639110015e+01 -1.704957554654e+02 0.0 
0.0 0.0 -6.861402271213e+01 
-8.910313623850e+01 2.123727575933e+01 0.0 
2.123727575933e+01 -1.618445242609e+02 0.0 
0.0 0.0 -7.488429814982e+01 
-1.359487428332e+02 2.896561254950e+01 0.0 
2.896561254950e+01 -3.148055280271e+02 0.0 
0.0 0.0 -1.348262812581e+02 
-7.329789804280e+01 1.656191608474e+01 0.0 
1.656191608474e+01 -1.107756243115e+02 0.0 
0.0 0.0 -5.286714058201e+01 
-8.486973944526e+01 2.596965991664e+01 0.0 
2.596965991664e+01 -1.642565204581e+02 0.0 
0.0 0.0 -7.373240802923e+01 
-8.674313426095e+01 -6.719507635526e+00 0.0 
-6.719507635526e+00 -2.039546103200e+02 0.0 
0.0 0.0 -8.233696026978e+01 
-1.056179203464e+02 1.491515649359e+01 0.0 
1.491515649359e+01 -2.150622475125e+02 0.0 
0.0 0.0 -9.580405035767e+01 
-9.350416524771e+01 1.564991676593e+00 0.0 
1.564991676593e+00 -2.593245430101e+02 0.0 
0.0 0.0 -1.066342775766e+02 
-1.382110654844e+02 2.996246978616e+01 0.0 
2.996246978616e+01 -3.202750052322e+02 0.0 
0.0 0.0 -1.371458212150e+02 
-1.280382882578e+02 2.495971802740e+01 0.0 
2.495971802740e+01 -3.000893392683e+02 0.0 
0.0 0.0 -1.280382882578e+02 
-1.212996186180e+02 1.859207205632e+01 0.0 
1.859207205632e+01 -2.843657767752e+02 0.0 
0.0 0.0 -1.212996186180e+02 
-1.235824817921e+02 2.178307555203e+01 0.0 
2.178307555203e+01 -2.896924575150e+02 0.0 
0.0 0.0 -1.235824817921e+02 
-9.160376007409e+01 2.004967366806e+01 0.0 
2.004967366806e+01 -1.752563889479e+02 0.0 
0.0 0.0 -7.965804470659e+01 
-1.082302224727e+02 1.740940092233e+01 0.0 
1.740940092233e+01 -2.166381822750e+02 0.0 
0.0 0.0 -9.706052142431e+01 
-1.140719042874e+02 2.124930977460e+01 0.0 
2.124930977460e+01 -2.461931505762e+02 0.0 
0.0 0.0 -1.076795164591e+02 
-6.306375474738e+01 3.198714243002e+01 0.0 
3.198714243002e+01 -1.281621234928e+02 0.0 
0.0 0.0 -5.526354786592e+01 
-6.053383405642e+01 3.073335727416e+01 0.0 
3.073335727416e+01 -1.098122256938e+02 0.0 
0.0 0.0 -4.804050218668e+01 
-8.773768712524e+01 -6.311871629556e+00 0.0 
-6.311871629556e+00 -1.927688151257e+02 0.0 
0.0 0.0 -7.871885593922e+01 
-1.119253641802e+02 1.951117737288e+01 0.0 
1.951117737288e+01 -2.292512606562e+02 0.0 
0.0 0.0 -1.019529874509e+02 
-1.411862614195e+02 3.035544498124e+01 0.0 
3.035544498124e+01 -3.314027336988e+02 0.0 
0.0 0.0 -1.413766985355e+02 
-1.078573930487e+02 1.425459189720e+01 0.0 
1.425459189720e+01 -2.239504605929e+02 0.0 
0.0 0.0 -9.914235609246e+01 
-8.447647308344e+01 1.871478119393e+01 0.0 
1.871478119393e+01 -2.477667481442e+02 0.0 
0.0 0.0 -1.019415865674e+02 
-1.105093169801e+02 1.665568583723e+01 0.0 
1.665568583723e+01 -2.255459683299e+02 0.0 
0.0 0.0 -1.004165855930e+02 
-9.692607196330e+01 2.642185698172e+01 0.0 
2.642185698172e+01 -2.407707800764e+02 0.0 
0.0 0.0 -1.009090556119e+02 
-7.136325232017e+01 3.102007462483e+01 0.0 
3.102007462483e+01 -1.647016544640e+02 0.0 
0.0 0.0 -6.991387429546e+01 
-6.173615622259e+01 2.662722086893e+01 0.0 
2.662722086893e+01 -9.359387520630e+01 0.0 
0.0 0.0 -4.181405936087e+01 
-4.418861425226e+01 2.958403775661e+01 0.0 
2.958403775661e+01 -1.102819643732e+02 0.0 
0.0 0.0 -4.229514192326e+01 
-1.144081119744e+02 1.198046737123e+01 0.0 
1.198046737123e+01 -2.597220429043e+02 0.0 
0.0 0.0 -1.118390464636e+02 
-5.878173850023e+01 3.302661487121e+01 0.0 
3.302661487121e+01 -1.268587991711e+02 0.0 
0.0 0.0 -5.419856664920e+01 
-1.286288443266e+02 2.637392593527e+01 0.0 
2.637392593527e+01 -3.031188784211e+02 0.0 
0.0 0.0 -1.291243168243e+02 
-8.419922425457e+01 -7.187505007863e+00 0.0 
-7.187505007863e+00 -1.918363385980e+02 0.0 
0.0 0.0 -7.719358973680e+01 
-5.615233571327e+01 -1.698293520375e+01 0.0 
-1.698293520375e+01 -1.453072885164e+02 0.0 
0.0 0.0 -5.711200117493e+01 
-1.526991358163e+02 1.476114059536e+01 0.0 
1.476114059536e+01 -3.673632339079e+02 0.0 
0.0 0.0 -1.556187109173e+02 
-5.036044594679e+01 3.113389608687e+01 0.0 
3.113389608687e+01 -1.237095018372e+02 0.0 
0.0 0.0 -4.967013857720e+01 
-1.303150147008e+02 2.631832105571e+01 0.0 
2.631832105571e+01 -3.054017009685e+02 0.0 
0.0 0.0 -1.303150147008e+02 
-1.199997332298e+02 1.941996224782e+01 0.0 
1.941996224782e+01 -2.706763116905e+02 0.0 
0.0 0.0 -1.168028134761e+02 
-8.650889366797e+01 2.636497296234e+01 0.0 
2.636497296234e+01 -1.758403321830e+02 0.0 
0.0 0.0 -7.637746357889e+01 
-2.393237939668e+01 -5.514635380625e+00 0.0 
-5.514635380625e+00 -2.779658363553e+01 0.0 
0.0 0.0 -1.317638820442e+01 
-1.350168104252e+02 2.812352987488e+01 0.0 
2.812352987488e+01 -3.163725576588e+02 0.0 
0.0 0.0 -1.350168104252e+02 
-1.502409546604e+02 1.822549810718e+01 0.0 
1.822549810718e+01 -3.609821767911e+02 0.0 
0.0 0.0 -1.529669394355e+02 
-5.003884150154e+01 -1.380698032997e+01 0.0 
-1.380698032997e+01 -1.427229596669e+02 0.0 
0.0 0.0 -5.303217175269e+01 
-8.859553606192e+01 1.704010277080e+01 0.0 
1.704010277080e+01 -2.598609022678e+02 0.0 
0.0 0.0 -1.064577227965e+02 
-1.498816812822e+02 2.628877433748e+01 0.0 
2.628877433748e+01 -3.580162144842e+02 0.0 
0.0 0.0 -1.519693687299e+02 
-1.294753696376e+01 -1.001940378477e+00 0.0 
-1.001940378477e+00 -9.073189271876e+00 0.0 
0.0 0.0 -7.176131013478e+00 
-6.504743860387e+01 3.232552495390e+01 0.0 
3.232552495390e+01 -1.459575071030e+02 0.0 
0.0 0.0 -6.221655475358e+01 
-8.910693006666e+01 2.499143152042e+01 0.0 
2.499143152042e+01 -1.798317745635e+02 0.0 
0.0 0.0 -7.924515658670e+01 
-8.352649782165e+01 2.767164529750e+01 0.0 
2.767164529750e+01 -1.725106085178e+02 0.0 
0.0 0.0 -7.343410658838e+01 
-8.412662273341e+01 2.499038242615e+01 0.0 
2.499038242615e+01 -1.593498396418e+02 0.0 
0.0 0.0 -7.054833523734e+01 
-4.599465992319e+01 3.082762720650e+01 0.0 
3.082762720650e+01 -1.078549225247e+02 0.0 
0.0 0.0 -4.214898972769e+01 
-1.401927858455e+02 2.893220558786e+01 0.0 
2.893220558786e+01 -3.284498336395e+02 0.0 
0.0 0.0 -1.401927858455e+02 
-5.682040913690e+01 1.576040346258e+01 0.0 
1.576040346258e+01 -1.787926717662e+02 0.0 
0.0 0.0 -6.811953070590e+01 
-2.894912994583e+01 5.299721097899e+00 0.0 
5.299721097899e+00 -1.174704718076e+02 0.0 
0.0 0.0 -4.678582594366e+01 
-1.564756759236e+02 4.766944238814e+00 0.0 
4.766944238814e+00 -3.768335622432e+02 0.0 
0.0 0.0 -1.595927714501e+02 
-2.106871672228e+01 -2.969118550179e+00 0.0 
-2.969118550179e+00 -2.618373474781e+01 0.0 
0.0 0.0 -1.135913799823e+01 
-6.829564726528e+01 2.106818850699e+01 0.0 
2.106818850699e+01 -9.941800283979e+01 0.0 
0.0 0.0 -4.607955154280e+01 
-3.973442869303e+01 -2.158559198411e+01 0.0 
-2.158559198411e+01 -9.955524005547e+01 0.0 
0.0 0.0 -3.848907644342e+01 
-6.825125436481e+01 1.268682624839e+01 0.0 
1.268682624839e+01 -9.600806112631e+01 0.0 
0.0 0.0 -4.709813321114e+01 
-1.556542565761e+02 2.014375652896e+01 0.0 
2.014375652896e+01 -3.737699037903e+02 0.0 
0.0 0.0 -1.584272481099e+02 
-1.455310745326e+02 2.843732303064e+01 0.0 
2.843732303064e+01 -3.409058405760e+02 0.0 
0.0 0.0 -1.455310745326e+02 
-8.544647034287e+01 1.936585174201e+01 0.0 
1.936585174201e+01 -1.538569429343e+02 0.0 
0.0 0.0 -7.093693313459e+01 
-3.930653295161e+01 -2.318883817660e+01 0.0 
-2.318883817660e+01 -7.099078893649e+01 0.0 
0.0 0.0 -2.674307983787e+01 
-2.964645304334e+01 9.504950853998e+00 0.0 
9.504950853998e+00 -1.225584401137e+02 0.0 
0.0 0.0 -4.801852295685e+01 
-4.916742275672e+01 -2.467266827502e+01 0.0 
-2.467266827502e+01 -8.843090001601e+01 0.0 
0.0 0.0 -3.537671929844e+01 
-1.325410028475e+02 5.671926073051e+00 0.0 
5.671926073051e+00 -3.332848386195e+02 0.0 
0.0 0.0 -1.393477524401e+02 
-6.801522266500e+01 5.314291805969e+00 0.0 
5.314291805969e+00 -1.077223820055e+02 0.0 
0.0 0.0 -5.232128140114e+01 
-7.796444449089e+01 1.330459289253e+01 0.0 
1.330459289253e+01 -1.232581845708e+02 0.0 
0.0 0.0 -5.996678871851e+01 
-1.503714436010e+02 2.696887076080e+01 0.0 
2.696887076080e+01 -3.522000350691e+02 0.0 
0.0 0.0 -1.503714436010e+02 
-6.630418492628e+01 4.535327437659e+00 0.0 
4.535327437659e+00 -1.069200812740e+02 0.0 
0.0 0.0 -5.156727986008e+01 
-1.254231854403e+02 1.834841648865e+01 0.0 
1.834841648865e+01 -2.853971653525e+02 0.0 
0.0 0.0 -1.228461052378e+02 
-1.016625173791e+02 2.418099846956e+01 0.0 
2.418099846956e+01 -2.550805396332e+02 0.0 
0.0 0.0 -1.066229171037e+02 
-7.705490798656e+01 4.269935431534e+00 0.0 
4.269935431534e+00 -1.385103438855e+02 0.0 
0.0 0.0 -6.426957556162e+01 
-4.824926592942e+01 3.354212545281e+01 0.0 
3.354212545281e+01 -8.660675460777e+01 0.0 
0.0 0.0 -3.845763138535e+01 
-8.881544098124e+01 1.650295807118e+01 0.0 
1.650295807118e+01 -2.602720302861e+02 0.0 
0.0 0.0 -1.086321529124e+02 
-3.588732008623e+01 2.129248865051e+01 0.0 
2.129248865051e+01 -1.077085090652e+02 0.0 
0.0 0.0 -3.754227175819e+01 
-1.544350744703e+02 2.464694950151e+01 0.0 
2.464694950151e+01 -3.616818404307e+02 0.0 
0.0 0.0 -1.544350744703e+02 
-1.257402087021e+02 2.332723610712e+01 0.0 
2.332723610712e+01 -2.947271536381e+02 0.0 
0.0 0.0 -1.257402087021e+02 
-1.225138147537e+02 2.025495766825e+01 0.0 
2.025495766825e+01 -2.871989010920e+02 0.0 
0.0 0.0 -1.225138147537e+02 
-1.001931547431e+02 -8.769803766397e-01 0.0 
-8.769803766397e-01 -2.621445028940e+02 0.0 
0.0 0.0 -1.093280898822e+02 
-8.363640730314e+01 -5.763768418235e+00 0.0 
-5.763768418235e+00 -1.805257356998e+02 0.0 
0.0 0.0 -7.308209410847e+01 
-6.835984263630e+01 2.791048300563e+01 0.0 
2.791048300563e+01 -1.629850210558e+02 0.0 
0.0 0.0 -6.732931052826e+01 
-9.784501120855e+01 1.225315466098e+00 0.0 
1.225315466098e+00 -2.678562743516e+02 0.0 
0.0 0.0 -1.093103856681e+02 
-1.579061262758e+02 2.187766248537e+01 0.0 
2.187766248537e+01 -3.697809613101e+02 0.0 
0.0 0.0 -1.579061262758e+02 
-4.420708383576e+01 2.549082261038e+01 0.0 
2.549082261038e+01 -1.201805094837e+02 0.0 
0.0 0.0 -4.389440661301e+01 
-5.144191039446e+01 -4.404403356200e+00 0.0 
-4.404403356200e+00 -1.664552405659e+02 0.0 
0.0 0.0 -6.194100345390e+01 
-5.519432513385e+01 -7.573477399390e+00 0.0 
-7.573477399390e+00 -1.706613248655e+02 0.0 
0.0 0.0 -6.506837973990e+01 
-8.048467624770e+01 4.289810454784e+00 0.0 
4.289810454784e+00 -1.493154926454e+02 0.0 
0.0 0.0 -6.854005066794e+01 
-1.597495395385e+02 1.490713440275e+01 0.0 
1.490713440275e+01 -3.829961963837e+02 0.0 
0.0 0.0 -1.624237207767e+02 
-5.094027215628e+01 -2.496193931795e+01 0.0 
-2.496193931795e+01 -6.359946035826e+01 0.0 
0.0 0.0 -2.863489462292e+01 
-1.612526492371e+02 1.848213282310e+01 0.0 
1.848213282310e+01 -3.775895148866e+02 0.0 
0.0 0.0 -1.612526492371e+02 
-5.434369325962e+01 -1.163027395344e+01 0.0 
-1.163027395344e+01 -1.591785259724e+02 0.0 
0.0 0.0 -6.087350785671e+01 
-1.328451433384e+02 2.743008240453e+01 0.0 
2.743008240453e+01 -3.113053344563e+02 0.0 
0.0 0.0 -1.328451433384e+02 
-1.162440396938e+02 2.384935420639e+01 0.0 
2.384935420639e+01 -2.477470115118e+02 0.0 
0.0 0.0 -1.087973153617e+02 
-1.372578830681e+01 2.937076178929e-01 0.0 
2.937076178929e-01 -9.315166200732e+00 0.0 
0.0 0.0 -5.630279064249e+00 
-6.637003762566e+01 3.160150938795e+01 0.0 
3.160150938795e+01 -1.627950098100e+02 0.0 
0.0 0.0 -6.867963401282e+01 
-1.091706450993e+02 1.413902105207e+01 0.0 
1.413902105207e+01 -2.236190957453e+02 0.0 
0.0 0.0 -9.943692225338e+01 
-1.376987370761e+02 2.874581908829e+01 0.0 
2.874581908829e+01 -3.226303865110e+02 0.0 
0.0 0.0 -1.376987370761e+02 
-9.197772006789e+01 2.329842101574e+01 0.0 
2.329842101574e+01 -1.760270981666e+02 0.0 
0.0 0.0 -8.000144547036e+01 
-1.052916648374e+02 2.318996368574e+01 0.0 
2.318996368574e+01 -2.684364732123e+02 0.0 
0.0 0.0 -1.117184414149e+02 
-4.361290742313e+01 3.156556800523e+01 0.0 
3.156556800523e+01 -9.437016159496e+01 0.0 
0.0 0.0 -3.770502555421e+01 
-1.409692312609e+02 1.631937588108e+01 0.0 
1.631937588108e+01 -3.479201642224e+02 0.0 
0.0 0.0 -1.462668186450e+02 
-5.750672994712e+01 -1.265843530698e+01 0.0 
-1.265843530698e+01 -1.622238217691e+02 0.0 
0.0 0.0 -6.402990737496e+01 
-5.995684372709e+01 -1.134773384169e+01 0.0 
-1.134773384169e+01 -1.730028232957e+02 0.0 
0.0 0.0 -6.905881788339e+01 
-5.187586693193e+01 -2.734927607478e+01 0.0 
-2.734927607478e+01 -4.831861892587e+01 0.0 
0.0 0.0 -2.748242706504e+01 
-1.428406062336e+02 2.881864799136e+01 0.0 
2.881864799136e+01 -3.346280812118e+02 0.0 
0.0 0.0 -1.428406062336e+02 
-3.860963056522e+01 1.868855596198e+01 0.0 
1.868855596198e+01 -1.217859965623e+02 0.0 
0.0 0.0 -4.286324207116e+01 
-1.251305605504e+02 1.089919376718e+01 0.0 
1.089919376718e+01 -3.252551354602e+02 0.0 
0.0 0.0 -1.347157088032e+02 
-7.458752008431e+01 5.323395919959e+00 0.0 
5.323395919959e+00 -1.289481297284e+02 0.0 
0.0 0.0 -6.066069494381e+01 
-5.926493755496e+01 -1.823836267661e+01 0.0 
-1.823836267661e+01 -1.366988234243e+02 0.0 
0.0 0.0 -5.649770670051e+01 
-5.577591689884e+01 -8.926215175378e+00 0.0 
-8.926215175378e+00 -1.680832981303e+02 0.0 
0.0 0.0 -6.503488896788e+01 
-8.809502039916e+01 2.471318493390e+01 0.0 
2.471318493390e+01 -1.698422567663e+02 0.0 
0.0 0.0 -7.698118314965e+01 
-1.524958966107e+02 2.594555988432e+01 0.0 
2.594555988432e+01 -3.571570920915e+02 0.0 
0.0 0.0 -1.524958966107e+02 
-8.553814167743e+01 -6.056935018450e+00 0.0 
-6.056935018450e+00 -1.879577834755e+02 0.0 
0.0 0.0 -7.581893453637e+01 
-1.071695291049e+02 5.087521644123e+00 0.0 
5.087521644123e+00 -2.893180242396e+02 0.0 
0.0 0.0 -1.191268557335e+02 
-8.177249340598e+01 2.881306184836e+01 0.0 
2.881306184836e+01 -1.858872181170e+02 0.0 
0.0 0.0 -7.820036851929e+01 
-9.020995746894e+01 5.953774314779e+00 0.0 
5.953774314779e+00 -2.618497244046e+02 0.0 
0.0 0.0 -1.104791082580e+02 
-5.613308914459e+01 -3.742952837954e+00 0.0 
-3.742952837954e+00 -1.762016047292e+02 0.0 
0.0 0.0 -6.762667986881e+01 
-1.004713820682e+02 2.026858287279e+00 0.0 
2.026858287279e+00 -2.717186382310e+02 0.0 
0.0 0.0 -1.133206234953e+02 
-7.605828264845e+01 2.832160122037e+01 0.0 
2.832160122037e+01 -1.687898306665e+02 0.0 
0.0 0.0 -7.036073942458e+01 
-9.866423669107e+01 2.722322510677e+01 0.0 
2.722322510677e+01 -2.304066692586e+02 0.0 
0.0 0.0 -9.832127178490e+01 
-9.940607787775e+01 1.675668459142e+01 0.0 
1.675668459142e+01 -2.772136415629e+02 0.0 
0.0 0.0 -1.144728858904e+02 
-7.752662752536e+01 2.958558063912e+01 0.0 
2.958558063912e+01 -1.832092196214e+02 0.0 
0.0 0.0 -7.737029075463e+01 
-8.190816393296e+01 -7.800858411386e+00 0.0 
-7.800858411386e+00 -1.958934803160e+02 0.0 
0.0 0.0 -7.940217039410e+01 
-4.659167455506e+01 2.754692517318e+01 0.0 
2.754692517318e+01 -1.204648399235e+02 0.0 
0.0 0.0 -4.580791269134e+01 
-8.111482256762e+01 -7.252006442173e+00 0.0 
-7.252006442173e+00 -1.795551025110e+02 0.0 
0.0 0.0 -7.201036415130e+01 
-1.006183228033e+02 2.542295976618e+01 0.0 
2.542295976618e+01 -2.549523642707e+02 0.0 
0.0 0.0 -1.062712061222e+02 
-7.757126587553e+01 1.456635118524e+01 0.0 
1.456635118524e+01 -2.393328867982e+02 0.0 
0.0 0.0 -1.003939676591e+02 
-1.571020089271e+02 1.851832008822e+01 0.0 
1.851832008822e+01 -3.772109203880e+02 0.0 
0.0 0.0 -1.598938787945e+02 
-1.128387783763e+02 1.599282443310e+01 0.0 
1.599282443310e+01 -2.346917808575e+02 0.0 
0.0 0.0 -1.038591677701e+02 
-5.360745333680e+01 -1.526956274915e+01 0.0 
-1.526956274915e+01 -1.212283862002e+02 0.0 
0.0 0.0 -4.880678219003e+01 
-1.597153783855e+02 2.012929908307e+01 0.0 
2.012929908307e+01 -3.740025495663e+02 0.0 
0.0 0.0 -1.597153783855e+02 
-1.463724619328e+02 1.821980010882e+01 0.0 
1.821980010882e+01 -3.605502719657e+02 0.0 
0.0 0.0 -1.516768201696e+02 
-7.050638955155e+01 2.689146663778e+01 0.0 
2.689146663778e+01 -1.916549966494e+02 0.0 
0.0 0.0 -8.052782886684e+01 
-3.391732372148e+01 -1.439648189508e+01 0.0 
-1.439648189508e+01 -3.507649866189e+01 0.0 
0.0 0.0 -1.444680571918e+01 
-1.606506867976e+02 1.315280626270e+01 0.0 
1.315280626270e+01 -3.851470653640e+02 0.0 
0.0 0.0 -1.633393256485e+02 
-1.139898641293e+02 1.852845391021e+01 0.0 
1.852845391021e+01 -2.373494820818e+02 0.0 
0.0 0.0 -1.050018038633e+02 
-5.355335748447e+01 -1.467424792505e+01 0.0 
-1.467424792505e+01 -1.455886326282e+02 0.0 
0.0 0.0 -5.570898789619e+01 
-1.639160878320e+02 1.515857259854e+01 0.0 
1.515857259854e+01 -3.838042049413e+02 0.0 
0.0 0.0 -1.639160878320e+02 
-1.053785435441e+02 2.438472877161e+00 0.0 
2.438472877161e+00 -2.800675174488e+02 0.0 
0.0 0.0 -1.156173614175e+02 
-6.489213764231e+01 2.893042499681e+01 0.0 
2.893042499681e+01 -1.120956554379e+02 0.0 
0.0 0.0 -4.915728311221e+01 
-7.984050058460e+01 1.253449030546e+01 0.0 
1.253449030546e+01 -1.338556902132e+02 0.0 
0.0 0.0 -6.370885723936e+01 
-7.390186725409e+01 1.563788928546e+01 0.0 
1.563788928546e+01 -2.245962372561e+02 0.0 
0.0 0.0 -9.352721044739e+01 
-9.410960431313e+01 -4.019732688945e+00 0.0 
-4.019732688945e+00 -2.439210341085e+02 0.0 
0.0 0.0 -1.022850731975e+02 
-9.332625027387e+01 8.943801235238e+00 0.0 
8.943801235238e+00 -2.691937968842e+02 0.0 
0.0 0.0 -1.126420972615e+02 
-9.536446337378e+01 1.499392389805e+01 0.0 
1.499392389805e+01 -1.744310985852e+02 0.0 
0.0 0.0 -8.053866858768e+01 
-7.241024002636e+01 2.442329870979e+01 0.0 
2.442329870979e+01 -1.174208279519e+02 0.0 
0.0 0.0 -5.241323877417e+01 
-1.047382409804e+02 1.848775950359e+01 0.0 
1.848775950359e+01 -2.832692820761e+02 0.0 
0.0 0.0 -1.161318834922e+02 
-7.246716105257e+01 9.503811491014e-01 0.0 
9.503811491014e-01 -1.376383611574e+02 0.0 
0.0 0.0 -6.263165666301e+01 
-8.673061844064e+01 -8.362055509705e+00 0.0 
-8.362055509705e+00 -1.969707260789e+02 0.0 
0.0 0.0 -8.165428883091e+01 
-9.372804151592e+01 1.465935393481e+01 0.0 
1.465935393481e+01 -2.709289496893e+02 0.0 
0.0 0.0 -1.124429698247e+02 
-6.389934760343e+01 -1.593805276959e+01 0.0 
-1.593805276959e+01 -1.667747706881e+02 0.0 
0.0 0.0 -6.849940191993e+01 
-1.086672784794e+02 -1.637190526564e+00 0.0 
-1.637190526564e+00 -2.704254791869e+02 0.0 
0.0 0.0 -1.119163577087e+02 
-1.622688759149e+01 -1.570717063194e+00 0.0 
-1.570717063194e+00 -9.016308685129e+00 0.0 
0.0 0.0 -6.400979290439e+00 
-4.892490759695e+01 2.934870919863e+01 0.0 
2.934870919863e+01 -1.214032250217e+02 0.0 
0.0 0.0 -4.801925070705e+01 
-5.981622342939e+01 -1.498491744941e+01 0.0 
-1.498491744941e+01 -1.618904071999e+02 0.0 
0.0 0.0 -6.514071968060e+01 
-9.124402932290e+01 -5.769880524230e+00 0.0 
-5.769880524230e+00 -2.120478997161e+02 0.0 
0.0 0.0 -8.565894941359e+01 
-7.427388275407e+01 2.812848944585e+01 0.0 
2.812848944585e+01 -1.955067440415e+02 0.0 
0.0 0.0 -8.215630653708e+01 
-1.006840180799e+02 2.419569698509e+00 0.0 
2.419569698509e+00 -2.782245042275e+02 0.0 
0.0 0.0 -1.132725566922e+02 
-7.866754994341e+01 5.077651766663e+00 0.0 
5.077651766663e+00 -1.411573110183e+02 0.0 
0.0 0.0 -6.554745828852e+01 
-5.940762224398e+01 -1.724617099172e+01 0.0 
-1.724617099172e+01 -1.485092551802e+02 0.0 
0.0 0.0 -6.015704281566e+01 
-1.649469578653e+02 1.352428664207e+01 0.0 
1.352428664207e+01 -3.862095683524e+02 0.0 
0.0 0.0 -1.649469578653e+02 
-8.640166953702e+01 2.695779213438e+01 0.0 
2.695779213438e+01 -1.800515643528e+02 0.0 
0.0 0.0 -7.933800920407e+01 
-9.541991056200e+01 -4.935895953057e+00 0.0 
-4.935895953057e+00 -2.200697751651e+02 0.0 
0.0 0.0 -8.987898532482e+01 
-8.307752039995e+01 2.767074401147e+01 0.0 
2.767074401147e+01 -1.757328489939e+02 0.0 
0.0 0.0 -7.635922832344e+01 
-9.528440624377e+01 -5.127787235391e+00 0.0 
-5.127787235391e+00 -2.129769850766e+02 0.0 
0.0 0.0 -8.675876203582e+01 
-1.816931554833e+01 -1.504217010551e+00 0.0 
-1.504217010551e+00 -9.343662471509e+00 0.0 
0.0 0.0 -8.828139385199e+00 
-8.531487394026e+01 1.462231429402e+01 0.0 
1.462231429402e+01 -1.444443932846e+02 0.0 
0.0 0.0 -6.852778016745e+01 
-8.285203904053e+01 -3.276267666512e+00 0.0 
-3.276267666512e+00 -1.733164337300e+02 0.0 
0.0 0.0 -7.122887248368e+01 
-7.495520998010e+00 -4.858875568384e-01 0.0 
-4.858875568384e-01 -8.797835985029e+00 0.0 
0.0 0.0 -3.164497543865e+00 
-9.280587304346e+01 -5.171910787321e+00 0.0 
-5.171910787321e+00 -2.081006863907e+02 0.0 
0.0 0.0 -8.496738174967e+01 
-1.097511594520e+02 3.906549936589e+00 0.0 
3.906549936589e+00 -2.966712245614e+02 0.0 
0.0 0.0 -1.215267152040e+02 
-9.960014240606e+01 3.106390485291e+00 0.0 
3.106390485291e+00 -2.141929571816e+02 0.0 
0.0 0.0 -9.373792987628e+01 
-8.393698487004e+01 6.431265304203e+00 0.0 
6.431265304203e+00 -2.528916751237e+02 0.0 
0.0 0.0 -1.063016531643e+02 
-8.690027255934e+01 6.074754556358e+00 0.0 
6.074754556358e+00 -2.597234347376e+02 0.0 
0.0 0.0 -1.086866231380e+02 
-7.171809064145e+01 1.106297177054e+01 0.0 
1.106297177054e+01 -1.035302883757e+02 0.0 
0.0 0.0 -5.166699920316e+01 
-5.792462855295e+01 2.997270508746e+00 0.0 
2.997270508746e+00 -8.759157979469e+01 0.0 
0.0 0.0 -4.325486250429e+01 
-1.171120273899e+02 1.529574598506e+01 0.0 
1.529574598506e+01 -2.639644596355e+02 0.0 
0.0 0.0 -1.139229461076e+02 
-7.968981806686e+01 2.813551198337e+01 0.0 
2.813551198337e+01 -1.720502023811e+02 0.0 
0.0 0.0 -7.342948978300e+01 
-1.228759051185e+01 9.119216844044e-02 0.0 
9.119216844044e-02 -7.187679496682e+00 0.0 
0.0 0.0 -4.765303624772e+00 
-3.379190220034e+01 -6.740652241815e+00 0.0 
-6.740652241815e+00 -7.069404997485e+01 0.0 
0.0 0.0 -2.698502800693e+01 
-2.947968284786e+01 -8.601612524601e+00 0.0 
-8.601612524601e+00 -2.970479604695e+01 0.0 
0.0 0.0 -1.414642708367e+01 
-5.800427305425e+01 -1.459888031890e+01 0.0 
-1.459888031890e+01 -1.271996738534e+02 0.0 
0.0 0.0 -5.248956336224e+01 
-1.156289248438e+02 2.674201301566e+01 0.0 
2.674201301566e+01 -2.603143395190e+02 0.0 
0.0 0.0 -1.123829793088e+02 
-1.010698163644e+02 4.927735965345e+00 0.0 
4.927735965345e+00 -2.151304311247e+02 0.0 
0.0 0.0 -9.446007424674e+01 
-1.261026074755e+02 3.083182103558e+00 0.0 
3.083182103558e+00 -3.219254495912e+02 0.0 
0.0 0.0 -1.340084171200e+02 
-6.497239070171e+01 -1.015338546325e+01 0.0 
-1.015338546325e+01 -1.427810000702e+02 0.0 
0.0 0.0 -5.813704413540e+01 
-1.136659712816e+02 -9.266520159205e-01 0.0 
-9.266520159205e-01 -2.715437126969e+02 0.0 
0.0 0.0 -1.126343454989e+02 
-1.290672476652e+02 9.120236013406e+00 0.0 
9.120236013406e+00 -3.336346110002e+02 0.0 
0.0 0.0 -1.384105575996e+02 
-3.388241034792e+01 4.222698716356e+00 0.0 
4.222698716356e+00 -1.260911021406e+02 0.0 
0.0 0.0 -4.800130504125e+01 
-8.276604918291e+01 -8.212510868734e-01 0.0 
-8.212510868734e-01 -1.737167825232e+02 0.0 
0.0 0.0 -7.160637105794e+01 
-6.869353013267e+01 -2.315352689884e+00 0.0 
-2.315352689884e+00 -1.419259581077e+02 0.0 
0.0 0.0 -5.799183838478e+01 
-1.614794296680e+02 1.137185263375e+01 0.0 
1.137185263375e+01 -3.867307476083e+02 0.0 
0.0 0.0 -1.640630531829e+02 
-1.657638955112e+02 1.188796658700e+01 0.0 
1.188796658700e+01 -3.881157561928e+02 0.0 
0.0 0.0 -1.657638955112e+02 
-9.115572995563e+01 -8.997296798859e-01 0.0 
-8.997296798859e-01 -1.931953824887e+02 0.0 
0.0 0.0 -7.997204332271e+01 
-9.908869096257e+01 -3.911235123976e+00 0.0 
-3.911235123976e+00 -2.210098052904e+02 0.0 
0.0 0.0 -9.046358526525e+01 
-9.314390270808e+01 -9.396187103264e-01 0.0 
-9.396187103264e-01 -2.492462748901e+02 0.0 
0.0 0.0 -1.022577077986e+02 
-1.338649073272e+02 1.124850706797e+01 0.0 
1.124850706797e+01 -3.419507757373e+02 0.0 
0.0 0.0 -1.423447049194e+02 
-3.904820096540e+01 -9.987163498865e+00 0.0 
-9.987163498865e+00 -7.923114877206e+01 0.0 
0.0 0.0 -3.229922457748e+01 
-1.241759119960e+02 7.152602807013e+00 0.0 
7.152602807013e+00 -3.246300382743e+02 0.0 
0.0 0.0 -1.342417850811e+02 
-1.643604275463e+01 -8.629596319360e-01 0.0 
-8.629596319360e-01 -4.318817359958e+01 0.0 
0.0 0.0 -1.509593808813e+01 
-9.170687019175e+01 -4.919184830772e+00 0.0 
-4.919184830772e+00 -2.009114252316e+02 0.0 
0.0 0.0 -8.131236329917e+01 
-9.823409962731e+01 -5.001857541672e+00 0.0 
-5.001857541672e+00 -2.249088607547e+02 0.0 
0.0 0.0 -9.207390010721e+01 
-9.021910782670e+00 -4.646309733111e-01 0.0 
-4.646309733111e-01 -2.544754671166e+01 0.0 
0.0 0.0 -7.756739219112e+00 
-8.699853566083e+01 -2.137433734141e+00 0.0 
-2.137433734141e+00 -1.829239668568e+02 0.0 
0.0 0.0 -7.567347502139e+01 
-1.097177876827e+02 1.383791221301e+01 0.0 
1.383791221301e+01 -2.328361797629e+02 0.0 
0.0 0.0 -1.023661902337e+02 
-1.174820145930e+01 2.320121483919e-02 0.0 
2.320121483919e-02 -7.511572619721e+00 0.0 
0.0 0.0 -4.692481437062e+00 
-5.965249011448e+01 3.802348495204e+00 0.0 
3.802348495204e+00 -8.841819954809e+01 0.0 
0.0 0.0 -4.402120689877e+01 
-6.015275781946e+01 4.630183441812e+00 0.0 
4.630183441812e+00 -8.990186017787e+01 0.0 
0.0 0.0 -4.461638539920e+01 
-9.687788190056e+01 1.174019398154e+01 0.0 
1.174019398154e+01 -2.761934601945e+02 0.0 
0.0 0.0 -1.143534550045e+02 
-6.734246147173e+01 2.030571581130e-01 0.0 
2.030571581130e-01 -1.418732601689e+02 0.0 
0.0 0.0 -5.803566862836e+01 
-5.624918249803e+01 -1.468356089005e+01 0.0 
-1.468356089005e+01 -1.486135026302e+02 0.0 
0.0 0.0 -5.895190901015e+01 
-4.334253475108e+01 3.052738792317e+01 0.0 
3.052738792317e+01 -8.723711111036e+01 0.0 
0.0 0.0 -3.441397517746e+01 
-1.412576748277e+02 3.667239796261e+00 0.0 
3.667239796261e+00 -3.485180344401e+02 0.0 
0.0 0.0 -1.465327127803e+02 
-1.345484395272e+02 2.745608670769e+01 0.0 
2.745608670769e+01 -3.156671790524e+02 0.0 
0.0 0.0 -1.346646855739e+02 
-9.891424734723e+01 6.811081841233e+00 0.0 
6.811081841233e+00 -2.029274545762e+02 0.0 
0.0 0.0 -9.015251057703e+01 
-4.813894874149e+01 3.106608178737e+01 0.0 
3.106608178737e+01 -8.680105821409e+01 0.0 
0.0 0.0 -3.729536859384e+01 
-2.897179440167e+01 -7.304549812913e+00 0.0 
-7.304549812913e+00 -4.925127654260e+01 0.0 
0.0 0.0 -2.070461869857e+01 
-7.198938536438e+01 2.303734096898e+01 0.0 
2.303734096898e+01 -1.056657537479e+02 0.0 
0.0 0.0 -5.003728474685e+01 
-5.560359085911e+01 1.375439184530e+00 0.0 
1.375439184530e+00 -8.781973017018e+01 0.0 
0.0 0.0 -4.262699630879e+01 
-5.472216732926e+01 1.350690609000e+00 0.0 
1.350690609000e+00 -8.778411498455e+01 0.0 
0.0 0.0 -4.235188469414e+01 
-6.909110764625e+00 -4.187632902147e-01 0.0 
-4.187632902147e-01 -9.149754590470e+00 0.0 
0.0 0.0 -3.009484513773e+00 
-9.322828849751e+00 -6.288713807361e-01 0.0 
-6.288713807361e-01 -2.530915352743e+01 0.0 
0.0 0.0 -7.752105015863e+00 
-1.113007875279e+01 -2.895374971236e-01 0.0 
-2.895374971236e-01 -4.172061117454e+01 0.0 
0.0 0.0 -1.366028748433e+01 
-5.037863765757e+01 -1.062340018066e+01 0.0 
-1.062340018066e+01 -1.086161398210e+02 0.0 
0.0 0.0 -4.361469346859e+01 
-1.280318488626e+01 -6.949316953957e-02 0.0 
-6.949316953957e-02 -2.601070920981e+01 0.0 
0.0 0.0 -9.039165737069e+00 
-9.465532465374e+01 -1.911910476691e+00 0.0 
-1.911910476691e+00 -2.035247571894e+02 0.0 
0.0 0.0 -8.436778835167e+01 
-5.243944662825e+01 -1.406725765759e+01 0.0 
-1.406725765759e+01 -5.982232353619e+01 0.0 
0.0 0.0 -3.424686641448e+01 
-5.925028841710e+01 -1.068193110680e+01 0.0 
-1.068193110680e+01 -1.295391724027e+02 0.0 
0.0 0.0 -5.208590169375e+01 
-7.828366300539e+01 8.914901646161e-01 0.0 
8.914901646161e-01 -1.546108134002e+02 0.0 
0.0 0.0 -6.946834292169e+01 
-5.757931569049e+01 2.643606358608e+00 0.0 
2.643606358608e+00 -8.826790428034e+01 0.0 
0.0 0.0 -4.335416599125e+01 
-1.194518864151e+02 2.646768083594e+01 0.0 
2.646768083594e+01 -2.657857911074e+02 0.0 
0.0 0.0 -1.151713032567e+02 
-1.060115086276e+02 2.181106597610e+00 0.0 
2.181106597610e+00 -2.866156241042e+02 0.0 
0.0 0.0 -1.173881398195e+02 
-7.127989532670e+01 4.406987842692e-01 0.0 
4.406987842692e-01 -1.367141057826e+02 0.0 
0.0 0.0 -6.199820033278e+01 
-7.296298907585e+01 -1.262565774716e+00 0.0 
-1.262565774716e+00 -1.517147451212e+02 0.0 
0.0 0.0 -6.230020706460e+01 
-1.509969459203e+01 -2.557361015789e-01 0.0 
-2.557361015789e-01 -4.289175654757e+01 0.0 
0.0 0.0 -1.416756227598e+01 
-1.162858707556e+02 8.048640847854e+00 0.0 
8.048640847854e+00 -2.726670317630e+02 0.0 
0.0 0.0 -1.162858707556e+02 
-1.201238094395e+02 8.831365480433e+00 0.0 
8.831365480433e+00 -2.745781902431e+02 0.0 
0.0 0.0 -1.180105999048e+02 
-7.229265110206e+01 2.819302699064e+00 0.0 
2.819302699064e+00 -1.276996040720e+02 0.0 
0.0 0.0 -5.959767655222e+01 
-5.604863129291e+01 1.759083186290e+00 0.0 
1.759083186290e+00 -8.744513852460e+01 0.0 
0.0 0.0 -4.264813094525e+01 
-7.318313025761e+01 -1.137224637626e+00 0.0 
-1.137224637626e+00 -1.542969581121e+02 0.0 
0.0 0.0 -6.326322026252e+01 
-1.192011606296e+02 6.305710639510e+00 0.0 
6.305710639510e+00 -2.731661172429e+02 0.0 
0.0 0.0 -1.173101833618e+02 
-5.500991101602e+01 -1.034721250053e+01 0.0 
-1.034721250053e+01 -1.212604131769e+02 0.0 
0.0 0.0 -4.884621817105e+01 
-5.880695830041e+01 3.571411990778e+00 0.0 
3.571411990778e+00 -8.878508315149e+01 0.0 
0.0 0.0 -4.387761243557e+01 
-5.742097414874e+01 2.257646895051e+00 0.0 
2.257646895051e+00 -8.748160018488e+01 0.0 
0.0 0.0 -4.307077230008e+01 
-6.578788098314e+01 1.447876993179e+01 0.0 
1.447876993179e+01 -8.842906164482e+01 0.0 
0.0 0.0 -4.330873756889e+01 
-1.204724932544e+02 1.707057148049e+01 0.0 
1.707057148049e+01 -2.824358175936e+02 0.0 
0.0 0.0 -1.204724932544e+02 
-1.205346112764e+02 7.415469468299e+00 0.0 
7.415469468299e+00 -2.743602623109e+02 0.0 
0.0 0.0 -1.180684620762e+02 
-1.306676684071e+01 -2.151296622783e-01 0.0 
-2.151296622783e-01 -2.576911846464e+01 0.0 
0.0 0.0 -9.019196186040e+00 
-6.893850087067e+00 -2.336357609657e-01 0.0 
-2.336357609657e-01 -9.297159039265e+00 0.0 
0.0 0.0 -3.088798244344e+00 
-3.079126861017e+01 -7.463310521186e+00 0.0 
-7.463310521186e+00 -5.872262576783e+01 0.0 
0.0 0.0 -2.422784831057e+01 
-9.341787416985e+01 -5.100282451234e+00 0.0 
-5.100282451234e+00 -2.238650524303e+02 0.0 
0.0 0.0 -9.059508368033e+01 
-1.513193136383e+02 -4.930880343809e-01 0.0 
-4.930880343809e-01 -3.619195207485e+02 0.0 
0.0 0.0 -1.535716503160e+02 
-1.060220862247e+02 -2.345098758981e+01 0.0 
-2.345098758981e+01 -7.601705994171e+01 0.0 
0.0 0.0 -5.488778568433e+01 
-9.367801266752e+01 1.520711936552e+00 0.0 
1.520711936552e+00 -1.979141703461e+02 0.0 
0.0 0.0 -8.707765490409e+01 
-3.432763715363e+01 -1.249986596477e+01 0.0 
-1.249986596477e+01 -1.186285859096e+01 0.0 
0.0 0.0 -1.385147293467e+01 
-9.602650180176e+01 7.670820695721e+00 0.0 
7.670820695721e+00 -2.776303355998e+02 0.0 
0.0 0.0 -1.143109065899e+02 
-2.563855148045e+01 -6.435076673740e+00 0.0 
-6.435076673740e+00 -1.357288444301e+01 0.0 
0.0 0.0 -1.065439021343e+01 
-5.828426757954e+01 -2.662219434501e+01 0.0 
-2.662219434501e+01 -3.411422622253e+01 0.0 
0.0 0.0 -2.801184167137e+01 
-9.252311434529e+01 5.253299176908e+00 0.0 
5.253299176908e+00 -2.694000740351e+02 0.0 
0.0 0.0 -1.112916545674e+02 
-1.459328376302e+02 8.545313489043e-01 0.0 
8.545313489043e-01 -3.523743803675e+02 0.0 
0.0 0.0 -1.490921653993e+02 
-7.864911569931e+01 1.322504574695e+00 0.0 
1.322504574695e+00 -1.536628022233e+02 0.0 
0.0 0.0 -6.929357537678e+01 
-7.440020570884e+01 2.565278406528e+01 0.0 
2.565278406528e+01 -1.219499441510e+02 0.0 
0.0 0.0 -5.574782085282e+01 
-8.699294016831e+00 -1.905867206659e-01 0.0 
-1.905867206659e-01 -2.535939367150e+01 0.0 
0.0 0.0 -7.720223412904e+00 
-1.169478256384e+02 -2.377817769090e-01 0.0 
-2.377817769090e-01 -2.795123510011e+02 0.0 
0.0 0.0 -1.164222971312e+02 
-1.150748749233e+02 2.584116953428e+00 0.0 
2.584116953428e+00 -2.698413748211e+02 0.0 
0.0 0.0 -1.150748749233e+02 
-1.183290977984e+02 3.511146217052e+00 0.0 
3.511146217052e+00 -2.719361846448e+02 0.0 
0.0 0.0 -1.166795847330e+02 
-5.643232768701e+01 1.978119198412e+00 0.0 
1.978119198412e+00 -8.790941604271e+01 0.0 
0.0 0.0 -4.290252311892e+01 
-1.003427751239e+02 1.013976783423e+01 0.0 
1.013976783423e+01 -2.854204727899e+02 0.0 
0.0 0.0 -1.172994596163e+02 
-1.161473280924e+02 6.579519980832e+00 0.0 
6.579519980832e+00 -2.723437655489e+02 0.0 
0.0 0.0 -1.161473280924e+02 
-1.049378565703e+02 2.446573324284e+01 0.0 
2.446573324284e+01 -2.685516482711e+02 0.0 
0.0 0.0 -1.116468514524e+02 
-1.411310885750e+01 -2.786148956430e-01 0.0 
-2.786148956430e-01 -4.157985774693e+01 0.0 
0.0 0.0 -1.339503625159e+01 
-1.248340368915e+01 -4.595594491235e-03 0.0 
-4.595594491235e-03 -2.577937705102e+01 0.0 
0.0 0.0 -8.910581612438e+00 
-8.347850001218e+00 -2.436498823617e-02 0.0 
-2.436498823617e-02 -2.468296721864e+01 0.0 
0.0 0.0 -7.586481114407e+00 
-8.270006079451e+01 -1.175881987312e+00 0.0 
-1.175881987312e+00 -1.725047501642e+02 0.0 
0.0 0.0 -7.128134178357e+01 
-1.658945083214e+02 2.283237792336e+00 0.0 
2.283237792336e+00 -3.919307385295e+02 0.0 
0.0 0.0 -1.669475740553e+02 
-1.105230125867e+02 1.100946945434e+00 0.0 
1.100946945434e+00 -2.492914260997e+02 0.0 
0.0 0.0 -1.075443316059e+02 
-6.425471266418e+00 8.812204557693e-02 0.0 
8.812204557693e-02 -9.245908159599e+00 0.0 
0.0 0.0 -2.889491208328e+00 
-9.540900168963e+01 1.275741527063e-01 0.0 
1.275741527063e-01 -2.037985017442e+02 0.0 
0.0 0.0 -8.464381910613e+01 
-1.682130284847e+02 1.460533384958e+00 0.0 
1.460533384958e+00 -3.938303997976e+02 0.0 
0.0 0.0 -1.682130284847e+02 
-1.652599492170e+02 2.239798610574e+00 0.0 
2.239798610574e+00 -3.913639718427e+02 0.0 
0.0 0.0 -1.665871763179e+02 
-1.620523553221e+02 9.900679597570e+00 0.0 
9.900679597570e+00 -3.878427556238e+02 0.0 
0.0 0.0 -1.645685332838e+02 
-8.653726807348e+01 -4.741559974373e-01 0.0 
-4.741559974373e-01 -1.779508293259e+02 0.0 
0.0 0.0 -7.894642921981e+01 
-9.732205016779e+01 9.713066610238e-01 0.0 
9.713066610238e-01 -2.083872098797e+02 0.0 
0.0 0.0 -9.131277801426e+01 
-1.674222255480e+02 2.065650293992e+00 0.0 
2.065650293992e+00 -3.919851929454e+02 0.0 
0.0 0.0 -1.674222255480e+02 
-1.677498786467e+02 2.816096691625e+00 0.0 
2.816096691625e+00 -3.927497168423e+02 0.0 
0.0 0.0 -1.677498786467e+02 
-9.371716288888e+01 -2.062777998575e-01 0.0 
-2.062777998575e-01 -1.980179701036e+02 0.0 
0.0 0.0 -8.712053989776e+01 
-1.153982503126e+01 -2.913602581035e-01 0.0 
-2.913602581035e-01 -6.457684006548e+00 0.0 
0.0 0.0 -4.367177682902e+00 
-5.327963158640e+01 7.372112644280e-01 0.0 
7.372112644280e-01 -8.676219420482e+01 0.0 
0.0 0.0 -4.161254773736e+01 
-5.553607959297e+01 1.432885363995e+00 0.0 
1.432885363995e+00 -8.792305699840e+01 0.0 
0.0 0.0 -4.263774097741e+01 
-6.608685907109e+00 -9.648177630358e-02 0.0 
-9.648177630358e-02 -9.252244041110e+00 0.0 
0.0 0.0 -2.969417165409e+00 
-1.678128239373e+02 5.325068630206e+00 0.0 
5.325068630206e+00 -3.928965891870e+02 0.0 
0.0 0.0 -1.678128239373e+02 
-1.624088212381e+02 8.300006263428e+00 0.0 
8.300006263428e+00 -3.885239620966e+02 0.0 
0.0 0.0 -1.648798350004e+02 
-1.667949736951e+02 7.545380318943e+00 0.0 
7.545380318943e+00 -3.905216052887e+02 0.0 
0.0 0.0 -1.667949736951e+02 
-1.145618605401e+01 9.815471788139e-02 0.0 
9.815471788139e-02 -7.695424046817e+00 0.0 
0.0 0.0 -4.601784704925e+00 
-1.148879416733e+01 -8.118000291414e-04 0.0 
-8.118000291414e-04 -7.828927458498e+00 0.0 
0.0 0.0 -4.621911179191e+00 
-1.662277802138e+02 1.036389689750e+01 0.0 
1.036389689750e+01 -3.891981538322e+02 0.0 
0.0 0.0 -1.662277802138e+02 
-1.666653351936e+02 8.969248650780e+00 0.0 
8.969248650780e+00 -3.902191154517e+02 0.0 
0.0 0.0 -1.666653351936e+02 
-8.274987414075e+01 9.990383267124e-01 0.0 
9.990383267124e-01 -1.678694493615e+02 0.0 
0.0 0.0 -7.478579705069e+01 
-5.204014667776e+01 1.844043849249e-01 0.0 
1.844043849249e-01 -8.635352101504e+01 0.0 
0.0 0.0 -4.111810030784e+01 
-9.034755403338e+01 1.003391181148e+00 0.0 
1.003391181148e+00 -1.880826927725e+02 0.0 
0.0 0.0 -8.312907404177e+01 
-6.775999591218e+01 9.300451494907e-01 0.0 
9.300451494907e-01 -1.279259247568e+02 0.0 
0.0 0.0 -5.830577620070e+01 
-5.196495423075e+01 6.016596871819e-02 0.0 
6.016596871819e-02 -8.647812203636e+01 0.0 
0.0 0.0 -4.113292288013e+01 
-1.294315119760e+01 -5.243018705452e-02 0.0 
-5.243018705452e-02 -7.641493861506e+00 0.0 
0.0 0.0 -5.033380904876e+00 
-1.386998386736e+01 3.133838014826e-01 0.0 
3.133838014826e-01 -7.680454084881e+00 0.0 
0.0 0.0 -6.065131385672e+00 
-1.372894980744e+01 7.027525569130e-01 0.0 
7.027525569130e-01 -6.902774548661e+00 0.0 
0.0 0.0 -5.789517306831e+00 
-1.332114251305e+01 1.008706941521e+00 0.0 
1.008706941521e+00 -7.283612832664e+00 0.0 
0.0 0.0 -5.781426603716e+00 
-9.893863490731e+01 -1.152011971184e+00 0.0 
-1.152011971184e+00 -2.141932463205e+02 0.0 
0.0 0.0 -8.906821756473e+01 
-9.123914800524e+01 -1.130120872405e+00 0.0 
-1.130120872405e+00 -1.933137041862e+02 0.0 
0.0 0.0 -8.018987788155e+01 
-8.195857728384e+00 -3.865329518277e-01 0.0 
-3.865329518277e-01 -9.336476202566e+00 0.0 
0.0 0.0 -4.097639461366e+00 
-1.174939074130e+02 -9.563384376731e-01 0.0 
-9.563384376731e-01 -2.741741462001e+02 0.0 
0.0 0.0 -1.148511323553e+02 
-1.038373406299e+01 -4.531310961116e-01 0.0 
-4.531310961116e-01 -9.510327949513e+00 0.0 
0.0 0.0 -5.471335862092e+00 
-1.183122583975e+02 1.365130767485e+01 0.0 
1.365130767485e+01 -2.773952695941e+02 0.0 
0.0 0.0 -1.183122583975e+02 
-1.156445605357e+02 5.475398750370e+00 0.0 
5.475398750370e+00 -2.711706412499e+02 0.0 
0.0 0.0 -1.156445605357e+02 
-1.165755761237e+02 9.343999754721e+00 0.0 
9.343999754721e+00 -2.733430109554e+02 0.0 
0.0 0.0 -1.165755761237e+02 
-1.834317600173e+01 -1.499302087434e+00 0.0 
-1.499302087434e+00 -6.892252102939e+01 0.0 
0.0 0.0 -2.577970910934e+01 
-6.176079469238e+01 -1.308136960060e+00 0.0 
-1.308136960060e+00 -1.309103605349e+02 0.0 
0.0 0.0 -5.330110890246e+01 
-1.152644088080e+02 4.397069292689e+00 0.0 
4.397069292689e+00 -2.702836205520e+02 0.0 
0.0 0.0 -1.152644088080e+02 
-1.373783372819e+02 -7.355025862499e-01 0.0 
-7.355025862499e-01 -3.335211693529e+02 0.0 
0.0 0.0 -1.408698519904e+02 
-1.160766610106e+02 3.539766153842e+00 0.0 
3.539766153842e+00 -2.721788756914e+02 0.0 
0.0 0.0 -1.160766610106e+02 
-1.468355056484e+02 -7.646933465705e-01 0.0 
-7.646933465705e-01 -3.529015558710e+02 0.0 
0.0 0.0 -1.495211184558e+02 
-1.565401733272e+02 -8.356668560419e-01 0.0 
-8.356668560419e-01 -3.721972147517e+02 0.0 
0.0 0.0 -1.582212164237e+02 
-8.717262062934e+01 1.381519688360e-01 0.0 
1.381519688360e-01 -1.830225231835e+02 0.0 
0.0 0.0 -7.577814267651e+01 
-1.187713086195e+02 5.135231617793e+00 0.0 
5.135231617793e+00 -2.721323077193e+02 0.0 
0.0 0.0 -1.168710849016e+02 
-1.182148793844e+02 3.595486856831e+00 0.0 
3.595486856831e+00 -2.721339504366e+02 0.0 
0.0 0.0 -1.167046489463e+02 
-1.417684109469e+02 1.144677502995e+00 0.0 
1.144677502995e+00 -3.422996872971e+02 0.0 
0.0 0.0 -1.448204294732e+02 
-1.515312658067e+02 1.203380400955e+00 0.0 
1.203380400955e+00 -3.621474464172e+02 0.0 
0.0 0.0 -1.537036136672e+02 
-1.230481408350e+02 6.945966245062e-01 0.0 
6.945966245062e-01 -2.956557766505e+02 0.0 
0.0 0.0 -1.239443930678e+02 
-2.539614850947e+01 -4.131059082041e+00 0.0 
-4.131059082041e+00 -9.870469718414e+00 0.0 
0.0 0.0 -1.115646165125e+01 
-8.758565259861e+01 -4.460488104168e+00 0.0 
-4.460488104168e+00 -1.887828393774e+02 0.0 
0.0 0.0 -7.644634864522e+01 
-1.345356294362e+01 -1.721756132541e-01 0.0 
-1.721756132541e-01 -2.528605935793e+01 0.0 
0.0 0.0 -9.103067301390e+00 
-1.424629125563e+02 4.909165968651e+00 0.0 
4.909165968651e+00 -3.492117535142e+02 0.0 
0.0 0.0 -1.471023998211e+02 
-8.866001033813e+01 -6.089804946873e+00 0.0 
-6.089804946873e+00 -2.000445080405e+02 0.0 
0.0 0.0 -8.072707818947e+01 
-1.317496798941e+02 6.673715255685e-01 0.0 
6.673715255685e-01 -3.251159627545e+02 0.0 
0.0 0.0 -1.366596927946e+02 
-4.449338924864e+01 -9.450225401738e+00 0.0 
-9.450225401738e+00 -9.971932771329e+01 0.0 
0.0 0.0 -3.939041463835e+01 
-1.444520003280e+01 -1.878754475201e+00 0.0 
-1.878754475201e+00 -4.165545463576e+01 0.0 
0.0 0.0 -1.493331261713e+01 
-1.419711199323e+02 2.571247801228e+00 0.0 
2.571247801228e+00 -3.446022036535e+02 0.0 
0.0 0.0 -1.455719970758e+02 
-9.555311757465e+01 -3.686304372338e+00 0.0 
-3.686304372338e+00 -2.090876250906e+02 0.0 
0.0 0.0 -8.565704197156e+01 
-7.809403304301e+01 -2.304134888337e+00 0.0 
-2.304134888337e+00 -1.622142110352e+02 0.0 
0.0 0.0 -6.664150813334e+01 
-1.326691188621e+02 2.129496848433e+00 0.0 
2.129496848433e+00 -3.258377414228e+02 0.0 
0.0 0.0 -1.371520580855e+02 
-1.029652327629e+02 1.110785070915e+00 0.0 
1.110785070915e+00 -2.264832740658e+02 0.0 
0.0 0.0 -9.843455204861e+01 
-7.798386484472e+01 1.633729210735e-01 0.0 
1.633729210735e-01 -1.624506292895e+02 0.0 
0.0 0.0 -6.693117978034e+01 
-1.164604877133e+02 6.738908594009e+00 0.0 
6.738908594009e+00 -3.075645084550e+02 0.0 
0.0 0.0 -1.268074988505e+02 
-1.057016259421e+02 -6.277906500616e-01 0.0 
-6.277906500616e-01 -2.735260841456e+02 0.0 
0.0 0.0 -1.127028433108e+02 
-1.201228184152e+02 -6.783038988462e-01 0.0 
-6.783038988462e-01 -2.948217302569e+02 0.0 
0.0 0.0 -1.233692804571e+02 
-1.236510034558e+02 -4.841787168331e-01 0.0 
-4.841787168331e-01 -3.034316395295e+02 0.0 
0.0 0.0 -1.273351690948e+02 
-5.539452213629e+01 1.569033679072e+01 0.0 
1.569033679072e+01 -1.785726564903e+02 0.0 
0.0 0.0 -6.822383546355e+01 
-6.829895236808e+01 2.528756952672e+01 0.0 
2.528756952672e+01 -1.002869355110e+02 0.0 
0.0 0.0 -4.634254959291e+01 
-6.875743767265e+01 2.662954508287e+01 0.0 
2.662954508287e+01 -1.777022920307e+02 0.0 
0.0 0.0 -7.292459606104e+01 
-1.126205242696e+02 -1.272202454050e+00 0.0 
-1.272202454050e+00 -2.784915541685e+02 0.0 
0.0 0.0 -1.157242102678e+02 
-1.370948703731e+02 2.022465420384e+00 0.0 
2.022465420384e+00 -3.341194437432e+02 0.0 
0.0 0.0 -1.409642942349e+02 
-1.268603521607e+02 -5.022043823467e-01 0.0 
-5.022043823467e-01 -3.122110438753e+02 0.0 
0.0 0.0 -1.313214188108e+02 
-5.058665009272e+01 -1.411862751687e+01 0.0 
-1.411862751687e+01 -1.070055528603e+02 0.0 
0.0 0.0 -4.364508053116e+01 
-1.032952419356e+02 2.500774082534e+00 0.0 
2.500774082534e+00 -2.255481499102e+02 0.0 
0.0 0.0 -9.825301755374e+01 
-9.625291027643e+01 2.087698663013e+00 0.0 
2.087698663013e+00 -2.048962049293e+02 0.0 
0.0 0.0 -8.994473456172e+01 
-6.305200884202e+01 8.978072693168e-02 0.0 
8.978072693168e-02 -1.131655175739e+02 0.0 
0.0 0.0 -5.246525792479e+01 
-1.142415427911e+02 -2.044969435914e-01 0.0 
-2.044969435914e-01 -2.896267399323e+02 0.0 
0.0 0.0 -1.203750556213e+02 
-1.164716846689e+02 -9.372160010764e-01 0.0 
-9.372160010764e-01 -2.866508169323e+02 0.0 
0.0 0.0 -1.195535968147e+02 
-1.040029943301e+02 3.006551205687e+00 0.0 
3.006551205687e+00 -2.276809643642e+02 0.0 
0.0 0.0 -9.910518760830e+01 
-9.988455215410e+01 1.777196509863e+00 0.0 
1.777196509863e+00 -2.159250310545e+02 0.0 
0.0 0.0 -9.434287496257e+01 
-1.081040682004e+02 -1.346308550380e+00 0.0 
-1.346308550380e+00 -2.670675624654e+02 0.0 
0.0 0.0 -1.095702163095e+02 
-1.464732419697e+02 2.286138652528e+00 0.0 
2.286138652528e+00 -3.527891210279e+02 0.0 
0.0 0.0 -1.493787088993e+02 
-9.680767038530e+01 4.909646429271e+00 0.0 
4.909646429271e+00 -2.017101790268e+02 0.0 
0.0 0.0 -8.915535482362e+01 
-1.280279486685e+02 9.996314212682e-01 0.0 
9.996314212682e-01 -3.123741138614e+02 0.0 
0.0 0.0 -1.314843929735e+02 
-1.477907498828e+02 4.687302555474e+00 0.0 
4.687302555474e+00 -3.582678265274e+02 0.0 
0.0 0.0 -1.514175729230e+02 
-1.042640742269e+02 4.510145277154e+00 0.0 
4.510145277154e+00 -2.264347133979e+02 0.0 
0.0 0.0 -9.880963628744e+01 
-8.736956489900e+01 3.729426846168e+00 0.0 
3.729426846168e+00 -1.744906605780e+02 0.0 
0.0 0.0 -7.815806764311e+01 
-1.125831969558e+02 4.844124342921e+00 0.0 
4.844124342921e+00 -2.980748182371e+02 0.0 
0.0 0.0 -1.227974045579e+02 
-4.529704972477e+01 -5.337220096040e+00 0.0 
-5.337220096040e+00 -1.010662294787e+02 0.0 
0.0 0.0 -3.899101733992e+01 
-4.957087451279e+01 -1.509866177164e+01 0.0 
-1.509866177164e+01 -1.009513913724e+02 0.0 
0.0 0.0 -4.109686528704e+01 
-2.381533420484e+01 -2.874584745925e+00 0.0 
-2.874584745925e+00 -4.870795840510e+01 0.0 
0.0 0.0 -1.794715449827e+01 
-3.713315491162e+01 -1.459366961582e+01 0.0 
-1.459366961582e+01 -3.461968138712e+01 0.0 
0.0 0.0 -1.807022883380e+01 
-1.008099849000e+02 3.537317992949e+00 0.0 
3.537317992949e+00 -2.165646951761e+02 0.0 
0.0 0.0 -9.481240402283e+01 
-1.409838992510e+02 2.728794027312e-01 0.0 
2.728794027312e-01 -3.417661686744e+02 0.0 
0.0 0.0 -1.444250203776e+02 
-2.700255297007e+01 -6.643052768556e+00 0.0 
-6.643052768556e+00 -2.847335509260e+01 0.0 
0.0 0.0 -1.339713289346e+01 
-1.154429014034e+02 2.128942752495e+01 0.0 
2.128942752495e+01 -2.415552765122e+02 0.0 
0.0 0.0 -1.066994533747e+02 
-6.727426330632e+01 6.157279643115e-01 0.0 
6.157279643115e-01 -1.222667703163e+02 0.0 
0.0 0.0 -5.646231008678e+01 
-1.284529231335e+02 2.160400654961e+00 0.0 
2.160400654961e+00 -3.178827999600e+02 0.0 
0.0 0.0 -1.335007169280e+02 
-1.313693270064e+02 -6.977118532395e-02 0.0 
-6.977118532395e-02 -3.225225461375e+02 0.0 
0.0 0.0 -1.357675619432e+02 
-5.981395222504e+01 -1.440126303099e+01 0.0 
-1.440126303099e+01 -1.541016136758e+02 0.0 
0.0 0.0 -6.201824252170e+01 
-1.321924079843e+02 1.468440509260e+00 0.0 
1.468440509260e+00 -3.231884993847e+02 0.0 
0.0 0.0 -1.362142722107e+02 
-6.400412832171e+01 2.245034327640e+00 0.0 
2.245034327640e+00 -1.135051091212e+02 0.0 
0.0 0.0 -5.285277123286e+01 
-9.988261872857e+01 1.772852539013e+01 0.0 
1.772852539013e+01 -2.776205018959e+02 0.0 
0.0 0.0 -1.129844635457e+02 
-1.522553171296e+02 2.682822763451e+00 0.0 
2.682822763451e+00 -3.663666616068e+02 0.0 
0.0 0.0 -1.551865936209e+02 
-4.200053748814e+01 -3.030763313624e+00 0.0 
-3.030763313624e+00 -9.709619183278e+01 0.0 
0.0 0.0 -3.815431079754e+01 
-1.473008208118e+02 6.014074686352e+00 0.0 
6.014074686352e+00 -3.595529873419e+02 0.0 
0.0 0.0 -1.516561424461e+02 
-9.076715116554e+01 3.386716055486e+00 0.0 
3.386716055486e+00 -1.855042537371e+02 0.0 
0.0 0.0 -8.248142147080e+01 
-5.019385302786e+01 -4.452578098470e+00 0.0 
-4.452578098470e+00 -1.096203138508e+02 0.0 
0.0 0.0 -4.321180024042e+01 
-5.558783341035e+01 -1.652332274973e+01 0.0 
-1.652332274973e+01 -1.211008741922e+02 0.0 
0.0 0.0 -5.008202595784e+01 
-1.040888994207e+02 -2.517088454629e+00 0.0 
-2.517088454629e+00 -2.333899519641e+02 0.0 
0.0 0.0 -9.703535802012e+01 
-7.879153197462e+01 2.090550837423e+00 0.0 
2.090550837423e+00 -1.517917000134e+02 0.0 
0.0 0.0 -6.877496959641e+01 
-7.287147027716e+01 -8.368949828600e+00 0.0 
-8.368949828600e+00 -1.588198996772e+02 0.0 
0.0 0.0 -6.373134390019e+01 
-9.410227439479e+01 3.134066710783e+00 0.0 
3.134066710783e+00 -1.964034501928e+02 0.0 
0.0 0.0 -8.675171737629e+01 
-8.339293940535e+01 3.029039699775e+00 0.0 
3.029039699775e+00 -1.647450538023e+02 0.0 
0.0 0.0 -7.404139796231e+01 
-9.936174258996e+01 -4.111589479381e+00 0.0 
-4.111589479381e+00 -2.282275952377e+02 0.0 
0.0 0.0 -9.394053728027e+01 
-1.256037572291e+02 9.319778750536e-01 0.0 
9.319778750536e-01 -3.038372569900e+02 0.0 
0.0 0.0 -1.276249041230e+02 
-1.282276316611e+02 1.490963383429e+00 0.0 
1.490963383429e+00 -3.150110371228e+02 0.0 
0.0 0.0 -1.324561754782e+02 
-8.924260913976e+01 1.549879354605e+00 0.0 
1.549879354605e+00 -1.844833864800e+02 0.0 
0.0 0.0 -8.171779868592e+01 
-3.259370715424e+01 -4.229480883335e+00 0.0 
-4.229480883335e+00 -8.477435577211e+01 0.0 
0.0 0.0 -3.188504245693e+01 
-9.676082662365e+01 -4.200845685858e+00 0.0 
-4.200845685858e+00 -2.164761877289e+02 0.0 
0.0 0.0 -8.911777415448e+01 
-1.200420057722e+02 2.077197000451e+01 0.0 
2.077197000451e+01 -3.073074155224e+02 0.0 
0.0 0.0 -1.278048263884e+02 
-9.443488001841e+01 4.318572527764e+00 0.0 
4.318572527764e+00 -1.948164649053e+02 0.0 
0.0 0.0 -8.637540347712e+01 
-8.966129174899e+01 -5.110558715647e+00 0.0 
-5.110558715647e+00 -1.958616103605e+02 0.0 
0.0 0.0 -7.999312513171e+01 
-1.119732776330e+02 -5.707518760704e-01 0.0 
-5.707518760704e-01 -2.749373492403e+02 0.0 
0.0 0.0 -1.135279623596e+02 
-1.425095934999e+02 6.633749358486e+00 0.0 
6.633749358486e+00 -3.515137057490e+02 0.0 
0.0 0.0 -1.478069897747e+02 
-8.603868945047e+01 1.925783478998e+00 0.0 
1.925783478998e+00 -1.736230831240e+02 0.0 
0.0 0.0 -7.749853177235e+01 
-2.975510497378e+01 -8.532345942117e+00 0.0 
-8.532345942117e+00 -1.200594631404e+02 0.0 
0.0 0.0 -4.725446374241e+01 
-1.781716355616e+01 -4.975421937617e-01 0.0 
-4.975421937617e-01 -4.647599597110e+01 0.0 
0.0 0.0 -1.726594320078e+01 
-3.855475768457e+01 3.908216842469e+00 0.0 
3.908216842469e+00 -1.362235965170e+02 0.0 
0.0 0.0 -5.055326055441e+01 
-1.363688372597e+02 4.766764902298e-01 0.0 
4.766764902298e-01 -3.334774093259e+02 0.0 
0.0 0.0 -1.405538739757e+02 
-8.235282376803e+01 2.063355426183e+00 0.0 
2.063355426183e+00 -1.626820799396e+02 0.0 
0.0 0.0 -7.311047111230e+01 
-1.117543636595e+02 -1.658906598506e-01 0.0 
-1.658906598506e-01 -2.540019637879e+02 0.0 
0.0 0.0 -1.061165711389e+02 
-7.129986087633e+01 1.370903967722e+00 0.0 
1.370903967722e+00 -1.318477091434e+02 0.0 
0.0 0.0 -6.054427100592e+01 
-1.308893125996e+02 1.011818878386e+01 0.0 
1.011818878386e+01 -3.346146657033e+02 0.0 
0.0 0.0 -1.392511934909e+02 
-1.031125477775e+02 -3.337578369810e+00 0.0 
-3.337578369810e+00 -2.364505529321e+02 0.0 
0.0 0.0 -9.787271607055e+01 
-1.268542581040e+02 -1.723288876771e-02 0.0 
-1.723288876771e-02 -3.142502115750e+02 0.0 
0.0 0.0 -1.319313409037e+02 
-4.181867502357e+01 -2.522454232923e+00 0.0 
-2.522454232923e+00 -1.021636785039e+02 0.0 
0.0 0.0 -3.990702045410e+01 
-1.467731330613e+02 3.111132562274e+00 0.0 
3.111132562274e+00 -3.579256163173e+02 0.0 
0.0 0.0 -1.510096248136e+02 
-1.026293010710e+02 -2.841307574555e+00 0.0 
-2.841307574555e+00 -2.291315692879e+02 0.0 
0.0 0.0 -9.452571786696e+01 
-4.702590651515e+01 -1.593362686407e+00 0.0 
-1.593362686407e+00 -1.105996628868e+02 0.0 
0.0 0.0 -4.390658204133e+01 
-9.928716771895e+01 -2.584087294041e+00 0.0 
-2.584087294041e+00 -2.173875893907e+02 0.0 
0.0 0.0 -8.971768791617e+01 
-7.747571126929e+01 -7.003219711372e+00 0.0 
-7.003219711372e+00 -1.672138927827e+02 0.0 
0.0 0.0 -6.683642663125e+01 
-5.920488650972e+01 -8.611576490832e+00 0.0 
-8.611576490832e+00 -1.301360196504e+02 0.0 
0.0 0.0 -5.207763359670e+01 
-1.100903214725e+02 -1.925387607247e+00 0.0 
-1.925387607247e+00 -2.530525773477e+02 0.0 
0.0 0.0 -1.055247242275e+02 
-8.680340640039e+00 -5.345585738899e-01 0.0 
-5.345585738899e-01 -9.367989917101e+00 0.0 
0.0 0.0 -3.782955978002e+00 
-8.869525555216e+00 -4.642264201077e-01 0.0 
-4.642264201077e-01 -9.930362343456e+00 0.0 
0.0 0.0 -4.644159016475e+00 
-1.200561488882e+02 3.107905233586e-01 0.0 
3.107905233586e-01 -2.875687809745e+02 0.0 
0.0 0.0 -1.201887288277e+02 
-3.632567890154e+01 -3.307304617394e+00 0.0 
-3.307304617394e+00 -9.376331079287e+01 0.0 
0.0 0.0 -3.594015706096e+01 
-1.191315152210e+02 6.590823741239e-01 0.0 
6.590823741239e-01 -2.907461635768e+02 0.0 
0.0 0.0 -1.211652315138e+02 
-1.156497504901e+02 9.440398975386e-02 0.0 
9.440398975386e-02 -2.828297836657e+02 0.0 
0.0 0.0 -1.173784127422e+02 
-7.947939716084e+01 -8.385564506278e+00 0.0 
-8.385564506278e+00 -1.837175453600e+02 0.0 
0.0 0.0 -7.419525488286e+01 
-5.259528456205e+01 -1.622551625351e+01 0.0 
-1.622551625351e+01 -1.309698946435e+02 0.0 
0.0 0.0 -5.051046076797e+01 
-1.017633635754e+02 6.492450849446e+00 0.0 
6.492450849446e+00 -2.138198219246e+02 0.0 
0.0 0.0 -9.427495565000e+01 
-3.602837809336e+01 2.765321728482e+01 0.0 
2.765321728482e+01 -9.564447067592e+01 0.0 
0.0 0.0 -3.917376776383e+01 
-8.196516420425e+01 -5.750438265271e+00 0.0 
-5.750438265271e+00 -1.758381141855e+02 0.0 
0.0 0.0 -7.095914113161e+01 
-1.355903417046e+02 1.211514302498e+01 0.0 
1.211514302498e+01 -3.425736544345e+02 0.0 
0.0 0.0 -1.430491988417e+02 
-3.177701781839e+01 -4.441833370420e+00 0.0 
-4.441833370420e+00 -7.991845319673e+01 0.0 
0.0 0.0 -3.021278792002e+01 
-7.643529077457e+01 3.126542554814e+00 0.0 
3.126542554814e+00 -1.435694070374e+02 0.0 
0.0 0.0 -6.560140934360e+01 
-6.863500977312e+01 2.543004799046e+00 0.0 
2.543004799046e+00 -1.232138599476e+02 0.0 
0.0 0.0 -5.715466091623e+01 
-3.445630161959e+01 -7.292373329028e+00 0.0 
-7.292373329028e+00 -7.854359066251e+01 0.0 
0.0 0.0 -3.007497437429e+01 
-1.371840737061e+02 7.118310953981e+00 0.0 
7.118310953981e+00 -3.430759932596e+02 0.0 
0.0 0.0 -1.436780200897e+02 
-9.209792919165e+01 5.904235130668e+00 0.0 
5.904235130668e+00 -1.825524930494e+02 0.0 
0.0 0.0 -8.199512667230e+01 
-4.096487653174e+01 -6.073648100633e+00 0.0 
-6.073648100633e+00 -9.272454707660e+01 0.0 
0.0 0.0 -3.562201550888e+01 
-1.052673870078e+02 7.638026225253e+00 0.0 
7.638026225253e+00 -2.231780048386e+02 0.0 
0.0 0.0 -9.813361755392e+01 
-1.030028363074e+02 5.924198024454e+00 0.0 
5.924198024454e+00 -2.218356677562e+02 0.0 
0.0 0.0 -9.705155121910e+01 
-4.497478833331e+01 -5.145300317166e+00 0.0 
-5.145300317166e+00 -1.055641372585e+02 0.0 
0.0 0.0 -4.013812523687e+01 
-5.023817663589e+01 3.153116613859e+01 0.0 
3.153116613859e+01 -8.681980797281e+01 0.0 
0.0 0.0 -3.788632073526e+01 
-4.824095579920e+01 -8.308975028353e+00 0.0 
-8.308975028353e+00 -1.087358572274e+02 0.0 
0.0 0.0 -4.270894545696e+01 
-1.253474897353e+02 1.317584322247e+00 0.0 
1.317584322247e+00 -3.067878860093e+02 0.0 
0.0 0.0 -1.286628906821e+02 
-1.066944635397e+02 -2.599347535190e+00 0.0 
-2.599347535190e+00 -2.448077784829e+02 0.0 
0.0 0.0 -1.017510951379e+02 
-1.111765854452e+02 1.634875115786e+01 0.0 
1.634875115786e+01 -2.356218764215e+02 0.0 
0.0 0.0 -1.036395385600e+02 
-9.984553739868e+01 4.559528237287e+00 0.0 
4.559528237287e+00 -2.126786596118e+02 0.0 
0.0 0.0 -9.335725910315e+01 
-1.223767322482e+02 1.070818969699e+00 0.0 
1.070818969699e+00 -2.987473586511e+02 0.0 
0.0 0.0 -1.249310119951e+02 
-1.184318885079e+02 -5.638654898887e-02 0.0 
-5.638654898887e-02 -2.978059679889e+02 0.0 
0.0 0.0 -1.242717210907e+02 
-4.125642286250e+01 -9.456536244462e+00 0.0 
-9.456536244462e+00 -8.795187115555e+01 0.0 
0.0 0.0 -3.523067981322e+01 
-1.225311422937e+02 -1.987959867349e-02 0.0 
-1.987959867349e-02 -3.060378023722e+02 0.0 
0.0 0.0 -1.281706833998e+02 
-8.999047280885e+01 3.961479802267e+00 0.0 
3.961479802267e+00 -1.813306188865e+02 0.0 
0.0 0.0 -8.099632750861e+01 
-1.089192120570e+02 -1.019242531466e+00 0.0 
-1.019242531466e+00 -2.456342873739e+02 0.0 
0.0 0.0 -1.023010497410e+02 
-8.400995285624e+01 3.873768052783e+00 0.0 
3.873768052783e+00 -1.636890778073e+02 0.0 
0.0 0.0 -7.390970919906e+01 
-9.511775541293e+01 5.665656946879e+00 0.0 
5.665656946879e+00 -1.933715936682e+02 0.0 
0.0 0.0 -8.614680472435e+01 
-6.936400814077e+01 1.856939949792e+01 0.0 
1.856939949792e+01 -2.128639778536e+02 0.0 
0.0 0.0 -8.745640718466e+01 
-9.635146089411e+01 3.468609364257e+00 0.0 
3.468609364257e+00 -2.031832030554e+02 0.0 
0.0 0.0 -8.946039918484e+01 
-9.380077858193e+01 -4.069135315755e+00 0.0 
-4.069135315755e+00 -2.055451288377e+02 0.0 
0.0 0.0 -8.462705744906e+01 
-1.058892918333e+02 -1.853839878523e+00 0.0 
-1.853839878523e+00 -2.373054341848e+02 0.0 
0.0 0.0 -9.842754510838e+01 
-7.312188380561e+01 -6.512143756040e+00 0.0 
-6.512143756040e+00 -1.551581312967e+02 0.0 
0.0 0.0 -6.168442428218e+01 
-7.380581891732e+01 -1.232192522292e+01 0.0 
-1.232192522292e+01 -1.688031937347e+02 0.0 
0.0 0.0 -7.003949425684e+01 
-8.615683650621e+01 2.926658619630e+00 0.0 
2.926658619630e+00 -1.719318054576e+02 0.0 
0.0 0.0 -7.702659258913e+01 
-9.301627733051e+01 -6.025408546128e+00 0.0 
-6.025408546128e+00 -2.328855252062e+02 0.0 
0.0 0.0 -9.754218984298e+01 
-5.252797237512e+01 -6.939926520094e+00 0.0 
-6.939926520094e+00 -1.177269402462e+02 0.0 
0.0 0.0 -4.598460071279e+01 
-2.496065334804e+01 -3.588412190636e+00 0.0 
-3.588412190636e+00 -5.841665197346e+01 0.0 
0.0 0.0 -2.158985589189e+01 
-8.808406258507e+01 4.805054115613e+00 0.0 
4.805054115613e+00 -1.730660299723e+02 0.0 
0.0 0.0 -7.794502776721e+01 
-5.421565469410e+01 -9.476529701786e+00 0.0 
-9.476529701786e+00 -1.170136606207e+02 0.0 
0.0 0.0 -4.670340476616e+01 
-1.466585214374e+02 4.811469845286e+00 0.0 
4.811469845286e+00 -3.591067082598e+02 0.0 
0.0 0.0 -1.513295689092e+02 
-8.955802901386e+01 2.761421429126e+00 0.0 
2.761421429126e+00 -1.828560874890e+02 0.0 
0.0 0.0 -8.132423495084e+01 
-1.269125859220e+02 7.148433463942e-01 0.0 
7.148433463942e-01 -3.169157400532e+02 0.0 
0.0 0.0 -1.327484977926e+02 
-1.514675950329e+02 1.659118793851e+01 0.0 
1.659118793851e+01 -3.642751134171e+02 0.0 
0.0 0.0 -1.543228125350e+02 
-9.143333072577e+01 -3.173698122111e+00 0.0 
-3.173698122111e+00 -1.969972097449e+02 0.0 
0.0 0.0 -8.073556239985e+01 
-4.816223126610e+01 -8.008205064650e+00 0.0 
-8.008205064650e+00 -1.044393876317e+02 0.0 
0.0 0.0 -4.125069476722e+01 
-3.188154765974e+01 -7.616500738654e+00 0.0 
-7.616500738654e+00 -6.649461536336e+01 0.0 
0.0 0.0 -2.680374408992e+01 
-1.209306403600e+02 1.775215150715e+00 0.0 
1.775215150715e+00 -3.017893988561e+02 0.0 
0.0 0.0 -1.257957461925e+02 
-7.866316611029e+01 1.305095092553e+00 0.0 
1.305095092553e+00 -1.535983617086e+02 0.0 
0.0 0.0 -6.927845834566e+01 
-2.181101967301e+01 -4.525653394665e+00 0.0 
-4.525653394665e+00 -4.723714175922e+01 0.0 
0.0 0.0 -1.829868451145e+01 
-7.426725337483e+01 -6.418383985595e+00 0.0 
-6.418383985595e+00 -1.599009179421e+02 0.0 
0.0 0.0 -6.432289804479e+01 
-3.272769914665e+01 -1.060028248986e+00 0.0 
-1.060028248986e+00 -9.033805572648e+01 0.0 
0.0 0.0 -3.509474550004e+01 
-8.068356800364e+01 3.922859708377e+00 0.0 
3.922859708377e+00 -1.529008220451e+02 0.0 
0.0 0.0 -6.967531701461e+01 
-7.878528566267e+01 -4.966013651984e+00 0.0 
-4.966013651984e+00 -1.683847120387e+02 0.0 
0.0 0.0 -6.741899665610e+01 
-1.099940149669e+02 -4.105847187147e-01 0.0 
-4.105847187147e-01 -2.815711384071e+02 0.0 
0.0 0.0 -1.165416295776e+02 
-7.360278453832e+01 -4.058001882266e+00 0.0 
-4.058001882266e+00 -1.562430505045e+02 0.0 
0.0 0.0 -6.270335685353e+01 
-9.761310043924e+01 4.008925188615e+00 0.0 
4.008925188615e+00 -2.058330343331e+02 0.0 
0.0 0.0 -9.063384043170e+01 
-6.379852736873e+01 -9.222414045171e+00 0.0 
-9.222414045171e+00 -1.378943576103e+02 0.0 
0.0 0.0 -5.525114135335e+01 
-1.189074678584e+02 3.167668509594e+00 0.0 
3.167668509594e+00 -3.043900576838e+02 0.0 
0.0 0.0 -1.265473292981e+02 
-4.931712820899e+01 -1.450738114733e+01 0.0 
-1.450738114733e+01 -1.002074031171e+02 0.0 
0.0 0.0 -4.091975430688e+01 
-1.171967516317e+02 1.411215076386e+00 0.0 
1.411215076386e+00 -2.937900619908e+02 0.0 
0.0 0.0 -1.219671111874e+02 
-1.027175796879e+02 -1.712573329868e+00 0.0 
-1.712573329868e+00 -2.261594343786e+02 0.0 
0.0 0.0 -9.384950729408e+01 
-1.220331378528e+02 7.500868275749e-01 0.0 
7.500868275749e-01 -3.087941421422e+02 0.0 
0.0 0.0 -1.288481839985e+02 
-5.298466435973e+01 1.102160700007e+00 0.0 
1.102160700007e+00 -1.751925399277e+02 0.0 
0.0 0.0 -6.547420475233e+01 
-3.696326487172e+01 -3.925888753299e+00 0.0 
-3.925888753299e+00 -8.914539085143e+01 0.0 
0.0 0.0 -3.441987405041e+01 
-7.249117305149e+01 2.457957217094e+00 0.0 
2.457957217094e+00 -1.343166568597e+02 0.0 
0.0 0.0 -6.164234897337e+01 
-9.915081775801e+01 8.210115709471e+00 0.0 
8.210115709471e+00 -2.790699981645e+02 0.0 
0.0 0.0 -1.161238988743e+02 
-6.966954480267e+01 3.113902926054e+01 0.0 
3.113902926054e+01 -1.478609609381e+02 0.0 
0.0 0.0 -6.328500584096e+01 
-7.994877881615e+01 3.122895231182e+00 0.0 
3.122895231182e+00 -1.542339831195e+02 0.0 
0.0 0.0 -6.985482858068e+01 
-5.443029013900e+01 -1.734744730835e+01 0.0 
-1.734744730835e+01 -1.165186147101e+02 0.0 
0.0 0.0 -4.794111299477e+01 
-8.366298579921e+01 4.224268417258e+00 0.0 
4.224268417258e+00 -1.599296975531e+02 0.0 
0.0 0.0 -7.267780500571e+01 
-2.751294295404e+01 -1.774088920762e+00 0.0 
-1.774088920762e+00 -8.130104534953e+01 0.0 
0.0 0.0 -3.094030668434e+01 
-1.376235115757e+02 5.315068631235e+00 0.0 
5.315068631235e+00 -3.415282043903e+02 0.0 
0.0 0.0 -1.433455147898e+02 
-1.027987358970e+02 1.082664741385e+01 0.0 
1.082664741385e+01 -2.866092173793e+02 0.0 
0.0 0.0 -1.182662351168e+02 
-1.051585544843e+02 1.958481992076e+01 0.0 
1.958481992076e+01 -2.836657901160e+02 0.0 
0.0 0.0 -1.162473033801e+02 
-1.080685098054e+02 7.283967105053e+00 0.0 
7.283967105053e+00 -2.346819297919e+02 0.0 
0.0 0.0 -1.024251318792e+02 
-9.941773057426e+01 -3.091881179952e+00 0.0 
-3.091881179952e+00 -2.515791362394e+02 0.0 
0.0 0.0 -1.048649715289e+02 
-3.718371758764e+01 -6.907771067677e+00 0.0 
-6.907771067677e+00 -8.396516188098e+01 0.0 
0.0 0.0 -3.265773248092e+01 
-1.092114171666e+02 3.954322516322e-01 0.0 
3.954322516322e-01 -2.779208298373e+02 0.0 
0.0 0.0 -1.141908926506e+02 
-1.411250391534e+02 5.382895360696e+00 0.0 
5.382895360696e+00 -3.506496670925e+02 0.0 
0.0 0.0 -1.471324118738e+02 
-6.198544495515e+01 -1.770488773582e+01 0.0 
-1.770488773582e+01 -1.523876793976e+02 0.0 
0.0 0.0 -6.276868086777e+01 
-1.245603175200e+02 2.040920267466e+00 0.0 
2.040920267466e+00 -3.098269219450e+02 0.0 
0.0 0.0 -1.296476687758e+02 
-9.124312864741e+01 4.617844982292e+00 0.0 
4.617844982292e+00 -1.838840229912e+02 0.0 
0.0 0.0 -8.213814549159e+01 
-4.953727330466e+01 -1.662037696733e+01 0.0 
-1.662037696733e+01 -1.274014212839e+02 0.0 
0.0 0.0 -4.739615740785e+01 
-1.133039040304e+02 9.564109964678e-01 0.0 
9.564109964678e-01 -2.858385527106e+02 0.0 
0.0 0.0 -1.181187293841e+02 
-7.377354430642e+01 4.039721508508e+00 0.0 
4.039721508508e+00 -1.313103520946e+02 0.0 
0.0 0.0 -6.112516892031e+01 
-5.522069587447e+01 -2.976443179438e+00 0.0 
-2.976443179438e+00 -1.230607900823e+02 0.0 
0.0 0.0 -4.891970851983e+01 
-6.961858253392e+01 -8.135122865582e+00 0.0 
-8.135122865582e+00 -1.514065073789e+02 0.0 
0.0 0.0 -6.123184408956e+01 
-7.751112587719e+01 2.729673766696e+01 0.0 
2.729673766696e+01 -1.846159698505e+02 0.0 
0.0 0.0 -7.620622887206e+01 
-1.172233147867e+02 7.561930007254e-01 0.0 
7.561930007254e-01 -3.006819542835e+02 0.0 
0.0 0.0 -1.249715807211e+02 
-6.273763006085e+01 3.002030837253e+01 0.0 
3.002030837253e+01 -1.119855476727e+02 0.0 
0.0 0.0 -4.780427041400e+01 
-7.384058267471e+01 2.677515469650e+01 0.0 
2.677515469650e+01 -1.813252453787e+02 0.0 
0.0 0.0 -7.474747328341e+01 
-8.683486366281e+01 4.105602590870e+00 0.0 
4.105602590870e+00 -1.705791558825e+02 0.0 
0.0 0.0 -7.682420586361e+01 
-7.487958454139e+01 1.305570860262e+00 0.0 
1.305570860262e+00 -1.426046615880e+02 0.0 
0.0 0.0 -6.484527383880e+01 
-7.610491698550e+01 3.069216794967e+00 0.0 
3.069216794967e+00 -1.396892052570e+02 0.0 
0.0 0.0 -6.433823667276e+01 
-1.005040573703e+02 -3.244327123417e+00 0.0 
-3.244327123417e+00 -2.252121407445e+02 0.0 
0.0 0.0 -9.323957065795e+01 
-1.318027990674e+02 7.615145806024e+00 0.0 
7.615145806024e+00 -3.345027688369e+02 0.0 
0.0 0.0 -1.394916703713e+02 
-1.048929767241e+02 -2.350984478984e-01 0.0 
-2.350984478984e-01 -2.700298121840e+02 0.0 
0.0 0.0 -1.115193649293e+02 
-7.282099204995e+01 3.099657196477e+00 0.0 
3.099657196477e+00 -1.327783762504e+02 0.0 
0.0 0.0 -6.127981049010e+01 
-1.197746530553e+02 2.354615804829e+01 0.0 
2.354615804829e+01 -2.564034063723e+02 0.0 
0.0 0.0 -1.124534178283e+02 
-1.104587470125e+02 2.123542764314e+01 0.0 
2.123542764314e+01 -2.896138917957e+02 0.0 
0.0 0.0 -1.196217916424e+02 
-1.124367463189e+02 7.445221461625e-01 0.0 
7.445221461625e-01 -2.925500005378e+02 0.0 
0.0 0.0 -1.210960240570e+02 
-9.317858762219e+01 3.759710968378e+00 0.0 
3.759710968378e+00 -1.922270289820e+02 0.0 
0.0 0.0 -8.522168498125e+01 
-7.861571669363e+01 -1.010169829610e+01 0.0 
-1.010169829610e+01 -1.763827110325e+02 0.0 
0.0 0.0 -7.300911581379e+01 
-7.455751257204e+01 -9.225767904729e+00 0.0 
-9.225767904729e+00 -1.638964819520e+02 0.0 
0.0 0.0 -6.714710781692e+01 
-3.651456739468e+01 -7.046035185374e+00 0.0 
-7.046035185374e+00 -8.741218188542e+01 0.0 
0.0 0.0 -3.321277142988e+01 
-1.099490562934e+02 2.756986426326e+00 0.0 
2.756986426326e+00 -2.881651814506e+02 0.0 
0.0 0.0 -1.186109885315e+02 
-7.922389333246e+01 -7.365001123202e+00 0.0 
-7.365001123202e+00 -1.721768618480e+02 0.0 
0.0 0.0 -7.017975525664e+01 
-8.489545653002e+01 4.961056636780e+00 0.0 
4.961056636780e+00 -1.622452675979e+02 0.0 
0.0 0.0 -7.374221723838e+01 
-8.168951195234e+01 5.091013627897e+00 0.0 
5.091013627897e+00 -1.515359010117e+02 0.0 
0.0 0.0 -6.956762388921e+01 
-7.090219980838e+01 1.279422012120e+01 0.0 
1.279422012120e+01 -2.204953993363e+02 0.0 
0.0 0.0 -9.078829967564e+01 
-6.335703712533e+01 -1.151189718593e+01 0.0 
-1.151189718593e+01 -1.421481357689e+02 0.0 
0.0 0.0 -5.745991494896e+01 
-5.042147970872e+01 1.606392279278e+01 0.0 
1.606392279278e+01 -1.649098832017e+02 0.0 
0.0 0.0 -6.151579219213e+01 
-6.808641175683e+01 -9.904215500211e+00 0.0 
-9.904215500211e+00 -1.504590735136e+02 0.0 
0.0 0.0 -6.057931563781e+01 
-7.163514529710e+01 -1.016467880591e+01 0.0 
-1.016467880591e+01 -1.629612379554e+02 0.0 
0.0 0.0 -6.585412323910e+01 
-4.426731359639e+01 -8.927936683828e+00 0.0 
-8.927936683828e+00 -9.619448095807e+01 0.0 
0.0 0.0 -3.813375137097e+01 
-1.262888610495e+02 8.191357981777e+00 0.0 
8.191357981777e+00 -3.257424142715e+02 0.0 
0.0 0.0 -1.352093825963e+02 
-7.888166171049e+01 -7.800801571368e+00 0.0 
-7.800801571368e+00 -2.000480669200e+02 0.0 
0.0 0.0 -8.154660415697e+01 
-9.810348750617e+01 5.340183716306e+00 0.0 
5.340183716306e+00 -2.042438469199e+02 0.0 
0.0 0.0 -9.030420032783e+01 
-8.046124852870e+01 -6.240729773360e+00 0.0 
-6.240729773360e+00 -2.114142529626e+02 0.0 
0.0 0.0 -8.668198386942e+01 
-1.026042881294e+02 9.177183544202e-01 0.0 
9.177183544202e-01 -2.761568968330e+02 0.0 
0.0 0.0 -1.132283554887e+02 
-9.212247590951e+01 -2.985585208989e+00 0.0 
-2.985585208989e+00 -2.385333782908e+02 0.0 
0.0 0.0 -9.747864957345e+01 
-7.021409304629e+01 2.475289393798e+01 0.0 
2.475289393798e+01 -1.906197208959e+02 0.0 
0.0 0.0 -7.841236872893e+01 
-4.057139143927e+01 -6.298504061678e+00 0.0 
-6.298504061678e+00 -9.656207416373e+01 0.0 
0.0 0.0 -3.658754569183e+01 
-1.354911029330e+02 5.955472321192e+00 0.0 
5.955472321192e+00 -3.420542404268e+02 0.0 
0.0 0.0 -1.428636030079e+02 
-1.424102162561e+02 8.853425977187e+00 0.0 
8.853425977187e+00 -3.535348993182e+02 0.0 
0.0 0.0 -1.483835346723e+02 
-9.540226020719e+01 2.565364509831e+01 0.0 
2.565364509831e+01 -2.265559232797e+02 0.0 
0.0 0.0 -9.618745504607e+01 
-7.454842544492e+01 -9.865967144049e+00 0.0 
-9.865967144049e+00 -1.755105185129e+02 0.0 
0.0 0.0 -7.105238532609e+01 
-9.734114044410e+01 -8.585834142440e-01 0.0 
-8.585834142440e-01 -2.574209077052e+02 0.0 
0.0 0.0 -1.049104731128e+02 
-8.279302067826e+01 2.994687209848e+00 0.0 
2.994687209848e+00 -1.610238491436e+02 0.0 
0.0 0.0 -7.274506094656e+01 
-8.335681740384e+01 -8.055942913599e+00 0.0 
-8.055942913599e+00 -1.845923309270e+02 0.0 
0.0 0.0 -7.596946168633e+01 
-6.264909210612e+01 2.906127549492e+01 0.0 
2.906127549492e+01 -1.446007756882e+02 0.0 
0.0 0.0 -5.968409765695e+01 
-6.389240211829e+01 -6.848999863208e+00 0.0 
-6.848999863208e+00 -1.389989459265e+02 0.0 
0.0 0.0 -5.526938095240e+01 
-5.799366645619e+01 -1.791518858343e+01 0.0 
-1.791518858343e+01 -1.331244449816e+02 0.0 
0.0 0.0 -5.449158242253e+01 
-8.179624334253e+01 -1.053693270677e+01 0.0 
-1.053693270677e+01 -1.890826703890e+02 0.0 
0.0 0.0 -7.879410546517e+01 
-5.867267025943e+01 -8.213877000679e+00 0.0 
-8.213877000679e+00 -1.253939827935e+02 0.0 
0.0 0.0 -4.987461970126e+01 
-4.992416296984e+01 -3.981752415327e+00 0.0 
-3.981752415327e+00 -1.145800320160e+02 0.0 
0.0 0.0 -4.465995927633e+01 
-9.812935548525e+01 -4.734789362962e+00 0.0 
-4.734789362962e+00 -2.404266340291e+02 0.0 
0.0 0.0 -1.000527661323e+02 
-1.074855071560e+02 7.956104842021e-01 0.0 
7.956104842021e-01 -2.843556791650e+02 0.0 
0.0 0.0 -1.171523558963e+02 
-1.150338869196e+02 2.527684054683e+01 0.0 
2.527684054683e+01 -2.688054951224e+02 0.0 
0.0 0.0 -1.147518146126e+02 
-1.295472273559e+01 -9.438462423237e-02 0.0 
-9.438462423237e-02 -8.616289351027e+00 0.0 
0.0 0.0 -5.281729002252e+00 
-6.937577675951e+01 -5.422807348450e+00 0.0 
-5.422807348450e+00 -2.061305948923e+02 0.0 
0.0 0.0 -8.403659515639e+01 
-7.513973849809e+01 -7.124090731135e+00 0.0 
-7.124090731135e+00 -2.038412001532e+02 0.0 
0.0 0.0 -8.342558623006e+01 
-7.693709618165e+01 -9.012268060992e+00 0.0 
-9.012268060992e+00 -1.879931041632e+02 0.0 
0.0 0.0 -7.629003957577e+01 
-7.945794279733e+01 3.051361422583e+00 0.0 
3.051361422583e+00 -1.502509364963e+02 0.0 
0.0 0.0 -6.851266378810e+01 
-8.577996648523e+01 -5.336110183087e+00 0.0 
-5.336110183087e+00 -2.193637712435e+02 0.0 
0.0 0.0 -8.976232152626e+01 
-6.849223994554e+01 -7.764986995252e+00 0.0 
-7.764986995252e+00 -1.464389692463e+02 0.0 
0.0 0.0 -5.843012996599e+01 
-8.415337493153e+01 -1.021823570915e+01 0.0 
-1.021823570915e+01 -2.016902208244e+02 0.0 
0.0 0.0 -8.434887380429e+01 
-9.279512447305e+01 2.499110705224e+00 0.0 
2.499110705224e+00 -1.938163065955e+02 0.0 
0.0 0.0 -8.558342932056e+01 
-6.856931069353e+01 -5.379342990902e+00 0.0 
-5.379342990902e+00 -1.476577203558e+02 0.0 
0.0 0.0 -5.843980367722e+01 
-2.266015897662e+01 -4.965556406353e+00 0.0 
-4.965556406353e+00 -5.485418959397e+01 0.0 
0.0 0.0 -2.074250436806e+01 
-3.394903692608e+01 -7.118637058166e+00 0.0 
-7.118637058166e+00 -7.575726995712e+01 0.0 
0.0 0.0 -2.962329165538e+01 
-5.489343391236e+01 -1.582373075617e+01 0.0 
-1.582373075617e+01 -1.349191783290e+02 0.0 
0.0 0.0 -5.374560302280e+01 
-6.664664702431e+01 -1.185536133886e+01 0.0 
-1.185536133886e+01 -1.549433054823e+02 0.0 
0.0 0.0 -6.273547032696e+01 
-7.623409498512e+01 -4.831071044794e+00 0.0 
-4.831071044794e+00 -2.145521016523e+02 0.0 
0.0 0.0 -8.827522826039e+01 
-8.584693246548e+01 -9.172246728182e+00 0.0 
-9.172246728182e+00 -2.137844290864e+02 0.0 
0.0 0.0 -8.958727861164e+01 
-4.904926833181e+01 -1.515380739379e+01 0.0 
-1.515380739379e+01 -9.504336789630e+01 0.0 
0.0 0.0 -3.841676497176e+01 
-2.762007698309e+01 -4.559861358891e+00 0.0 
-4.559861358891e+00 -7.544773925459e+01 0.0 
0.0 0.0 -2.779872232951e+01 
-7.957492770536e+01 6.708076148740e+00 0.0 
6.708076148740e+00 -1.395661902343e+02 0.0 
0.0 0.0 -6.534233538189e+01 
-5.735437992530e+01 -5.445932015866e+00 0.0 
-5.445932015866e+00 -1.268097997725e+02 0.0 
0.0 0.0 -4.927875880644e+01 
-1.195722259694e+02 5.317308889698e+00 0.0 
5.317308889698e+00 -3.151001317115e+02 0.0 
0.0 0.0 -1.300017073043e+02 
-1.109542615062e+02 2.506102711583e+01 0.0 
2.506102711583e+01 -2.642541496604e+02 0.0 
0.0 0.0 -1.121625233500e+02 
-8.918241618294e+01 1.717567944439e+01 0.0 
1.717567944439e+01 -1.566460278221e+02 0.0 
0.0 0.0 -7.334853320150e+01 
-1.013612248144e+02 7.993403815955e+00 0.0 
7.993403815955e+00 -2.109237609287e+02 0.0 
0.0 0.0 -9.328549572294e+01 
-1.187961283030e+02 2.525834004194e+01 0.0 
2.525834004194e+01 -2.736626224828e+02 0.0 
0.0 0.0 -1.173376252358e+02 
-6.762130425305e+01 1.577771134631e+01 0.0 
1.577771134631e+01 -2.090037532929e+02 0.0 
0.0 0.0 -8.496198909751e+01 
-1.030666023589e+02 2.516754548261e+01 0.0 
2.516754548261e+01 -2.453666006279e+02 0.0 
0.0 0.0 -1.041299608960e+02 
-5.431929613737e+01 -1.852478244009e+01 0.0 
-1.852478244009e+01 -1.137211477145e+02 0.0 
0.0 0.0 -4.579648787897e+01 
-8.937967835221e+01 -8.148219067995e+00 0.0 
-8.148219067995e+00 -2.092407411552e+02 0.0 
0.0 0.0 -8.716195217549e+01 
-6.631624515808e+01 2.545482500537e+01 0.0 
2.545482500537e+01 -1.885240084063e+02 0.0 
0.0 0.0 -7.785916648459e+01 
-4.581930070525e+01 -1.212294122912e+01 0.0 
-1.212294122912e+01 -1.396643663326e+02 0.0 
0.0 0.0 -5.024252132105e+01 
-4.962607528692e+01 -1.794706337781e+01 0.0 
-1.794706337781e+01 -9.200318456500e+01 0.0 
0.0 0.0 -3.681396412250e+01 
-7.649368339678e+01 -8.563281854156e+00 0.0 
-8.563281854156e+00 -1.713120669151e+02 0.0 
0.0 0.0 -6.896482980447e+01 
-7.965162926538e+01 -1.093400961930e+01 0.0 
-1.093400961930e+01 -2.063632136485e+02 0.0 
0.0 0.0 -8.629316926602e+01 
-8.055678967448e+01 -8.680038839956e+00 0.0 
-8.680038839956e+00 -2.177288966033e+02 0.0 
0.0 0.0 -9.100563365031e+01 
-6.334897448204e+01 -6.839596731171e+00 0.0 
-6.839596731171e+00 -1.340415375686e+02 0.0 
0.0 0.0 -5.310280455533e+01 
-8.722511391764e+01 -3.467357693364e+00 0.0 
-3.467357693364e+00 -2.303993320847e+02 0.0 
0.0 0.0 -9.477797851571e+01 
-7.444046263245e+01 -8.996519481707e+00 0.0 
-8.996519481707e+00 -2.117447584024e+02 0.0 
0.0 0.0 -8.777100363573e+01 
-7.070444869471e+01 -1.936626038628e+00 0.0 
-1.936626038628e+00 -2.153763227599e+02 0.0 
0.0 0.0 -8.841321872930e+01 
-6.987027759862e+01 -1.144153254978e+01 0.0 
-1.144153254978e+01 -1.557632306081e+02 0.0 
0.0 0.0 -6.417147875066e+01 
-1.010625793603e+02 1.431402511453e+01 0.0 
1.431402511453e+01 -2.828423869165e+02 0.0 
0.0 0.0 -1.160960092778e+02 
-8.908368513787e+01 6.131178706675e+00 0.0 
6.131178706675e+00 -1.718714530980e+02 0.0 
0.0 0.0 -7.788654147077e+01 
-6.694724919931e+01 5.103049025927e-02 0.0 
5.103049025927e-02 -2.096172876558e+02 0.0 
0.0 0.0 -8.480653087121e+01 
-1.299003565769e+02 6.562168313822e+00 0.0 
6.562168313822e+00 -3.334679769914e+02 0.0 
0.0 0.0 -1.386105000705e+02 
-5.580167340634e+01 -1.866663844625e+01 0.0 
-1.866663844625e+01 -1.304152748642e+02 0.0 
0.0 0.0 -5.166236959658e+01 
-1.401260190058e+02 1.037959461398e+01 0.0 
1.037959461398e+01 -3.521827176977e+02 0.0 
0.0 0.0 -1.472926210111e+02 
-8.177389597035e+01 -4.198176459922e+00 0.0 
-4.198176459922e+00 -2.222777742576e+02 0.0 
0.0 0.0 -9.165048254760e+01 
-1.225858288950e+02 2.536399441392e+01 0.0 
2.536399441392e+01 -2.804550555587e+02 0.0 
0.0 0.0 -1.205122653361e+02 
-9.056406916581e+01 2.622560041154e+01 0.0 
2.622560041154e+01 -1.849761311124e+02 0.0 
0.0 0.0 -8.226206008347e+01 
-5.149848294634e+01 -1.665393707407e+01 0.0 
-1.665393707407e+01 -1.160470273993e+02 0.0 
0.0 0.0 -4.562990084009e+01 
-9.261512761083e+01 1.958020467771e+01 0.0 
1.958020467771e+01 -1.694710470023e+02 0.0 
0.0 0.0 -7.822585238393e+01 
-1.063634013630e+02 1.181628058411e+01 0.0 
1.181628058411e+01 -2.220052792046e+02 0.0 
0.0 0.0 -9.811060417028e+01 
-8.281444964381e+01 -1.672128522154e+00 0.0 
-1.672128522154e+00 -2.324830442684e+02 0.0 
0.0 0.0 -9.636768335254e+01 
-5.310232008712e+01 2.857515592125e+01 0.0 
2.857515592125e+01 -1.382507511611e+02 0.0 
0.0 0.0 -5.532076757016e+01 
-9.578776828587e+01 2.169815963455e+01 0.0 
2.169815963455e+01 -1.829439126594e+02 0.0 
0.0 0.0 -8.321950428360e+01 
-7.596961238672e+01 2.998523964128e+01 0.0 
2.998523964128e+01 -1.670299878913e+02 0.0 
0.0 0.0 -7.094171467903e+01 
-4.866614097106e+01 -1.627628536171e+01 0.0 
-1.627628536171e+01 -9.518788374711e+01 0.0 
0.0 0.0 -3.801352782295e+01 
-1.136158592302e+02 1.012203742359e+01 0.0 
1.012203742359e+01 -2.529629222956e+02 0.0 
0.0 0.0 -1.095736344577e+02 
-4.423727873064e+01 -1.372496732231e+01 0.0 
-1.372496732231e+01 -7.956831452227e+01 0.0 
0.0 0.0 -3.289116985519e+01 
-1.322763757430e+02 2.061223806927e+01 0.0 
2.061223806927e+01 -3.315972314713e+02 0.0 
0.0 0.0 -1.387620821643e+02 
-1.027679520176e+02 4.153511598052e+00 0.0 
4.153511598052e+00 -2.234423521020e+02 0.0 
0.0 0.0 -9.746309123586e+01 
-1.069715849475e+02 1.330192199851e+01 0.0 
1.330192199851e+01 -2.937001928848e+02 0.0 
0.0 0.0 -1.203160652309e+02 
-7.521895265670e+01 2.016341291831e+00 0.0 
2.016341291831e+00 -1.407352691357e+02 0.0 
0.0 0.0 -6.438626653771e+01 
-1.000695731198e+02 8.584814426642e+00 0.0 
8.584814426642e+00 -2.022524533487e+02 0.0 
0.0 0.0 -9.029660794056e+01 
-7.630329818764e+01 -4.702136000922e+00 0.0 
-4.702136000922e+00 -2.213183759147e+02 0.0 
0.0 0.0 -9.207048208610e+01 
-7.731735842077e+01 1.329402725174e+01 0.0 
1.329402725174e+01 -2.364173045963e+02 0.0 
0.0 0.0 -9.908156755190e+01 
-1.076902051920e+02 9.071728158316e+00 0.0 
9.071728158316e+00 -2.316144370303e+02 0.0 
0.0 0.0 -1.013913926667e+02 
-1.164839208969e+02 1.952593478423e+00 0.0 
1.952593478423e+00 -3.031332389678e+02 0.0 
0.0 0.0 -1.254851479594e+02 
-9.331120743547e+01 7.446179732398e+00 0.0 
7.446179732398e+00 -1.817188503412e+02 0.0 
0.0 0.0 -8.210901733302e+01 
-1.018964714064e+02 6.932979517314e+00 0.0 
6.932979517314e+00 -2.873266489140e+02 0.0 
0.0 0.0 -1.171302507667e+02 
-4.893688210247e+01 -1.754423809495e+01 0.0 
-1.754423809495e+01 -1.115916582608e+02 0.0 
0.0 0.0 -4.209995366891e+01 
-9.748986882206e+01 8.946381927389e+00 0.0 
8.946381927389e+00 -1.917475517957e+02 0.0 
0.0 0.0 -8.637122618534e+01 
-1.350678181196e+02 2.871784599519e+01 0.0 
2.871784599519e+01 -3.185043911755e+02 0.0 
0.0 0.0 -1.356716627886e+02 
-1.411327583017e+02 7.582848360106e+00 0.0 
7.582848360106e+00 -3.525952986721e+02 0.0 
0.0 0.0 -1.477184170921e+02 
-8.398970556085e+01 -6.794840541528e+00 0.0 
-6.794840541528e+00 -2.077937641903e+02 0.0 
0.0 0.0 -8.460841463975e+01 
-7.717887254401e+01 4.050941350267e+00 0.0 
4.050941350267e+00 -1.418424836309e+02 0.0 
0.0 0.0 -6.530640685246e+01 
-7.163113339208e+01 1.983640327347e+00 0.0 
1.983640327347e+00 -1.300608705412e+02 0.0 
0.0 0.0 -6.010760117997e+01 
-8.704528279876e+01 -7.410489282612e+00 0.0 
-7.410489282612e+00 -2.253134950946e+02 0.0 
0.0 0.0 -9.450716476370e+01 
-1.112677314719e+02 2.044017353883e+00 0.0 
2.044017353883e+00 -2.949064922824e+02 0.0 
0.0 0.0 -1.214522671263e+02 
-1.153247210033e+02 3.582628300403e+00 0.0 
3.582628300403e+00 -3.051853983469e+02 0.0 
0.0 0.0 -1.257530358051e+02 
-2.621105268570e+01 -4.055793762668e+00 0.0 
-4.055793762668e+00 -6.657985536668e+01 0.0 
0.0 0.0 -2.449686229554e+01 
-4.609621957082e+01 1.699612297470e+01 0.0 
1.699612297470e+01 -1.518536980681e+02 0.0 
0.0 0.0 -5.587192218411e+01 
-6.880259075215e+01 4.058055280376e+00 0.0 
4.058055280376e+00 -2.179238890794e+02 0.0 
0.0 0.0 -8.880177131511e+01 
-7.095406290702e+01 -2.798018923836e+00 0.0 
-2.798018923836e+00 -2.124460726293e+02 0.0 
0.0 0.0 -8.772767599290e+01 
-7.263776656861e+01 3.013153707913e+01 0.0 
3.013153707913e+01 -1.806401647206e+02 0.0 
0.0 0.0 -7.613864724056e+01 
-1.123710310152e+02 1.051083225154e+01 0.0 
1.051083225154e+01 -2.430538559231e+02 0.0 
0.0 0.0 -1.062274660815e+02 
-1.128669214207e+02 1.901026791029e+01 0.0 
1.901026791029e+01 -2.400806402885e+02 0.0 
0.0 0.0 -1.054842685127e+02 
-1.044192529397e+02 5.961338092864e+00 0.0 
5.961338092864e+00 -2.243501983693e+02 0.0 
0.0 0.0 -9.823083539271e+01 
-6.651043838489e+01 2.901506527893e+01 0.0 
2.901506527893e+01 -1.141917212530e+02 0.0 
0.0 0.0 -4.876069454076e+01 
-1.001653201379e+02 1.047162920854e+01 0.0 
1.047162920854e+01 -2.010948210151e+02 0.0 
0.0 0.0 -8.997804234588e+01 
-1.144769023963e+02 2.985886501212e+00 0.0 
2.985886501212e+00 -2.962790622196e+02 0.0 
0.0 0.0 -1.225907366674e+02 
-1.067607283597e+02 7.052193813424e+00 0.0 
7.052193813424e+00 -2.322073296028e+02 0.0 
0.0 0.0 -1.012904173888e+02 
-9.483736772579e+01 9.295975802302e+00 0.0 
9.295975802302e+00 -1.813233288183e+02 0.0 
0.0 0.0 -8.244820896322e+01 
-9.144029472418e+01 -7.383050759805e+00 0.0 
-7.383050759805e+00 -2.212711303680e+02 0.0 
0.0 0.0 -9.246912753538e+01 
-6.574637379228e+01 7.404390446830e+00 0.0 
7.404390446830e+00 -2.107318706451e+02 0.0 
0.0 0.0 -8.402764435377e+01 
-9.479565547012e+01 6.786922608517e+00 0.0 
6.786922608517e+00 -1.902402848720e+02 0.0 
0.0 0.0 -8.511078210265e+01 
-1.064335778968e+02 9.665202717386e+00 0.0 
9.665202717386e+00 -2.228935513060e+02 0.0 
0.0 0.0 -9.839813876086e+01 
-9.382978681426e+01 5.131692592832e+00 0.0 
5.131692592832e+00 -1.909870496213e+02 0.0 
0.0 0.0 -8.504505093067e+01 
-9.082597013969e+01 5.361874343346e+00 0.0 
5.361874343346e+00 -1.803136573062e+02 0.0 
0.0 0.0 -8.094188823376e+01 
-1.307113096288e+02 4.433246651564e+00 0.0 
4.433246651564e+00 -3.322216288675e+02 0.0 
0.0 0.0 -1.384798815489e+02 
-1.268424395806e+02 2.132497826817e+01 0.0 
2.132497826817e+01 -3.200930181603e+02 0.0 
0.0 0.0 -1.336806373223e+02 
-1.252112353440e+02 4.838865249530e+00 0.0 
4.838865249530e+00 -3.237398625076e+02 0.0 
0.0 0.0 -1.342853293555e+02 
-1.014711431284e+02 -7.840221521584e-01 0.0 
-7.840221521584e-01 -2.654817773428e+02 0.0 
0.0 0.0 -1.088457330145e+02 
-6.321010417756e+01 1.660890829386e+01 0.0 
1.660890829386e+01 -8.161581581210e+01 0.0 
0.0 0.0 -3.961764888971e+01 
-1.115264865554e+02 1.554849855936e+01 0.0 
1.554849855936e+01 -3.004311274666e+02 0.0 
0.0 0.0 -1.231872842066e+02 
-9.516924286542e+01 1.148601022828e+01 0.0 
1.148601022828e+01 -1.819762293744e+02 0.0 
0.0 0.0 -8.274364167193e+01 
-5.258303146799e+01 -6.864496071280e+00 0.0 
-6.864496071280e+00 -1.131212485017e+02 0.0 
0.0 0.0 -4.439532107468e+01 
-7.181257727488e+01 1.603205518407e+00 0.0 
1.603205518407e+00 -2.195212501888e+02 0.0 
0.0 0.0 -9.067027217878e+01 
-7.941015943914e+01 3.879771113118e+00 0.0 
3.879771113118e+00 -2.401944730042e+02 0.0 
0.0 0.0 -1.007411378845e+02 
-8.485839873514e+01 1.426093075940e+01 0.0 
1.426093075940e+01 -2.545599725641e+02 0.0 
0.0 0.0 -1.057117687750e+02 
-4.308618619490e+01 -1.374137328114e+00 0.0 
-1.374137328114e+00 -1.496412177053e+02 0.0 
0.0 0.0 -5.456111475038e+01 
-6.738543431987e+01 4.523736805542e+00 0.0 
4.523736805542e+00 -2.106354556317e+02 0.0 
0.0 0.0 -8.477417954503e+01 
-9.495858734314e+01 1.546359950520e+01 0.0 
1.546359950520e+01 -2.716215523782e+02 0.0 
0.0 0.0 -1.114798811731e+02 
-7.521455598862e+01 2.213624459921e+01 0.0 
2.213624459921e+01 -1.212610832040e+02 0.0 
0.0 0.0 -5.551488741600e+01 
-9.068677113394e+01 -4.637833224046e+00 0.0 
-4.637833224046e+00 -2.273290905630e+02 0.0 
0.0 0.0 -9.251800929233e+01 
-8.763256877806e+01 7.980719558030e+00 0.0 
7.980719558030e+00 -1.606142595391e+02 0.0 
0.0 0.0 -7.407404849514e+01 
-5.894977379768e+01 6.306870956647e-01 0.0 
6.306870956647e-01 -9.971262333248e+01 0.0 
0.0 0.0 -4.719871913905e+01 
-4.371584246625e+01 3.025185516260e+01 0.0 
3.025185516260e+01 -3.132300626865e+01 0.0 
0.0 0.0 -1.846276026762e+01 
-1.039895934445e+02 -2.197496811858e+00 0.0 
-2.197496811858e+00 -2.592760511277e+02 0.0 
0.0 0.0 -1.070289935549e+02 
-1.109085895702e+02 1.150029103155e+01 0.0 
1.150029103155e+01 -3.032428706878e+02 0.0 
0.0 0.0 -1.238454380774e+02 
-1.152482458983e+02 1.808455194098e+01 0.0 
1.808455194098e+01 -2.482204852543e+02 0.0 
0.0 0.0 -1.086406193458e+02 
-7.397870905318e+01 1.151941807720e+01 0.0 
1.151941807720e+01 -2.321957198746e+02 0.0 
0.0 0.0 -9.690933334370e+01 
-9.649594995390e+01 -2.669972140345e+00 0.0 
-2.669972140345e+00 -2.465506256376e+02 0.0 
0.0 0.0 -1.002487548442e+02 
-8.606058254549e+01 6.289358358747e+00 0.0 
6.289358358747e+00 -1.612846009549e+02 0.0 
0.0 0.0 -7.380355505013e+01 
-4.176251713245e+01 2.883443502826e+01 0.0 
2.883443502826e+01 -2.822084221440e+01 0.0 
0.0 0.0 -1.708871864996e+01 
-1.051244087766e+02 1.246211074955e+01 0.0 
1.246211074955e+01 -2.927359517964e+02 0.0 
0.0 0.0 -1.200963698498e+02 
-8.143243625830e+01 1.149714914945e+01 0.0 
1.149714914945e+01 -2.476726778246e+02 0.0 
0.0 0.0 -1.044691611888e+02 
-7.788898093707e+01 2.379206108791e+01 0.0 
2.379206108791e+01 -1.274327968027e+02 0.0 
0.0 0.0 -5.929944934273e+01 
-1.178017437485e+02 4.667239603997e+00 0.0 
4.667239603997e+00 -3.064698969074e+02 0.0 
0.0 0.0 -1.268814921968e+02 
-5.233027802489e+01 -1.591467511772e+01 0.0 
-1.591467511772e+01 -1.423841739059e+02 0.0 
0.0 0.0 -5.466466746060e+01 
-1.219446706307e+02 6.323490483313e+00 0.0 
6.323490483313e+00 -3.163247694986e+02 0.0 
0.0 0.0 -1.310808320388e+02 
-1.348602692140e+02 8.330819720582e+00 0.0 
8.330819720582e+00 -3.429350679006e+02 0.0 
0.0 0.0 -1.429386011344e+02 
-9.936999909081e+01 1.346444371011e+01 0.0 
1.346444371011e+01 -2.819423209534e+02 0.0 
0.0 0.0 -1.163625037283e+02 
-9.609794253784e+01 7.163672668019e+00 0.0 
7.163672668019e+00 -1.922998779611e+02 0.0 
0.0 0.0 -8.611934614967e+01 
-1.099459650949e+02 2.547067516098e+01 0.0 
2.547067516098e+01 -2.735625900817e+02 0.0 
0.0 0.0 -1.146525665530e+02 
-1.367375200706e+02 9.538264087405e+00 0.0 
9.538264087405e+00 -3.439525107637e+02 0.0 
0.0 0.0 -1.438070092503e+02 
-4.042734862695e+01 2.812868280098e+01 0.0 
2.812868280098e+01 -2.738189995902e+01 0.0 
0.0 0.0 -1.728933659780e+01 
-9.051643388602e+01 7.683866227234e+00 0.0 
7.683866227234e+00 -1.711898386153e+02 0.0 
0.0 0.0 -7.811188175041e+01 
-1.259655569295e+02 2.357550106357e+01 0.0 
2.357550106357e+01 -3.137624563334e+02 0.0 
0.0 0.0 -1.315184039789e+02 
-9.760180903223e+01 6.490193635305e+00 0.0 
6.490193635305e+00 -2.008476943876e+02 0.0 
0.0 0.0 -8.913485102596e+01 
-8.846661609212e+01 1.223715904473e+01 0.0 
1.223715904473e+01 -2.644753180225e+02 0.0 
0.0 0.0 -1.102913885524e+02 
-6.880451034985e+01 8.947651912834e+00 0.0 
8.947651912834e+00 -2.157732462878e+02 0.0 
0.0 0.0 -8.765198066882e+01 
-1.015000752941e+02 -3.727011861063e+00 0.0 
-3.727011861063e+00 -2.398036196137e+02 0.0 
0.0 0.0 -9.871253966746e+01 
-3.289204565092e+01 7.195006615681e+00 0.0 
7.195006615681e+00 -1.290061339427e+02 0.0 
0.0 0.0 -5.053764166932e+01 
-1.004459143465e+02 6.114083122639e+00 0.0 
6.114083122639e+00 -2.115164153636e+02 0.0 
0.0 0.0 -9.318869891301e+01 
-5.739022440507e+01 -5.730471346095e+00 0.0 
-5.730471346095e+00 -1.218531636425e+02 0.0 
0.0 0.0 -4.781794306255e+01 
-3.887687094784e+01 2.685796514764e+01 0.0 
2.685796514764e+01 -2.663620381815e+01 0.0 
0.0 0.0 -1.680475458119e+01 
-1.057136069291e+02 2.618241190753e+01 0.0 
2.618241190753e+01 -2.596319664392e+02 0.0 
0.0 0.0 -1.092036720105e+02 
-1.064461897795e+02 5.305457578757e+00 0.0 
5.305457578757e+00 -2.336297014686e+02 0.0 
0.0 0.0 -1.016227673744e+02 
-5.281137301783e+01 -1.920182890931e+01 0.0 
-1.920182890931e+01 -1.286107272573e+02 0.0 
0.0 0.0 -4.982260486933e+01 
-8.101040034670e+01 2.753787803924e+01 0.0 
2.753787803924e+01 -1.879984636255e+02 0.0 
0.0 0.0 -7.923112750068e+01 
-9.201502367728e+01 7.020325272330e+00 0.0 
7.020325272330e+00 -1.797479251103e+02 0.0 
0.0 0.0 -8.112888463626e+01 
-1.006485520957e+02 -4.519320959264e+00 0.0 
-4.519320959264e+00 -2.365869754003e+02 0.0 
0.0 0.0 -9.725173524966e+01 
-4.717280723598e+01 -7.965810344362e+00 0.0 
-7.965810344362e+00 -1.493742222611e+02 0.0 
0.0 0.0 -5.553589837156e+01 
-5.408357680908e+01 3.027774560958e+01 0.0 
3.027774560958e+01 -1.402373565537e+02 0.0 
0.0 0.0 -5.675916578355e+01 
-4.724101920063e+01 -1.816951369581e+01 0.0 
-1.816951369581e+01 -9.113608172856e+01 0.0 
0.0 0.0 -3.550940038992e+01 
-4.609296210027e+01 -1.607008506474e+01 0.0 
-1.607008506474e+01 -1.261109443638e+02 0.0 
0.0 0.0 -4.590771055759e+01 
-4.603626716703e+01 -1.840461203921e+01 0.0 
-1.840461203921e+01 -1.087734437200e+02 0.0 
0.0 0.0 -3.900440571760e+01 
-8.077841163664e+01 1.139559514612e+01 0.0 
1.139559514612e+01 -2.484006562325e+02 0.0 
0.0 0.0 -1.048443159233e+02 
-1.254597395669e+02 1.667697549162e+01 0.0 
1.667697549162e+01 -2.836711076553e+02 0.0 
0.0 0.0 -1.223392541667e+02 
-4.806408047275e+01 2.437534520671e+01 0.0 
2.437534520671e+01 -2.747073743409e+01 0.0 
0.0 0.0 -1.846065277486e+01 
-1.361702025256e+02 4.041863817788e+00 0.0 
4.041863817788e+00 -3.406175118261e+02 0.0 
0.0 0.0 -1.426363143055e+02 
-6.055373211582e+01 1.554348205668e+01 0.0 
1.554348205668e+01 -1.933114762021e+02 0.0 
0.0 0.0 -7.532251939329e+01 
-9.216356177823e+01 9.706082979481e+00 0.0 
9.706082979481e+00 -1.711500928397e+02 0.0 
0.0 0.0 -7.859409638537e+01 
-3.643006712653e+01 5.701295740406e+00 0.0 
5.701295740406e+00 -1.358435165798e+02 0.0 
0.0 0.0 -5.113451104779e+01 
-1.416762672089e+02 1.137352293499e+01 0.0 
1.137352293499e+01 -3.527649784280e+02 0.0 
0.0 0.0 -1.479323736911e+02 
-5.338502812395e+01 -2.056648300067e+01 0.0 
-2.056648300067e+01 -1.121978738724e+02 0.0 
0.0 0.0 -4.424660276991e+01 
-6.839377262986e+01 -5.563998412801e+00 0.0 
-5.563998412801e+00 -1.433178662183e+02 0.0 
0.0 0.0 -5.721855874095e+01 
-1.046528187287e+02 1.557345681310e+01 0.0 
1.557345681310e+01 -2.885546089715e+02 0.0 
0.0 0.0 -1.186839864619e+02 
-8.122790487857e+01 -5.690630701415e+00 0.0 
-5.690630701415e+00 -2.281574549067e+02 0.0 
0.0 0.0 -9.536012776063e+01 
-1.211123320097e+02 2.203498832691e+01 0.0 
2.203498832691e+01 -3.079976748997e+02 0.0 
0.0 0.0 -1.283330020728e+02 
-5.689668587489e+01 3.056383372345e+01 0.0 
3.056383372345e+01 -1.258342874212e+02 0.0 
0.0 0.0 -5.228276642008e+01 
-1.004997945336e+02 1.343138108039e+01 0.0 
1.343138108039e+01 -1.930590101449e+02 0.0 
0.0 0.0 -8.766764140356e+01 
-1.313722305486e+02 1.926924573123e+01 0.0 
1.926924573123e+01 -3.309198905981e+02 0.0 
0.0 0.0 -1.382876363440e+02 
-8.782809424806e+01 5.511287404447e+00 0.0 
5.511287404447e+00 -1.697011522895e+02 0.0 
0.0 0.0 -7.685877396128e+01 
-1.173385673412e+02 2.057837709129e+01 0.0 
2.057837709129e+01 -2.496425510607e+02 0.0 
0.0 0.0 -1.096943355206e+02 
-1.014970132085e+02 1.056756965988e+01 0.0 
1.056756965988e+01 -2.019541750021e+02 0.0 
0.0 0.0 -9.063535646318e+01 
-1.053858123901e+02 1.229532538313e+01 0.0 
1.229532538313e+01 -2.125858192741e+02 0.0 
0.0 0.0 -9.499148949926e+01 
-4.270288440945e+01 2.421634082902e+01 0.0 
2.421634082902e+01 -1.258311050135e+02 0.0 
0.0 0.0 -4.684345770598e+01 
-1.313273820244e+02 2.832453497239e+00 0.0 
2.832453497239e+00 -3.301170480617e+02 0.0 
0.0 0.0 -1.380333290258e+02 
-9.617050269449e+01 8.700292970304e+00 0.0 
8.700292970304e+00 -1.902580573051e+02 0.0 
0.0 0.0 -8.552856799987e+01 
-7.322893290471e+01 2.128541184014e+01 0.0 
2.128541184014e+01 -2.176824505485e+02 0.0 
0.0 0.0 -9.090306243710e+01 
-3.969093087500e+01 1.140961138230e+01 0.0 
1.140961138230e+01 -2.740276088971e+01 0.0 
0.0 0.0 -1.477694044747e+01 
-1.378629052928e+02 2.244926073680e+01 0.0 
2.244926073680e+01 -3.382627799557e+02 0.0 
0.0 0.0 -1.424377055746e+02 
-4.337782683311e+01 1.176698948508e+01 0.0 
1.176698948508e+01 -1.495553869746e+02 0.0 
0.0 0.0 -5.459054113232e+01 
-6.246848660307e+01 -4.110928018184e+00 0.0 
-4.110928018184e+00 -1.355506809241e+02 0.0 
0.0 0.0 -5.368682741057e+01 
-1.151108594968e+02 1.908240718872e+01 0.0 
1.908240718872e+01 -3.012293756734e+02 0.0 
0.0 0.0 -1.245020705511e+02 
-2.529927829514e+01 5.868141489699e-01 0.0 
5.868141489699e-01 -8.035757542994e+01 0.0 
0.0 0.0 -3.086014783151e+01 
-7.503980211991e+01 2.510354643686e+01 0.0 
2.510354643686e+01 -1.956564581334e+02 0.0 
0.0 0.0 -8.056888783615e+01 
-1.101480788845e+02 1.456719952833e+01 0.0 
1.456719952833e+01 -2.996578516351e+02 0.0 
0.0 0.0 -1.227404380391e+02 
-1.109253917243e+02 1.332425948114e+01 0.0 
1.332425948114e+01 -2.327144887326e+02 0.0 
0.0 0.0 -1.026919641371e+02 
-1.146200388879e+02 1.528438744438e+01 0.0 
1.528438744438e+01 -2.443029836478e+02 0.0 
0.0 0.0 -1.072769067607e+02 
-1.057087705434e+02 1.656636868925e+01 0.0 
1.656636868925e+01 -2.892095464967e+02 0.0 
0.0 0.0 -1.180754951120e+02 
-1.039323838918e+02 1.014173416556e+01 0.0 
1.014173416556e+01 -2.123845555341e+02 0.0 
0.0 0.0 -9.449508182776e+01 
-6.402181573693e+01 1.916752195174e+01 0.0 
1.916752195174e+01 -1.975859868206e+02 0.0 
0.0 0.0 -7.883763276462e+01 
-1.068617242481e+02 2.698124809346e+01 0.0 
2.698124809346e+01 -2.499246397244e+02 0.0 
0.0 0.0 -1.066359091918e+02 
-4.576277502006e+01 7.349948337958e+00 0.0 
7.349948337958e+00 -4.334600010906e+01 0.0 
0.0 0.0 -2.304285434722e+01 
-1.170901883236e+02 2.278082337315e+01 0.0 
2.278082337315e+01 -2.586401614667e+02 0.0 
0.0 0.0 -1.123191049371e+02 
-5.305643319258e+01 5.953609706652e+00 0.0 
5.953609706652e+00 -6.230410181805e+01 0.0 
0.0 0.0 -3.226662523603e+01 
-5.622615026999e+01 5.547665761166e+00 0.0 
5.547665761166e+00 -7.174604206907e+01 0.0 
0.0 0.0 -3.685930249977e+01 
-7.132730653355e+01 1.491944491268e+01 0.0 
1.491944491268e+01 -2.233314781784e+02 0.0 
0.0 0.0 -9.234263131806e+01 
-5.934007794674e+01 5.215907159114e+00 0.0 
5.215907159114e+00 -8.161341742118e+01 0.0 
0.0 0.0 -4.121205175323e+01 
-8.235656173387e+01 2.296708758045e+01 0.0 
2.296708758045e+01 -2.272112456413e+02 0.0 
0.0 0.0 -9.293976419864e+01 
-6.590582982011e+01 2.392270875720e+01 0.0 
2.392270875720e+01 -1.869510896487e+02 0.0 
0.0 0.0 -7.645848127083e+01 
-7.267654902892e+01 5.943954833507e+00 0.0 
5.943954833507e+00 -2.260918670869e+02 0.0 
0.0 0.0 -9.365284151485e+01 
-4.172947264790e+01 -8.406580947021e+00 0.0 
-8.406580947021e+00 -1.390290835805e+02 0.0 
0.0 0.0 -5.025079886333e+01 
-6.831374798414e+01 1.142922222414e+01 0.0 
1.142922222414e+01 -2.172655331701e+02 0.0 
0.0 0.0 -8.810650949214e+01 
-1.040117613525e+02 7.590802542553e+00 0.0 
7.590802542553e+00 -2.215094382198e+02 0.0 
0.0 0.0 -9.725635987168e+01 
-1.172101447143e+02 2.067447131824e+01 0.0 
2.067447131824e+01 -2.550990265444e+02 0.0 
0.0 0.0 -1.112927513776e+02 
-1.216668558080e+02 1.879492135540e+00 0.0 
1.879492135540e+00 -3.113387039279e+02 0.0 
0.0 0.0 -1.295016679208e+02 
-1.256582345340e+02 1.997593406827e+01 0.0 
1.997593406827e+01 -3.193032993997e+02 0.0 
0.0 0.0 -1.330884601801e+02 
-7.632767272601e+01 -2.447761452966e+00 0.0 
-2.447761452966e+00 -2.242077829873e+02 0.0 
0.0 0.0 -9.254535337289e+01 
-1.026427094919e+02 1.003178203194e+01 0.0 
1.003178203194e+01 -2.110278563511e+02 0.0 
0.0 0.0 -9.370116975292e+01 
-7.110115643970e+01 7.949273150569e+00 0.0 
7.949273150569e+00 -2.253581684607e+02 0.0 
0.0 0.0 -9.284409958732e+01 
-1.364868345608e+02 2.559424225234e+00 0.0 
2.559424225234e+00 -3.383034620216e+02 0.0 
0.0 0.0 -1.420370889747e+02 
-9.871891249827e+01 8.385461149118e+00 0.0 
8.385461149118e+00 -2.004041204952e+02 0.0 
0.0 0.0 -8.933690989804e+01 
-1.029925839680e+02 1.284240606653e+01 0.0 
1.284240606653e+01 -2.027193666734e+02 0.0 
0.0 0.0 -9.131358519244e+01 
-9.436108947547e+01 1.104909595084e+01 0.0 
1.104909595084e+01 -2.749759722377e+02 0.0 
0.0 0.0 -1.138381134155e+02 
-6.605235819126e+01 1.519632583275e+01 0.0 
1.519632583275e+01 -2.080348814607e+02 0.0 
0.0 0.0 -8.340643411319e+01 
-1.149106065080e+02 2.696491772656e+01 0.0 
2.696491772656e+01 -2.689150025958e+02 0.0 
0.0 0.0 -1.147476827311e+02 
-9.170837357469e+01 2.351103935667e+01 0.0 
2.351103935667e+01 -1.846446536776e+02 0.0 
0.0 0.0 -8.227414497956e+01 
-4.758822868169e+01 -1.411683839173e+01 0.0 
-1.411683839173e+01 -1.397089921411e+02 0.0 
0.0 0.0 -5.225768489229e+01 
-4.317474954371e+01 4.527000985886e+00 0.0 
4.527000985886e+00 -1.474975667145e+02 0.0 
0.0 0.0 -5.352628533988e+01 
-6.054801950722e+01 3.247578259234e+01 0.0 
3.247578259234e+01 -1.442421591826e+02 0.0 
0.0 0.0 -6.102817776243e+01 
-8.536265919009e+01 2.798060097689e+01 0.0 
2.798060097689e+01 -1.887689398195e+02 0.0 
0.0 0.0 -7.917745679370e+01 
-1.415558074083e+02 2.230986549012e+00 0.0 
2.230986549012e+00 -3.466867260915e+02 0.0 
0.0 0.0 -1.460727600499e+02 
-9.896931903816e+01 1.103257784996e+01 0.0 
1.103257784996e+01 -1.918458547200e+02 0.0 
0.0 0.0 -8.684455212744e+01 
-6.528768171835e+01 1.219834004731e+01 0.0 
1.219834004731e+01 -2.051295484397e+02 0.0 
0.0 0.0 -8.182968443394e+01 
-9.098130280742e+01 2.767438213699e+01 0.0 
2.767438213699e+01 -2.110715544990e+02 0.0 
0.0 0.0 -9.021585719193e+01 
-1.158438618769e+02 1.365445385444e+01 0.0 
1.365445385444e+01 -3.105891496395e+02 0.0 
0.0 0.0 -1.275299034549e+02 
-1.026922960714e+02 8.178331542549e+00 0.0 
8.178331542549e+00 -2.128340181520e+02 0.0 
0.0 0.0 -9.425789426703e+01 
-1.189594589677e+02 2.713913674146e+01 0.0 
2.713913674146e+01 -2.740217224242e+02 0.0 
0.0 0.0 -1.174943544176e+02 
-8.643123793591e+01 7.554693798919e+00 0.0 
7.554693798919e+00 -1.595337021116e+02 0.0 
0.0 0.0 -7.338948201424e+01 
-1.231781311912e+02 9.884142827321e+00 0.0 
9.884142827321e+00 -3.242059383994e+02 0.0 
0.0 0.0 -1.338152208772e+02 
-7.448918314615e+01 9.921370905482e+00 0.0 
9.921370905482e+00 -2.315528040870e+02 0.0 
0.0 0.0 -9.637275541502e+01 
-1.173884748021e+02 1.457660520347e+01 0.0 
1.457660520347e+01 -3.113701354943e+02 0.0 
0.0 0.0 -1.282275830889e+02 
-7.878204569248e+01 2.849053547926e+01 0.0 
2.849053547926e+01 -1.983347141589e+02 0.0 
0.0 0.0 -8.339623854089e+01 
-1.098660301642e+02 1.113580612144e+01 0.0 
1.113580612144e+01 -2.328446740943e+02 0.0 
0.0 0.0 -1.024132112776e+02 
-1.239572807012e+02 2.764460718102e+01 0.0 
2.764460718102e+01 -2.812412725922e+02 0.0 
0.0 0.0 -1.211595659880e+02 
-8.471213385599e+01 9.540835588744e+00 0.0 
9.540835588744e+00 -2.570938037859e+02 0.0 
0.0 0.0 -1.081480342573e+02 
-4.085799732622e+01 5.394388025166e+00 0.0 
5.394388025166e+00 -1.456002565322e+02 0.0 
0.0 0.0 -5.349655688183e+01 
-1.142859125285e+02 2.338499594554e+01 0.0 
2.338499594554e+01 -2.865485538105e+02 0.0 
0.0 0.0 -1.198503399017e+02 
-8.045935817298e+01 2.397125861462e+01 0.0 
2.397125861462e+01 -2.137422953905e+02 0.0 
0.0 0.0 -8.774058068393e+01 
-6.221676603142e+01 1.557364771905e+01 0.0 
1.557364771905e+01 -1.935793515859e+02 0.0 
0.0 0.0 -7.610907046898e+01 
-9.039719091407e+01 1.285552564298e+01 0.0 
1.285552564298e+01 -2.654262693124e+02 0.0 
0.0 0.0 -1.100136765075e+02 
-1.206376524862e+02 8.758814256564e+00 0.0 
8.758814256564e+00 -3.166039499717e+02 0.0 
0.0 0.0 -1.307724807374e+02 
-4.265746224310e+01 -2.869218124650e+00 0.0 
-2.869218124650e+00 -1.439346394566e+02 0.0 
0.0 0.0 -5.309129307487e+01 
-7.751413340605e+01 8.462750315243e+00 0.0 
8.462750315243e+00 -2.407659269154e+02 0.0 
0.0 0.0 -1.010783843337e+02 
-9.469763020379e+01 1.859551545788e+01 0.0 
1.859551545788e+01 -1.818847918393e+02 0.0 
0.0 0.0 -8.257472661294e+01 
-1.426015790740e+02 3.685367467186e+00 0.0 
3.685367467186e+00 -3.474221075579e+02 0.0 
0.0 0.0 -1.466071059896e+02 
-9.817312149216e+01 2.058022759698e+01 0.0 
2.058022759698e+01 -1.960554611168e+02 0.0 
0.0 0.0 -8.786857478269e+01 
-1.101576562447e+02 2.412071581418e+01 0.0 
2.412071581418e+01 -2.733712324910e+02 0.0 
0.0 0.0 -1.146586666207e+02 
-9.091187889795e+01 1.635166423180e+01 0.0 
1.635166423180e+01 -1.681383299036e+02 0.0 
0.0 0.0 -7.731506264046e+01 
-8.206242512332e+01 1.132075844550e+01 0.0 
1.132075844550e+01 -1.423244586818e+02 0.0 
0.0 0.0 -6.691606514154e+01 
-9.415629388916e+01 2.452244312133e+01 0.0 
2.452244312133e+01 -2.001905424913e+02 0.0 
0.0 0.0 -8.789535669089e+01 
-1.205403819088e+02 1.822901056875e+01 0.0 
1.822901056875e+01 -3.129283576907e+02 0.0 
0.0 0.0 -1.296406218799e+02 
-1.279876415190e+02 4.343880137750e+00 0.0 
4.343880137750e+00 -3.230106082402e+02 0.0 
0.0 0.0 -1.348994749277e+02 
-9.355936609494e+01 9.088808686281e+00 0.0 
9.088808686281e+00 -1.803332320485e+02 0.0 
0.0 0.0 -8.176777944303e+01 
-1.123652932861e+02 1.320616029709e+01 0.0 
1.320616029709e+01 -2.429710256520e+02 0.0 
0.0 0.0 -1.062008956814e+02 
-8.683077679076e+01 1.390410922820e+01 0.0 
1.390410922820e+01 -1.550080070596e+02 0.0 
0.0 0.0 -7.215163515511e+01 
-5.464084646429e+01 1.129775218952e+01 0.0 
1.129775218952e+01 -1.763080253670e+02 0.0 
0.0 0.0 -6.625020276784e+01 
-1.193144331986e+02 2.586365117819e+01 0.0 
2.586365117819e+01 -2.921746318635e+02 0.0 
0.0 0.0 -1.230467195186e+02 
-1.090034283738e+02 9.233864279121e+00 0.0 
9.233864279121e+00 -2.335227036980e+02 0.0 
0.0 0.0 -1.023578396215e+02 
-7.600415320944e+01 2.581764064972e+01 0.0 
2.581764064972e+01 -2.091611504850e+02 0.0 
0.0 0.0 -8.779570019742e+01 
-7.986555405197e+01 2.682250697864e+01 0.0 
2.682250697864e+01 -2.125194230430e+02 0.0 
0.0 0.0 -8.907144828955e+01 
-5.999849376344e+01 1.170820713875e+01 0.0 
1.170820713875e+01 -1.901835507115e+02 0.0 
0.0 0.0 -7.322044604785e+01 
-9.766950460116e+01 1.093240691950e+01 0.0 
1.093240691950e+01 -1.913821294696e+02 0.0 
0.0 0.0 -8.631549022123e+01 
-6.749618660132e+01 3.047363518870e+01 0.0 
3.047363518870e+01 -1.303000551752e+02 0.0 
0.0 0.0 -5.632202762622e+01 
-8.722731117270e+01 2.236227327698e+01 0.0 
2.236227327698e+01 -2.414160554555e+02 0.0 
0.0 0.0 -1.008729480320e+02 
-6.478901285062e+01 2.998965542672e+01 0.0 
2.998965542672e+01 -1.298279158957e+02 0.0 
0.0 0.0 -5.452713044925e+01 
-1.099340359143e+02 1.741848763324e+01 0.0 
1.741848763324e+01 -2.949591602959e+02 0.0 
0.0 0.0 -1.210679588630e+02 
-1.287744193407e+02 2.638354563577e+01 0.0 
2.638354563577e+01 -3.102207724811e+02 0.0 
0.0 0.0 -1.312985575466e+02 
-6.342732762379e+01 7.929320438404e+00 0.0 
7.929320438404e+00 -2.007883856313e+02 0.0 
0.0 0.0 -7.890529724485e+01 
-3.323316999571e+01 -5.802364486672e+00 0.0 
-5.802364486672e+00 -1.238557575160e+02 0.0 
0.0 0.0 -4.855957042440e+01 
-1.136791704651e+02 1.572167539814e+01 0.0 
1.572167539814e+01 -2.451730279165e+02 0.0 
0.0 0.0 -1.072556595145e+02 
-7.190015248257e+01 2.871425208690e+01 0.0 
2.871425208690e+01 -1.325816876223e+02 0.0 
0.0 0.0 -5.731093460661e+01 
-7.767048772210e+01 7.171772561745e-01 0.0 
7.171772561745e-01 -2.322051608973e+02 0.0 
0.0 0.0 -9.662246260457e+01 
-1.237163386093e+02 2.395575112835e+01 0.0 
2.395575112835e+01 -3.051040590845e+02 0.0 
0.0 0.0 -1.282461193082e+02 
-9.641344576022e+01 1.151514237833e+01 0.0 
1.151514237833e+01 -1.819607995792e+02 0.0 
0.0 0.0 -8.311227360182e+01 
-1.229434751983e+02 4.514323024278e+00 0.0 
4.514323024278e+00 -3.147805891012e+02 0.0 
0.0 0.0 -1.309172192898e+02 
-6.239521699295e+01 2.187873053999e+01 0.0 
2.187873053999e+01 -1.840470473219e+02 0.0 
0.0 0.0 -7.379591851759e+01 
-2.997417558224e+01 -3.749128468697e+00 0.0 
-3.749128468697e+00 -1.243021515364e+02 0.0 
0.0 0.0 -4.904999378112e+01 
-1.474427903420e+02 3.409891529457e+00 0.0 
3.409891529457e+00 -3.567187003942e+02 0.0 
0.0 0.0 -1.508484472209e+02 
-8.686931329079e+01 2.767310595212e+01 0.0 
2.767310595212e+01 -2.044301619425e+02 0.0 
0.0 0.0 -8.496683946242e+01 
-9.969416570011e+01 2.073589082232e+01 0.0 
2.073589082232e+01 -2.710760406476e+02 0.0 
0.0 0.0 -1.108310619043e+02 
-1.190932097348e+02 2.547257889918e+01 0.0 
2.547257889918e+01 -2.834091225630e+02 0.0 
0.0 0.0 -1.203506996893e+02 
-3.846493092806e+01 -2.310369707227e-01 0.0 
-2.310369707227e-01 -1.234495705894e+02 0.0 
0.0 0.0 -5.042782467995e+01 
-1.207581976257e+02 3.316772609958e+00 0.0 
3.316772609958e+00 -3.135894100194e+02 0.0 
0.0 0.0 -1.299042822935e+02 
-4.766534071241e+01 2.431550076117e+01 0.0 
2.431550076117e+01 -1.360614471923e+02 0.0 
0.0 0.0 -5.063950317480e+01 
-8.961619634906e+01 1.005844717063e+01 0.0 
1.005844717063e+01 -1.612950584512e+02 0.0 
0.0 0.0 -7.487337644009e+01 
-1.065317569020e+02 -2.600130062965e+00 0.0 
-2.600130062965e+00 -2.558726914427e+02 0.0 
0.0 0.0 -1.048379496877e+02 
-6.290048539760e+01 1.123064694711e+01 0.0 
1.123064694711e+01 -2.025547346921e+02 0.0 
0.0 0.0 -7.948164119133e+01 
-1.377647050160e+02 3.916184611760e+00 0.0 
3.916184611760e+00 -3.391445486678e+02 0.0 
0.0 0.0 -1.426727761051e+02 
-8.585635103751e+01 2.510955932755e+01 0.0 
2.510955932755e+01 -2.293820102995e+02 0.0 
0.0 0.0 -9.582364228572e+01 
-5.769727711994e+01 1.122635562339e+01 0.0 
1.122635562339e+01 -1.879586720647e+02 0.0 
0.0 0.0 -7.215631566589e+01 
-8.623437066614e+01 2.721481187108e+01 0.0 
2.721481187108e+01 -2.071668257814e+02 0.0 
0.0 0.0 -8.762035893426e+01 
-3.646897788597e+01 -1.810383238627e+01 0.0 
-1.810383238627e+01 -1.167279175762e+02 0.0 
0.0 0.0 -4.776843406517e+01 
-1.019972622429e+02 2.679054640989e+01 0.0 
2.679054640989e+01 -2.452297134272e+02 0.0 
0.0 0.0 -1.037680927010e+02 
-1.107266229932e+02 1.854639601044e+01 0.0 
1.854639601044e+01 -2.955370058709e+02 0.0 
0.0 0.0 -1.214790886592e+02 
-1.255201846145e+02 2.662933388375e+01 0.0 
2.662933388375e+01 -2.839723788109e+02 0.0 
0.0 0.0 -1.224477690276e+02 
-1.105777104496e+02 2.672184849684e+01 0.0 
2.672184849684e+01 -2.644227611056e+02 0.0 
0.0 0.0 -1.121001414666e+02 
-4.775950911190e+01 5.207403730460e+00 0.0 
5.207403730460e+00 -1.597849409491e+02 0.0 
0.0 0.0 -5.825422370298e+01 
-1.235489394558e+02 3.214326192408e+00 0.0 
3.214326192408e+00 -3.124366438963e+02 0.0 
0.0 0.0 -1.303956750056e+02 
-1.102271330328e+02 8.667693311434e+00 0.0 
8.667693311434e+00 -2.420321876541e+02 0.0 
0.0 0.0 -1.052777962061e+02 
-1.424708913582e+02 2.412505283223e+01 0.0 
2.412505283223e+01 -3.437388039105e+02 0.0 
0.0 0.0 -1.454629085806e+02 
-1.159100817008e+02 2.033947374408e+01 0.0 
2.033947374408e+01 -3.018370008140e+02 0.0 
0.0 0.0 -1.249241247544e+02 
-6.476957657980e+01 1.884340263816e+01 0.0 
1.884340263816e+01 -1.967322727539e+02 0.0 
0.0 0.0 -7.920172829840e+01 
-9.363177814807e+01 2.722185821187e+01 0.0 
2.722185821187e+01 -2.261031462891e+02 0.0 
0.0 0.0 -9.552047733114e+01 
-1.411174610027e+02 1.172401348448e+00 0.0 
1.172401348448e+00 -3.438952079911e+02 0.0 
0.0 0.0 -1.451038006981e+02 
-1.054403953269e+02 -7.348577119567e-01 0.0 
-7.348577119567e-01 -2.341905570585e+02 0.0 
0.0 0.0 -9.749927787358e+01 
-1.064615578201e+02 2.471759776001e+01 0.0 
2.471759776001e+01 -2.596489737160e+02 0.0 
0.0 0.0 -1.094331594608e+02 
-8.926011817907e+01 7.271057876152e+00 0.0 
7.271057876152e+00 -1.695178281320e+02 0.0 
0.0 0.0 -7.723338389333e+01 
-1.329144133844e+02 4.151291453947e+00 0.0 
4.151291453947e+00 -3.310794505542e+02 0.0 
0.0 0.0 -1.387981591816e+02 
-1.272943950851e+02 5.980860011183e+00 0.0 
5.980860011183e+00 -3.248755694290e+02 0.0 
0.0 0.0 -1.352509893542e+02 
-5.171613737585e+01 3.207496429122e-01 0.0 
3.207496429122e-01 -8.652478768038e+01 0.0 
0.0 0.0 -4.107227751687e+01 
-5.157213703194e+01 3.046839529505e-02 0.0 
3.046839529505e-02 -8.649664838897e+01 0.0 
0.0 0.0 -4.102063562627e+01 
-9.945207127375e+01 2.043890539750e+01 0.0 
2.043890539750e+01 -1.908234479729e+02 0.0 
0.0 0.0 -8.668265577400e+01 
-9.837244761334e+01 2.501592019540e+01 0.0 
2.501592019540e+01 -2.410768419912e+02 0.0 
0.0 0.0 -1.014347868814e+02 
-1.102180059806e+02 -1.715699295191e+00 0.0 
-1.715699295191e+00 -2.637325513668e+02 0.0 
0.0 0.0 -1.088223988867e+02 
-9.748093786956e+01 2.596425324830e+01 0.0 
2.596425324830e+01 -2.053702559765e+02 0.0 
0.0 0.0 -9.045535815380e+01 
-8.153826837458e+01 2.458858979180e+01 0.0 
2.458858979180e+01 -2.257867754228e+02 0.0 
0.0 0.0 -9.464646890497e+01 
-1.324514768594e+02 1.395235823042e+01 0.0 
1.395235823042e+01 -3.378467250008e+02 0.0 
0.0 0.0 -1.406894605580e+02 
-6.774013722330e+01 2.214022249656e+01 0.0 
2.214022249656e+01 -2.011771851774e+02 0.0 
0.0 0.0 -8.259843969241e+01 
-1.232941797847e+02 1.502976362268e+01 0.0 
1.502976362268e+01 -2.806034894680e+02 0.0 
0.0 0.0 -1.207693007758e+02 
-7.534380636293e+01 9.985800204204e+00 0.0 
9.985800204204e+00 -1.219306586735e+02 0.0 
0.0 0.0 -5.878233951094e+01 
-7.630828857684e+01 2.340186300763e+01 0.0 
2.340186300763e+01 -2.084278454966e+02 0.0 
0.0 0.0 -8.601698901166e+01 
-1.006090797017e+02 -2.358659465363e+00 0.0 
-2.358659465363e+00 -2.545439501749e+02 0.0 
0.0 0.0 -1.042648196757e+02 
-4.457682639155e+01 1.111203363363e+01 0.0 
1.111203363363e+01 -1.488978460337e+02 0.0 
0.0 0.0 -5.329896933003e+01 
-9.634543371450e+01 -5.828931227619e+00 0.0 
-5.828931227619e+00 -2.288409559860e+02 0.0 
0.0 0.0 -9.498474457125e+01 
-9.190199198768e+01 2.629903695622e+01 0.0 
2.629903695622e+01 -2.228362296674e+02 0.0 
0.0 0.0 -9.332419972715e+01 
-8.841078173442e+01 2.706599387893e+01 0.0 
2.706599387893e+01 -1.920021448547e+02 0.0 
0.0 0.0 -8.208130542591e+01 
-9.091455587485e+01 9.500519502485e+00 0.0 
9.500519502485e+00 -1.705755369735e+02 0.0 
0.0 0.0 -7.804702785450e+01 
-1.010285119342e+02 2.428349108267e+01 0.0 
2.428349108267e+01 -2.201878610361e+02 0.0 
0.0 0.0 -9.596491189110e+01 
-1.046266918560e+02 2.584849580826e+01 0.0 
2.584849580826e+01 -2.256550039921e+02 0.0 
0.0 0.0 -9.868450875444e+01 
-1.734599775558e+01 4.517824084497e-02 0.0 
4.517824084497e-02 -5.938289832569e+01 0.0 
0.0 0.0 -2.129102925726e+01 
-8.889765201290e+01 -5.874132151543e+00 0.0 
-5.874132151543e+00 -2.157888647263e+02 0.0 
0.0 0.0 -8.745704080437e+01 
-6.866466893689e+01 2.946431977817e+01 0.0 
2.946431977817e+01 -1.320816050178e+02 0.0 
0.0 0.0 -5.548329620508e+01 
-9.481410503458e+01 2.192801549453e+01 0.0 
2.192801549453e+01 -1.899813875131e+02 0.0 
0.0 0.0 -8.503864776430e+01 
-9.885945104860e+01 2.354312394012e+01 0.0 
2.354312394012e+01 -1.971886630523e+02 0.0 
0.0 0.0 -8.841443423026e+01 
-1.259597583075e+02 1.739175364283e+01 0.0 
1.739175364283e+01 -3.237299900557e+02 0.0 
0.0 0.0 -1.345069245090e+02 
-3.455553176875e+01 -1.393303834443e+00 0.0 
-1.393303834443e+00 -8.956684224356e+01 0.0 
0.0 0.0 -3.501357853072e+01 
-4.276303927587e+01 -1.017433293949e+01 0.0 
-1.017433293949e+01 -1.366750253260e+02 0.0 
0.0 0.0 -5.069257162831e+01 
-8.318021157900e+01 2.815523672364e+01 0.0 
2.815523672364e+01 -2.013655540014e+02 0.0 
0.0 0.0 -8.439051199019e+01 
-9.406635679880e+01 -6.419894448836e+00 0.0 
-6.419894448836e+00 -2.169951164875e+02 0.0 
0.0 0.0 -8.972410106134e+01 
-6.113596416877e+01 9.808116814559e+00 0.0 
9.808116814559e+00 -7.429012579136e+01 0.0 
0.0 0.0 -3.856125112245e+01 
-6.373663113125e+01 8.965594585654e+00 0.0 
8.965594585654e+00 -8.381093439142e+01 0.0 
0.0 0.0 -4.290287147119e+01 
-9.379924164018e+01 1.207427699064e+01 0.0 
1.207427699064e+01 -1.722355481532e+02 0.0 
0.0 0.0 -7.941043693800e+01 
-3.921768340475e+01 2.456670686329e+01 0.0 
2.456670686329e+01 -1.060345178024e+02 0.0 
0.0 0.0 -3.720903356091e+01 
-9.930750944905e+01 -3.548762613598e+00 0.0 
-3.548762613598e+00 -2.433461579234e+02 0.0 
0.0 0.0 -9.956456413932e+01 
-1.129181666964e+02 1.238710318273e+01 0.0 
1.238710318273e+01 -3.042873807833e+02 0.0 
0.0 0.0 -1.247616642439e+02 
-3.860183792493e+01 -2.154506984485e+00 0.0 
-2.154506984485e+00 -1.390905227052e+02 0.0 
0.0 0.0 -5.168034814901e+01 
-1.364288088731e+02 2.721513668167e+01 0.0 
2.721513668167e+01 -3.218901164671e+02 0.0 
0.0 0.0 -1.370956776020e+02 
-1.074287081806e+02 1.161554988885e+01 0.0 
1.161554988885e+01 -2.222433093783e+02 0.0 
0.0 0.0 -9.850160526766e+01 
-1.020468637646e+02 -3.836145853765e+00 0.0 
-3.836145853765e+00 -2.327896335050e+02 0.0 
0.0 0.0 -9.525915368162e+01 
-1.267478413401e+02 1.770337314685e+00 0.0 
1.770337314685e+00 -3.195295074008e+02 0.0 
0.0 0.0 -1.334832046223e+02 
-1.189918528913e+01 -1.169638442865e+00 0.0 
-1.169638442865e+00 -4.219607208910e+01 0.0 
0.0 0.0 -1.410122535785e+01 
-1.087342828348e+02 1.001887084365e+01 0.0 
1.001887084365e+01 -2.967492979969e+02 0.0 
0.0 0.0 -1.219318665842e+02 
-8.224590265405e+01 2.646329936064e+01 0.0 
2.646329936064e+01 -2.033499739406e+02 0.0 
0.0 0.0 -8.492965312226e+01 
-1.219270345545e+01 -7.566611974830e-01 0.0 
-7.566611974830e-01 -4.208425681856e+01 0.0 
0.0 0.0 -1.396433269759e+01 
-1.049489247465e+02 9.650210483337e+00 0.0 
9.650210483337e+00 -2.209343616700e+02 0.0 
0.0 0.0 -9.736498592494e+01 
-3.770839676725e+01 -4.384074222514e+00 0.0 
-4.384074222514e+00 -1.329113642845e+02 0.0 
0.0 0.0 -5.028852236194e+01 
-9.466889670472e+01 2.487262334110e+01 0.0 
2.487262334110e+01 -1.905641330698e+02 0.0 
0.0 0.0 -8.516990893237e+01 
-8.436270506417e+01 2.755248159167e+01 0.0 
2.755248159167e+01 -1.916364010222e+02 0.0 
0.0 0.0 -8.208242052408e+01 
-7.692658856861e+01 -6.001910859374e-01 0.0 
-6.001910859374e-01 -2.298881015580e+02 0.0 
0.0 0.0 -9.565638631928e+01 
-9.544837979212e+01 2.899685012722e+00 0.0 
2.899685012722e+00 -2.694602180129e+02 0.0 
0.0 0.0 -1.103751699268e+02 
-1.085237433386e+02 1.134482359684e+01 0.0 
1.134482359684e+01 -2.315130032481e+02 0.0 
0.0 0.0 -1.016110239760e+02 
-1.039693828860e+02 4.238751320288e+00 0.0 
4.238751320288e+00 -2.877808238414e+02 0.0 
0.0 0.0 -1.171250620182e+02 
-8.440570612024e+01 2.688933862926e+01 0.0 
2.688933862926e+01 -2.159075772662e+02 0.0 
0.0 0.0 -9.026246308685e+01 
-7.893782629080e+01 2.575352425066e+01 0.0 
2.575352425066e+01 -1.996132136636e+02 0.0 
0.0 0.0 -8.191763011054e+01 
-4.583939471497e+01 3.239812144251e+01 0.0 
3.239812144251e+01 -3.202402807337e+01 0.0 
0.0 0.0 -2.009203596432e+01 
-3.399132680283e+01 -3.390690750754e+00 0.0 
-3.390690750754e+00 -1.296273534412e+02 0.0 
0.0 0.0 -4.944473260371e+01 
-1.145888122194e+02 2.629323091684e+01 0.0 
2.629323091684e+01 -2.783929019528e+02 0.0 
0.0 0.0 -1.174945142516e+02 
-8.818913801391e+01 1.376756313146e+01 0.0 
1.376756313146e+01 -1.533705415463e+02 0.0 
0.0 0.0 -7.206790386805e+01 
-1.186657845417e+02 2.455170536256e+01 0.0 
2.455170536256e+01 -2.915596635188e+02 0.0 
0.0 0.0 -1.226676344181e+02 
-5.108988975026e+01 2.828979240403e+01 0.0 
2.828979240403e+01 -1.398037640957e+02 0.0 
0.0 0.0 -5.476429863423e+01 
-1.067490227472e+02 1.757427662440e+01 0.0 
1.757427662440e+01 -2.189339281278e+02 0.0 
0.0 0.0 -9.730488526249e+01 
-1.192672104195e+02 2.705648396377e+01 0.0 
2.705648396377e+01 -2.836484286542e+02 0.0 
0.0 0.0 -1.204746917221e+02 
-6.529748630779e+01 8.063949418145e+00 0.0 
8.063949418145e+00 -9.220985864499e+01 0.0 
0.0 0.0 -4.607587906566e+01 
-1.147171853806e+02 2.479051952638e+01 0.0 
2.479051952638e+01 -2.780717947569e+02 0.0 
0.0 0.0 -1.174366940413e+02 
-1.282654639795e+02 3.158756215173e+00 0.0 
3.158756215173e+00 -3.204867279636e+02 0.0 
0.0 0.0 -1.342256575829e+02 
-9.356899587176e+01 2.475311915989e+01 0.0 
2.475311915989e+01 -2.369945584219e+02 0.0 
0.0 0.0 -9.871570546878e+01 
-9.515801445439e+01 -4.072737580925e+00 0.0 
-4.072737580925e+00 -2.353390940380e+02 0.0 
0.0 0.0 -9.545055656869e+01 
-1.025545089098e+02 -3.603429368593e+00 0.0 
-3.603429368593e+00 -2.480648693172e+02 0.0 
0.0 0.0 -1.022371838074e+02 
-1.167858882993e+02 1.823637344658e+01 0.0 
1.823637344658e+01 -2.475471507978e+02 0.0 
0.0 0.0 -1.088999117291e+02 
-8.921407776020e+01 1.552319803774e+00 0.0 
1.552319803774e+00 -2.505249429926e+02 0.0 
0.0 0.0 -1.040647922445e+02 
-9.024566826695e+01 2.707851779528e+01 0.0 
2.707851779528e+01 -2.077788947762e+02 0.0 
0.0 0.0 -8.778048683177e+01 
-7.910898249392e+01 2.037475873714e+01 0.0 
2.037475873714e+01 -2.337102198488e+02 0.0 
0.0 0.0 -9.797431851626e+01 
-1.138389173362e+02 5.797180083218e+00 0.0 
5.797180083218e+00 -3.062550162170e+02 0.0 
0.0 0.0 -1.256281800660e+02 
-7.217125742202e+01 2.250498265605e+01 0.0 
2.250498265605e+01 -2.033811012021e+02 0.0 
0.0 0.0 -8.402569635301e+01 
-4.986778481749e+01 5.756936886601e+00 0.0 
5.756936886601e+00 -1.690857060845e+02 0.0 
0.0 0.0 -6.235555356825e+01 
-8.172445406131e+01 6.641784403787e+00 0.0 
6.641784403787e+00 -2.490443048383e+02 0.0 
0.0 0.0 -1.051498964488e+02 
-5.252624627103e+01 1.108050262423e+01 0.0 
1.108050262423e+01 -1.744306185151e+02 0.0 
0.0 0.0 -6.520241050956e+01 
-9.792098125226e+01 2.333265063203e+01 0.0 
2.333265063203e+01 -2.050197883712e+02 0.0 
0.0 0.0 -9.048223088705e+01 
-5.290549196900e+01 6.055012829515e+00 0.0 
6.055012829515e+00 -1.730046855460e+02 0.0 
0.0 0.0 -6.443050564923e+01 
-9.294235334190e+01 2.707459005108e+01 0.0 
2.707459005108e+01 -2.001815039314e+02 0.0 
0.0 0.0 -8.753715718199e+01 
-1.214816362572e+02 1.946825609788e+01 0.0 
1.946825609788e+01 -3.136002659539e+02 0.0 
0.0 0.0 -1.301245706634e+02 
-1.153158758966e+02 1.645887244874e+01 0.0 
1.645887244874e+01 -3.063342663857e+02 0.0 
0.0 0.0 -1.260950426847e+02 
-7.176778528186e+01 2.436111257382e+01 0.0 
2.436111257382e+01 -2.051847150936e+02 0.0 
0.0 0.0 -8.585611828187e+01 
-8.820370407206e+01 9.965677007585e+00 0.0 
9.965677007585e+00 -1.610793521592e+02 0.0 
0.0 0.0 -7.438491686938e+01 
-1.317386142209e+02 1.606185996251e+00 0.0 
1.606185996251e+00 -3.277313463896e+02 0.0 
0.0 0.0 -1.374409881831e+02 
-1.329883520004e+02 3.023852368279e+00 0.0 
3.023852368279e+00 -3.285865475911e+02 0.0 
0.0 0.0 -1.380724698774e+02 
-3.935842394376e+01 2.810745531987e+01 0.0 
2.810745531987e+01 -9.123811364217e+01 0.0 
0.0 0.0 -3.526267951291e+01 
-9.690573371054e+01 2.513372028663e+01 0.0 
2.513372028663e+01 -2.154702320238e+02 0.0 
0.0 0.0 -9.331278972030e+01 
-1.469920959616e+02 1.705510173508e+00 0.0 
1.705510173508e+00 -3.559736891848e+02 0.0 
0.0 0.0 -1.504897355439e+02 
-5.430281490838e+01 2.604658155635e+01 0.0 
2.604658155635e+01 -7.248934795919e+01 0.0 
0.0 0.0 -3.333326189132e+01 
-1.080789500183e+02 -2.446203821818e+00 0.0 
-2.446203821818e+00 -2.522674443117e+02 0.0 
0.0 0.0 -1.040430168480e+02 
-4.728359456463e+01 3.294123141256e+01 0.0 
3.294123141256e+01 -3.097551174100e+01 0.0 
0.0 0.0 -2.103749944458e+01 
-1.366149990501e+02 1.409587521085e+00 0.0 
1.409587521085e+00 -3.359427734188e+02 0.0 
0.0 0.0 -1.413673317406e+02 
-4.746470878965e+01 1.122194856904e+01 0.0 
1.122194856904e+01 -1.616110113003e+02 0.0 
0.0 0.0 -5.939887291835e+01 
-1.069925436833e+02 -1.599557682067e+00 0.0 
-1.599557682067e+00 -2.401237902786e+02 0.0 
0.0 0.0 -1.001226111102e+02 
-9.962617500099e+01 1.964791985555e+01 0.0 
1.964791985555e+01 -2.708612259661e+02 0.0 
0.0 0.0 -1.112935494550e+02 
-9.125375128048e+01 1.271914798700e+01 0.0 
1.271914798700e+01 -1.628877204213e+02 0.0 
0.0 0.0 -7.584244151054e+01 
-8.585928102616e+01 1.072997623467e+01 0.0 
1.072997623467e+01 -1.518139919383e+02 0.0 
0.0 0.0 -7.090198188933e+01 
-8.839008273428e+01 2.674918495452e+01 0.0 
2.674918495452e+01 -2.193720189405e+02 0.0 
0.0 0.0 -9.101943376499e+01 
-5.559668816318e+01 1.192963542082e+01 0.0 
1.192963542082e+01 -5.581738628567e+01 0.0 
0.0 0.0 -2.990619998538e+01 
-5.818191485220e+01 1.052648782808e+01 0.0 
1.052648782808e+01 -6.498137520286e+01 0.0 
0.0 0.0 -3.424020822918e+01 
-1.375305756375e+02 2.781221541371e+00 0.0 
2.781221541371e+00 -3.366526845009e+02 0.0 
0.0 0.0 -1.418549780415e+02 
-1.015448101801e+02 5.383581377860e+00 0.0 
5.383581377860e+00 -2.801564268881e+02 0.0 
0.0 0.0 -1.165422221865e+02 
-8.228798034308e+01 2.129288040721e+00 0.0 
2.129288040721e+00 -2.463356111337e+02 0.0 
0.0 0.0 -1.029616097716e+02 
-1.061781796552e+02 9.268870671822e+00 0.0 
9.268870671822e+00 -2.955282080123e+02 0.0 
0.0 0.0 -1.204326704305e+02 
-7.467796660972e+01 5.379790812753e+00 0.0 
5.379790812753e+00 -2.318814227564e+02 0.0 
0.0 0.0 -9.675291122468e+01 
-4.939954094695e+01 1.100966005420e+01 0.0 
1.100966005420e+01 -1.623851603322e+02 0.0 
0.0 0.0 -5.936562898262e+01 
-4.915760078014e+01 6.381133307692e+00 0.0 
6.381133307692e+00 -5.231819014905e+01 0.0 
0.0 0.0 -2.762414971546e+01 
-8.080583930062e+01 1.204476031266e+01 0.0 
1.204476031266e+01 -1.327001521021e+02 0.0 
0.0 0.0 -6.365179742081e+01 
-5.203527256504e+01 1.805378533783e-01 0.0 
1.805378533783e-01 -8.683640711649e+01 0.0 
0.0 0.0 -4.126150390446e+01 
-1.163417583472e+02 1.758216805672e+01 0.0 
1.758216805672e+01 -3.069975107849e+02 0.0 
0.0 0.0 -1.266017807396e+02 
-6.812824306297e+01 2.113709433964e+01 0.0 
2.113709433964e+01 -1.996166466839e+02 0.0 
0.0 0.0 -8.204630674047e+01 
-1.361574696532e+02 2.108724534542e+01 0.0 
2.108724534542e+01 -3.371597024057e+02 0.0 
0.0 0.0 -1.415951516177e+02 
-1.362199021719e+02 -2.976598506524e-01 0.0 
-2.976598506524e-01 -3.316367897340e+02 0.0 
0.0 0.0 -1.399570075718e+02 
-7.897212083034e+01 7.851376141843e+00 0.0 
7.851376141843e+00 -2.425490915724e+02 0.0 
0.0 0.0 -1.015610412377e+02 
-1.529152175235e+02 4.179348629048e+00 0.0 
4.179348629048e+00 -3.668762562150e+02 0.0 
0.0 0.0 -1.555374421215e+02 
-5.704674858506e+01 1.717894572101e+00 0.0 
1.717894572101e+00 -1.821995122352e+02 0.0 
0.0 0.0 -6.956870670969e+01 
-1.301111492360e+02 2.168351008748e+01 0.0 
2.168351008748e+01 -3.249306546926e+02 0.0 
0.0 0.0 -1.361125411786e+02 
-8.428019647987e+01 2.546286577530e+01 0.0 
2.546286577530e+01 -2.181347071633e+02 0.0 
0.0 0.0 -9.032447109295e+01 
-9.661789114006e+01 2.344950837892e+01 0.0 
2.344950837892e+01 -2.503799867847e+02 0.0 
0.0 0.0 -1.036993633774e+02 
-1.296234635066e+02 1.288134391970e+01 0.0 
1.288134391970e+01 -3.327070385232e+02 0.0 
0.0 0.0 -1.382991506089e+02 
-7.664991896411e+01 -1.272018378819e+01 0.0 
-1.272018378819e+01 -1.816450307459e+02 0.0 
0.0 0.0 -7.573933390069e+01 
-9.337803792165e+01 2.619227462784e+01 0.0 
2.619227462784e+01 -2.114226758302e+02 0.0 
0.0 0.0 -9.062064939042e+01 
-7.748926883752e+01 3.714468731721e+00 0.0 
3.714468731721e+00 -2.369002749792e+02 0.0 
0.0 0.0 -9.870471795195e+01 
-8.837862084153e+01 2.751977580898e+01 0.0 
2.751977580898e+01 -1.956614753340e+02 0.0 
0.0 0.0 -8.481202885267e+01 
-5.016313622968e+01 2.662448693381e+01 0.0 
2.662448693381e+01 -1.367828495262e+02 0.0 
0.0 0.0 -5.282110875166e+01 
-1.001746999093e+02 2.223231589042e+01 0.0 
2.223231589042e+01 -2.633011347853e+02 0.0 
0.0 0.0 -1.086427504084e+02 
-7.249322048809e+01 1.731285053279e+00 0.0 
1.731285053279e+00 -2.236643557169e+02 0.0 
0.0 0.0 -9.263225986412e+01 
-1.046492720765e+02 -2.003216811688e+00 0.0 
-2.003216811688e+00 -2.625119456834e+02 0.0 
0.0 0.0 -1.081339181558e+02 
-9.135404659416e+01 2.599007916624e+01 0.0 
2.599007916624e+01 -1.957648788928e+02 0.0 
0.0 0.0 -8.495354902673e+01 
-4.857365969967e+01 3.795101651015e+01 0.0 
3.795101651015e+01 -5.895171738414e+01 0.0 
0.0 0.0 -3.121401616399e+01 
-8.544411096759e+01 1.854237032728e+01 0.0 
1.854237032728e+01 -2.485753936818e+02 0.0 
0.0 0.0 -1.045881917596e+02 
-4.661501867284e+01 3.288823911766e+01 0.0 
3.288823911766e+01 -5.185169506174e+01 0.0 
0.0 0.0 -2.571517965396e+01 
-2.380997410473e+01 -4.979404619151e+00 0.0 
-4.979404619151e+00 -6.372262549096e+01 0.0 
0.0 0.0 -2.341415562385e+01 
-1.032543066435e+02 -3.032090331904e+00 0.0 
-3.032090331904e+00 -2.511843602436e+02 0.0 
0.0 0.0 -1.034289038924e+02 
-1.113743735656e+02 2.692616460376e+01 0.0 
2.692616460376e+01 -2.548862507030e+02 0.0 
0.0 0.0 -1.094781872806e+02 
-8.977777256409e+01 1.291972018136e+01 0.0 
1.291972018136e+01 -1.633660255142e+02 0.0 
0.0 0.0 -7.554313942347e+01 
-5.071059653428e+01 1.655177769344e+01 0.0 
1.655177769344e+01 -3.894138601771e+01 0.0 
0.0 0.0 -2.157162202799e+01 
-1.194957704580e+02 1.516140068047e+01 0.0 
1.516140068047e+01 -2.801567977354e+02 0.0 
0.0 0.0 -1.194957704580e+02 
-4.838898269599e+01 3.442060064423e+01 0.0 
3.442060064423e+01 -3.210553867835e+01 0.0 
0.0 0.0 -2.457265992045e+01 
-5.232413221314e+01 1.360392145783e+01 0.0 
1.360392145783e+01 -4.680595968313e+01 0.0 
0.0 0.0 -2.546258834141e+01 
-8.534127495012e+01 3.957550925159e+00 0.0 
3.957550925159e+00 -2.504364894476e+02 0.0 
0.0 0.0 -1.052309322579e+02 
-1.055771396484e+02 -2.798031291189e+00 0.0 
-2.798031291189e+00 -2.407709999372e+02 0.0 
0.0 0.0 -9.929680334135e+01 
-6.873118971167e+01 1.937733149621e+01 0.0 
1.937733149621e+01 -9.076539421677e+01 0.0 
0.0 0.0 -4.463336756477e+01 
-6.020450176341e+01 -5.943350972621e+00 0.0 
-5.943350972621e+00 -1.858876599261e+02 0.0 
0.0 0.0 -7.301210837799e+01 
-9.502591964874e+01 1.702247537024e+00 0.0 
1.702247537024e+00 -2.632666452611e+02 0.0 
0.0 0.0 -1.105039931147e+02 
-8.903861303107e+01 2.678414128353e+01 0.0 
2.678414128353e+01 -2.222877915267e+02 0.0 
0.0 0.0 -9.299792136732e+01 
-9.436330635141e+01 1.823393487385e+01 0.0 
1.823393487385e+01 -2.655544142355e+02 0.0 
0.0 0.0 -1.098887793214e+02 
-1.140483029691e+02 2.313037892524e+01 0.0 
2.313037892524e+01 -2.513494587200e+02 0.0 
0.0 0.0 -1.092193285067e+02 
-4.203842409604e+01 2.741974742227e+01 0.0 
2.741974742227e+01 -1.131472985049e+02 0.0 
0.0 0.0 -4.327277631843e+01 
-9.756845392232e+01 -4.399969748069e+00 0.0 
-4.399969748069e+00 -2.318030507607e+02 0.0 
0.0 0.0 -9.474025136222e+01 
-1.052945342217e+02 -3.064870193516e+00 0.0 
-3.064870193516e+00 -2.479415327496e+02 0.0 
0.0 0.0 -1.026089778793e+02 
-6.070736498375e+01 -1.217576917165e+01 0.0 
-1.217576917165e+01 -1.342641573119e+02 0.0 
0.0 0.0 -5.495847446746e+01 
-6.760558839011e+01 7.460587840230e+00 0.0 
7.460587840230e+00 -1.012074837968e+02 0.0 
0.0 0.0 -5.002537833668e+01 
-9.216574119089e+01 1.598202385015e+01 0.0 
1.598202385015e+01 -1.649944654875e+02 0.0 
0.0 0.0 -7.674806200353e+01 
-1.257468106475e+02 8.680477771006e-01 0.0 
8.680477771006e-01 -3.031914561027e+02 0.0 
0.0 0.0 -1.275353900028e+02 
-1.562696731341e+01 -5.349132482010e-01 0.0 
-5.349132482010e-01 -4.285306707049e+01 0.0 
0.0 0.0 -1.450350242163e+01 
-5.037147734481e+01 -7.721917244010e+00 0.0 
-7.721917244010e+00 -1.174699267943e+02 0.0 
0.0 0.0 -5.173081255053e+01 
-4.245107352651e+01 -1.034465399719e+01 0.0 
-1.034465399719e+01 -9.154971838226e+01 0.0 
0.0 0.0 -3.644140655788e+01 
-1.088792256314e+02 -1.871986153545e+00 0.0 
-1.871986153545e+00 -2.488715275252e+02 0.0 
0.0 0.0 -1.032104140632e+02 
-6.201368641049e+01 3.050785233555e+00 0.0 
3.050785233555e+00 -1.962140183585e+02 0.0 
0.0 0.0 -7.662773940270e+01 
-6.036885002411e+01 -6.855136016213e+00 0.0 
-6.855136016213e+00 -1.824531306020e+02 0.0 
0.0 0.0 -7.209618298855e+01 
-5.173251961787e+01 2.270994256784e-01 0.0 
2.270994256784e-01 -1.687829046700e+02 0.0 
0.0 0.0 -6.304560765405e+01 
-1.070983479448e+02 -2.504729669579e+00 0.0 
-2.504729669579e+00 -2.591741659177e+02 0.0 
0.0 0.0 -1.072508474348e+02 
-9.756444434273e+01 1.732544702682e+01 0.0 
1.732544702682e+01 -1.891589376800e+02 0.0 
0.0 0.0 -8.561701460681e+01 
-1.089499530879e+02 -2.430964104831e+00 0.0 
-2.430964104831e+00 -2.561585101329e+02 0.0 
0.0 0.0 -1.064496425675e+02 
-6.039283376283e+01 6.890715362046e+00 0.0 
6.890715362046e+00 -1.962358418317e+02 0.0 
0.0 0.0 -7.589110094933e+01 
-9.558116146666e+01 2.736486297985e+01 0.0 
2.736486297985e+01 -2.153226861312e+02 0.0 
0.0 0.0 -9.287115427936e+01 
-6.958657289548e+01 3.289048492344e+00 0.0 
3.289048492344e+00 -1.184588393360e+02 0.0 
0.0 0.0 -5.601362366945e+01 
-1.099271843402e+02 1.997959825431e+01 0.0 
1.997959825431e+01 -2.891670829743e+02 0.0 
0.0 0.0 -1.193282801943e+02 
-1.119790684189e+02 -1.037051793979e+00 0.0 
-1.037051793979e+00 -2.570583019196e+02 0.0 
0.0 0.0 -1.070416384389e+02 
-1.114327658012e+02 -1.575459992656e+00 0.0 
-1.575459992656e+00 -2.602104453316e+02 0.0 
0.0 0.0 -1.079074629221e+02 
-4.758407464481e+01 2.294709535097e+01 0.0 
2.294709535097e+01 -2.613458640177e+01 0.0 
0.0 0.0 -1.722945684592e+01 
-6.593591678260e+01 -1.840207937784e-01 0.0 
-1.840207937784e-01 -2.043811258731e+02 0.0 
0.0 0.0 -8.201159629097e+01 
-1.124336065777e+02 -1.835843752017e+00 0.0 
-1.835843752017e+00 -2.643956570713e+02 0.0 
0.0 0.0 -1.102527288984e+02 
-7.953800264822e+01 -3.512932824906e-01 0.0 
-3.512932824906e-01 -1.583570209436e+02 0.0 
0.0 0.0 -7.096850707755e+01 
-7.271415030059e+01 -4.808966251866e-01 0.0 
-4.808966251866e-01 -1.399709821887e+02 0.0 
0.0 0.0 -6.340553974678e+01 
-4.903739497541e+01 1.923902644081e+01 0.0 
1.923902644081e+01 -3.210351597890e+01 0.0 
0.0 0.0 -1.839764413337e+01 
-1.108694387308e+02 -1.991705366525e+00 0.0 
-1.991705366525e+00 -2.673055685853e+02 0.0 
0.0 0.0 -1.110714034718e+02 
-6.439305727393e+01 -1.307937991043e+01 0.0 
-1.307937991043e+01 -1.787765694317e+02 0.0 
0.0 0.0 -7.290507360457e+01 
-4.568807650879e+01 3.368168904850e+01 0.0 
3.368168904850e+01 -7.147318873319e+01 0.0 
0.0 0.0 -3.076048756358e+01 
-1.316618169737e+02 2.294597358002e+01 0.0 
2.294597358002e+01 -3.259886960669e+02 0.0 
0.0 0.0 -1.368951539122e+02 
-4.448907261625e+01 -1.279627716091e+01 0.0 
-1.279627716091e+01 -8.572064457044e+01 0.0 
0.0 0.0 -3.528610440180e+01 
-6.230497774922e+01 -1.083762437916e+01 0.0 
-1.083762437916e+01 -1.783134415524e+02 0.0 
0.0 0.0 -7.201777436138e+01 
-8.120899558185e+01 2.012673132147e+01 0.0 
2.012673132147e+01 -2.346424294069e+02 0.0 
0.0 0.0 -9.718109574001e+01 
-4.128138295331e+01 8.400205258417e+00 0.0 
8.400205258417e+00 -3.295881733605e+01 0.0 
0.0 0.0 -1.796637573995e+01 
-1.149660543560e+02 -3.125593277460e-01 0.0 
-3.125593277460e-01 -2.654597472380e+02 0.0 
0.0 0.0 -1.108883848701e+02 
-5.524490755590e+01 3.948732635583e-01 0.0 
3.948732635583e-01 -1.213339637171e+02 0.0 
0.0 0.0 -4.906083527552e+01 
-7.287085812142e+01 9.981459284057e+00 0.0 
9.981459284057e+00 -1.097618987794e+02 0.0 
0.0 0.0 -5.438875912245e+01 
-1.145871996599e+02 -8.171954315521e-01 0.0 
-8.171954315521e-01 -2.682750358682e+02 0.0 
0.0 0.0 -1.117105601036e+02 
-8.184120957985e+01 -1.986632858091e+00 0.0 
-1.986632858091e+00 -2.379139438153e+02 0.0 
0.0 0.0 -9.939936574671e+01 
-1.045169078440e+02 -3.410650325514e+00 0.0 
-3.410650325514e+00 -2.444704183744e+02 0.0 
0.0 0.0 -1.000763177167e+02 
-4.025035241372e+01 3.337199758990e+01 0.0 
3.337199758990e+01 -8.491647195154e+01 0.0 
0.0 0.0 -3.938401293366e+01 
-9.997017334324e+01 1.516396499434e+00 0.0 
1.516396499434e+00 -2.172651286531e+02 0.0 
0.0 0.0 -9.477059059890e+01 
-7.038269500492e+01 -7.220162494076e+00 0.0 
-7.220162494076e+00 -2.049198375124e+02 0.0 
0.0 0.0 -8.451909124536e+01 
-1.266106199264e+02 1.489944395131e+01 0.0 
1.489944395131e+01 -3.285881172160e+02 0.0 
0.0 0.0 -1.361596211427e+02 
-9.546990325454e+01 2.453952885338e+01 0.0 
2.453952885338e+01 -2.501855314720e+02 0.0 
0.0 0.0 -1.032966304180e+02 
-1.145143630602e+02 -1.535505908936e+00 0.0 
-1.535505908936e+00 -2.754892762502e+02 0.0 
0.0 0.0 -1.148760564682e+02 
-1.175721804739e+02 -2.165866760545e-01 0.0 
-2.165866760545e-01 -2.763677371893e+02 0.0 
0.0 0.0 -1.154613139173e+02 
-5.823012540326e+01 2.112104691475e+00 0.0 
2.112104691475e+00 -1.891039300052e+02 0.0 
0.0 0.0 -7.277787196243e+01 
-3.991316817674e+01 -1.148717551378e+01 0.0 
-1.148717551378e+01 -5.936668631704e+01 0.0 
0.0 0.0 -2.564437067228e+01 
-3.936591564499e+01 3.543802674111e+01 0.0 
3.543802674111e+01 -8.301734011910e+01 0.0 
0.0 0.0 -3.787646267460e+01 
-1.180107862469e+02 -1.158926952436e+00 0.0 
-1.158926952436e+00 -2.837834983487e+02 0.0 
0.0 0.0 -1.187127502490e+02 
-1.277023232140e+02 1.211118461674e+01 0.0 
1.211118461674e+01 -3.319237575084e+02 0.0 
0.0 0.0 -1.374878242167e+02 
-6.661752605943e+01 -1.648722546532e+01 0.0 
-1.648722546532e+01 -1.700407142298e+02 0.0 
0.0 0.0 -7.032308425098e+01 
-9.985405801865e+01 2.528581291795e+01 0.0 
2.528581291795e+01 -2.305315635113e+02 0.0 
0.0 0.0 -9.871568645898e+01 
-5.063969368004e+01 2.784153418045e+01 0.0 
2.784153418045e+01 -6.951811965828e+01 0.0 
0.0 0.0 -3.230611733984e+01 
-1.003593791886e+02 2.668058648321e+01 0.0 
2.668058648321e+01 -2.203838674328e+02 0.0 
0.0 0.0 -9.582297398641e+01 
-1.520337265881e+02 9.429627843511e+00 0.0 
9.429627843511e+00 -3.720919888971e+02 0.0 
0.0 0.0 -1.568377146456e+02 
-1.338456117821e+02 -7.202035363218e-01 0.0 
-7.202035363218e-01 -1.027287705232e+02 0.0 
0.0 0.0 -7.124918570201e+01 
-1.156722317884e+02 1.642665879688e+00 0.0 
1.642665879688e+00 -2.712352075064e+02 0.0 
0.0 0.0 -1.156722317884e+02 
-1.679147628599e+02 8.818613168342e-01 0.0 
8.818613168342e-01 -3.931344466732e+02 0.0 
0.0 0.0 -1.679147628599e+02 
-6.016138195656e+01 7.960584702574e-01 0.0 
7.960584702574e-01 -1.079613069939e+02 0.0 
0.0 0.0 -5.003680668513e+01 
-7.353632502211e+01 -1.218947799949e+01 0.0 
-1.218947799949e+01 -1.998253459986e+02 0.0 
0.0 0.0 -8.296420575333e+01 
-9.181645172794e+01 2.573045517865e+01 0.0 
2.573045517865e+01 -2.365253794383e+02 0.0 
0.0 0.0 -9.810254934988e+01 
-5.821128469795e+01 6.927856808957e+00 0.0 
6.927856808957e+00 -1.868576348043e+02 0.0 
0.0 0.0 -7.159716717211e+01 
-1.960577620752e+01 -8.366234755197e-01 0.0 
-8.366234755197e-01 -5.535469462166e+01 0.0 
0.0 0.0 -2.059636735116e+01 
-5.008661193821e+01 3.470202295121e+01 0.0 
3.470202295121e+01 -3.208254924228e+01 0.0 
0.0 0.0 -2.328242417728e+01 
-1.071461342918e+02 5.293984413737e+00 0.0 
5.293984413737e+00 -2.352224939428e+02 0.0 
0.0 0.0 -1.023105884704e+02 
-9.604059490034e+01 1.834178413212e+01 0.0 
1.834178413212e+01 -1.778006371409e+02 0.0 
0.0 0.0 -8.175236961238e+01 
-6.677202338446e+01 8.673553013224e+00 0.0 
8.673553013224e+00 -9.462347609667e+01 0.0 
0.0 0.0 -4.762507036843e+01 
-1.450913914899e+02 2.960210684102e+01 0.0 
2.960210684102e+01 -3.428985117432e+02 0.0 
0.0 0.0 -1.459969709699e+02 
-4.141102028474e+01 5.085339991111e-01 0.0 
5.085339991111e-01 -1.009747234683e+02 0.0 
0.0 0.0 -4.004595756653e+01 
-1.466016233140e+02 2.867893627807e+01 0.0 
2.867893627807e+01 -3.483251781286e+02 0.0 
0.0 0.0 -1.480780404328e+02 
-9.384291953107e+01 1.519790544937e+01 0.0 
1.519790544937e+01 -1.761029268257e+02 0.0 
0.0 0.0 -8.058375390704e+01 
-7.854373158311e+01 -1.240563785757e+01 0.0 
-1.240563785757e+01 -1.943797630198e+02 0.0 
0.0 0.0 -8.129700861558e+01 
-8.981368229789e+01 2.496267335016e+01 0.0 
2.496267335016e+01 -2.331728496470e+02 0.0 
0.0 0.0 -9.672464500546e+01 
-6.801222120668e+01 -1.049624250805e+01 0.0 
-1.049624250805e+01 -1.853112621298e+02 0.0 
0.0 0.0 -7.531495592980e+01 
-4.454712607570e+01 3.297344100775e+01 0.0 
3.297344100775e+01 -6.910876124807e+01 0.0 
0.0 0.0 -3.035560100313e+01 
-6.662836786612e+01 -1.213256356506e+01 0.0 
-1.213256356506e+01 -1.732901984256e+02 0.0 
0.0 0.0 -7.045385223681e+01 
-1.011542610906e+02 1.928133467964e+01 0.0 
1.928133467964e+01 -2.028271902891e+02 0.0 
0.0 0.0 -9.079443541393e+01 
-1.415230786741e+02 1.796661144801e+00 0.0 
1.796661144801e+00 -3.423490084709e+02 0.0 
0.0 0.0 -1.447616261435e+02 
-6.399242322756e+01 -7.624204141178e+00 0.0 
-7.624204141178e+00 -1.895658640478e+02 0.0 
0.0 0.0 -7.656386468650e+01 
-1.041092328800e+02 2.483474864818e+01 0.0 
2.483474864818e+01 -2.350918984707e+02 0.0 
0.0 0.0 -1.013603394052e+02 
-8.342373818373e+01 -2.414467672067e+00 0.0 
-2.414467672067e+00 -1.131272081855e+02 0.0 
0.0 0.0 -5.946653943401e+01 
-6.185244783508e+01 -1.477182469602e+00 0.0 
-1.477182469602e+00 -1.949654247141e+02 0.0 
0.0 0.0 -7.632799159681e+01 
-1.057513429489e+02 1.838467491743e+01 0.0 
1.838467491743e+01 -2.080193458404e+02 0.0 
0.0 0.0 -9.373120663679e+01 
-6.934521644211e+01 -1.164483660966e+01 0.0 
-1.164483660966e+01 -1.675784820337e+02 0.0 
0.0 0.0 -6.802353318152e+01 
-6.489937695951e+01 -1.707135871865e+01 0.0 
-1.707135871865e+01 -1.558446104528e+02 0.0 
0.0 0.0 -6.472769224694e+01 
-8.722235683629e+01 2.463752058661e+01 0.0 
2.463752058661e+01 -2.323346326024e+02 0.0 
0.0 0.0 -9.546709683161e+01 
-4.281433358675e+01 -1.884099715886e+01 0.0 
-1.884099715886e+01 -1.084374965973e+02 0.0 
0.0 0.0 -3.873053241043e+01 
-4.155254584698e+01 2.679968610018e+01 0.0 
2.679968610018e+01 -2.675434892448e+01 0.0 
0.0 0.0 -1.669662192058e+01 
-4.373719092452e+01 2.783730721021e+01 0.0 
2.783730721021e+01 -2.591178593696e+01 0.0 
0.0 0.0 -1.620895431303e+01 
-6.219938999623e+01 -1.338231540301e+01 0.0 
-1.338231540301e+01 -1.475248205639e+02 0.0 
0.0 0.0 -5.977641522067e+01 
-8.896552600472e+01 1.781308638719e+00 0.0 
1.781308638719e+00 -2.545305113089e+02 0.0 
0.0 0.0 -1.069339420529e+02 
-7.735890439873e+01 2.324291212560e+01 0.0 
2.324291212560e+01 -2.217427999188e+02 0.0 
0.0 0.0 -9.293001230631e+01 
-1.034751174344e+02 2.695991862679e+01 0.0 
2.695991862679e+01 -2.351687959533e+02 0.0 
0.0 0.0 -1.011931740163e+02 
-1.195580506567e+02 2.255147737293e+01 0.0 
2.255147737293e+01 -2.667965092603e+02 0.0 
0.0 0.0 -1.155063679751e+02 
-3.832307229440e+01 1.428650609126e+01 0.0 
1.428650609126e+01 -2.155249657547e+01 0.0 
0.0 0.0 -1.274699776829e+01 
-8.691015223828e+01 1.548605979962e+00 0.0 
1.548605979962e+00 -1.783317672513e+02 0.0 
0.0 0.0 -7.917257584686e+01 
-1.251701177732e+02 2.592822630403e+01 0.0 
2.592822630403e+01 -2.916570485041e+02 0.0 
0.0 0.0 -1.246481498832e+02 
-5.518951919190e+01 6.324842165744e+00 0.0 
6.324842165744e+00 -1.824047044211e+02 0.0 
0.0 0.0 -6.899795911454e+01 
-4.490043074681e+01 3.260734404710e+01 0.0 
3.260734404710e+01 -5.167962662892e+01 0.0 
0.0 0.0 -2.443985717251e+01 
-5.456944881461e+01 2.893543373070e+01 0.0 
2.893543373070e+01 -7.290051797720e+01 0.0 
0.0 0.0 -3.332336167712e+01 
-8.847287150452e+01 -1.891143634115e+00 0.0 
-1.891143634115e+00 -2.458992275611e+02 0.0 
0.0 0.0 -1.032815921076e+02 
-1.045777249269e+02 2.341049745692e+01 0.0 
2.341049745692e+01 -2.251924568052e+02 0.0 
0.0 0.0 -9.853105451962e+01 
-8.385491674396e+01 1.096382409600e+00 0.0 
1.096382409600e+00 -2.418431882185e+02 0.0 
0.0 0.0 -1.008656550344e+02 
-3.696522464822e+01 2.702578520723e+01 0.0 
2.702578520723e+01 -9.391177631710e+01 0.0 
0.0 0.0 -3.687177896753e+01 
-9.594164186676e+01 5.696680079692e+00 0.0 
5.696680079692e+00 -2.709451764922e+02 0.0 
0.0 0.0 -1.138157779429e+02 
-4.479190029284e+01 3.258543777887e+01 0.0 
3.258543777887e+01 -6.804093511350e+01 0.0 
0.0 0.0 -3.061963374568e+01 
-7.455345219621e+01 2.018806193912e+01 0.0 
2.018806193912e+01 -2.161781820890e+02 0.0 
0.0 0.0 -8.982136803650e+01 
-9.054424004093e+01 3.670934751677e+00 0.0 
3.670934751677e+00 -2.600661517325e+02 0.0 
0.0 0.0 -1.082254546743e+02 
-9.154832346708e+01 2.264060712343e+01 0.0 
2.264060712343e+01 -2.457358297699e+02 0.0 
0.0 0.0 -1.018872866349e+02 
-7.891329170243e+01 2.142897105418e+00 0.0 
2.142897105418e+00 -1.535935655974e+02 0.0 
0.0 0.0 -6.935205718994e+01 
-6.568672560596e+01 -1.400787250564e+01 0.0 
-1.400787250564e+01 -1.481421439262e+02 0.0 
0.0 0.0 -6.139661129724e+01 
-4.536139965490e+01 3.388229540519e+01 0.0 
3.388229540519e+01 -7.325417808249e+01 0.0 
0.0 0.0 -3.076574133504e+01 
-9.814294238374e+01 4.615352669436e+00 0.0 
4.615352669436e+00 -2.785493766160e+02 0.0 
0.0 0.0 -1.137283982052e+02 
-4.449071686951e+01 3.210842174902e+01 0.0 
3.210842174902e+01 -6.657729684546e+01 0.0 
0.0 0.0 -3.064504052116e+01 
-4.865641029580e+01 1.187163280791e+01 0.0 
1.187163280791e+01 -1.201283174210e+02 0.0 
0.0 0.0 -5.204320664106e+01 
-1.058164357699e+02 -1.148012079158e-02 0.0 
-1.148012079158e-02 -2.362316338203e+02 0.0 
0.0 0.0 -1.022144208771e+02 
-1.000332037720e+02 -2.222605450315e-01 0.0 
-2.222605450315e-01 -2.173904405968e+02 0.0 
0.0 0.0 -9.482709331064e+01 
-2.060454334183e+01 -3.670581732302e+00 0.0 
-3.670581732302e+00 -2.705819592537e+01 0.0 
0.0 0.0 -1.277846736328e+01 
-1.050115242451e+02 7.611625330222e+00 0.0 
7.611625330222e+00 -2.887673486434e+02 0.0 
0.0 0.0 -1.193933100319e+02 
-5.166988297401e+01 -1.200549082788e+01 0.0 
-1.200549082788e+01 -1.128388612215e+02 0.0 
0.0 0.0 -4.576050170553e+01 
-5.532529571058e+01 -1.209154299794e+01 0.0 
-1.209154299794e+01 -1.210919688467e+02 0.0 
0.0 0.0 -4.897067818537e+01 
-1.114809582670e+02 2.486790322887e+01 0.0 
2.486790322887e+01 -2.547438064624e+02 0.0 
0.0 0.0 -1.094674294188e+02 
-9.024096152148e+01 2.333493520009e+01 0.0 
2.333493520009e+01 -2.453153712327e+02 0.0 
0.0 0.0 -1.002668998263e+02 
-1.074174255989e+02 2.509979746238e+01 0.0 
2.509979746238e+01 -2.498170045326e+02 0.0 
0.0 0.0 -1.067703290395e+02 
-6.534601442819e+01 -5.138703816024e+00 0.0 
-5.138703816024e+00 -1.970526890336e+02 0.0 
0.0 0.0 -7.944966109733e+01 
-5.284301902579e+01 5.031191170832e-01 0.0 
5.031191170832e-01 -8.670742476844e+01 0.0 
0.0 0.0 -4.146513313827e+01 
-1.565984777245e+02 8.088385861556e+00 0.0 
8.088385861556e+00 -3.745450402153e+02 0.0 
0.0 0.0 -1.589430553819e+02 
-4.739777858009e+01 -1.150818961534e+01 0.0 
-1.150818961534e+01 -1.003727553504e+02 0.0 
0.0 0.0 -4.072551175998e+01 
-1.220835634681e+02 1.661942696887e+01 0.0 
1.661942696887e+01 -3.177273594955e+02 0.0 
0.0 0.0 -1.315432768891e+02 
-7.822003879406e+01 2.132519718757e+01 0.0 
2.132519718757e+01 -2.207429584225e+02 0.0 
0.0 0.0 -9.157956608507e+01 
-2.742350277702e+01 -2.689480695373e+00 0.0 
-2.689480695373e+00 -7.638843758399e+01 0.0 
0.0 0.0 -2.912221204752e+01 
-1.013559069696e+02 2.213416126120e+01 0.0 
2.213416126120e+01 -2.104227837251e+02 0.0 
0.0 0.0 -9.313360720840e+01 
-6.353669640639e+01 3.105228544043e+00 0.0 
3.105228544043e+00 -2.031677719827e+02 0.0 
0.0 0.0 -8.007432918589e+01 
-3.526349720816e+01 -1.073440796462e+01 0.0 
-1.073440796462e+01 -4.866347732763e+01 0.0 
0.0 0.0 -2.005444643878e+01 
-5.645738090306e+01 -2.814644902344e+00 0.0 
-2.814644902344e+00 -1.807299078727e+02 0.0 
0.0 0.0 -6.909847671867e+01 
-1.230724803693e+02 -8.163013691125e-01 0.0 
-8.163013691125e-01 -2.945428295228e+02 0.0 
0.0 0.0 -1.237104667233e+02 
-1.026804475481e+02 2.232184628112e+01 0.0 
2.232184628112e+01 -2.044861022944e+02 0.0 
0.0 0.0 -9.174996495277e+01 
-4.235707049604e+01 -1.083905594816e+01 0.0 
-1.083905594816e+01 -7.889301820205e+01 0.0 
0.0 0.0 -3.136375419057e+01 
-1.078156044466e+02 -3.049251644909e-01 0.0 
-3.049251644909e-01 -2.409137284555e+02 0.0 
0.0 0.0 -1.006521121516e+02 
-1.080688798789e+02 2.429402253395e+01 0.0 
2.429402253395e+01 -2.401992739618e+02 0.0 
0.0 0.0 -1.040804461522e+02 
-1.155591906644e+02 2.271623644953e+01 0.0 
2.271623644953e+01 -2.954075912687e+02 0.0 
0.0 0.0 -1.228900345800e+02 
-6.445600278244e+01 -1.309352643571e+01 0.0 
-1.309352643571e+01 -1.605228302608e+02 0.0 
0.0 0.0 -6.510014900535e+01 
-5.756406723524e+01 -2.308896868131e+00 0.0 
-2.308896868131e+00 -1.213745629621e+02 0.0 
0.0 0.0 -4.903689042094e+01 
-8.331072860238e+01 2.192972753615e+01 0.0 
2.192972753615e+01 -2.378342974443e+02 0.0 
0.0 0.0 -9.974517530830e+01 
-7.571574316743e+01 9.055663591698e-01 0.0 
9.055663591698e-01 -1.477094557690e+02 0.0 
0.0 0.0 -6.662755968094e+01 
-3.800738462753e+01 -1.497291988996e+01 0.0 
-1.497291988996e+01 -5.243418361556e+01 0.0 
0.0 0.0 -1.948060733520e+01 
-1.336562809933e+02 2.880569861943e+01 0.0 
2.880569861943e+01 -3.126668721586e+02 0.0 
0.0 0.0 -1.334969459456e+02 
-1.209042286871e+02 2.159037250815e+01 0.0 
2.159037250815e+01 -2.753134006405e+02 0.0 
0.0 0.0 -1.184652887983e+02 
-6.502664336849e+01 1.003037387665e+00 0.0 
1.003037387665e+00 -1.198955569428e+02 0.0 
0.0 0.0 -5.507666009339e+01 
-1.162319921272e+02 1.244615550047e+01 0.0 
1.244615550047e+01 -2.545463726056e+02 0.0 
0.0 0.0 -1.108335094198e+02 
-1.247998655942e+02 2.406685095337e+01 0.0 
2.406685095337e+01 -2.861331407716e+02 0.0 
0.0 0.0 -1.228799019097e+02 
-6.549808162007e+01 -3.826091678659e+00 0.0 
-3.826091678659e+00 -2.000504827748e+02 0.0 
0.0 0.0 -8.056326945065e+01 
-6.989005424983e+01 -1.113675736289e+01 0.0 
-1.113675736289e+01 -1.958149670310e+02 0.0 
0.0 0.0 -8.075715423833e+01 
-1.451750509065e+02 1.998862200891e+01 0.0 
1.998862200891e+01 -3.569273521492e+02 0.0 
0.0 0.0 -1.502307209167e+02 
-7.692174752716e+01 5.643545579700e+00 0.0 
5.643545579700e+00 -1.089684888897e+02 0.0 
0.0 0.0 -5.631768310784e+01 
-4.903068714792e+01 -1.342727792368e+00 0.0 
-1.342727792368e+00 -1.101828718952e+02 0.0 
0.0 0.0 -4.416837861770e+01 
-1.088192346945e+02 -1.246538255029e+00 0.0 
-1.246538255029e+00 -2.452613285397e+02 0.0 
0.0 0.0 -1.023009645608e+02 
-6.913266823676e+01 -1.488794193964e+01 0.0 
-1.488794193964e+01 -1.617749498258e+02 0.0 
0.0 0.0 -6.732072599520e+01 
-5.876612005381e+01 -9.663434880777e+00 0.0 
-9.663434880777e+00 -1.747139605891e+02 0.0 
0.0 0.0 -6.883660824963e+01 
-4.112613165462e+01 2.710821721312e+01 0.0 
2.710821721312e+01 -2.685802247764e+01 0.0 
0.0 0.0 -1.716327576237e+01 
-4.334379284153e+01 2.900232853010e+01 0.0 
2.900232853010e+01 -2.897221057688e+01 0.0 
0.0 0.0 -1.804090761053e+01 
-7.071193386488e+01 3.976628572472e+00 0.0 
3.976628572472e+00 -1.214384892225e+02 0.0 
0.0 0.0 -5.724512692623e+01 
-6.119636148095e+01 -2.031055439813e+00 0.0 
-2.031055439813e+00 -1.899018348253e+02 0.0 
0.0 0.0 -7.454422278012e+01 
-6.204450063553e+01 -4.541289523497e+00 0.0 
-4.541289523497e+00 -1.297872567537e+02 0.0 
0.0 0.0 -5.187464647866e+01 
-1.093069360878e+02 2.233576909675e+01 0.0 
2.233576909675e+01 -2.811107276696e+02 0.0 
0.0 0.0 -1.167252991272e+02 
-1.648409723530e+02 6.005843131971e+00 0.0 
6.005843131971e+00 -3.913608279216e+02 0.0 
0.0 0.0 -1.664605400824e+02 
-1.634619384826e+02 7.504676699804e+00 0.0 
7.504676699804e+00 -3.896622393053e+02 0.0 
0.0 0.0 -1.655372533364e+02 
-6.845877417726e+01 -8.360155149985e+00 0.0 
-8.360155149985e+00 -1.965504110250e+02 0.0 
0.0 0.0 -7.965758480068e+01 
-6.492739875877e+01 3.204509440375e+00 0.0 
3.204509440375e+00 -1.048426845130e+02 0.0 
0.0 0.0 -5.053102498153e+01 
-8.075137926436e+01 1.632084344253e+00 0.0 
1.632084344253e+00 -1.087369703117e+02 0.0 
0.0 0.0 -5.782878882994e+01 
-4.431121319881e+01 2.928762041918e+01 0.0 
2.928762041918e+01 -2.883006006607e+01 0.0 
0.0 0.0 -1.851921640262e+01 
-4.828858506730e+01 -2.216384763127e+01 0.0 
-2.216384763127e+01 -1.126145835872e+02 0.0 
0.0 0.0 -4.345600074058e+01 
-4.326008272722e+01 2.844713166421e+01 0.0 
2.844713166421e+01 -2.852244536638e+01 0.0 
0.0 0.0 -1.833298346628e+01 
-8.515165874851e+01 2.209588398832e+01 0.0 
2.209588398832e+01 -2.400272956844e+02 0.0 
0.0 0.0 -9.788914535096e+01 
-6.075540203714e+01 -1.322470122834e+01 0.0 
-1.322470122834e+01 -1.666272876640e+02 0.0 
0.0 0.0 -6.698377796942e+01 
-6.482022003875e+01 -9.234079369639e+00 0.0 
-9.234079369639e+00 -1.882003132712e+02 0.0 
0.0 0.0 -7.646959868910e+01 
-4.008071229500e+01 -2.678816106606e+01 0.0 
-2.678816106606e+01 -9.161657240031e+01 0.0 
0.0 0.0 -3.993536240126e+01 
-9.997279807849e+01 1.132501179053e+00 0.0 
1.132501179053e+00 -2.201969567380e+02 0.0 
0.0 0.0 -9.565092644494e+01 
-6.824371718318e+01 -1.443366640734e+01 0.0 
-1.443366640734e+01 -1.841801367470e+02 0.0 
0.0 0.0 -7.580405082134e+01 
-1.058455275735e+02 3.628733376420e+00 0.0 
3.628733376420e+00 -2.343012585751e+02 0.0 
0.0 0.0 -1.016440358446e+02 
-9.639959945181e+01 2.378872183075e+00 0.0 
2.378872183075e+00 -2.047515458006e+02 0.0 
0.0 0.0 -8.994534357573e+01 
-1.181867966679e+02 1.780030732995e+00 0.0 
1.780030732995e+00 -2.717352709475e+02 0.0 
0.0 0.0 -1.165766202846e+02 
-1.663771803360e+02 9.356691027961e-01 0.0 
9.356691027961e-01 -3.926872293943e+02 0.0 
0.0 0.0 -1.673193229191e+02 
-6.515460079467e+01 -4.293163418282e-01 0.0 
-4.293163418282e-01 -1.204221208929e+02 0.0 
0.0 0.0 -5.527301650626e+01 
-7.285156226750e+01 -1.408254342561e+01 0.0 
-1.408254342561e+01 -1.876319861893e+02 0.0 
0.0 0.0 -7.803982705769e+01 
-3.974541717922e+01 2.596300884230e+01 0.0 
2.596300884230e+01 -2.637334493362e+01 0.0 
0.0 0.0 -1.629766211724e+01 
-7.369902903144e+01 -9.019978638230e+00 0.0 
-9.019978638230e+00 -1.924267249745e+02 0.0 
0.0 0.0 -7.836689112100e+01 
-1.680051074233e+02 4.612112331956e+00 0.0 
4.612112331956e+00 -3.933452506545e+02 0.0 
0.0 0.0 -1.680051074233e+02 
-4.625736798341e+01 3.130308822449e+01 0.0 
3.130308822449e+01 -2.987847899212e+01 0.0 
0.0 0.0 -1.951564568658e+01 
-4.477486580840e+01 2.997865601251e+01 0.0 
2.997865601251e+01 -2.901420651649e+01 0.0 
0.0 0.0 -1.872561128729e+01 
-1.265743098113e+02 1.850620248847e+01 0.0 
1.850620248847e+01 -3.241204149376e+02 0.0 
0.0 0.0 -1.348084174247e+02 
-6.288027653902e+01 2.219640486770e+00 0.0 
2.219640486770e+00 -1.051313600853e+02 0.0 
0.0 0.0 -5.000349098729e+01 
-1.060401918045e+02 2.052194760350e+00 0.0 
2.052194760350e+00 -2.361229896716e+02 0.0 
0.0 0.0 -1.022489544428e+02 
-1.079104567927e+02 2.654602917851e+01 0.0 
2.654602917851e+01 -2.403338501178e+02 0.0 
0.0 0.0 -1.040732920731e+02 
-1.244547477012e+02 2.214687922063e+01 0.0 
2.214687922063e+01 -3.126172227138e+02 0.0 
0.0 0.0 -1.307215911245e+02 
-1.129208827564e+02 2.464526103604e+01 0.0 
2.464526103604e+01 -2.397124144806e+02 0.0 
0.0 0.0 -1.053899891711e+02 
-6.710122560839e+01 2.903464133021e-01 0.0 
2.903464133021e-01 -1.238824042532e+02 0.0 
0.0 0.0 -5.689508895848e+01 
-6.217268550349e+01 -1.640273828056e+01 0.0 
-1.640273828056e+01 -1.415817692369e+02 0.0 
0.0 0.0 -5.883691067458e+01 
-5.866696714511e+01 -1.454611502205e+01 0.0 
-1.454611502205e+01 -1.410406985697e+02 0.0 
0.0 0.0 -5.697615272573e+01 
-8.305621173577e+01 1.664596862234e-03 0.0 
1.664596862234e-03 -1.675258541551e+02 0.0 
0.0 0.0 -7.477461976727e+01 
-1.201963353480e+02 2.418976354811e+01 0.0 
2.418976354811e+01 -3.002792307087e+02 0.0 
0.0 0.0 -1.257426698170e+02 
-6.134184840848e+01 4.727566174904e+00 0.0 
4.727566174904e+00 -8.980534827001e+01 0.0 
0.0 0.0 -4.488245967978e+01 
-5.883019187676e+01 2.547157642456e-01 0.0 
2.547157642456e-01 -1.034315493976e+02 0.0 
0.0 0.0 -4.827852238231e+01 
-6.549948225203e+01 8.307059041114e-01 0.0 
8.307059041114e-01 -1.194557803522e+02 0.0 
0.0 0.0 -5.508657878126e+01 
-6.815938634720e+01 2.121394758476e+00 0.0 
2.121394758476e+00 -1.252527143889e+02 0.0 
0.0 0.0 -5.762363022082e+01 
-3.314525211078e+01 -1.371538191762e+01 0.0 
-1.371538191762e+01 -1.144873346848e+02 0.0 
0.0 0.0 -4.405240805407e+01 
-5.603874696268e+01 -1.415379177653e+01 0.0 
-1.415379177653e+01 -1.274389444534e+02 0.0 
0.0 0.0 -5.156394663528e+01 
-1.142988767308e+02 6.177911351685e+00 0.0 
6.177911351685e+00 -2.567454694842e+02 0.0 
0.0 0.0 -1.109133038645e+02 
-7.599093273407e+01 2.515771198880e+00 0.0 
2.515771198880e+00 -1.447091398181e+02 0.0 
0.0 0.0 -6.581002176567e+01 
-1.468400289750e+02 2.228954816840e+01 0.0 
2.228954816840e+01 -3.540705779143e+02 0.0 
0.0 0.0 -1.498731820668e+02 
-1.233549789244e+02 2.519635721305e+01 0.0 
2.519635721305e+01 -2.701301577637e+02 0.0 
0.0 0.0 -1.176455410064e+02 
-1.016983164132e+02 2.490737483518e+01 0.0 
2.490737483518e+01 -2.113062868284e+02 0.0 
0.0 0.0 -9.350138097247e+01 
-1.126409775911e+02 1.251175106636e+01 0.0 
1.251175106636e+01 -2.419662300563e+02 0.0 
0.0 0.0 -1.059821622942e+02 
-8.616013428550e+01 -4.539175911355e+00 0.0 
-4.539175911355e+00 -1.833711833165e+02 0.0 
0.0 0.0 -7.495440650713e+01 
-7.807703367621e+01 -5.105728442664e+00 0.0 
-5.105728442664e+00 -1.668751895620e+02 0.0 
0.0 0.0 -6.738898203515e+01 
-1.464770807811e+02 6.934688892011e+00 0.0 
6.934688892011e+00 -3.595781992652e+02 0.0 
0.0 0.0 -1.514165840139e+02 
-3.681204314189e+01 -2.326152086847e+01 0.0 
-2.326152086847e+01 -9.886357622144e+01 0.0 
0.0 0.0 -4.209706358622e+01 
-4.955033008829e+01 -9.475879241647e-01 0.0 
-9.475879241647e-01 -1.169167934578e+02 0.0 
0.0 0.0 -4.698129318212e+01 
-1.480117618623e+02 2.790622217155e+01 0.0 
2.790622217155e+01 -3.466941110119e+02 0.0 
0.0 0.0 -1.480117618623e+02 
-1.485893971080e+01 7.250994919914e-01 0.0 
7.250994919914e-01 -5.745982359174e+01 0.0 
0.0 0.0 -2.060773046179e+01 
-5.855023548588e+01 2.968773431481e-01 0.0 
2.968773431481e-01 -1.033288019918e+02 0.0 
0.0 0.0 -4.816371124332e+01 
-1.380469620324e+02 1.661457133223e+01 0.0 
1.661457133223e+01 -3.478256165468e+02 0.0 
0.0 0.0 -1.453617735737e+02 
-2.155931108779e+01 -3.743241204401e+00 0.0 
-3.743241204401e+00 -3.990659465959e+01 0.0 
0.0 0.0 -1.589378594680e+01 
-1.383408611168e+01 -6.827102161935e-02 0.0 
-6.827102161935e-02 -2.396602676722e+01 0.0 
0.0 0.0 -8.866206600214e+00 
-1.211716539871e+02 1.055834722840e+01 0.0 
1.055834722840e+01 -2.761855802098e+02 0.0 
0.0 0.0 -1.188071702591e+02 
-5.406602934838e+01 6.369281327822e-01 0.0 
6.369281327822e-01 -8.659203355080e+01 0.0 
0.0 0.0 -4.179741886975e+01 
-1.136877087741e+02 7.780236931267e+00 0.0 
7.780236931267e+00 -2.535703863254e+02 0.0 
0.0 0.0 -1.097774285299e+02 
-1.398926951358e+02 1.754337102064e+01 0.0 
1.754337102064e+01 -3.454832969444e+02 0.0 
0.0 0.0 -1.452127976241e+02 
-5.366219174887e+01 1.041510636528e+00 0.0 
1.041510636528e+00 -8.632365275665e+01 0.0 
0.0 0.0 -4.159575335166e+01 
-7.710069432408e+01 7.950959965321e+00 0.0 
7.950959965321e+00 -1.075382214752e+02 0.0 
0.0 0.0 -5.645271237367e+01 
-1.107190497641e+02 2.043049546677e+00 0.0 
2.043049546677e+00 -2.536917560044e+02 0.0 
0.0 0.0 -1.089232417305e+02 
-2.052379727317e+01 -2.366789110456e+00 0.0 
-2.366789110456e+00 -6.367093217856e+01 0.0 
0.0 0.0 -2.328974414320e+01 
-1.082432886593e+02 6.815638347076e+00 0.0 
6.815638347076e+00 -2.409772003677e+02 0.0 
0.0 0.0 -1.043661467081e+02 
-1.679797769017e+02 3.380547879482e+00 0.0 
3.380547879482e+00 -3.932861461039e+02 0.0 
0.0 0.0 -1.679797769017e+02 
-1.193710668999e+02 2.173609582792e+01 0.0 
2.173609582792e+01 -2.605191611742e+02 0.0 
0.0 0.0 -1.135670684222e+02 
-3.755426783267e+01 -1.019160129924e+01 0.0 
-1.019160129924e+01 -1.284717095630e+02 0.0 
0.0 0.0 -4.716760565221e+01 
-7.437055301149e+01 6.167038083415e+00 0.0 
6.167038083415e+00 -1.247367879729e+02 0.0 
0.0 0.0 -5.933220229532e+01 
-8.726337245079e+01 -2.055190083332e+00 0.0 
-2.055190083332e+00 -1.859286960602e+02 0.0 
0.0 0.0 -7.652054036976e+01 
-1.099068001227e+02 2.332931482855e+01 0.0 
2.332931482855e+01 -2.814733663935e+02 0.0 
0.0 0.0 -1.170140499549e+02 
-1.524348945945e+02 2.539063835140e+01 0.0 
2.539063835140e+01 -3.628908280812e+02 0.0 
0.0 0.0 -1.541977168027e+02 
-9.062357399355e+01 5.099716327500e-01 0.0 
5.099716327500e-01 -1.892143467201e+02 0.0 
0.0 0.0 -8.355137621409e+01 
-1.531381931491e+02 2.287942504184e+01 0.0 
2.287942504184e+01 -3.671768615481e+02 0.0 
0.0 0.0 -1.556945164092e+02 
-3.138449554773e+01 -1.700047769234e+01 0.0 
-1.700047769234e+01 -1.163921982777e+02 0.0 
0.0 0.0 -4.650670129665e+01 
-1.584269631794e+02 4.934793006294e+00 0.0 
4.934793006294e+00 -3.782151898472e+02 0.0 
0.0 0.0 -1.605926459080e+02 
-4.202321698062e+01 -1.448003273468e+01 0.0 
-1.448003273468e+01 -1.241212410482e+02 0.0 
0.0 0.0 -4.320381154623e+01 
-1.508686372468e+01 -1.587232440657e+00 0.0 
-1.587232440657e+00 -5.741769816972e+01 0.0 
0.0 0.0 -2.062497877346e+01 
-1.499581529072e+02 1.527454530876e+01 0.0 
1.527454530876e+01 -3.672588370079e+02 0.0 
0.0 0.0 -1.547650969745e+02 
-1.214051998614e+02 1.666612928227e+01 0.0 
1.666612928227e+01 -2.670778679821e+02 0.0 
0.0 0.0 -1.161449203531e+02 
-1.164573659624e+02 1.108643991760e+01 0.0 
1.108643991760e+01 -2.625668398692e+02 0.0 
0.0 0.0 -1.133072617495e+02 
-5.888387290872e+01 1.382309819425e-01 0.0 
1.382309819425e-01 -1.020558544178e+02 0.0 
0.0 0.0 -4.788191819797e+01 
-7.745932534186e+01 8.763619310061e+00 0.0 
8.763619310061e+00 -1.296914244302e+02 0.0 
0.0 0.0 -6.174522493163e+01 
-4.426516386789e+01 3.135950128630e+01 0.0 
3.135950128630e+01 -6.874873948205e+01 0.0 
0.0 0.0 -2.975290743747e+01 
-1.294745388632e+02 2.643065974953e+01 0.0 
2.643065974953e+01 -2.906868709180e+02 0.0 
0.0 0.0 -1.256484229344e+02 
-7.432396136585e+01 -3.241530073508e+00 0.0 
-3.241530073508e+00 -1.541912840263e+02 0.0 
0.0 0.0 -6.304353446187e+01 
-3.773211058326e+01 3.008239073309e+01 0.0 
3.008239073309e+01 -7.589813739971e+01 0.0 
0.0 0.0 -2.899292917233e+01 
-1.146988032181e+02 2.169040099662e+01 0.0 
2.169040099662e+01 -2.948480618065e+02 0.0 
0.0 0.0 -1.224640595074e+02 
-5.232909372497e+01 5.161457978976e-01 0.0 
5.161457978976e-01 -8.602421407615e+01 0.0 
0.0 0.0 -4.110599234034e+01 
-1.146501661060e+02 1.504892979967e+01 0.0 
1.504892979967e+01 -2.523484084399e+02 0.0 
0.0 0.0 -1.096995723638e+02 
-1.171838322339e+02 8.672640712365e-01 0.0 
8.672640712365e-01 -2.697602832631e+02 0.0 
0.0 0.0 -1.156832346491e+02 
-1.158586825674e+02 7.502987923901e-01 0.0 
7.502987923901e-01 -2.716702593239e+02 0.0 
0.0 0.0 -1.158586825674e+02 
-1.198334961042e+01 -5.890819890511e-02 0.0 
-5.890819890511e-02 -6.168368268317e+00 0.0 
0.0 0.0 -4.698982284216e+00 
-8.286893810452e+00 1.252643766785e-01 0.0 
1.252643766785e-01 -1.083527876874e+01 0.0 
0.0 0.0 -4.014648007770e+00 
-5.231573225236e+01 6.678205645842e-01 0.0 
6.678205645842e-01 -8.837690238986e+01 0.0 
0.0 0.0 -4.180779039267e+01 
-5.114819693949e+01 -5.477529322086e-02 0.0 
-5.477529322086e-02 -8.593145841371e+01 0.0 
0.0 0.0 -4.072389660596e+01 
-1.680971447635e+02 3.768221290644e-01 0.0 
3.768221290644e-01 -3.935600044482e+02 0.0 
0.0 0.0 -1.680971447635e+02 
-1.657837354998e+02 -6.630212079996e-01 0.0 
-6.630212079996e-01 -3.906741970266e+02 0.0 
0.0 0.0 -1.665373797579e+02 
-1.196332256986e+01 -4.162354382693e-01 0.0 
-4.162354382693e-01 -2.333654807553e+01 0.0 
0.0 0.0 -8.006216609853e+00 
-7.942870644253e+01 -4.007617361727e+00 0.0 
-4.007617361727e+00 -1.133072994885e+02 0.0 
0.0 0.0 -5.832122812652e+01 
-1.508934150114e+02 1.731163931076e+00 0.0 
1.731163931076e+00 -3.618783476033e+02 0.0 
0.0 0.0 -1.534315287844e+02 
-1.276407981672e+02 2.544664810885e+01 0.0 
2.544664810885e+01 -3.100050538900e+02 0.0 
0.0 0.0 -1.308937556172e+02 
-2.286744882686e+01 -2.098816165747e+00 0.0 
-2.098816165747e+00 -7.489393498333e+01 0.0 
0.0 0.0 -2.828062648161e+01 
-1.517768650913e+02 5.314369034644e+00 0.0 
5.314369034644e+00 -3.656219715906e+02 0.0 
0.0 0.0 -1.548196510046e+02 
-1.142510105917e+02 -3.492310090027e-02 0.0 
-3.492310090027e-02 -2.615597682795e+02 0.0 
0.0 0.0 -1.094603614338e+02 
-1.028239785551e+02 2.355585357390e-01 0.0 
2.355585357390e-01 -2.259823068876e+02 0.0 
0.0 0.0 -9.406414150628e+01 
-7.902635332801e+01 9.094493656461e-01 0.0 
9.094493656461e-01 -1.547287563325e+02 0.0 
0.0 0.0 -6.972653289816e+01 
-4.635536431943e+01 -2.042395762623e+01 0.0 
-2.042395762623e+01 -9.104754431805e+01 0.0 
0.0 0.0 -3.481381640437e+01 
-9.986303130474e+01 2.322177170818e+01 0.0 
2.322177170818e+01 -2.633510451135e+02 0.0 
0.0 0.0 -1.085642229255e+02 
-1.961997848421e+01 -8.759121278298e-01 0.0 
-8.759121278298e-01 -6.014082381690e+01 0.0 
0.0 0.0 -2.215352191902e+01 
-9.587818396938e+01 -2.119022788418e+00 0.0 
-2.119022788418e+00 -2.064406426121e+02 0.0 
0.0 0.0 -8.534999911936e+01 
-1.225423104338e+02 2.404952716268e+01 0.0 
2.404952716268e+01 -2.767147631307e+02 0.0 
0.0 0.0 -1.193771220693e+02 
-1.039948280122e+02 9.674061138553e-01 0.0 
9.674061138553e-01 -2.287927604548e+02 0.0 
0.0 0.0 -9.943627654010e+01 
-1.029470309006e+02 -1.180218242836e+00 0.0 
-1.180218242836e+00 -2.249073086121e+02 0.0 
0.0 0.0 -9.379767430174e+01 
-7.086893177124e+01 1.295959387257e+00 0.0 
1.295959387257e+00 -1.339384517269e+02 0.0 
0.0 0.0 -6.104221504943e+01 
-1.273823086382e+02 2.755383149653e+01 0.0 
2.755383149653e+01 -3.008570732988e+02 0.0 
0.0 0.0 -1.280718145811e+02 
-1.161087997505e+02 2.571509913024e+01 0.0 
2.571509913024e+01 -2.527633207502e+02 0.0 
0.0 0.0 -1.102616361502e+02 
-1.088722382367e+02 2.523508446785e+01 0.0 
2.523508446785e+01 -2.320585353674e+02 0.0 
0.0 0.0 -1.018792320813e+02 
-5.289523424475e+01 6.324265228494e-01 0.0 
6.324265228494e-01 -8.651745543197e+01 0.0 
0.0 0.0 -4.142380690302e+01 
-9.445575930449e+01 2.207052962991e+01 0.0 
2.207052962991e+01 -2.581950472019e+02 0.0 
0.0 0.0 -1.053952419519e+02 
-1.153852192941e+02 1.773040331136e+01 0.0 
1.773040331136e+01 -2.542850302016e+02 0.0 
0.0 0.0 -1.105010748487e+02 
-5.458916818106e+01 -3.166137731854e+00 0.0 
-3.166137731854e+00 -1.161894335938e+02 0.0 
0.0 0.0 -4.642369072336e+01 
-1.725962994240e+01 2.181045997357e-01 0.0 
2.181045997357e-01 -2.415346083976e+01 0.0 
0.0 0.0 -1.180022705749e+01 
-1.225309893872e+02 2.709902275181e+01 0.0 
2.709902275181e+01 -2.862305513527e+02 0.0 
0.0 0.0 -1.222284622220e+02 
-1.207273851821e+02 1.559308220270e+01 0.0 
1.559308220270e+01 -3.170494590882e+02 0.0 
0.0 0.0 -1.309330532811e+02 
-4.422811469999e+01 -2.143580687933e+01 0.0 
-2.143580687933e+01 -8.338856274890e+01 0.0 
0.0 0.0 -3.168361138744e+01 
-8.416281486201e+01 1.522002365788e+00 0.0 
1.522002365788e+00 -1.690125226283e+02 0.0 
0.0 0.0 -7.555260124709e+01 
-1.589206156288e+02 2.565961036190e+00 0.0 
2.565961036190e+00 -3.764361873050e+02 0.0 
0.0 0.0 -1.602070408802e+02 
-1.226173351164e+02 2.528433268737e+01 0.0 
2.528433268737e+01 -2.953617691005e+02 0.0 
0.0 0.0 -1.249937312651e+02 
-1.281592468144e+02 2.770087507705e+01 0.0 
2.770087507705e+01 -3.058560194736e+02 0.0 
0.0 0.0 -1.298045798864e+02 
-1.200267457060e+02 7.255235220405e-01 0.0 
7.255235220405e-01 -2.823438571349e+02 0.0 
0.0 0.0 -1.184314753340e+02 
-4.340538995929e+01 3.374662821980e+01 0.0 
3.374662821980e+01 -9.637815842779e+01 0.0 
0.0 0.0 -4.328724036718e+01 
-3.867689665922e+01 2.765328394567e+01 0.0 
2.765328394567e+01 -2.565868786935e+01 0.0 
0.0 0.0 -1.645289312345e+01 
-4.594564775179e+01 3.081392904404e+01 0.0 
3.081392904404e+01 -6.749876974936e+01 0.0 
0.0 0.0 -3.064058165338e+01 
-7.459687378096e+01 6.492064488378e+00 0.0 
6.492064488378e+00 -1.242039164090e+02 0.0 
0.0 0.0 -5.924023705698e+01 
-9.521702628918e+01 2.106131428483e+01 0.0 
2.106131428483e+01 -2.583450799564e+02 0.0 
0.0 0.0 -1.064853556746e+02 
-1.094433622384e+02 6.307047561270e+00 0.0 
6.307047561270e+00 -2.430714628371e+02 0.0 
0.0 0.0 -1.053544475226e+02 
-1.479599434034e+02 1.926401517793e+01 0.0 
1.926401517793e+01 -3.567821705981e+02 0.0 
0.0 0.0 -1.510226342005e+02 
-4.308086058702e+01 -1.606326614163e+01 0.0 
-1.606326614163e+01 -5.257704202269e+01 0.0 
0.0 0.0 -2.359298212171e+01 
-2.963375008497e+01 -6.574879951360e+00 0.0 
-6.574879951360e+00 -4.239728013157e+01 0.0 
0.0 0.0 -1.759856094494e+01 
-4.109394162302e+01 2.853807051183e+01 0.0 
2.853807051183e+01 -2.768631361724e+01 0.0 
0.0 0.0 -1.715635332412e+01 
-8.577937055639e+01 5.513270650138e-01 0.0 
5.513270650138e-01 -1.745201590998e+02 0.0 
0.0 0.0 -7.768985889685e+01 
-6.729268347937e+01 -3.128570303097e+00 0.0 
-3.128570303097e+00 -1.446956158034e+02 0.0 
0.0 0.0 -5.823964585256e+01 
-1.151866684078e+02 1.408979540371e+01 0.0 
1.408979540371e+01 -2.511557778798e+02 0.0 
0.0 0.0 -1.095027338863e+02 
-1.953602477243e+01 -7.493722501924e-01 0.0 
-7.493722501924e-01 -7.160029316062e+01 0.0 
0.0 0.0 -2.678453653394e+01 
-1.367043752010e+02 1.837127717024e+01 0.0 
1.837127717024e+01 -3.400339949823e+02 0.0 
0.0 0.0 -1.426215110550e+02 
-6.855574015083e+01 2.118734952875e+00 0.0 
2.118734952875e+00 -1.199480814294e+02 0.0 
0.0 0.0 -5.615114647407e+01 
-1.424415513617e+02 2.512643996897e+01 0.0 
2.512643996897e+01 -3.391089488086e+02 0.0 
0.0 0.0 -1.440651500511e+02 
-1.148531068826e+02 2.492123492366e+01 0.0 
2.492123492366e+01 -2.871994912090e+02 0.0 
0.0 0.0 -1.202157794275e+02 
-7.650611033252e+01 8.445581831338e+00 0.0 
8.445581831338e+00 -1.253973066835e+02 0.0 
0.0 0.0 -6.017102510481e+01 
-1.519381265635e+02 1.184172838748e+01 0.0 
1.184172838748e+01 -3.713984623334e+02 0.0 
0.0 0.0 -1.566009766691e+02 
-1.195412688025e+02 1.473449989147e+01 0.0 
1.473449989147e+01 -2.653437600832e+02 0.0 
0.0 0.0 -1.150655086657e+02 
-1.134922339291e+02 1.068307602530e+00 0.0 
1.068307602530e+00 -2.557609074543e+02 0.0 
0.0 0.0 -1.103759424150e+02 
-4.272756456731e+01 2.923140409681e+01 0.0 
2.923140409681e+01 -2.932183589518e+01 0.0 
0.0 0.0 -1.737584874279e+01 
-1.103021189855e+02 1.077489746926e+01 0.0 
1.077489746926e+01 -2.407785582650e+02 0.0 
0.0 0.0 -1.049242031752e+02 
-1.324023240969e+02 2.723557302117e+01 0.0 
2.723557302117e+01 -3.093522353633e+02 0.0 
0.0 0.0 -1.321263678381e+02 
-1.356898162182e+02 1.947965089205e+01 0.0 
1.947965089205e+01 -3.402963408535e+02 0.0 
0.0 0.0 -1.423958471215e+02 
-1.187906417221e+02 2.265027511651e+01 0.0 
2.265027511651e+01 -2.991814436395e+02 0.0 
0.0 0.0 -1.249916256085e+02 
-1.675587637710e+02 6.329962923500e+00 0.0 
6.329962923500e+00 -3.923037821322e+02 0.0 
0.0 0.0 -1.675587637710e+02 
-1.078320706099e+02 2.253175918588e+01 0.0 
2.253175918588e+01 -2.310875174408e+02 0.0 
0.0 0.0 -1.012758764152e+02 
-6.256778849836e+01 2.457278904797e+01 0.0 
2.457278904797e+01 -7.613688744821e+01 0.0 
0.0 0.0 -4.216314568450e+01 
-4.132585933306e+01 3.187487636304e+01 0.0 
3.187487636304e+01 -7.107004239015e+01 0.0 
0.0 0.0 -2.733769306253e+01 
-1.191600685608e+02 2.521571272370e+01 0.0 
2.521571272370e+01 -2.601711134178e+02 0.0 
0.0 0.0 -1.133993545936e+02 
-7.932745090106e+01 6.282226304654e+00 0.0 
6.282226304654e+00 -1.393210429275e+02 0.0 
0.0 0.0 -6.519454814856e+01 
-1.510429192685e+02 1.993087660932e+00 0.0 
1.993087660932e+00 -3.610903869183e+02 0.0 
0.0 0.0 -1.532399918560e+02 
-1.250163905120e+02 2.547594533240e+01 0.0 
2.547594533240e+01 -3.059815182138e+02 0.0 
0.0 0.0 -1.288993726177e+02 
-1.594039429822e+02 5.520512025609e+00 0.0 
5.520512025609e+00 -3.786157692248e+02 0.0 
0.0 0.0 -1.610059136621e+02 
-9.352857583111e+01 1.169401392221e+00 0.0 
1.169401392221e+00 -1.958219939163e+02 0.0 
0.0 0.0 -8.640517092423e+01 
-1.443611818831e+02 2.420852623086e+01 0.0 
2.420852623086e+01 -3.441092759008e+02 0.0 
0.0 0.0 -1.461411373352e+02 
-1.474141775418e+02 1.036044898241e+01 0.0 
1.036044898241e+01 -3.611389274784e+02 0.0 
0.0 0.0 -1.521659315061e+02 
-1.461032952912e+02 9.414583369612e+00 0.0 
9.414583369612e+00 -3.604565293708e+02 0.0 
0.0 0.0 -1.515679473986e+02 
-6.969386983214e+01 -2.144856817290e+00 0.0 
-2.144856817290e+00 -1.496380122599e+02 0.0 
0.0 0.0 -6.088646442164e+01 
-1.654820300195e+02 5.042980770588e+00 0.0 
5.042980770588e+00 -3.921069992225e+02 0.0 
0.0 0.0 -1.668767087726e+02 
-6.463824319972e+01 3.342186604531e+00 0.0 
3.342186604531e+00 -1.045176004857e+02 0.0 
0.0 0.0 -5.034675310561e+01 
-1.074102539604e+02 3.803357084154e+00 0.0 
3.803357084154e+00 -2.370143048916e+02 0.0 
0.0 0.0 -1.029273676556e+02 
-3.056629439703e+01 -7.211883709247e+00 0.0 
-7.211883709247e+00 -4.568912725260e+01 0.0 
0.0 0.0 -1.837781773571e+01 
-1.027923518154e+02 1.927587539363e+00 0.0 
1.927587539363e+00 -2.217618343309e+02 0.0 
0.0 0.0 -9.696625584388e+01 
-8.534005018031e+01 1.451660340199e+00 0.0 
1.451660340199e+00 -1.710102688922e+02 0.0 
0.0 0.0 -7.650509572175e+01 
-1.344648992232e+01 1.040023253536e-01 0.0 
1.040023253536e-01 -4.185898780300e+01 0.0 
0.0 0.0 -1.342286601626e+01 
-3.939500448683e+01 -1.375244025776e+01 0.0 
-1.375244025776e+01 -1.265739191033e+02 0.0 
0.0 0.0 -4.914601796041e+01 
-1.112870162370e+02 2.363852487259e+01 0.0 
2.363852487259e+01 -2.453598969937e+02 0.0 
0.0 0.0 -1.065940739692e+02 
-1.125310560311e+02 7.997087192237e+00 0.0 
7.997087192237e+00 -2.563229077594e+02 0.0 
0.0 0.0 -1.102561891372e+02 
-1.076830959275e+02 2.202710245787e+00 0.0 
2.202710245787e+00 -2.396217339891e+02 0.0 
0.0 0.0 -1.037914489750e+02 
-1.401439713291e+02 2.303338694936e+01 0.0 
2.303338694936e+01 -3.427691013949e+02 0.0 
0.0 0.0 -1.444739218172e+02 
-7.095567135374e+01 5.259507698762e-01 0.0 
5.259507698762e-01 -1.332531560373e+02 0.0 
0.0 0.0 -6.086264821731e+01 
-1.556182140481e+01 -2.239251047249e-01 0.0 
-2.239251047249e-01 -2.324955774158e+01 0.0 
0.0 0.0 -1.049552893607e+01 
-3.776650318620e+01 2.444216151143e+01 0.0 
2.444216151143e+01 -1.105861612731e+02 0.0 
0.0 0.0 -4.639724799709e+01 
-1.306751501532e+01 -1.434067367028e+00 0.0 
-1.434067367028e+00 -2.871255098212e+01 0.0 
0.0 0.0 -1.167249814137e+01 
-3.448475310044e+01 -6.980106698776e+00 0.0 
-6.980106698776e+00 -5.777729224007e+01 0.0 
0.0 0.0 -2.238252595937e+01 
-5.335293518432e+01 4.316653837713e+01 0.0 
4.316653837713e+01 -5.433849206965e+01 0.0 
0.0 0.0 -3.275787939088e+01 
-9.273926752085e+01 -3.196124471749e+00 0.0 
-3.196124471749e+00 -2.005717990665e+02 0.0 
0.0 0.0 -8.286425141837e+01 
-1.506640170039e+02 5.055178494496e-01 0.0 
5.055178494496e-01 -3.608828546689e+02 0.0 
0.0 0.0 -1.530640615019e+02 
-1.185440247566e+02 2.027982327989e+01 0.0 
2.027982327989e+01 -2.604637052465e+02 0.0 
0.0 0.0 -1.133023190009e+02 
-8.436402622332e+01 1.137718666177e+01 0.0 
1.137718666177e+01 -1.425342042276e+02 0.0 
0.0 0.0 -6.766946913527e+01 
-8.315359692876e+01 -3.629209081022e+00 0.0 
-3.629209081022e+00 -1.768903697352e+02 0.0 
0.0 0.0 -7.176592823140e+01 
-1.471757693869e+02 7.951204287398e+00 0.0 
7.951204287398e+00 -3.603637322426e+02 0.0 
0.0 0.0 -1.518618504889e+02 
-1.379748994584e+02 1.342873188670e+01 0.0 
1.342873188670e+01 -3.489068866977e+02 0.0 
0.0 0.0 -1.456645358468e+02 
-1.391458245205e+02 2.631591497421e+01 0.0 
2.631591497421e+01 -3.366480013962e+02 0.0 
0.0 0.0 -1.423381477750e+02 
-1.278107484747e+02 2.671030559959e+01 0.0 
2.671030559959e+01 -2.988220263761e+02 0.0 
0.0 0.0 -1.275898324552e+02 
-1.178335045581e+02 2.432125469293e+01 0.0 
2.432125469293e+01 -2.648907684938e+02 0.0 
0.0 0.0 -1.144172819156e+02 
-2.864285298041e+01 -7.306043283564e+00 0.0 
-7.306043283564e+00 -4.354041428745e+01 0.0 
0.0 0.0 -1.897231345080e+01 
-3.747495397888e+01 -2.080191231170e+01 0.0 
-2.080191231170e+01 -1.091115857245e+02 0.0 
0.0 0.0 -4.573841820720e+01 
-1.509707264295e+02 2.776731423946e+00 0.0 
2.776731423946e+00 -3.623976685894e+02 0.0 
0.0 0.0 -1.536105185057e+02 
-1.066051442820e+01 -3.918258263553e-01 0.0 
-3.918258263553e-01 -4.094449483975e+01 0.0 
0.0 0.0 -1.321761855843e+01 
-1.336393088588e+01 -1.088376548424e+00 0.0 
-1.088376548424e+00 -4.914003479382e+01 0.0 
0.0 0.0 -1.666188117118e+01 
-4.716517503794e+01 3.783232668548e+01 0.0 
3.783232668548e+01 -5.948033727314e+01 0.0 
0.0 0.0 -3.052099080971e+01 
-1.699882809341e+01 -1.858656879642e-01 0.0 
-1.858656879642e-01 -3.861147447289e+01 0.0 
0.0 0.0 -1.497537759690e+01 
-1.562817919114e+02 1.055310006511e+01 0.0 
1.055310006511e+01 -3.743466582780e+02 0.0 
0.0 0.0 -1.587885350568e+02 
-1.294121211968e+02 2.685112757467e+01 0.0 
2.685112757467e+01 -2.980952243857e+02 0.0 
0.0 0.0 -1.278522036748e+02 
-1.083987467206e+02 4.625971178744e+00 0.0 
4.625971178744e+00 -2.427629196282e+02 0.0 
0.0 0.0 -1.049484999046e+02 
-1.411986911443e+02 2.609174474926e+01 0.0 
2.609174474926e+01 -3.357929624243e+02 0.0 
0.0 0.0 -1.426974960706e+02 
-1.335272714129e+02 1.480958594826e+01 0.0 
1.480958594826e+01 -3.384589463755e+02 0.0 
0.0 0.0 -1.411958653365e+02 
-7.537434008788e+01 4.536052565633e-01 0.0 
4.536052565633e-01 -1.447185183659e+02 0.0 
0.0 0.0 -6.562785753612e+01 
-1.178145922573e+02 1.075158089930e+01 0.0 
1.075158089930e+01 -2.762340486003e+02 0.0 
0.0 0.0 -1.178145922573e+02 
-5.015115483986e+01 -1.931275578091e+01 0.0 
-1.931275578091e+01 -1.287271182101e+02 0.0 
0.0 0.0 -5.002623516792e+01 
-5.371290591481e+01 8.963446414962e-01 0.0 
8.963446414962e-01 -8.592124010206e+01 0.0 
0.0 0.0 -4.149024380506e+01 
-5.049996739791e+01 -2.252090795638e+01 0.0 
-2.252090795638e+01 -7.493292228750e+01 0.0 
0.0 0.0 -3.083396669683e+01 
-9.160637638786e+00 -9.886058953600e-01 0.0 
-9.886058953600e-01 -2.431577064590e+01 0.0 
0.0 0.0 -7.667190399157e+00 
-1.658975052840e+02 2.989609541623e+00 0.0 
2.989609541623e+00 -3.922099719442e+02 0.0 
0.0 0.0 -1.670322431685e+02 
-7.039085268688e+01 7.133990969772e+00 0.0 
7.133990969772e+00 -1.102287279900e+02 0.0 
0.0 0.0 -5.378587420306e+01 
-1.769587383448e+01 -7.111178848320e-01 0.0 
-7.111178848320e-01 -5.756725499362e+01 0.0 
0.0 0.0 -2.064770256064e+01 
-9.009839968581e+01 -3.001556973352e+00 0.0 
-3.001556973352e+00 -1.923377303953e+02 0.0 
0.0 0.0 -7.940419222890e+01 
-1.305066493280e+02 2.721313626689e+01 0.0 
2.721313626689e+01 -2.972127814396e+02 0.0 
0.0 0.0 -1.279158292303e+02 
-1.105569323034e+02 8.285393646202e+00 0.0 
8.285393646202e+00 -2.425826860583e+02 0.0 
0.0 0.0 -1.055418855085e+02 
-1.177397358614e+02 1.677428132614e+01 0.0 
1.677428132614e+01 -2.670416170187e+02 0.0 
0.0 0.0 -1.150344058640e+02 
-6.223426709680e+01 -9.093586812643e-01 0.0 
-9.093586812643e-01 -1.358768195111e+02 0.0 
0.0 0.0 -5.526174681686e+01 
-3.820059129574e+01 2.833058406486e+00 0.0 
2.833058406486e+00 -1.204145600998e+02 0.0 
0.0 0.0 -4.951437836213e+01 
-1.564483805012e+02 6.423504782277e+00 0.0 
6.423504782277e+00 -3.767240896405e+02 0.0 
0.0 0.0 -1.595517410425e+02 
-1.189713094067e+02 9.564412066440e-01 0.0 
9.564412066440e-01 -2.728718000464e+02 0.0 
0.0 0.0 -1.171529328359e+02 
-1.663025021992e+02 6.766266230126e-01 0.0 
6.766266230126e-01 -3.926664722832e+02 0.0 
0.0 0.0 -1.672906923447e+02 
-5.724459474974e+01 -4.019396133077e-01 0.0 
-4.019396133077e-01 -1.003495955565e+02 0.0 
0.0 0.0 -4.687825709188e+01 
-1.427210646574e+02 1.495986869043e+01 0.0 
1.495986869043e+01 -3.516484761039e+02 0.0 
0.0 0.0 -1.479108622284e+02 
-1.642892830767e+01 -1.081764999892e+00 0.0 
-1.081764999892e+00 -5.825882300658e+01 0.0 
0.0 0.0 -2.110784171470e+01 
-1.133998019679e+02 1.241397415971e+01 0.0 
1.241397415971e+01 -2.505858087820e+02 0.0 
0.0 0.0 -1.087956832250e+02 
-1.057523609840e+01 -6.692760328809e-01 0.0 
-6.692760328809e-01 -2.344637200864e+01 0.0 
0.0 0.0 -8.239146677460e+00 
-1.547291667932e+02 1.353730055113e+01 0.0 
1.353730055113e+01 -3.713299426156e+02 0.0 
0.0 0.0 -1.574177328226e+02 
-1.213241388148e+02 1.771557020160e+01 0.0 
1.771557020160e+01 -2.689379651846e+02 0.0 
0.0 0.0 -1.166786311998e+02 
-4.583179856495e+01 1.482100017456e+01 0.0 
1.482100017456e+01 -1.171356587983e+02 0.0 
0.0 0.0 -5.025651141271e+01 
-1.230249502681e+02 2.671600969105e+01 0.0 
2.671600969105e+01 -2.962783326961e+02 0.0 
0.0 0.0 -1.253909848893e+02 
-9.031706794163e+01 2.335821687789e+00 0.0 
2.335821687789e+00 -1.856960836495e+02 0.0 
0.0 0.0 -8.240394547733e+01 
-1.121010657654e+02 5.997488019203e+00 0.0 
5.997488019203e+00 -2.566324012991e+02 0.0 
0.0 0.0 -1.102200401194e+02 
-1.569979342810e+02 2.344465881344e+01 0.0 
2.344465881344e+01 -3.676618466557e+02 0.0 
0.0 0.0 -1.569979342810e+02 
-7.971576929063e+01 1.651973692890e+00 0.0 
1.651973692890e+00 -1.583988497629e+02 0.0 
0.0 0.0 -7.103438571606e+01 
-1.274928091361e+02 2.569959340274e+01 0.0 
2.569959340274e+01 -2.935936663097e+02 0.0 
0.0 0.0 -1.259259426337e+02 
-1.172081269395e+02 1.694199396279e+01 0.0 
1.694199396279e+01 -2.543348867060e+02 0.0 
0.0 0.0 -1.110629040936e+02 
-8.347939092930e+01 1.033117273762e+00 0.0 
1.033117273762e+00 -1.699710507655e+02 0.0 
0.0 0.0 -7.563513250845e+01 
-1.247391349051e+02 2.534547887583e+01 0.0 
2.534547887583e+01 -2.828714244567e+02 0.0 
0.0 0.0 -1.218831678085e+02 
-7.871213092432e+01 -2.179783274671e+00 0.0 
-2.179783274671e+00 -1.643617258788e+02 0.0 
0.0 0.0 -6.740685540430e+01 
-5.154799061030e+01 4.636387852576e-01 0.0 
4.636387852576e-01 -8.572275847734e+01 0.0 
0.0 0.0 -4.078122472629e+01 
-1.326738023504e+02 2.523504427597e+01 0.0 
2.523504427597e+01 -3.222858478180e+02 0.0 
0.0 0.0 -1.360878950505e+02 
-1.126569173969e+02 2.748028557671e-01 0.0 
2.748028557671e-01 -2.573792889296e+02 0.0 
0.0 0.0 -1.106108618980e+02 
-6.748399098229e+00 -4.056445569643e-02 0.0 
-4.056445569643e-02 -8.760400159508e+00 0.0 
0.0 0.0 -2.689401148596e+00 
-5.110435306193e+01 -1.363303332209e-01 0.0 
-1.363303332209e-01 -8.600823995435e+01 0.0 
0.0 0.0 -4.073377790488e+01 
-1.607156415308e+02 9.051836138134e-01 0.0 
9.051836138134e-01 -3.800254479668e+02 0.0 
0.0 0.0 -1.618223268493e+02 
-2.888328573096e+01 -4.838309230261e+00 0.0 
-4.838309230261e+00 -7.390025511062e+01 0.0 
0.0 0.0 -2.756487357207e+01 
-1.364723153774e+02 1.764452161779e+01 0.0 
1.764452161779e+01 -3.448693950971e+02 0.0 
0.0 0.0 -1.440025131423e+02 
-1.196928125897e+02 1.966186186719e+01 0.0 
1.966186186719e+01 -2.572614924214e+02 0.0 
0.0 0.0 -1.126862915033e+02 
-1.141159795003e+02 5.957787822986e+00 0.0 
5.957787822986e+00 -2.562200583232e+02 0.0 
0.0 0.0 -1.107008113471e+02 
-2.158052876825e+01 -3.059426111797e+00 0.0 
-3.059426111797e+00 -7.074948732607e+01 0.0 
0.0 0.0 -2.651120041460e+01 
-4.675849937598e+01 3.628612302887e+01 0.0 
3.628612302887e+01 -8.645604797705e+01 0.0 
0.0 0.0 -3.793260841980e+01 
-1.055390309034e+02 -1.411371076409e+00 0.0 
-1.411371076409e+00 -2.347709904486e+02 0.0 
0.0 0.0 -9.775076991483e+01 
-9.654779785708e+01 8.707413291966e-01 0.0 
8.707413291966e-01 -2.072143239959e+02 0.0 
0.0 0.0 -9.072863655589e+01 
-1.388945600279e+02 -3.323550334168e+00 0.0 
-3.323550334168e+00 -9.575777216508e+01 0.0 
0.0 0.0 -7.062008417070e+01 
-1.160604886965e+02 1.400663661349e+01 0.0 
1.400663661349e+01 -2.639441716392e+02 0.0 
0.0 0.0 -1.136013981007e+02 
-7.694315628676e+01 6.028788643626e-01 0.0 
6.028788643626e-01 -1.521426720921e+02 0.0 
0.0 0.0 -6.832574851365e+01 
-5.122472583334e+01 -2.129853445856e+01 0.0 
-2.129853445856e+01 -9.304758926714e+01 0.0 
0.0 0.0 -3.776782039630e+01 
-7.199099152069e+01 7.913858933374e-01 0.0 
7.913858933374e-01 -1.382110390745e+02 0.0 
0.0 0.0 -6.266060917855e+01 
-1.381315384610e+02 2.815274241483e+01 0.0 
2.815274241483e+01 -3.302928162685e+02 0.0 
0.0 0.0 -1.401273064188e+02 
-1.091746039687e+02 8.038823101800e-01 0.0 
8.038823101800e-01 -2.459471942068e+02 0.0 
0.0 0.0 -1.026637948588e+02 
-5.119917298503e+01 3.577464501178e+01 0.0 
3.577464501178e+01 -3.418415934346e+01 0.0 
0.0 0.0 -2.650546892001e+01 
-7.214558439294e+01 -4.110098278528e+00 0.0 
-4.110098278528e+00 -1.485476416439e+02 0.0 
0.0 0.0 -6.010742296445e+01 
-9.796542330718e+01 -2.739566525875e+00 0.0 
-2.739566525875e+00 -2.159565001086e+02 0.0 
0.0 0.0 -8.948738548704e+01 
-1.122726369986e+02 -1.408803775879e+00 0.0 
-1.408803775879e+00 -2.552996808070e+02 0.0 
0.0 0.0 -1.068265416159e+02 
-1.355875230685e+02 2.439150113579e+01 0.0 
2.439150113579e+01 -3.307043171654e+02 0.0 
0.0 0.0 -1.394875520702e+02 
-9.785902056828e+01 -7.154123747821e-01 0.0 
-7.154123747821e-01 -2.104082880249e+02 0.0 
0.0 0.0 -8.730731167436e+01 
-1.013407958796e+02 -1.781323949772e+00 0.0 
-1.781323949772e+00 -2.231806235383e+02 0.0 
0.0 0.0 -9.286082526515e+01 
-1.443287989284e+01 -1.378221695347e+00 0.0 
-1.378221695347e+00 -3.747959576785e+01 0.0 
0.0 0.0 -1.406982686613e+01 
-1.507621977171e+02 4.444475880934e+00 0.0 
4.444475880934e+00 -3.654719580842e+02 0.0 
0.0 0.0 -1.544702467404e+02 
-1.218277092052e+02 2.591908031125e+01 0.0 
2.591908031125e+01 -2.861090614263e+02 0.0 
0.0 0.0 -1.219810311895e+02 
-4.369573267351e+01 3.179132079533e+01 0.0 
3.179132079533e+01 -1.022053908358e+02 0.0 
0.0 0.0 -4.248708623037e+01 
-1.120914189205e+02 1.207071590707e+00 0.0 
1.207071590707e+00 -2.565566738952e+02 0.0 
0.0 0.0 -1.101944278447e+02 
-1.606478241492e+02 -1.146377144822e-01 0.0 
-1.146377144822e-01 -3.795605928906e+02 0.0 
0.0 0.0 -1.616625251119e+02 
-5.782765978131e+01 7.636333025982e-01 0.0 
7.636333025982e-01 -1.014590017061e+02 0.0 
0.0 0.0 -4.738599844624e+01 
-7.772321239970e+01 5.217053663151e-01 0.0 
5.217053663151e-01 -1.524680794712e+02 0.0 
0.0 0.0 -6.865738756127e+01 
-9.659483233041e+01 -2.472526224736e+00 0.0 
-2.472526224736e+00 -2.100912664038e+02 0.0 
0.0 0.0 -8.718280062002e+01 
-1.005094833833e+02 -1.484764221741e+00 0.0 
-1.484764221741e+00 -2.173454879923e+02 0.0 
0.0 0.0 -9.036380688910e+01 
-1.015695006912e+02 -9.973672086237e-01 0.0 
-9.973672086237e-01 -2.238388021589e+02 0.0 
0.0 0.0 -9.303711842268e+01 
-1.306530134714e+02 1.670381400499e+01 0.0 
1.670381400499e+01 -3.326930666117e+02 0.0 
0.0 0.0 -1.386038240249e+02 
-4.199541254359e+01 -1.619992405930e+01 0.0 
-1.619992405930e+01 -6.879691843961e+01 0.0 
0.0 0.0 -2.569256871212e+01 
-1.267380335304e+02 2.826960730902e+01 0.0 
2.826960730902e+01 -2.938839635674e+02 0.0 
0.0 0.0 -1.257865991294e+02 
-6.414259111341e+01 1.954295757171e-01 0.0 
1.954295757171e-01 -1.181957265114e+02 0.0 
0.0 0.0 -5.430149528746e+01 
-1.190179052621e+02 1.386450395706e+01 0.0 
1.386450395706e+01 -2.632134834695e+02 0.0 
0.0 0.0 -1.142694166195e+02 
-1.322265709378e+02 1.730066068629e+01 0.0 
1.730066068629e+01 -3.332561637378e+02 0.0 
0.0 0.0 -1.392448204027e+02 
-7.377587230255e+01 1.424025513147e+00 0.0 
1.424025513147e+00 -1.393326479682e+02 0.0 
0.0 0.0 -6.353255608121e+01 
-1.200718534701e+02 2.428864625854e+01 0.0 
2.428864625854e+01 -2.694457892209e+02 0.0 
0.0 0.0 -1.164552928073e+02 
-1.343581545241e+02 2.311637020078e+01 0.0 
2.311637020078e+01 -3.295541056966e+02 0.0 
0.0 0.0 -1.387736780662e+02 
-1.403605108272e+02 2.591037628222e+01 0.0 
2.591037628222e+01 -3.406973532250e+02 0.0 
0.0 0.0 -1.439173592156e+02 
-5.208096192947e+01 4.425041982925e+01 0.0 
4.425041982925e+01 -7.211713329856e+01 0.0 
0.0 0.0 -3.848534104144e+01 
-1.213588316249e+02 2.584395916003e+01 0.0 
2.584395916003e+01 -2.702409143439e+02 0.0 
0.0 0.0 -1.170799237906e+02 
-1.252052419228e+02 2.575493240400e+01 0.0 
2.575493240400e+01 -2.842999546068e+02 0.0 
0.0 0.0 -1.224515589589e+02 
-1.688611408315e+01 -3.497295831531e-01 0.0 
-3.497295831531e-01 -3.777522150190e+01 0.0 
0.0 0.0 -1.422800866873e+01 
-9.423694798008e+01 -1.737202665735e+00 0.0 
-1.737202665735e+00 -2.003208202557e+02 0.0 
0.0 0.0 -8.293276714463e+01 
-5.519874790198e+01 4.241086602039e+01 0.0 
4.241086602039e+01 -6.489007035503e+01 0.0 
0.0 0.0 -3.708049829587e+01 
-1.256149758471e+02 2.636294748717e+01 0.0 
2.636294748717e+01 -2.800883896383e+02 0.0 
0.0 0.0 -1.213110096456e+02 
-1.999328852476e+01 4.523865338645e-01 0.0 
4.523865338645e-01 -1.146745476775e+01 0.0 
0.0 0.0 -9.038222987753e+00 
-1.895011499248e+01 -1.167168431505e-01 0.0 
-1.167168431505e-01 -9.754644990217e+00 0.0 
0.0 0.0 -8.211427994809e+00 
-1.919262398908e+01 8.623769890084e-02 0.0 
8.623769890084e-02 -9.829057366394e+00 0.0 
0.0 0.0 -8.306504406641e+00 
-1.892340642319e+01 1.209003751046e-03 0.0 
1.209003751046e-03 -9.655762320750e+00 0.0 
0.0 0.0 -8.173750623183e+00 
-1.911590746016e+01 -1.072657935365e-02 0.0 
-1.072657935365e-02 -9.739940501325e+00 0.0 
0.0 0.0 -8.256754388447e+00 
-1.890797821643e+01 -6.088120364180e-02 0.0 
-6.088120364180e-02 -9.663876572144e+00 0.0 
0.0 0.0 -8.171556436573e+00 
-1.907005060904e+01 -6.236831669560e-02 0.0 
-6.236831669560e-02 -9.732434152698e+00 0.0 
0.0 0.0 -8.240745428523e+00 
-1.877676170867e+01 -1.249145257178e-01 0.0 
-1.249145257178e-01 -9.646835713689e+00 0.0 
0.0 0.0 -8.127079226707e+00 
-1.904245037838e+01 -9.687811111128e-02 0.0 
-9.687811111128e-02 -9.747210045298e+00 0.0 
0.0 0.0 -8.236898127102e+00 
-1.854383322896e+01 -1.944807425608e-01 0.0 
-1.944807425608e-01 -9.616151597401e+00 0.0 
0.0 0.0 -8.047995447908e+00 
-1.908170912689e+01 -1.367955882337e-01 0.0 
-1.367955882337e-01 -9.770658069225e+00 0.0 
0.0 0.0 -8.226200891993e+00 
-1.819760371318e+01 -2.716867776810e-01 0.0 
-2.716867776810e-01 -9.595277083954e+00 0.0 
0.0 0.0 -7.937864239139e+00 
-1.929521845351e+01 -1.860399299132e-01 0.0 
-1.860399299132e-01 -9.793235401518e+00 0.0 
0.0 0.0 -8.180274407800e+00 
-1.772143852197e+01 -3.531733398551e-01 0.0 
-3.531733398551e-01 -9.552526635854e+00 0.0 
0.0 0.0 -7.782189547347e+00 
-1.956667721372e+01 -2.345640541260e-01 0.0 
-2.345640541260e-01 -9.831728011180e+00 0.0 
0.0 0.0 -8.138126902728e+00 
-1.711045339591e+01 -4.433177840886e-01 0.0 
-4.433177840886e-01 -9.503997494526e+00 0.0 
0.0 0.0 -7.584335267132e+00 
-2.648639853187e+01 6.322011184487e+00 0.0 
6.322011184487e+00 -1.312186541040e+01 0.0 
0.0 0.0 -6.941899095530e+00 
-1.986704559186e+01 -2.791263678607e-01 0.0 
-2.791263678607e-01 -9.885136374387e+00 0.0 
0.0 0.0 -8.091957674053e+00 
-1.636159640161e+01 -5.325500119876e-01 0.0 
-5.325500119876e-01 -9.454646995580e+00 0.0 
0.0 0.0 -7.344873019158e+00 
-1.535127552346e+01 1.905832735755e+00 0.0 
1.905832735755e+00 -5.557478874211e+00 0.0 
0.0 0.0 -1.706305067252e+00 
-2.018600638289e+01 -3.267890516500e-01 0.0 
-3.267890516500e-01 -9.941272842143e+00 0.0 
0.0 0.0 -8.018378321573e+00 
-1.547249708306e+01 -6.220635789910e-01 0.0 
-6.220635789910e-01 -9.393673328197e+00 0.0 
0.0 0.0 -7.059851123377e+00 
-3.219520698060e+01 4.283871389469e+00 0.0 
4.283871389469e+00 -1.172502234873e+01 0.0 
0.0 0.0 -8.639613569124e+00 
-2.059603308439e+01 -3.643347830201e-01 0.0 
-3.643347830201e-01 -1.001355131857e+01 0.0 
0.0 0.0 -7.948469101510e+00 
-1.445435092514e+01 -7.064121657068e-01 0.0 
-7.064121657068e-01 -9.328419048912e+00 0.0 
0.0 0.0 -6.734830992214e+00 
-2.112910218431e+01 -3.744854940116e-01 0.0 
-3.744854940116e-01 -1.010593243353e+01 0.0 
0.0 0.0 -7.894185746448e+00 
-1.334514472159e+01 -7.679825565313e-01 0.0 
-7.679825565313e-01 -9.266929698889e+00 0.0 
0.0 0.0 -6.383622326143e+00 
-2.184255184562e+01 -3.354300357498e-01 0.0 
-3.354300357498e-01 -1.021770702693e+01 0.0 
0.0 0.0 -7.863017989541e+00 
-1.223229414431e+01 -7.640516192328e-01 0.0 
-7.640516192328e-01 -9.265682969120e+00 0.0 
0.0 0.0 -6.049393134030e+00 
-3.946681976067e+01 1.124354274843e+01 0.0 
1.124354274843e+01 -1.336047879561e+01 0.0 
0.0 0.0 -1.048882903510e+01 
-2.244065771866e+01 -2.187327903838e-01 0.0 
-2.187327903838e-01 -1.032389551365e+01 0.0 
0.0 0.0 -7.770806770444e+00 
-1.126641751481e+01 -6.826096169031e-01 0.0 
-6.826096169031e-01 -9.198533190650e+00 0.0 
0.0 0.0 -5.401220457190e+00 
-2.296757903006e+01 4.173485283627e-03 0.0 
4.173485283627e-03 -1.051299403444e+01 0.0 
0.0 0.0 -7.583695872877e+00 
-1.063165158403e+01 -5.305101708399e-01 0.0 
-5.305101708399e-01 -9.023367545567e+00 0.0 
0.0 0.0 -4.682804083929e+00 
-1.051091824429e+01 -1.509365732452e-01 0.0 
-1.509365732452e-01 -9.179481470277e+00 0.0 
0.0 0.0 -4.118593600547e+00 
-2.392819334135e+01 2.684315963374e-01 0.0 
2.684315963374e-01 -1.079053686698e+01 0.0 
0.0 0.0 -7.551690997079e+00 
-1.158762980266e+01 6.028498978215e-01 0.0 
6.028498978215e-01 -9.141858243333e+00 0.0 
0.0 0.0 -3.685574222473e+00 
-2.561919389994e+01 9.150950092330e-01 0.0 
9.150950092330e-01 -1.109563940109e+01 0.0 
0.0 0.0 -7.554876877455e+00 
-1.467034032645e+01 2.231154241507e+00 0.0 
2.231154241507e+00 -1.027085843598e+01 0.0 
0.0 0.0 -4.040172126866e+00 
-2.716376859600e+01 1.734712631073e+00 0.0 
1.734712631073e+00 -1.146474313098e+01 0.0 
0.0 0.0 -7.825017099292e+00 
-3.084548508267e+01 4.071399037420e+00 0.0 
4.071399037420e+00 4.794775435555e-01 0.0 
0.0 0.0 -3.617330335804e+00 
-2.021294943898e+01 1.492525809390e+00 0.0 
1.492525809390e+00 -9.453144727865e+00 0.0 
0.0 0.0 -8.499828250055e+00 
-1.986269698412e+01 -1.294172506987e+00 0.0 
-1.294172506987e+00 -1.153634125319e+01 0.0 
0.0 0.0 -9.019711471195e+00 
-1.820407291141e+01 2.305602328363e-01 0.0 
2.305602328363e-01 -5.290507251336e+00 0.0 
0.0 0.0 -6.648374048822e+00 
-2.176871784711e+01 -8.957734294866e-02 0.0 
-8.957734294866e-02 -1.551989784988e+01 0.0 
0.0 0.0 -1.078658470910e+01 
-4.281085440433e+01 1.187118575389e+01 0.0 
1.187118575389e+01 -1.199801485764e+01 0.0 
0.0 0.0 -1.094802432055e+01 
-2.695048705736e+01 2.336822179337e-01 0.0 
2.336822179337e-01 -2.770091801048e+01 0.0 
0.0 0.0 -1.599542152035e+01 
-2.755659728297e+01 -2.329585270036e-01 0.0 
-2.329585270036e-01 -2.929798346892e+01 0.0 
0.0 0.0 -1.665637422557e+01 
-2.754939177992e+01 -3.034052871521e-04 0.0 
-3.034052871521e-04 -2.932818221170e+01 0.0 
0.0 0.0 -1.666327219748e+01 
-2.767187331476e+01 -4.666585142680e-02 0.0 
-4.666585142680e-02 -2.943906607248e+01 0.0 
0.0 0.0 -1.673328181617e+01 
-2.753199550503e+01 -5.729423871018e-02 0.0 
-5.729423871018e-02 -2.937747927268e+01 0.0 
0.0 0.0 -1.667284243331e+01 
-2.770201950091e+01 -1.085886554320e-01 0.0 
-1.085886554320e-01 -2.948017849193e+01 0.0 
0.0 0.0 -1.675465939785e+01 
-2.749839830147e+01 -9.465863491422e-02 0.0 
-9.465863491422e-02 -2.939857876836e+01 0.0 
0.0 0.0 -1.666909312095e+01 
-2.779063688417e+01 -1.635275149868e-01 0.0 
-1.635275149868e-01 -2.950823032880e+01 0.0 
0.0 0.0 -1.678966016389e+01 
-2.745756523432e+01 -1.281619660864e-01 0.0 
-1.281619660864e-01 -2.938247804251e+01 0.0 
0.0 0.0 -1.665201298305e+01 
-2.789323798298e+01 -2.234894992489e-01 0.0 
-2.234894992489e-01 -2.953233244155e+01 0.0 
0.0 0.0 -1.682767112736e+01 
-2.737559744329e+01 -1.486620172718e-01 0.0 
-1.486620172718e-01 -2.935246792108e+01 0.0 
0.0 0.0 -1.661841960931e+01 
-2.802670540849e+01 -2.868345760661e-01 0.0 
-2.868345760661e-01 -2.958058814878e+01 0.0 
0.0 0.0 -1.688218806718e+01 
-2.716788696679e+01 -1.576316638414e-01 0.0 
-1.576316638414e-01 -2.929973973782e+01 0.0 
0.0 0.0 -1.654028801138e+01 
-2.817373478809e+01 -3.516038999389e-01 0.0 
-3.516038999389e-01 -2.961763363585e+01 0.0 
0.0 0.0 -1.693741052718e+01 
-2.694186765449e+01 -1.843723619632e-01 0.0 
-1.843723619632e-01 -2.922784403534e+01 0.0 
0.0 0.0 -1.645091350695e+01 
-3.784023663905e+01 6.643455769163e+00 0.0 
6.643455769163e+00 -3.420725464435e+01 0.0 
0.0 0.0 -1.816077874877e+01 
-2.847914452755e+01 -4.557492759040e-01 0.0 
-4.557492759040e-01 -2.968086975749e+01 0.0 
0.0 0.0 -1.704800428551e+01 
-4.119170030662e+01 4.165851564197e+00 0.0 
4.165851564197e+00 -3.193860779179e+01 0.0 
0.0 0.0 -1.873956806919e+01 
-2.666527510688e+01 -2.442343893093e-01 0.0 
-2.442343893093e-01 -2.911910996244e+01 0.0 
0.0 0.0 -1.633531552079e+01 
-2.914026128768e+01 -5.887058812015e-01 0.0 
-5.887058812015e-01 -2.973691720251e+01 0.0 
0.0 0.0 -1.710090394484e+01 
-2.633863016834e+01 -2.707600495474e-01 0.0 
-2.707600495474e-01 -2.911630372716e+01 0.0 
0.0 0.0 -1.623648016865e+01 
-3.001941852481e+01 -6.391100013354e-01 0.0 
-6.391100013354e-01 -2.979205628695e+01 0.0 
0.0 0.0 -1.714665169222e+01 
-2.600272183894e+01 -2.541097202908e-01 0.0 
-2.541097202908e-01 -2.911778548699e+01 0.0 
0.0 0.0 -1.613615219778e+01 
-3.107917180708e+01 -6.349729054199e-01 0.0 
-6.349729054199e-01 -2.987090200843e+01 0.0 
0.0 0.0 -1.723834182948e+01 
-3.180664245344e+01 4.548787149125e+00 0.0 
4.548787149125e+00 -2.735856322981e+01 0.0 
0.0 0.0 -1.462770527434e+01 
-2.570128097874e+01 -1.820749944894e-01 0.0 
-1.820749944894e-01 -2.914554229885e+01 0.0 
0.0 0.0 -1.605404698328e+01 
-3.236566044931e+01 -5.393522930070e-01 0.0 
-5.393522930070e-01 -2.997630870375e+01 0.0 
0.0 0.0 -1.736879353371e+01 
-2.547934873522e+01 -1.979310591236e-02 0.0 
-1.979310591236e-02 -2.924243838461e+01 0.0 
0.0 0.0 -1.601653613595e+01 
-3.394135075592e+01 -3.069018643249e-01 0.0 
-3.069018643249e-01 -3.016621201035e+01 0.0 
0.0 0.0 -1.755903806368e+01 
-2.571900592034e+01 2.261172913056e-01 0.0 
2.261172913056e-01 -2.930796096997e+01 0.0 
0.0 0.0 -1.590734646089e+01 
-3.532802129844e+01 1.536754303052e-02 0.0 
1.536754303052e-02 -3.043810739791e+01 0.0 
0.0 0.0 -1.776223452809e+01 
-2.650916939801e+01 7.765236528628e-01 0.0 
7.765236528628e-01 -2.963851990169e+01 0.0 
0.0 0.0 -1.578110755368e+01 
-3.677370487583e+01 8.579451061166e-01 0.0 
8.579451061166e-01 -3.055916364375e+01 0.0 
0.0 0.0 -1.769340157697e+01 
-3.803468968161e+01 1.945906363882e+00 0.0 
1.945906363882e+00 -3.117628152856e+01 0.0 
0.0 0.0 -1.808674471302e+01 
-2.806635347973e+01 1.728799949704e+00 0.0 
1.728799949704e+00 -3.008560836190e+01 0.0 
0.0 0.0 -1.582214152479e+01 
-4.362516163269e+01 7.944531751906e+00 0.0 
7.944531751906e+00 -3.518457343376e+01 0.0 
0.0 0.0 -2.003838327374e+01 
-3.039954367953e+01 3.357277699966e+00 0.0 
3.357277699966e+00 -3.136166214103e+01 0.0 
0.0 0.0 -1.623788474902e+01 
-3.865940465960e+01 5.381510811207e+00 0.0 
5.381510811207e+00 -2.454568890538e+01 0.0 
0.0 0.0 -1.519630186733e+01 
-2.721340224187e+01 1.432792518307e+00 0.0 
1.432792518307e+00 -2.993353882343e+01 0.0 
0.0 0.0 -1.674408231959e+01 
-2.756898591641e+01 -1.447146133450e+00 0.0 
-1.447146133450e+00 -2.784558196961e+01 0.0 
0.0 0.0 -1.622437036581e+01 
-2.951032686506e+01 1.283658854897e-01 0.0 
1.283658854897e-01 -3.404202046758e+01 0.0 
0.0 0.0 -1.866570419979e+01 
-2.536318781039e+01 -1.959375750993e-01 0.0 
-1.959375750993e-01 -2.390699443086e+01 0.0 
0.0 0.0 -1.438105467238e+01 
-3.829489345033e+01 9.230675717875e+00 0.0 
9.230675717875e+00 -2.889393627040e+01 0.0 
0.0 0.0 -1.597605054715e+01 
-3.651034554810e+01 2.927624275830e-01 0.0 
2.927624275830e-01 -5.082285238705e+01 0.0 
0.0 0.0 -2.579995938054e+01 
-3.599526251807e+01 -2.180716897053e-01 0.0 
-2.180716897053e-01 -4.898820235084e+01 0.0 
0.0 0.0 -2.509503946067e+01 
-3.601894564270e+01 5.465351996692e-02 0.0 
5.465351996692e-02 -4.895238102210e+01 0.0 
0.0 0.0 -2.509139799944e+01 
-3.595263668986e+01 -2.927131567330e-03 0.0 
-2.927131567330e-03 -4.876084728105e+01 0.0 
0.0 0.0 -2.501404519127e+01 
-3.608948744559e+01 -3.703092030200e-02 0.0 
-3.703092030200e-02 -4.882725131728e+01 0.0 
0.0 0.0 -2.507502162886e+01 
-3.598728057035e+01 -5.513068876569e-02 0.0 
-5.513068876569e-02 -4.881245432064e+01 0.0 
0.0 0.0 -2.503992046730e+01 
-3.621885572924e+01 -1.126475399012e-02 0.0 
-1.126475399012e-02 -4.889423588339e+01 0.0 
0.0 0.0 -2.513392748379e+01 
-3.603881915710e+01 -7.295560353884e-02 0.0 
-7.295560353884e-02 -4.875398896562e+01 0.0 
0.0 0.0 -2.503784243681e+01 
-3.651056839448e+01 -2.524097348612e-02 0.0 
-2.524097348612e-02 -4.892752526308e+01 0.0 
0.0 0.0 -2.523142809727e+01 
-3.613013244647e+01 -1.185925611857e-01 0.0 
-1.185925611857e-01 -4.875175285636e+01 0.0 
0.0 0.0 -2.506456559085e+01 
-3.674297562347e+01 -2.606287093404e-02 0.0 
-2.606287093404e-02 -4.895132481546e+01 0.0 
0.0 0.0 -2.530829013168e+01 
-3.622858541688e+01 -1.468140304865e-01 0.0 
-1.468140304865e-01 -4.871830816834e+01 0.0 
0.0 0.0 -2.508406807557e+01 
-3.712160754969e+01 -1.608252842447e-02 0.0 
-1.608252842447e-02 -4.899123607470e+01 0.0 
0.0 0.0 -2.543385308732e+01 
-4.709953565661e+01 5.765641034859e+00 0.0 
5.765641034859e+00 -5.395614242039e+01 0.0 
0.0 0.0 -2.811467871121e+01 
-3.637438791133e+01 -1.513900069974e-01 0.0 
-1.513900069974e-01 -4.875249092341e+01 0.0 
0.0 0.0 -2.513806365042e+01 
-3.749163469819e+01 1.028421631884e-01 0.0 
1.028421631884e-01 -4.900452412494e+01 0.0 
0.0 0.0 -2.554884764694e+01 
-4.229102412665e+01 4.145907895385e+00 0.0 
4.145907895385e+00 -4.715863730252e+01 0.0 
0.0 0.0 -2.493955490057e+01 
-3.659335017995e+01 -8.789497400627e-02 0.0 
-8.789497400627e-02 -4.861401627975e+01 0.0 
0.0 0.0 -2.516220993791e+01 
-3.804192067085e+01 1.166056145480e-01 0.0 
1.166056145480e-01 -4.898995708672e+01 0.0 
0.0 0.0 -2.570956332727e+01 
-4.947504803903e+01 3.981597175103e+00 0.0 
3.981597175103e+00 -5.170289971873e+01 0.0 
0.0 0.0 -2.826753767214e+01 
-3.669943691412e+01 -6.750555391648e-02 0.0 
-6.750555391648e-02 -4.863679344292e+01 0.0 
0.0 0.0 -2.520086910711e+01 
-3.867026454282e+01 1.780838182528e-01 0.0 
1.780838182528e-01 -4.912257926781e+01 0.0 
0.0 0.0 -2.593785314319e+01 
-3.682692910608e+01 5.521596192994e-04 0.0 
5.521596192994e-04 -4.876233156426e+01 0.0 
0.0 0.0 -2.527677820110e+01 
-3.999628838158e+01 3.443748262614e-01 0.0 
3.443748262614e-01 -4.923271415355e+01 0.0 
0.0 0.0 -2.611622161515e+01 
-3.706784208616e+01 1.825884655610e-01 0.0 
1.825884655610e-01 -4.887413995560e+01 0.0 
0.0 0.0 -2.538259461253e+01 
-5.138405344013e+01 6.435228434105e+00 0.0 
6.435228434105e+00 -5.491567857702e+01 0.0 
0.0 0.0 -2.964615551870e+01 
-4.162524527779e+01 5.923285294685e-01 0.0 
5.923285294685e-01 -4.939613028786e+01 0.0 
0.0 0.0 -2.638959396357e+01 
-3.745540947067e+01 4.804717801093e-01 0.0 
4.804717801093e-01 -4.911362778265e+01 0.0 
0.0 0.0 -2.557071117599e+01 
-3.801388447971e+01 9.711087865509e-01 0.0 
9.711087865509e-01 -4.956298440133e+01 0.0 
0.0 0.0 -2.587306066431e+01 
-4.345145012515e+01 9.754479263183e-01 0.0 
9.754479263183e-01 -4.962724387458e+01 0.0 
0.0 0.0 -2.668533606218e+01 
-3.955482075055e+01 1.727074833483e+00 0.0 
1.727074833483e+00 -4.983786781936e+01 0.0 
0.0 0.0 -2.607893080590e+01 
-4.557550134862e+01 1.670288684883e+00 0.0 
1.670288684883e+00 -4.988519275853e+01 0.0 
0.0 0.0 -2.697467066416e+01 
-4.152880498538e+01 3.010769107924e+00 0.0 
3.010769107924e+00 -5.149237063411e+01 0.0 
0.0 0.0 -2.666796750711e+01 
-4.676628831033e+01 2.212677299345e+00 0.0 
2.212677299345e+00 -5.056024746245e+01 0.0 
0.0 0.0 -2.746818912912e+01 
-4.746436558325e+01 4.954640370204e+00 0.0 
4.954640370204e+00 -4.506759789258e+01 0.0 
0.0 0.0 -2.528572372170e+01 
-3.637352871006e+01 1.404326208237e+00 0.0 
1.404326208237e+00 -4.855527051020e+01 0.0 
0.0 0.0 -2.507863976608e+01 
-3.599647082650e+01 -1.496521175722e+00 0.0 
-1.496521175722e+00 -5.075339910950e+01 0.0 
0.0 0.0 -2.562496098080e+01 
-3.399428296759e+01 9.281439625608e-02 0.0 
9.281439625608e-02 -4.450458470683e+01 0.0 
0.0 0.0 -2.314966030232e+01 
-3.826976624448e+01 -2.475077998031e-01 0.0 
-2.475077998031e-01 -5.460465666272e+01 0.0 
0.0 0.0 -2.746232687216e+01 
-4.638259263633e+01 7.231009100549e+00 0.0 
7.231009100549e+00 -4.798958877885e+01 0.0 
0.0 0.0 -2.561891750280e+01 
-4.359162810402e+01 4.628857944807e-01 0.0 
4.628857944807e-01 -6.734584501754e+01 0.0 
0.0 0.0 -3.288124193647e+01 
-4.425269458829e+01 8.817491761214e-02 0.0 
8.817491761214e-02 -6.848284953729e+01 0.0 
0.0 0.0 -3.342066323767e+01 
-4.441903861522e+01 8.181005485630e-02 0.0 
8.181005485630e-02 -6.855259795800e+01 0.0 
0.0 0.0 -3.349149097197e+01 
-4.417172524455e+01 1.359755047730e-01 0.0 
1.359755047730e-01 -6.848813003535e+01 0.0 
0.0 0.0 -3.339795658397e+01 
-4.458269690587e+01 6.916242885650e-02 0.0 
6.916242885650e-02 -6.864474005793e+01 0.0 
0.0 0.0 -3.356823108914e+01 
-4.446132493954e+01 7.943993132977e-02 0.0 
7.943993132977e-02 -6.866960362586e+01 0.0 
0.0 0.0 -3.353927856962e+01 
-4.476294933726e+01 1.829808729029e-01 0.0 
1.829808729029e-01 -6.883045430210e+01 0.0 
0.0 0.0 -3.367802109181e+01 
-4.487175126630e+01 2.280089479741e-01 0.0 
2.280089479741e-01 -6.862374833924e+01 0.0 
0.0 0.0 -3.364864988166e+01 
-4.495621458082e+01 1.704544422246e-01 0.0 
1.704544422246e-01 -6.863403303119e+01 0.0 
0.0 0.0 -3.367707428360e+01 
-4.511106729649e+01 1.443271192232e-01 0.0 
1.443271192232e-01 -6.866620406675e+01 0.0 
0.0 0.0 -3.373318140897e+01 
-4.523830222043e+01 2.544956223846e-01 0.0 
2.544956223846e-01 -6.877375354170e+01 0.0 
0.0 0.0 -3.380361672864e+01 
-4.552949571918e+01 2.591858113964e-01 0.0 
2.591858113964e-01 -6.867854384799e+01 0.0 
0.0 0.0 -3.386241187015e+01 
-5.486588222966e+01 5.545663353704e+00 0.0 
5.545663353704e+00 -7.354589092036e+01 0.0 
0.0 0.0 -3.741975279540e+01 
-4.559165667761e+01 3.454632965987e-01 0.0 
3.454632965987e-01 -6.875468403986e+01 0.0 
0.0 0.0 -3.390390221524e+01 
-5.570437764770e+01 3.685545166483e+00 0.0 
3.685545166483e+00 -7.105915409864e+01 0.0 
0.0 0.0 -3.681132726163e+01 
-4.638894173034e+01 2.619478157278e-01 0.0 
2.619478157278e-01 -6.883199033832e+01 0.0 
0.0 0.0 -3.416627962060e+01 
-4.598867882317e+01 4.826569331843e-01 0.0 
4.826569331843e-01 -6.883096041657e+01 0.0 
0.0 0.0 -3.404589177192e+01 
-4.652229643321e+01 5.199691323315e-01 0.0 
5.199691323315e-01 -6.865108289379e+01 0.0 
0.0 0.0 -3.415201379810e+01 
-4.650622179491e+01 6.416175451228e-01 0.0 
6.416175451228e-01 -6.873999304285e+01 0.0 
0.0 0.0 -3.417386445133e+01 
-4.733076340406e+01 5.985669760437e-01 0.0 
5.985669760437e-01 -6.877731922428e+01 0.0 
0.0 0.0 -3.443242478850e+01 
-4.720825706603e+01 9.546628387273e-01 0.0 
9.546628387273e-01 -6.904456182197e+01 0.0 
0.0 0.0 -3.447584566640e+01 
-4.833907812327e+01 9.457382845385e-01 0.0 
9.457382845385e-01 -6.902516706064e+01 0.0 
0.0 0.0 -3.480927355517e+01 
-5.069562414068e+01 4.132529111868e+00 0.0 
4.132529111868e+00 -6.697253117735e+01 0.0 
0.0 0.0 -3.450882138374e+01 
-4.773796079581e+01 1.398584775279e+00 0.0 
1.398584775279e+00 -6.925957814017e+01 0.0 
0.0 0.0 -3.469926168080e+01 
-4.941908654741e+01 1.421870515764e+00 0.0 
1.421870515764e+00 -6.922736961315e+01 0.0 
0.0 0.0 -3.519393684817e+01 
-4.847721155720e+01 1.867907634859e+00 0.0 
1.867907634859e+00 -6.940003938001e+01 0.0 
0.0 0.0 -3.496317528116e+01 
-5.102749038337e+01 1.864387789112e+00 0.0 
1.864387789112e+00 -6.956680267102e+01 0.0 
0.0 0.0 -3.564085739255e+01 
-5.317253062771e+01 2.579189456600e+00 0.0 
2.579189456600e+00 -7.013063950820e+01 0.0 
0.0 0.0 -3.614085611488e+01 
-4.936698824926e+01 2.474611864866e+00 0.0 
2.474611864866e+00 -6.993720127516e+01 0.0 
0.0 0.0 -3.539125685733e+01 
-5.037918836543e+01 3.379166135770e+00 0.0 
3.379166135770e+00 -7.088780913589e+01 0.0 
0.0 0.0 -3.598009925040e+01 
-5.818526753602e+01 5.623917811859e+00 0.0 
5.623917811859e+00 -7.470911012801e+01 0.0 
0.0 0.0 -3.885355469314e+01 
-5.482594029711e+01 4.596114194668e+00 0.0 
4.596114194668e+00 -6.523455375046e+01 0.0 
0.0 0.0 -3.469745951711e+01 
-4.359223817850e+01 1.291958924184e+00 0.0 
1.291958924184e+00 -6.862853684476e+01 0.0 
0.0 0.0 -3.326623250698e+01 
-4.382005343557e+01 -1.543934892866e+00 0.0 
-1.543934892866e+00 -6.727487728433e+01 0.0 
0.0 0.0 -3.292847921597e+01 
-4.566405430732e+01 -6.065635140725e-02 0.0 
-6.065635140725e-02 -7.313512560531e+01 0.0 
0.0 0.0 -3.523975397379e+01 
-4.184906641596e+01 -2.504272665506e-01 0.0 
-2.504272665506e-01 -6.295635706286e+01 0.0 
0.0 0.0 -3.104162704364e+01 
-5.386064918864e+01 6.309238254222e+00 0.0 
6.309238254222e+00 -6.718135064428e+01 0.0 
0.0 0.0 -3.490750983158e+01 

TENSORS element_materi_strain_total float
-1.256852337234e-03 3.730723793722e-03 0.0 
3.730723793722e-03 5.437539958441e-03 0.0 
0.0 0.0 0.0 
-1.239133749272e-03 3.488087517958e-03 0.0 
3.488087517958e-03 5.270961682495e-03 0.0 
0.0 0.0 0.0 
-3.785132676610e-04 3.431439642660e-03 0.0 
3.431439642660e-03 1.093945645919e-02 0.0 
0.0 0.0 0.0 
-5.180447970896e-04 3.678480095301e-04 0.0 
3.678480095301e-04 1.344183902922e-02 0.0 
0.0 0.0 0.0 
-1.835731560229e-03 3.819953598560e-04 0.0 
3.819953598560e-04 1.135348349436e-02 0.0 
0.0 0.0 0.0 
1.234649416251e-03 3.630596179486e-03 0.0 
3.630596179486e-03 -3.267574804685e-03 0.0 
0.0 0.0 0.0 
-1.710084484272e-03 2.746967842499e-04 0.0 
2.746967842499e-04 1.137063860248e-02 0.0 
0.0 0.0 0.0 
-1.042281619824e-03 3.900784700688e-03 0.0 
3.900784700688e-03 4.582979484759e-03 0.0 
0.0 0.0 0.0 
-1.839123182319e-03 2.391874559405e-04 0.0 
2.391874559405e-04 1.137479398039e-02 0.0 
0.0 0.0 0.0 
-4.983010351182e-04 6.592338968547e-04 0.0 
6.592338968547e-04 1.339195474976e-02 0.0 
0.0 0.0 0.0 
-1.023272002781e-03 -3.264703775043e-04 0.0 
-3.264703775043e-04 4.172081974847e-03 0.0 
0.0 0.0 0.0 
-1.033483231414e-03 3.409880441872e-03 0.0 
3.409880441872e-03 4.514901625482e-03 0.0 
0.0 0.0 0.0 
-3.138657458043e-04 -1.847405446325e-04 0.0 
-1.847405446325e-04 5.699455883138e-03 0.0 
0.0 0.0 0.0 
-2.057044895017e-03 9.218308865419e-04 0.0 
9.218308865419e-04 1.149986563732e-02 0.0 
0.0 0.0 0.0 
-1.781513875557e-04 -2.926399503118e-04 0.0 
-2.926399503118e-04 5.735903574857e-03 0.0 
0.0 0.0 0.0 
-3.091054778902e-04 5.382156744376e-04 0.0 
5.382156744376e-04 1.349518991841e-02 0.0 
0.0 0.0 0.0 
-2.042527198930e-03 5.053382877351e-04 0.0 
5.053382877351e-04 1.122555680390e-02 0.0 
0.0 0.0 0.0 
1.329653383938e-03 1.703038622772e-03 0.0 
1.703038622772e-03 -3.747111843820e-03 0.0 
0.0 0.0 0.0 
3.452141924387e-04 -1.558080673950e-04 0.0 
-1.558080673950e-04 1.268777280913e-03 0.0 
0.0 0.0 0.0 
-1.400511925860e-04 -2.702756722206e-04 0.0 
-2.702756722206e-04 1.516247362328e-03 0.0 
0.0 0.0 0.0 
-6.023897586716e-04 6.453001344786e-04 0.0 
6.453001344786e-04 1.339503646747e-02 0.0 
0.0 0.0 0.0 
-1.634526295158e-03 3.107058622053e-03 0.0 
3.107058622053e-03 6.787341144003e-03 0.0 
0.0 0.0 0.0 
-1.817688299427e-03 3.380295319308e-03 0.0 
3.380295319308e-03 7.117239295197e-03 0.0 
0.0 0.0 0.0 
1.327177910780e-03 7.399514736874e-04 0.0 
7.399514736874e-04 2.838018866438e-03 0.0 
0.0 0.0 0.0 
-2.045561301686e-03 1.419934360722e-03 0.0 
1.419934360722e-03 1.153431473489e-02 0.0 
0.0 0.0 0.0 
-9.987185071464e-04 -3.693113433666e-04 0.0 
-3.693113433666e-04 4.208623777489e-03 0.0 
0.0 0.0 0.0 
-2.424122389313e-03 1.085578901506e-03 0.0 
1.085578901506e-03 1.064398369827e-02 0.0 
0.0 0.0 0.0 
4.685484123221e-04 3.995606637432e-03 0.0 
3.995606637432e-03 6.777695653354e-03 0.0 
0.0 0.0 0.0 
-2.268803175858e-03 1.533343389284e-03 0.0 
1.533343389284e-03 1.152497497611e-02 0.0 
0.0 0.0 0.0 
1.105722511065e-03 6.603753820445e-04 0.0 
6.603753820445e-04 3.267479785954e-03 0.0 
0.0 0.0 0.0 
1.545702652755e-03 -3.243128471800e-03 0.0 
-3.243128471800e-03 -2.650963244218e-03 0.0 
0.0 0.0 0.0 
1.256930477247e-04 -4.759198712672e-04 0.0 
-4.759198712672e-04 3.324573329622e-04 0.0 
0.0 0.0 0.0 
-6.462058203902e-04 3.531863276317e-03 0.0 
3.531863276317e-03 1.111240912585e-02 0.0 
0.0 0.0 0.0 
-7.124343163992e-04 -1.182636265758e-04 0.0 
-1.182636265758e-04 4.994326821629e-03 0.0 
0.0 0.0 0.0 
3.764421360539e-04 -4.126860546005e-04 0.0 
-4.126860546005e-04 4.249598903953e-03 0.0 
0.0 0.0 0.0 
-5.428955802766e-05 -4.799416719284e-04 0.0 
-4.799416719284e-04 5.436294384115e-03 0.0 
0.0 0.0 0.0 
8.715335037879e-06 -5.867048161380e-04 0.0 
-5.867048161380e-04 5.429650622721e-03 0.0 
0.0 0.0 0.0 
1.026452306065e-03 2.394641460191e-03 0.0 
2.394641460191e-03 4.025334036270e-03 0.0 
0.0 0.0 0.0 
-1.744677744943e-03 6.583092307817e-05 0.0 
6.583092307817e-05 1.098409143766e-02 0.0 
0.0 0.0 0.0 
-1.666425716137e-03 1.492088434807e-04 0.0 
1.492088434807e-04 1.099722858588e-02 0.0 
0.0 0.0 0.0 
-2.291095529511e-03 2.797036015164e-03 0.0 
2.797036015164e-03 8.562042746016e-03 0.0 
0.0 0.0 0.0 
3.830109687029e-04 -4.096545264164e-05 0.0 
-4.096545264164e-05 4.051670876238e-03 0.0 
0.0 0.0 0.0 
-8.123712116079e-04 3.701496766255e-03 0.0 
3.701496766255e-03 3.170509546842e-03 0.0 
0.0 0.0 0.0 
-2.469545735863e-03 1.095884452194e-03 0.0 
1.095884452194e-03 1.068128636643e-02 0.0 
0.0 0.0 0.0 
-7.012140761753e-04 1.280412283548e-04 0.0 
1.280412283548e-04 1.333491462733e-02 0.0 
0.0 0.0 0.0 
-8.993116891285e-04 3.695876554866e-03 0.0 
3.695876554866e-03 3.170177944778e-03 0.0 
0.0 0.0 0.0 
1.534511601673e-03 -3.349454326050e-03 0.0 
-3.349454326050e-03 -3.338216628941e-03 0.0 
0.0 0.0 0.0 
-4.810992594159e-04 2.254404584523e-04 0.0 
2.254404584523e-04 1.333897126190e-02 0.0 
0.0 0.0 0.0 
-4.170726862975e-04 -2.728405288917e-03 0.0 
-2.728405288917e-03 -1.189471950256e-03 0.0 
0.0 0.0 0.0 
-2.215862008819e-03 7.747988735750e-04 0.0 
7.747988735750e-04 1.142904222947e-02 0.0 
0.0 0.0 0.0 
-2.069102421270e-03 3.122428611986e-03 0.0 
3.122428611986e-03 7.834698169340e-03 0.0 
0.0 0.0 0.0 
-1.703121130441e-04 -1.694521055732e-04 0.0 
-1.694521055732e-04 1.846060137983e-03 0.0 
0.0 0.0 0.0 
3.109944531659e-03 -2.832218817131e-03 0.0 
-2.832218817131e-03 -3.620279457802e-03 0.0 
0.0 0.0 0.0 
-2.020247390528e-03 2.464662850089e-03 0.0 
2.464662850089e-03 8.289222877430e-03 0.0 
0.0 0.0 0.0 
-4.497981820116e-04 2.756033928196e-03 0.0 
2.756033928196e-03 1.212283384707e-02 0.0 
0.0 0.0 0.0 
-8.139466812538e-04 -5.181756446098e-04 0.0 
-5.181756446098e-04 2.462810087837e-03 0.0 
0.0 0.0 0.0 
-5.606921224529e-04 -3.012043680921e-04 0.0 
-3.012043680921e-04 2.019339736271e-03 0.0 
0.0 0.0 0.0 
-6.910957201036e-04 -1.644080463758e-04 0.0 
-1.644080463758e-04 4.993052516121e-03 0.0 
0.0 0.0 0.0 
6.995128353526e-04 -4.491419299462e-04 0.0 
-4.491419299462e-04 7.208057357473e-04 0.0 
0.0 0.0 0.0 
-3.611788457871e-04 5.197707545984e-04 0.0 
5.197707545984e-04 1.349545515264e-02 0.0 
0.0 0.0 0.0 
-1.280331653679e-03 -2.164008994128e-03 0.0 
-2.164008994128e-03 -3.076707828579e-03 0.0 
0.0 0.0 0.0 
1.092481871081e-03 3.371983714760e-03 0.0 
3.371983714760e-03 4.801124686625e-03 0.0 
0.0 0.0 0.0 
2.095168195033e-04 4.174229724583e-03 0.0 
4.174229724583e-03 3.445681301744e-03 0.0 
0.0 0.0 0.0 
3.032444759198e-03 -2.876194446671e-03 0.0 
-2.876194446671e-03 -3.124316699324e-03 0.0 
0.0 0.0 0.0 
-2.507777653701e-04 -3.869679185232e-04 0.0 
-3.869679185232e-04 5.516304469363e-03 0.0 
0.0 0.0 0.0 
-1.877364723899e-03 2.754823196318e-03 0.0 
2.754823196318e-03 7.672044366536e-03 0.0 
0.0 0.0 0.0 
3.496667464793e-04 -7.234041040988e-04 0.0 
-7.234041040988e-04 -4.840237218548e-03 0.0 
0.0 0.0 0.0 
-6.399782532809e-04 3.686186641583e-03 0.0 
3.686186641583e-03 1.075480342696e-02 0.0 
0.0 0.0 0.0 
-6.702669384595e-05 -2.265789968723e-03 0.0 
-2.265789968723e-03 5.106511982438e-04 0.0 
0.0 0.0 0.0 
-7.574164255864e-05 3.940887882649e-03 0.0 
3.940887882649e-03 8.887037258298e-03 0.0 
0.0 0.0 0.0 
-8.554954161329e-04 -5.146068450948e-04 0.0 
-5.146068450948e-04 4.233248569305e-03 0.0 
0.0 0.0 0.0 
0.0 1.882434015372e-03 0.0 
1.882434015372e-03 1.310073731143e-02 0.0 
0.0 0.0 0.0 
4.289471606722e-04 3.699775467701e-03 0.0 
3.699775467701e-03 6.374307783119e-03 0.0 
0.0 0.0 0.0 
1.633272366826e-03 -1.000054887337e-04 0.0 
-1.000054887337e-04 -2.159836403917e-04 0.0 
0.0 0.0 0.0 
-1.009697789641e-03 -5.692415187262e-04 0.0 
-5.692415187262e-04 2.656294966646e-03 0.0 
0.0 0.0 0.0 
-6.507915423157e-04 1.405482476642e-03 0.0 
1.405482476642e-03 1.319473407035e-02 0.0 
0.0 0.0 0.0 
-7.625266167053e-04 2.985533966581e-03 0.0 
2.985533966581e-03 1.195527183702e-02 0.0 
0.0 0.0 0.0 
-8.140565581773e-04 3.790845344559e-03 0.0 
3.790845344559e-03 1.902526966551e-03 0.0 
0.0 0.0 0.0 
2.173346606509e-04 -4.266576437486e-04 0.0 
-4.266576437486e-04 9.428640032525e-04 0.0 
0.0 0.0 0.0 
-7.350484471975e-04 3.854111490456e-03 0.0 
3.854111490456e-03 1.905172575694e-03 0.0 
0.0 0.0 0.0 
-1.294806434624e-04 -2.520010897269e-03 0.0 
-2.520010897269e-03 5.501713945102e-04 0.0 
0.0 0.0 0.0 
-1.976628560316e-03 4.438817657155e-04 0.0 
4.438817657155e-04 1.127289758850e-02 0.0 
0.0 0.0 0.0 
-1.642685711627e-03 3.574560849856e-03 0.0 
3.574560849856e-03 6.336701617251e-03 0.0 
0.0 0.0 0.0 
-1.516287859941e-03 3.225043857799e-03 0.0 
3.225043857799e-03 6.104434475001e-03 0.0 
0.0 0.0 0.0 
-1.899899122686e-03 3.628059740474e-04 0.0 
3.628059740474e-04 1.156453259225e-02 0.0 
0.0 0.0 0.0 
-1.736933231228e-03 3.784629483230e-04 0.0 
3.784629483230e-04 1.156436914760e-02 0.0 
0.0 0.0 0.0 
-8.723289728354e-04 -3.094139448597e-04 0.0 
-3.094139448597e-04 4.490496673472e-03 0.0 
0.0 0.0 0.0 
-7.895250699012e-04 -2.714198534260e-05 0.0 
-2.714198534260e-05 4.899142161163e-03 0.0 
0.0 0.0 0.0 
-1.248168021039e-03 3.320541210280e-03 0.0 
3.320541210280e-03 1.006019268771e-02 0.0 
0.0 0.0 0.0 
-1.973006948313e-03 3.622683280987e-04 0.0 
3.622683280987e-04 1.135079322639e-02 0.0 
0.0 0.0 0.0 
-3.489578231168e-04 -5.835959027017e-04 0.0 
-5.835959027017e-04 5.890292481245e-04 0.0 
0.0 0.0 0.0 
-2.413652636823e-03 1.251924340081e-03 0.0 
1.251924340081e-03 1.100930566470e-02 0.0 
0.0 0.0 0.0 
-1.096826621765e-03 1.608976003916e-04 0.0 
1.608976003916e-04 1.270824758948e-02 0.0 
0.0 0.0 0.0 
-1.225337636031e-03 2.526307458051e-04 0.0 
2.526307458051e-04 1.266207245536e-02 0.0 
0.0 0.0 0.0 
-4.179303527856e-04 2.064757330188e-03 0.0 
2.064757330188e-03 1.302932852849e-02 0.0 
0.0 0.0 0.0 
5.723460280680e-04 2.634949254225e-03 0.0 
2.634949254225e-03 4.779296908887e-03 0.0 
0.0 0.0 0.0 
-2.116719292607e-03 5.280407598879e-04 0.0 
5.280407598879e-04 1.126156855944e-02 0.0 
0.0 0.0 0.0 
5.793509548295e-04 -2.026172576306e-04 0.0 
-2.026172576306e-04 4.177188536455e-03 0.0 
0.0 0.0 0.0 
-1.454242042335e-03 3.346233250312e-05 0.0 
3.346233250312e-05 1.191482652906e-02 0.0 
0.0 0.0 0.0 
-3.573721007121e-04 4.150675418425e-03 0.0 
4.150675418425e-03 4.399835157278e-03 0.0 
0.0 0.0 0.0 
-1.915146466590e-03 2.650190518672e-04 0.0 
2.650190518672e-04 1.118163276562e-02 0.0 
0.0 0.0 0.0 
-1.992884288626e-04 -2.753834741906e-04 0.0 
-2.753834741906e-04 5.734845322007e-03 0.0 
0.0 0.0 0.0 
2.182306084013e-03 2.986933452690e-03 0.0 
2.986933452690e-03 2.614414259539e-03 0.0 
0.0 0.0 0.0 
1.042855888528e-03 3.230041790225e-03 0.0 
3.230041790225e-03 4.824013660425e-03 0.0 
0.0 0.0 0.0 
1.030548225939e-03 4.136274022761e-03 0.0 
4.136274022761e-03 1.695806998409e-03 0.0 
0.0 0.0 0.0 
-4.565782446396e-04 -3.981704437469e-03 0.0 
-3.981704437469e-03 -1.418422916937e-03 0.0 
0.0 0.0 0.0 
-4.837152563291e-04 -2.156595255518e-04 0.0 
-2.156595255518e-04 5.381001408814e-03 0.0 
0.0 0.0 0.0 
-1.061270586053e-03 2.842355801591e-04 0.0 
2.842355801591e-04 1.292651456303e-02 0.0 
0.0 0.0 0.0 
-1.347927031079e-03 -3.553699986410e-03 0.0 
-3.553699986410e-03 -1.855913994321e-03 0.0 
0.0 0.0 0.0 
-5.537003383593e-05 -4.723455563038e-04 0.0 
-4.723455563038e-04 5.357337723319e-03 0.0 
0.0 0.0 0.0 
-1.122417031867e-03 3.308621754095e-03 0.0 
3.308621754095e-03 9.519401114116e-03 0.0 
0.0 0.0 0.0 
2.056080684692e-03 1.022492693935e-04 0.0 
1.022492693935e-04 -5.307846404219e-04 0.0 
0.0 0.0 0.0 
2.152570991523e-03 4.065092396977e-03 0.0 
4.065092396977e-03 5.832708160387e-04 0.0 
0.0 0.0 0.0 
-2.620460418920e-03 1.834171031588e-03 0.0 
1.834171031588e-03 1.019449197764e-02 0.0 
0.0 0.0 0.0 
-1.073015054426e-03 -8.717353939227e-04 0.0 
-8.717353939227e-04 2.899127276059e-03 0.0 
0.0 0.0 0.0 
-1.177077356338e-04 3.989889682009e-03 0.0 
3.989889682009e-03 3.562899283039e-03 0.0 
0.0 0.0 0.0 
2.653951381186e-04 4.184483427457e-03 0.0 
4.184483427457e-03 3.444834553258e-03 0.0 
0.0 0.0 0.0 
1.800212214125e-04 -3.921069707576e-04 0.0 
-3.921069707576e-04 4.651506602797e-03 0.0 
0.0 0.0 0.0 
-1.499284362652e-03 1.058865362076e-04 0.0 
1.058865362076e-04 1.180198364430e-02 0.0 
0.0 0.0 0.0 
5.680285652641e-04 4.199322500360e-03 0.0 
4.199322500360e-03 2.551874890621e-03 0.0 
0.0 0.0 0.0 
-8.237750067297e-05 -1.576055721559e-03 0.0 
-1.576055721559e-03 8.504483936487e-04 0.0 
0.0 0.0 0.0 
-2.429759519384e-03 1.409068068195e-03 0.0 
1.409068068195e-03 1.076243768960e-02 0.0 
0.0 0.0 0.0 
-8.935895936942e-04 2.017544678641e-04 0.0 
2.017544678641e-04 1.294666207592e-02 0.0 
0.0 0.0 0.0 
6.269745736507e-04 4.113686859681e-03 0.0 
4.113686859681e-03 2.555954763645e-03 0.0 
0.0 0.0 0.0 
-9.391447421253e-04 3.857732369321e-03 0.0 
3.857732369321e-03 4.172955588175e-04 0.0 
0.0 0.0 0.0 
-2.531156746346e-03 2.217368788093e-03 0.0 
2.217368788093e-03 9.424910153923e-03 0.0 
0.0 0.0 0.0 
-1.064158303251e-03 -8.624814587541e-04 0.0 
-8.624814587541e-04 2.880423005935e-03 0.0 
0.0 0.0 0.0 
-2.261724354940e-03 1.938420970682e-03 0.0 
1.938420970682e-03 9.230943494718e-03 0.0 
0.0 0.0 0.0 
-3.568583558401e-04 1.619184777594e-03 0.0 
1.619184777594e-03 1.314502367606e-02 0.0 
0.0 0.0 0.0 
4.337951707643e-04 4.491311688913e-03 0.0 
4.491311688913e-03 -9.182466250740e-04 0.0 
0.0 0.0 0.0 
-8.913416950163e-04 -4.751351341793e-04 0.0 
-4.751351341793e-04 4.253846059544e-03 0.0 
0.0 0.0 0.0 
-4.687947991092e-04 3.886782264512e-04 0.0 
3.886782264512e-04 1.344244791253e-02 0.0 
0.0 0.0 0.0 
-1.005311620787e-03 3.833964895974e-03 0.0 
3.833964895974e-03 6.166594725921e-03 0.0 
0.0 0.0 0.0 
-2.446103389093e-03 2.459757820702e-03 0.0 
2.459757820702e-03 9.018574993590e-03 0.0 
0.0 0.0 0.0 
4.614763775257e-04 -3.075970491550e-04 0.0 
-3.075970491550e-04 4.251702228439e-03 0.0 
0.0 0.0 0.0 
-3.139740378604e-04 -2.111651185677e-04 0.0 
-2.111651185677e-04 5.704499621496e-03 0.0 
0.0 0.0 0.0 
-7.939873298306e-04 -3.871367825927e-04 0.0 
-3.871367825927e-04 4.488377567160e-03 0.0 
0.0 0.0 0.0 
-1.249103976595e-03 3.907380388358e-03 0.0 
3.907380388358e-03 7.013265242235e-03 0.0 
0.0 0.0 0.0 
9.274457003459e-04 5.175834754716e-04 0.0 
5.175834754716e-04 3.801063755170e-03 0.0 
0.0 0.0 0.0 
-1.495953885695e-03 3.445172427531e-03 0.0 
3.445172427531e-03 7.060621798261e-03 0.0 
0.0 0.0 0.0 
-3.451077702968e-04 1.088970319526e-03 0.0 
1.088970319526e-03 1.333557397256e-02 0.0 
0.0 0.0 0.0 
-1.638771008060e-04 4.150656893730e-03 0.0 
4.150656893730e-03 9.127552789896e-03 0.0 
0.0 0.0 0.0 
-2.235947392110e-03 9.730386091373e-04 0.0 
9.730386091373e-04 1.151181876050e-02 0.0 
0.0 0.0 0.0 
-1.373150146695e-03 3.548728658833e-04 0.0 
3.548728658833e-04 1.233350289838e-02 0.0 
0.0 0.0 0.0 
-1.419569102184e-03 3.813652006359e-03 0.0 
3.813652006359e-03 7.045102492967e-03 0.0 
0.0 0.0 0.0 
-2.164427943610e-03 2.149778969662e-03 0.0 
2.149778969662e-03 8.754858221270e-03 0.0 
0.0 0.0 0.0 
-8.531748155783e-04 3.927944562292e-03 0.0 
3.927944562292e-03 6.192036030132e-03 0.0 
0.0 0.0 0.0 
1.455214862960e-03 4.178866841627e-03 0.0 
4.178866841627e-03 1.565065614482e-03 0.0 
0.0 0.0 0.0 
-1.781111933117e-03 1.698652501208e-04 0.0 
1.698652501208e-04 1.122839691732e-02 0.0 
0.0 0.0 0.0 
2.514616097111e-03 3.964254669341e-03 0.0 
3.964254669341e-03 5.942725767563e-04 0.0 
0.0 0.0 0.0 
6.327491625391e-05 -4.399158214914e-04 0.0 
-4.399158214914e-04 3.814397098307e-04 0.0 
0.0 0.0 0.0 
-1.579493225407e-03 5.919053432126e-05 0.0 
5.919053432126e-05 1.150667918697e-02 0.0 
0.0 0.0 0.0 
3.510694689135e-04 -1.723551540094e-04 0.0 
-1.723551540094e-04 9.902041289522e-04 0.0 
0.0 0.0 0.0 
-2.578856338441e-03 2.013768305585e-03 0.0 
2.013768305585e-03 9.800318875958e-03 0.0 
0.0 0.0 0.0 
5.057109342919e-04 4.061040785678e-04 0.0 
4.061040785678e-04 3.806735849167e-03 0.0 
0.0 0.0 0.0 
8.712223341456e-04 4.194751830008e-03 0.0 
4.194751830008e-03 1.691703438756e-03 0.0 
0.0 0.0 0.0 
-8.180378379496e-04 -1.977684790210e-04 0.0 
-1.977684790210e-04 4.719185281635e-03 0.0 
0.0 0.0 0.0 
-1.021409024332e-03 3.649522239620e-03 0.0 
3.649522239620e-03 3.880081952128e-03 0.0 
0.0 0.0 0.0 
2.072206819453e-03 3.212150670081e-03 0.0 
3.212150670081e-03 2.594277357586e-03 0.0 
0.0 0.0 0.0 
-1.619585870166e-03 9.462355701270e-05 0.0 
9.462355701270e-05 1.125789836411e-02 0.0 
0.0 0.0 0.0 
2.738139296289e-03 4.004597970811e-03 0.0 
4.004597970811e-03 -3.345864369140e-04 0.0 
0.0 0.0 0.0 
-6.265615980687e-04 -2.416439574953e-04 0.0 
-2.416439574953e-04 5.068415493272e-03 0.0 
0.0 0.0 0.0 
-4.068188338849e-04 -1.744719074295e-03 0.0 
-1.744719074295e-03 8.852127269670e-04 0.0 
0.0 0.0 0.0 
-4.562905532547e-04 -2.118083590104e-04 0.0 
-2.118083590104e-04 5.380517876515e-03 0.0 
0.0 0.0 0.0 
-2.215336268650e-03 2.435626997188e-03 0.0 
2.435626997188e-03 9.620719858485e-03 0.0 
0.0 0.0 0.0 
-1.781609646452e-04 -4.887174954129e-04 0.0 
-4.887174954129e-04 5.427528023172e-03 0.0 
0.0 0.0 0.0 
-1.577352335069e-03 4.175406107269e-05 0.0 
4.175406107269e-05 1.122680036518e-02 0.0 
0.0 0.0 0.0 
1.611010969892e-03 4.145321907656e-03 0.0 
4.145321907656e-03 6.629946067711e-04 0.0 
0.0 0.0 0.0 
-2.393716936241e-03 1.626045048186e-03 0.0 
1.626045048186e-03 9.943321328840e-03 0.0 
0.0 0.0 0.0 
-1.104713505780e-03 -2.386730757779e-04 0.0 
-2.386730757779e-04 4.124121454775e-03 0.0 
0.0 0.0 0.0 
-1.006268958595e-03 3.744546133163e-03 0.0 
3.744546133163e-03 3.906345229438e-03 0.0 
0.0 0.0 0.0 
3.089439531095e-03 3.693040630585e-03 0.0 
3.693040630585e-03 -2.939668784584e-04 0.0 
0.0 0.0 0.0 
-1.342057958617e-03 2.783568356718e-04 0.0 
2.783568356718e-04 1.250228611575e-02 0.0 
0.0 0.0 0.0 
-1.653496068730e-03 1.278984489574e-04 0.0 
1.278984489574e-04 1.122988440640e-02 0.0 
0.0 0.0 0.0 
1.931903943647e-03 4.114392978978e-03 0.0 
4.114392978978e-03 5.632167626530e-04 0.0 
0.0 0.0 0.0 
-2.354148603147e-03 1.756396968763e-03 0.0 
1.756396968763e-03 9.599332283047e-03 0.0 
0.0 0.0 0.0 
-2.801117892098e-04 3.797826578208e-03 0.0 
3.797826578208e-03 8.178998402993e-03 0.0 
0.0 0.0 0.0 
-1.075341725190e-03 -9.535375684452e-04 0.0 
-9.535375684452e-04 2.983309159983e-03 0.0 
0.0 0.0 0.0 
3.345235435848e-04 3.718631446614e-03 0.0 
3.718631446614e-03 6.475053426312e-03 0.0 
0.0 0.0 0.0 
-7.959390719270e-05 4.187575411418e-03 0.0 
4.187575411418e-03 8.621421356507e-03 0.0 
0.0 0.0 0.0 
-6.766431750335e-04 3.993240408399e-03 0.0 
3.993240408399e-03 4.536455837522e-03 0.0 
0.0 0.0 0.0 
-1.174812856727e-03 -7.805574940336e-04 0.0 
-7.805574940336e-04 3.240738853789e-03 0.0 
0.0 0.0 0.0 
1.903326394054e-03 1.157383683314e-03 0.0 
1.157383683314e-03 2.165036574062e-03 0.0 
0.0 0.0 0.0 
-1.902455811557e-03 3.396726589360e-03 0.0 
3.396726589360e-03 7.886430936222e-03 0.0 
0.0 0.0 0.0 
-5.041597783617e-04 3.744303737032e-03 0.0 
3.744303737032e-03 3.749199590888e-03 0.0 
0.0 0.0 0.0 
-2.355675896445e-03 1.976705779787e-03 0.0 
1.976705779787e-03 9.969625175615e-03 0.0 
0.0 0.0 0.0 
1.741374438937e-03 4.167377991530e-03 0.0 
4.167377991530e-03 1.547941782920e-03 0.0 
0.0 0.0 0.0 
-3.200613986073e-04 8.024021542071e-04 0.0 
8.024021542071e-04 1.340540342498e-02 0.0 
0.0 0.0 0.0 
-1.374581821718e-03 2.922375539840e-03 0.0 
2.922375539840e-03 1.048118230464e-02 0.0 
0.0 0.0 0.0 
-5.634594268883e-04 -1.224788435825e-04 0.0 
-1.224788435825e-04 5.290244289540e-03 0.0 
0.0 0.0 0.0 
-8.563772350898e-04 3.782237019226e-03 0.0 
3.782237019226e-03 2.537468904884e-03 0.0 
0.0 0.0 0.0 
3.595797097172e-03 3.325620486033e-03 0.0 
3.325620486033e-03 -1.121448674874e-03 0.0 
0.0 0.0 0.0 
-1.129060294245e-03 3.187248333047e-03 0.0 
3.187248333047e-03 1.009240538934e-02 0.0 
0.0 0.0 0.0 
-3.312659440542e-03 2.464153906913e-03 0.0 
2.464153906913e-03 -2.198227498341e-03 0.0 
0.0 0.0 0.0 
-1.896458249583e-03 2.914767762065e-03 0.0 
2.914767762065e-03 7.895624939922e-03 0.0 
0.0 0.0 0.0 
2.171833553345e-03 3.047131041948e-04 0.0 
3.047131041948e-04 1.262677218725e-03 0.0 
0.0 0.0 0.0 
9.192940244478e-04 -5.053024735952e-04 0.0 
-5.053024735952e-04 3.652715333353e-04 0.0 
0.0 0.0 0.0 
-6.040886974717e-04 3.139599444095e-03 0.0 
3.139599444095e-03 1.157363004982e-02 0.0 
0.0 0.0 0.0 
-1.897128139414e-03 2.035404125797e-03 0.0 
2.035404125797e-03 1.130938578641e-02 0.0 
0.0 0.0 0.0 
1.354279250852e-03 -2.456489493307e-03 0.0 
-2.456489493307e-03 1.049297822735e-04 0.0 
0.0 0.0 0.0 
2.393272910156e-03 5.800527212711e-04 0.0 
5.800527212711e-04 1.243699721321e-03 0.0 
0.0 0.0 0.0 
-2.433441778916e-03 1.511583691403e-03 0.0 
1.511583691403e-03 1.106584620751e-02 0.0 
0.0 0.0 0.0 
-2.288524623428e-03 1.278393393603e-03 0.0 
1.278393393603e-03 1.155517090117e-02 0.0 
0.0 0.0 0.0 
9.687257595397e-04 5.231763257826e-04 0.0 
5.231763257826e-04 3.233969326260e-03 0.0 
0.0 0.0 0.0 
2.728829638770e-04 -2.372141325309e-03 0.0 
-2.372141325309e-03 9.292185278940e-04 0.0 
0.0 0.0 0.0 
-3.190889310979e-04 4.142178639886e-03 0.0 
4.142178639886e-03 5.316614850298e-03 0.0 
0.0 0.0 0.0 
-1.986199050294e-03 2.873206256209e-03 0.0 
2.873206256209e-03 9.160540592003e-03 0.0 
0.0 0.0 0.0 
-1.987585402019e-03 2.050992828888e-03 0.0 
2.050992828888e-03 1.161126701363e-02 0.0 
0.0 0.0 0.0 
-2.412127917479e-03 2.531875127815e-03 0.0 
2.531875127815e-03 1.005865502150e-02 0.0 
0.0 0.0 0.0 
-2.525984733724e-03 2.293931919872e-03 0.0 
2.293931919872e-03 9.971427846662e-03 0.0 
0.0 0.0 0.0 
3.033998538790e-03 2.846498221576e-03 0.0 
2.846498221576e-03 9.447154701625e-04 0.0 
0.0 0.0 0.0 
-5.692577599242e-04 3.724219051327e-03 0.0 
3.724219051327e-03 8.618216478925e-03 0.0 
0.0 0.0 0.0 
-1.325351549205e-03 2.336991835065e-03 0.0 
2.336991835065e-03 -2.812351190624e-03 0.0 
0.0 0.0 0.0 
-7.250522625563e-04 3.850359853115e-03 0.0 
3.850359853115e-03 4.519146321884e-03 0.0 
0.0 0.0 0.0 
-4.178067963734e-04 3.981026131977e-03 0.0 
3.981026131977e-03 4.427881306795e-03 0.0 
0.0 0.0 0.0 
-6.996106877530e-04 4.145560929722e-03 0.0 
4.145560929722e-03 6.161728414916e-03 0.0 
0.0 0.0 0.0 
-1.480904161254e-03 2.923930228163e-03 0.0 
2.923930228163e-03 1.091963141567e-02 0.0 
0.0 0.0 0.0 
2.983754969731e-03 3.143511177359e-03 0.0 
3.143511177359e-03 -4.042972468289e-03 0.0 
0.0 0.0 0.0 
2.184371959184e-03 -1.304186619522e-04 0.0 
-1.304186619522e-04 9.437171618580e-04 0.0 
0.0 0.0 0.0 
-1.703292710295e-03 8.636484068927e-05 0.0 
8.636484068927e-05 1.121154760909e-02 0.0 
0.0 0.0 0.0 
3.254042157611e-03 3.773316033752e-03 0.0 
3.773316033752e-03 -1.182796316765e-03 0.0 
0.0 0.0 0.0 
2.093398356874e-03 -5.657137749262e-04 0.0 
-5.657137749262e-04 7.516224893118e-04 0.0 
0.0 0.0 0.0 
6.359422473963e-04 -4.369009944656e-04 0.0 
-4.369009944656e-04 2.356939135419e-04 0.0 
0.0 0.0 0.0 
-1.660264057077e-03 2.237459793616e-03 0.0 
2.237459793616e-03 1.145518804531e-02 0.0 
0.0 0.0 0.0 
8.923805335093e-04 -4.970039866030e-04 0.0 
-4.970039866030e-04 -4.324488724072e-05 0.0 
0.0 0.0 0.0 
5.411277152385e-04 -4.413961064633e-04 0.0 
-4.413961064633e-04 5.207230085758e-04 0.0 
0.0 0.0 0.0 
-7.384789234861e-04 3.765504627079e-03 0.0 
3.765504627079e-03 2.536546931242e-03 0.0 
0.0 0.0 0.0 
8.982751645936e-05 -2.243950898690e-03 0.0 
-2.243950898690e-03 9.520293281184e-04 0.0 
0.0 0.0 0.0 
-1.735100902151e-03 2.234296730695e-03 0.0 
2.234296730695e-03 1.176881679048e-02 0.0 
0.0 0.0 0.0 
1.586761853440e-04 -2.300087195577e-03 0.0 
-2.300087195577e-03 6.861353328151e-04 0.0 
0.0 0.0 0.0 
8.362603928369e-04 4.146024353075e-03 0.0 
4.146024353075e-03 3.991397585004e-04 0.0 
0.0 0.0 0.0 
1.587414875067e-03 -3.672301951823e-03 0.0 
-3.672301951823e-03 -1.889013914937e-03 0.0 
0.0 0.0 0.0 
-3.275149773456e-04 -1.690388664207e-03 0.0 
-1.690388664207e-03 9.788564620932e-04 0.0 
0.0 0.0 0.0 
2.228228056054e-03 9.681682903255e-04 0.0 
9.681682903255e-04 1.637728916049e-03 0.0 
0.0 0.0 0.0 
-2.334513625629e-03 2.748889912667e-03 0.0 
2.748889912667e-03 9.608599933262e-03 0.0 
0.0 0.0 0.0 
-2.368533351780e-04 -3.619118039091e-04 0.0 
-3.619118039091e-04 5.517674848708e-03 0.0 
0.0 0.0 0.0 
-1.277198711075e-03 1.120772311248e-03 0.0 
1.120772311248e-03 -4.330345751073e-03 0.0 
0.0 0.0 0.0 
1.521169477191e-03 4.199918716206e-03 0.0 
4.199918716206e-03 6.172865563303e-05 0.0 
0.0 0.0 0.0 
3.454998634320e-03 3.665215563418e-03 0.0 
3.665215563418e-03 -1.128382034462e-03 0.0 
0.0 0.0 0.0 
-1.593205741054e-03 3.202819361658e-03 0.0 
3.202819361658e-03 7.117777901264e-03 0.0 
0.0 0.0 0.0 
2.467064077903e-03 1.405284522683e-04 0.0 
1.405284522683e-04 9.247970096811e-04 0.0 
0.0 0.0 0.0 
-9.681004436191e-05 -4.896357455122e-04 0.0 
-4.896357455122e-04 5.351066023288e-03 0.0 
0.0 0.0 0.0 
-1.745482953274e-03 2.780330585133e-03 0.0 
2.780330585133e-03 1.079426093098e-02 0.0 
0.0 0.0 0.0 
3.713521685633e-03 2.998544552053e-03 0.0 
2.998544552053e-03 -1.895476715960e-03 0.0 
0.0 0.0 0.0 
2.059480961802e-03 7.433232603214e-04 0.0 
7.433232603214e-04 1.639277916545e-03 0.0 
0.0 0.0 0.0 
-9.350643539602e-04 -2.428110704484e-04 0.0 
-2.428110704484e-04 4.445185349343e-03 0.0 
0.0 0.0 0.0 
-1.080613968144e-03 3.975753034309e-03 0.0 
3.975753034309e-03 7.033512300203e-03 0.0 
0.0 0.0 0.0 
-1.762775357587e-03 2.335862236704e-03 0.0 
2.335862236704e-03 1.109784331944e-02 0.0 
0.0 0.0 0.0 
6.527033597170e-04 3.447752198897e-03 0.0 
3.447752198897e-03 5.575700618092e-03 0.0 
0.0 0.0 0.0 
3.794637845811e-03 3.252906503491e-03 0.0 
3.252906503491e-03 -1.069619392349e-03 0.0 
0.0 0.0 0.0 
7.763566484349e-04 4.032960774057e-03 0.0 
4.032960774057e-03 1.181579502812e-03 0.0 
0.0 0.0 0.0 
-2.226755585940e-03 2.726083028226e-03 0.0 
2.726083028226e-03 1.015196259440e-02 0.0 
0.0 0.0 0.0 
-3.240456819742e-04 1.869629727755e-03 0.0 
1.869629727755e-03 1.315693501329e-02 0.0 
0.0 0.0 0.0 
-1.332687625033e-04 4.266223740867e-03 0.0 
4.266223740867e-03 5.300244851552e-03 0.0 
0.0 0.0 0.0 
4.181699260958e-03 2.552764597872e-03 0.0 
2.552764597872e-03 -1.315786777289e-03 0.0 
0.0 0.0 0.0 
-1.623858848417e-03 1.404700107691e-04 0.0 
1.404700107691e-04 1.158296308974e-02 0.0 
0.0 0.0 0.0 
-2.817738242977e-04 -2.700910324236e-03 0.0 
-2.700910324236e-03 3.358234842388e-04 0.0 
0.0 0.0 0.0 
-2.257928524742e-03 2.252321000951e-03 0.0 
2.252321000951e-03 1.010181791189e-02 0.0 
0.0 0.0 0.0 
3.341028528998e-03 3.624158961059e-03 0.0 
3.624158961059e-03 -1.987726901554e-03 0.0 
0.0 0.0 0.0 
3.445882587530e-03 2.816992680768e-03 0.0 
2.816992680768e-03 -3.815175528421e-03 0.0 
0.0 0.0 0.0 
2.915445970212e-03 -3.249575508860e-03 0.0 
-3.249575508860e-03 -4.283999650495e-03 0.0 
0.0 0.0 0.0 
-1.532895589470e-03 2.146875196706e-03 0.0 
2.146875196706e-03 1.177923751609e-02 0.0 
0.0 0.0 0.0 
-2.168468504630e-03 2.944011519748e-03 0.0 
2.944011519748e-03 9.663620025302e-03 0.0 
0.0 0.0 0.0 
1.206562293767e-03 4.176018017883e-03 0.0 
4.176018017883e-03 1.567130677283e-03 0.0 
0.0 0.0 0.0 
-1.590014069408e-03 2.132011182987e-03 0.0 
2.132011182987e-03 1.207204922634e-02 0.0 
0.0 0.0 0.0 
-1.509005966125e-03 3.053633707083e-03 0.0 
3.053633707083e-03 1.045586026881e-02 0.0 
0.0 0.0 0.0 
-1.399582958082e-03 3.765377240969e-03 0.0 
3.765377240969e-03 7.823878673010e-03 0.0 
0.0 0.0 0.0 
3.852024250262e-05 -4.697626269018e-04 0.0 
-4.697626269018e-04 5.019072598434e-03 0.0 
0.0 0.0 0.0 
4.211511195342e-03 2.436949899086e-03 0.0 
2.436949899086e-03 -1.730321787842e-03 0.0 
0.0 0.0 0.0 
-1.655326738572e-03 3.535920755229e-03 0.0 
3.535920755229e-03 8.543680693899e-03 0.0 
0.0 0.0 0.0 
1.938825726093e-03 4.060281421294e-03 0.0 
4.060281421294e-03 1.600926430100e-03 0.0 
0.0 0.0 0.0 
3.876538876938e-03 2.532257272922e-03 0.0 
2.532257272922e-03 -8.092994692405e-04 0.0 
0.0 0.0 0.0 
3.972457092587e-03 2.564367078180e-03 0.0 
2.564367078180e-03 -3.643769328685e-03 0.0 
0.0 0.0 0.0 
-2.326014276856e-03 1.001614749585e-03 0.0 
1.001614749585e-03 1.108976014550e-02 0.0 
0.0 0.0 0.0 
4.352829941378e-03 2.678041003147e-03 0.0 
2.678041003147e-03 -1.720248823228e-03 0.0 
0.0 0.0 0.0 
4.181934687221e-03 -1.346417638961e-03 0.0 
-1.346417638961e-03 -3.610224741442e-03 0.0 
0.0 0.0 0.0 
-1.587547231325e-03 2.641798068311e-03 0.0 
2.641798068311e-03 1.081909042902e-02 0.0 
0.0 0.0 0.0 
-4.940868129474e-03 4.895721862892e-04 0.0 
4.895721862892e-04 -2.610892690213e-03 0.0 
0.0 0.0 0.0 
-2.433336859983e-03 2.342825556027e-03 0.0 
2.342825556027e-03 1.046921257005e-02 0.0 
0.0 0.0 0.0 
4.089779400537e-03 2.981688046500e-03 0.0 
2.981688046500e-03 -2.765223017869e-03 0.0 
0.0 0.0 0.0 
1.835088108128e-03 3.949928353819e-03 0.0 
3.949928353819e-03 9.494754103878e-05 0.0 
0.0 0.0 0.0 
4.016329867840e-03 1.464935894300e-03 0.0 
1.464935894300e-03 -3.457515374810e-03 0.0 
0.0 0.0 0.0 
-1.893103911986e-03 2.851196292347e-03 0.0 
2.851196292347e-03 9.776995255975e-03 0.0 
0.0 0.0 0.0 
-1.543055155184e-04 -1.147379433143e-03 0.0 
-1.147379433143e-03 7.314401974921e-04 0.0 
0.0 0.0 0.0 
-7.625964709576e-04 3.874406344272e-03 0.0 
3.874406344272e-03 5.317451176835e-03 0.0 
0.0 0.0 0.0 
3.872897391095e-03 2.431453621486e-03 0.0 
2.431453621486e-03 -1.105384666120e-03 0.0 
0.0 0.0 0.0 
-2.072595614646e-03 2.670245392509e-03 0.0 
2.670245392509e-03 9.710305171042e-03 0.0 
0.0 0.0 0.0 
-2.337288125575e-03 1.258986347376e-03 0.0 
1.258986347376e-03 1.123597490919e-02 0.0 
0.0 0.0 0.0 
2.178436022504e-03 2.288343703821e-03 0.0 
2.288343703821e-03 -4.548188454766e-03 0.0 
0.0 0.0 0.0 
4.607507345314e-03 -3.820203023577e-04 0.0 
-3.820203023577e-04 -3.761353126319e-03 0.0 
0.0 0.0 0.0 
3.658961607215e-03 -2.230772695178e-03 0.0 
-2.230772695178e-03 -3.370393878128e-03 0.0 
0.0 0.0 0.0 
-9.894894208019e-04 3.945984548507e-03 0.0 
3.945984548507e-03 5.415203060762e-03 0.0 
0.0 0.0 0.0 
-1.945269947488e-03 2.477646309607e-03 0.0 
2.477646309607e-03 1.107287499855e-02 0.0 
0.0 0.0 0.0 
-6.945953465762e-04 4.109222946756e-03 0.0 
4.109222946756e-03 5.281926357561e-03 0.0 
0.0 0.0 0.0 
4.485189994541e-03 2.728292449891e-03 0.0 
2.728292449891e-03 -2.494203715844e-03 0.0 
0.0 0.0 0.0 
3.951797282712e-03 3.313590592145e-03 0.0 
3.313590592145e-03 -1.926689855557e-03 0.0 
0.0 0.0 0.0 
2.448345601535e-03 1.770069254854e-03 0.0 
1.770069254854e-03 -3.554014359013e-03 0.0 
0.0 0.0 0.0 
2.266405009866e-03 3.976882765343e-03 0.0 
3.976882765343e-03 7.033909979315e-04 0.0 
0.0 0.0 0.0 
2.310378249248e-04 3.968149346689e-03 0.0 
3.968149346689e-03 7.800232540840e-04 0.0 
0.0 0.0 0.0 
-4.283874238507e-04 3.110532086520e-03 0.0 
3.110532086520e-03 1.213640950644e-02 0.0 
0.0 0.0 0.0 
-4.106069855818e-04 3.577993503095e-03 0.0 
3.577993503095e-03 1.149413872035e-02 0.0 
0.0 0.0 0.0 
2.264984135729e-04 4.251654952501e-03 0.0 
4.251654952501e-03 4.468673927664e-03 0.0 
0.0 0.0 0.0 
3.734285360451e-03 3.201223197566e-03 0.0 
3.201223197566e-03 -2.823596821912e-03 0.0 
0.0 0.0 0.0 
2.253949830349e-03 3.773585150220e-03 0.0 
3.773585150220e-03 -7.390806821385e-04 0.0 
0.0 0.0 0.0 
-1.290599051313e-03 3.603786202121e-03 0.0 
3.603786202121e-03 7.934837269046e-03 0.0 
0.0 0.0 0.0 
3.213747198936e-03 3.175844114309e-03 0.0 
3.175844114309e-03 -1.818534918105e-03 0.0 
0.0 0.0 0.0 
4.148821541246e-03 -1.335817371361e-03 0.0 
-1.335817371361e-03 -3.512272613038e-03 0.0 
0.0 0.0 0.0 
-1.196578456829e-03 3.721232866688e-03 0.0 
3.721232866688e-03 7.079686193108e-03 0.0 
0.0 0.0 0.0 
-6.264646715328e-04 1.199925395342e-03 0.0 
1.199925395342e-03 1.330358094367e-02 0.0 
0.0 0.0 0.0 
3.705538499356e-03 3.437487631319e-03 0.0 
3.437487631319e-03 -1.991394855214e-03 0.0 
0.0 0.0 0.0 
2.774957787939e-03 3.135278542038e-03 0.0 
3.135278542038e-03 9.109398727167e-04 0.0 
0.0 0.0 0.0 
1.053902885254e-03 4.137366218746e-03 0.0 
4.137366218746e-03 -4.052695728205e-04 0.0 
0.0 0.0 0.0 
6.027555065857e-04 1.109092403058e-03 0.0 
1.109092403058e-03 4.456862708974e-03 0.0 
0.0 0.0 0.0 
2.871555287742e-03 3.818025033948e-03 0.0 
3.818025033948e-03 -1.920020128705e-03 0.0 
0.0 0.0 0.0 
-7.041329710018e-04 3.993241182346e-03 0.0 
3.993241182346e-03 6.257220774501e-03 0.0 
0.0 0.0 0.0 
3.237046678609e-03 1.995228010349e-03 0.0 
1.995228010349e-03 -4.468349900643e-03 0.0 
0.0 0.0 0.0 
3.588908381109e-03 4.020629210490e-04 0.0 
4.020629210490e-04 -9.410872634410e-04 0.0 
0.0 0.0 0.0 
4.047262805696e-03 3.172336436539e-03 0.0 
3.172336436539e-03 -1.797073468006e-03 0.0 
0.0 0.0 0.0 
3.825517673721e-03 -1.943700293049e-03 0.0 
-1.943700293049e-03 -2.886587524489e-03 0.0 
0.0 0.0 0.0 
-2.034473060415e-03 3.177323697534e-03 0.0 
3.177323697534e-03 9.121738842594e-03 0.0 
0.0 0.0 0.0 
-2.245768374535e-04 4.176654808575e-03 0.0 
4.176654808575e-03 1.021606125921e-02 0.0 
0.0 0.0 0.0 
4.347980745842e-03 2.822369004717e-03 0.0 
2.822369004717e-03 -2.657232999696e-03 0.0 
0.0 0.0 0.0 
3.976317307413e-03 2.031108373064e-03 0.0 
2.031108373064e-03 -1.049541550196e-03 0.0 
0.0 0.0 0.0 
1.317105770348e-03 3.903088199095e-03 0.0 
3.903088199095e-03 -3.744969652300e-04 0.0 
0.0 0.0 0.0 
-1.798094367189e-03 1.085438509080e-03 0.0 
1.085438509080e-03 1.200858100280e-02 0.0 
0.0 0.0 0.0 
2.439099042503e-03 -3.069532694095e-04 0.0 
-3.069532694095e-04 7.175622266600e-04 0.0 
0.0 0.0 0.0 
4.931274885716e-04 4.075062081008e-03 0.0 
4.075062081008e-03 1.936864806518e-03 0.0 
0.0 0.0 0.0 
-2.000609797079e-03 9.104374664343e-04 0.0 
9.104374664343e-04 1.194681960851e-02 0.0 
0.0 0.0 0.0 
1.821872974772e-05 4.415212195286e-03 0.0 
4.415212195286e-03 8.663809838100e-03 0.0 
0.0 0.0 0.0 
2.065737245884e-03 -3.964996004537e-05 0.0 
-3.964996004537e-05 1.468364270165e-03 0.0 
0.0 0.0 0.0 
-3.105234074854e-04 4.011054777749e-03 0.0 
4.011054777749e-03 1.067607246953e-02 0.0 
0.0 0.0 0.0 
-2.137838772378e-03 1.189306918448e-03 0.0 
1.189306918448e-03 1.178190496020e-02 0.0 
0.0 0.0 0.0 
-1.170573969798e-03 3.443337786383e-03 0.0 
3.443337786383e-03 9.492678480647e-03 0.0 
0.0 0.0 0.0 
-1.236396950967e-04 3.943778683562e-03 0.0 
3.943778683562e-03 2.218580412573e-03 0.0 
0.0 0.0 0.0 
-2.204047681382e-03 3.000566145879e-03 0.0 
3.000566145879e-03 9.072963567579e-03 0.0 
0.0 0.0 0.0 
-1.669153432928e-03 3.271128792900e-03 0.0 
3.271128792900e-03 8.581521327933e-03 0.0 
0.0 0.0 0.0 
-1.849989333857e-03 3.310400380768e-03 0.0 
3.310400380768e-03 9.184100398043e-03 0.0 
0.0 0.0 0.0 
3.220882224204e-04 4.313670371953e-03 0.0 
4.313670371953e-03 4.347041610666e-03 0.0 
0.0 0.0 0.0 
1.870546797782e-04 4.276301520672e-03 0.0 
4.276301520672e-03 7.615017533548e-03 0.0 
0.0 0.0 0.0 
-2.188406068618e-03 1.563283982230e-03 0.0 
1.563283982230e-03 1.126893509256e-02 0.0 
0.0 0.0 0.0 
-2.566374434556e-03 2.108576570732e-03 0.0 
2.108576570732e-03 1.034249429295e-02 0.0 
0.0 0.0 0.0 
4.219389885101e-03 2.755888822993e-03 0.0 
2.755888822993e-03 -1.843740930010e-03 0.0 
0.0 0.0 0.0 
-1.363798729485e-04 -2.020241671774e-03 0.0 
-2.020241671774e-03 9.792639364510e-04 0.0 
0.0 0.0 0.0 
-2.462379280416e-03 2.513562837508e-03 0.0 
2.513562837508e-03 9.515930532481e-03 0.0 
0.0 0.0 0.0 
1.177750083750e-03 4.183660279937e-03 0.0 
4.183660279937e-03 8.589085161554e-04 0.0 
0.0 0.0 0.0 
-1.631797525430e-03 7.549270153807e-05 0.0 
7.549270153807e-05 1.123970172534e-02 0.0 
0.0 0.0 0.0 
3.175601689620e-03 -2.541023379674e-03 0.0 
-2.541023379674e-03 -2.794345704200e-03 0.0 
0.0 0.0 0.0 
4.023625880139e-03 2.836806185041e-03 0.0 
2.836806185041e-03 -1.907301610262e-03 0.0 
0.0 0.0 0.0 
-1.501534686760e-03 2.529218968311e-03 0.0 
2.529218968311e-03 1.122279948957e-02 0.0 
0.0 0.0 0.0 
1.461389032573e-03 4.070344055690e-03 0.0 
4.070344055690e-03 8.724621657077e-04 0.0 
0.0 0.0 0.0 
-1.828888463752e-03 3.105978474029e-03 0.0 
3.105978474029e-03 8.546630831670e-03 0.0 
0.0 0.0 0.0 
3.825648516118e-03 1.919095955228e-03 0.0 
1.919095955228e-03 -1.052643967069e-03 0.0 
0.0 0.0 0.0 
2.241159593465e-03 -1.639632135862e-03 0.0 
-1.639632135862e-03 -2.842460501113e-04 0.0 
0.0 0.0 0.0 
4.540343339519e-04 3.650736301644e-03 0.0 
3.650736301644e-03 6.175585946089e-03 0.0 
0.0 0.0 0.0 
-2.155962733024e-03 3.085574793903e-03 0.0 
3.085574793903e-03 8.502166492247e-03 0.0 
0.0 0.0 0.0 
4.635873965923e-03 5.444247141229e-04 0.0 
5.444247141229e-04 -4.039022802775e-03 0.0 
0.0 0.0 0.0 
1.366916871855e-03 -2.614976713498e-03 0.0 
-2.614976713498e-03 -3.791340411300e-04 0.0 
0.0 0.0 0.0 
-4.775341695020e-04 3.928320495198e-03 0.0 
3.928320495198e-03 3.722642506886e-03 0.0 
0.0 0.0 0.0 
4.025158884431e-04 4.078990914898e-03 0.0 
4.078990914898e-03 1.936706760772e-03 0.0 
0.0 0.0 0.0 
-1.237001854487e-03 3.179048555880e-03 0.0 
3.179048555880e-03 1.057778306984e-02 0.0 
0.0 0.0 0.0 
-9.152121262431e-04 4.004501683716e-03 0.0 
4.004501683716e-03 7.102171322424e-03 0.0 
0.0 0.0 0.0 
-1.610717615803e-03 3.645692646245e-03 0.0 
3.645692646245e-03 7.081025577717e-03 0.0 
0.0 0.0 0.0 
-1.968707230199e-03 2.890019263331e-03 0.0 
2.890019263331e-03 8.540617994379e-03 0.0 
0.0 0.0 0.0 
6.434782756122e-04 2.291386059950e-03 0.0 
2.291386059950e-03 4.829600577083e-03 0.0 
0.0 0.0 0.0 
1.138174994440e-03 2.280089288856e-03 0.0 
2.280089288856e-03 4.062841596141e-03 0.0 
0.0 0.0 0.0 
-1.095012076164e-03 3.072401020637e-03 0.0 
3.072401020637e-03 1.059930800055e-02 0.0 
0.0 0.0 0.0 
-1.860238094748e-03 2.349787884632e-03 0.0 
2.349787884632e-03 1.143715610053e-02 0.0 
0.0 0.0 0.0 
2.320636485633e-03 -1.772913250825e-03 0.0 
-1.772913250825e-03 -8.543558125333e-04 0.0 
0.0 0.0 0.0 
-8.143614420453e-05 4.247621898695e-03 0.0 
4.247621898695e-03 4.336101560391e-03 0.0 
0.0 0.0 0.0 
3.949262294432e-03 2.363867346486e-03 0.0 
2.363867346486e-03 -2.692379034593e-03 0.0 
0.0 0.0 0.0 
4.346177654609e-03 2.203210100074e-03 0.0 
2.203210100074e-03 -2.647606774578e-03 0.0 
0.0 0.0 0.0 
-5.477635585380e-04 4.165788364409e-03 0.0 
4.165788364409e-03 6.230927972940e-03 0.0 
0.0 0.0 0.0 
3.718476992519e-03 3.631757527480e-04 0.0 
3.631757527480e-04 -1.330813429542e-03 0.0 
0.0 0.0 0.0 
-6.452247870292e-05 -1.961362446676e-03 0.0 
-1.961362446676e-03 1.666001569008e-03 0.0 
0.0 0.0 0.0 
-1.214170696993e-03 2.718995989374e-03 0.0 
2.718995989374e-03 1.134617312887e-02 0.0 
0.0 0.0 0.0 
4.380448445852e-03 -5.842332291162e-04 0.0 
-5.842332291162e-04 -3.861944814644e-03 0.0 
0.0 0.0 0.0 
7.824777175549e-04 4.279993632206e-03 0.0 
4.279993632206e-03 3.401299678633e-03 0.0 
0.0 0.0 0.0 
-1.462353744271e-03 3.491984834709e-03 0.0 
3.491984834709e-03 7.877004398203e-03 0.0 
0.0 0.0 0.0 
5.714474164358e-04 4.266079833863e-03 0.0 
4.266079833863e-03 3.398108060808e-03 0.0 
0.0 0.0 0.0 
-3.828046714186e-04 3.822263864253e-03 0.0 
3.822263864253e-03 1.109742849737e-02 0.0 
0.0 0.0 0.0 
-3.918778636490e-04 3.354142905285e-03 0.0 
3.354142905285e-03 1.181416540312e-02 0.0 
0.0 0.0 0.0 
-7.960462764379e-04 3.183588870446e-03 0.0 
3.183588870446e-03 1.156817109660e-02 0.0 
0.0 0.0 0.0 
2.227192669786e-03 -1.572516975876e-03 0.0 
-1.572516975876e-03 -4.985955591572e-04 0.0 
0.0 0.0 0.0 
-1.377655826142e-03 2.066554442543e-03 0.0 
2.066554442543e-03 1.207955015422e-02 0.0 
0.0 0.0 0.0 
6.105525194888e-04 4.123035890265e-03 0.0 
4.123035890265e-03 1.171681702334e-03 0.0 
0.0 0.0 0.0 
4.559338998788e-03 2.112677839613e-03 0.0 
2.112677839613e-03 -2.549531995017e-03 0.0 
0.0 0.0 0.0 
3.447223303395e-03 1.567219098630e-03 0.0 
1.567219098630e-03 -3.602499025960e-03 0.0 
0.0 0.0 0.0 
-1.048989483439e-03 3.985156001446e-03 0.0 
3.985156001446e-03 6.147555521610e-03 0.0 
0.0 0.0 0.0 
-2.269006750830e-03 8.119045340063e-04 0.0 
8.119045340063e-04 1.118856931356e-02 0.0 
0.0 0.0 0.0 
-1.926301062205e-03 1.115519561227e-03 0.0 
1.115519561227e-03 1.178839861326e-02 0.0 
0.0 0.0 0.0 
1.109562658410e-03 1.185497749153e-03 0.0 
1.185497749153e-03 3.701522376501e-03 0.0 
0.0 0.0 0.0 
-8.507456111627e-04 3.405657496329e-03 0.0 
3.405657496329e-03 9.667219832099e-03 0.0 
0.0 0.0 0.0 
-2.113445565406e-03 2.485806897641e-03 0.0 
2.485806897641e-03 1.018796782652e-02 0.0 
0.0 0.0 0.0 
-1.490507154469e-03 3.403042016875e-03 0.0 
3.403042016875e-03 8.659934816612e-03 0.0 
0.0 0.0 0.0 
3.969041866014e-03 1.710397308642e-03 0.0 
1.710397308642e-03 -4.279101473242e-03 0.0 
0.0 0.0 0.0 
-7.057583888509e-04 -1.778004126116e-03 0.0 
-1.778004126116e-03 7.134389675383e-04 0.0 
0.0 0.0 0.0 
2.859527387866e-03 3.893433700770e-03 0.0 
3.893433700770e-03 -2.973241233234e-04 0.0 
0.0 0.0 0.0 
9.167737628404e-04 4.268515762901e-03 0.0 
4.268515762901e-03 3.486348472366e-03 0.0 
0.0 0.0 0.0 
2.641246669833e-03 3.854884853026e-03 0.0 
3.854884853026e-03 7.189031974657e-04 0.0 
0.0 0.0 0.0 
-7.386506074748e-04 3.857527258210e-03 0.0 
3.857527258210e-03 4.172711084838e-04 0.0 
0.0 0.0 0.0 
-1.544447546649e-03 1.312829406495e-04 0.0 
1.312829406495e-04 1.157695997821e-02 0.0 
0.0 0.0 0.0 
-1.218473808418e-05 -2.003114257386e-03 0.0 
-2.003114257386e-03 8.026358476612e-04 0.0 
0.0 0.0 0.0 
2.464067903426e-03 4.031225567908e-03 0.0 
4.031225567908e-03 -1.005491736356e-03 0.0 
0.0 0.0 0.0 
0.0 1.257445415991e-03 0.0 
1.257445415991e-03 4.491387076698e-03 0.0 
0.0 0.0 0.0 
3.068172029616e-03 2.409523858988e-03 0.0 
2.409523858988e-03 8.376992790502e-04 0.0 
0.0 0.0 0.0 
-2.366820965442e-03 1.840337560409e-03 0.0 
1.840337560409e-03 1.037453558022e-02 0.0 
0.0 0.0 0.0 
9.702569742720e-04 -1.141865008625e-04 0.0 
-1.141865008625e-04 6.799208403452e-04 0.0 
0.0 0.0 0.0 
1.135494354714e-04 4.249144330135e-03 0.0 
4.249144330135e-03 4.356876817278e-03 0.0 
0.0 0.0 0.0 
3.258825911655e-03 3.627011792519e-03 0.0 
3.627011792519e-03 -2.618097037715e-04 0.0 
0.0 0.0 0.0 
-1.948044349548e-03 3.073913292373e-03 0.0 
3.073913292373e-03 9.748933736121e-03 0.0 
0.0 0.0 0.0 
-1.286242844879e-04 4.311768057693e-03 0.0 
4.311768057693e-03 9.704685771327e-03 0.0 
0.0 0.0 0.0 
-2.107948781760e-03 2.650029813010e-03 0.0 
2.650029813010e-03 9.112206472256e-03 0.0 
0.0 0.0 0.0 
-1.220556984656e-03 3.815895285705e-03 0.0 
3.815895285705e-03 7.907293616816e-03 0.0 
0.0 0.0 0.0 
1.985745026372e-04 -2.042795844448e-03 0.0 
-2.042795844448e-03 1.676715195024e-03 0.0 
0.0 0.0 0.0 
-1.389493746175e-03 2.440233194079e-03 0.0 
2.440233194079e-03 1.159145103008e-02 0.0 
0.0 0.0 0.0 
2.143469324650e-03 -1.423756964293e-03 0.0 
-1.423756964293e-03 1.376583078891e-04 0.0 
0.0 0.0 0.0 
-8.664388114299e-05 4.392789218790e-03 0.0 
4.392789218790e-03 9.200003535228e-03 0.0 
0.0 0.0 0.0 
0.0 3.739218963935e-03 0.0 
3.739218963935e-03 1.088162037049e-02 0.0 
0.0 0.0 0.0 
0.0 2.844069570337e-03 0.0 
2.844069570337e-03 1.230215061677e-02 0.0 
0.0 0.0 0.0 
0.0 3.298316650761e-03 0.0 
3.298316650761e-03 1.167719190768e-02 0.0 
0.0 0.0 0.0 
-1.612946317027e-03 3.173564765553e-03 0.0 
3.173564765553e-03 9.297352607422e-03 0.0 
0.0 0.0 0.0 
-1.583000401081e-03 2.521619499341e-03 0.0 
2.521619499341e-03 1.158166149171e-02 0.0 
0.0 0.0 0.0 
-8.395902763731e-04 3.340394484483e-03 0.0 
3.340394484483e-03 1.021745195839e-02 0.0 
0.0 0.0 0.0 
4.090676520800e-04 4.271320751426e-03 0.0 
4.271320751426e-03 3.398072405954e-03 0.0 
0.0 0.0 0.0 
-1.843170284330e-04 4.136830418913e-03 0.0 
4.136830418913e-03 4.350471612624e-03 0.0 
0.0 0.0 0.0 
-3.603606770922e-04 -1.815937625185e-03 0.0 
-1.815937625185e-03 1.959089717338e-03 0.0 
0.0 0.0 0.0 
-1.400746757957e-03 2.809808741148e-03 0.0 
2.809808741148e-03 1.133375613508e-02 0.0 
0.0 0.0 0.0 
1.077125088027e-04 4.372719830599e-03 0.0 
4.372719830599e-03 8.126661959129e-03 0.0 
0.0 0.0 0.0 
-1.243528016328e-03 2.343653177918e-03 0.0 
2.343653177918e-03 1.192034273212e-02 0.0 
0.0 0.0 0.0 
3.529913592771e-03 2.503196013969e-03 0.0 
2.503196013969e-03 -6.225315081454e-05 0.0 
0.0 0.0 0.0 
-1.445071097214e-03 2.416540900041e-03 0.0 
2.416540900041e-03 1.191133373472e-02 0.0 
0.0 0.0 0.0 
1.088131542157e-03 3.910554585353e-03 0.0 
3.910554585353e-03 4.646814366238e-03 0.0 
0.0 0.0 0.0 
1.152152830061e-03 4.256008910668e-03 0.0 
4.256008910668e-03 2.526237565385e-03 0.0 
0.0 0.0 0.0 
-1.127869559728e-03 3.703457853335e-03 0.0 
3.703457853335e-03 6.177272344638e-03 0.0 
0.0 0.0 0.0 
2.214878769928e-03 4.064523706353e-03 0.0 
4.064523706353e-03 -1.786379891112e-03 0.0 
0.0 0.0 0.0 
-3.861645572997e-04 1.944736547807e-03 0.0 
1.944736547807e-03 1.289186547988e-02 0.0 
0.0 0.0 0.0 
8.186988939873e-04 4.261494047590e-03 0.0 
4.261494047590e-03 2.496430786772e-03 0.0 
0.0 0.0 0.0 
2.858306909355e-04 3.788487761628e-03 0.0 
3.788487761628e-03 6.988116269729e-03 0.0 
0.0 0.0 0.0 
-1.530929554511e-04 -1.945907256777e-03 0.0 
-1.945907256777e-03 1.977410450820e-03 0.0 
0.0 0.0 0.0 
2.470191465075e-03 -3.040782119115e-03 0.0 
-3.040782119115e-03 -2.212303301705e-03 0.0 
0.0 0.0 0.0 
6.086760363007e-04 1.000398586635e-03 0.0 
1.000398586635e-03 3.688056912725e-03 0.0 
0.0 0.0 0.0 
2.070723813020e-03 4.138402223459e-03 0.0 
4.138402223459e-03 -1.782433454303e-04 0.0 
0.0 0.0 0.0 
0.0 3.920262257192e-03 0.0 
3.920262257192e-03 1.044764872729e-02 0.0 
0.0 0.0 0.0 
-4.737940078655e-04 2.942337142211e-03 0.0 
2.942337142211e-03 1.186050953962e-02 0.0 
0.0 0.0 0.0 
-5.595412284619e-04 4.023208583555e-03 0.0 
4.023208583555e-03 6.377609578621e-03 0.0 
0.0 0.0 0.0 
-6.534191141051e-04 -9.515023690120e-04 0.0 
-9.515023690120e-04 7.663313573796e-04 0.0 
0.0 0.0 0.0 
0.0 4.142287558025e-03 0.0 
4.142287558025e-03 9.461211305957e-03 0.0 
0.0 0.0 0.0 
6.315603732745e-04 1.683545134398e-03 0.0 
1.683545134398e-03 3.859993197946e-03 0.0 
0.0 0.0 0.0 
3.072031142705e-03 -2.551799579605e-03 0.0 
-2.551799579605e-03 -2.289404279232e-03 0.0 
0.0 0.0 0.0 
3.516346898781e-03 1.999277634299e-03 0.0 
1.999277634299e-03 -6.825691879297e-05 0.0 
0.0 0.0 0.0 
4.813846101903e-04 3.341703320007e-03 0.0 
3.341703320007e-03 5.768378042603e-03 0.0 
0.0 0.0 0.0 
-5.001885156908e-04 -8.683483280131e-05 0.0 
-8.683483280131e-05 3.295130080216e-04 0.0 
0.0 0.0 0.0 
1.005864300616e-03 4.273244947457e-03 0.0 
4.273244947457e-03 2.479990275795e-03 0.0 
0.0 0.0 0.0 
-8.651103111994e-04 3.857055124606e-03 0.0 
3.857055124606e-03 7.247889310972e-03 0.0 
0.0 0.0 0.0 
-1.916961829957e-04 4.162461139233e-03 0.0 
4.162461139233e-03 5.442156064558e-03 0.0 
0.0 0.0 0.0 
-1.025718208311e-03 3.808507407314e-03 0.0 
3.808507407314e-03 7.130183051795e-03 0.0 
0.0 0.0 0.0 
1.853985983613e-03 4.142100580527e-03 0.0 
4.142100580527e-03 -7.922844205536e-04 0.0 
0.0 0.0 0.0 
0.0 4.182071445169e-03 0.0 
4.182071445169e-03 8.392978821077e-03 0.0 
0.0 0.0 0.0 
4.672379960304e-03 2.068695032566e-03 0.0 
2.068695032566e-03 -2.391643221333e-03 0.0 
0.0 0.0 0.0 
2.146870618240e-03 4.976966661360e-04 0.0 
4.976966661360e-04 -4.248406911360e-03 0.0 
0.0 0.0 0.0 
1.318286772396e-04 -5.306723175128e-04 0.0 
-5.306723175128e-04 4.910725360168e-03 0.0 
0.0 0.0 0.0 
-5.122975551253e-04 -7.729420173602e-04 0.0 
-7.729420173602e-04 5.044893201811e-04 0.0 
0.0 0.0 0.0 
-1.759848265351e-03 3.160678692227e-03 0.0 
3.160678692227e-03 7.869303738113e-03 0.0 
0.0 0.0 0.0 
1.729978773557e-03 -3.094669935914e-03 0.0 
-3.094669935914e-03 -2.539798305440e-03 0.0 
0.0 0.0 0.0 
-2.294369263145e-03 2.142510362937e-03 0.0 
2.142510362937e-03 9.562204706116e-03 0.0 
0.0 0.0 0.0 
6.355857977591e-04 1.856196433537e-03 0.0 
1.856196433537e-03 4.631894876527e-03 0.0 
0.0 0.0 0.0 
0.0 4.003404399265e-03 0.0 
4.003404399265e-03 7.341076254382e-03 0.0 
0.0 0.0 0.0 
-1.810061546983e-03 3.064652436591e-03 0.0 
3.064652436591e-03 9.218025618698e-03 0.0 
0.0 0.0 0.0 
5.365149309324e-04 -3.308397813586e-03 0.0 
-3.308397813586e-03 -9.794888025603e-04 0.0 
0.0 0.0 0.0 
1.894780818723e-03 8.761265629289e-04 0.0 
8.761265629289e-04 -4.719879904711e-03 0.0 
0.0 0.0 0.0 
4.726802727484e-04 -3.780412609956e-03 0.0 
-3.780412609956e-03 -1.245313480441e-03 0.0 
0.0 0.0 0.0 
6.731415116807e-04 -6.772975407898e-04 0.0 
-6.772975407898e-04 3.092301431846e-03 0.0 
0.0 0.0 0.0 
-2.331876900963e-03 9.545160896076e-04 0.0 
9.545160896076e-04 1.103975070456e-02 0.0 
0.0 0.0 0.0 
-2.552120337690e-03 1.945261110932e-03 0.0 
1.945261110932e-03 1.069194822808e-02 0.0 
0.0 0.0 0.0 
0.0 3.623355298222e-03 0.0 
3.623355298222e-03 6.391418279151e-03 0.0 
0.0 0.0 0.0 
-2.237708323711e-03 7.695269483907e-04 0.0 
7.695269483907e-04 1.112627975269e-02 0.0 
0.0 0.0 0.0 
-3.847471983736e-04 2.838648751716e-03 0.0 
2.838648751716e-03 1.241319763825e-02 0.0 
0.0 0.0 0.0 
1.189260921677e-03 3.805813630449e-03 0.0 
3.805813630449e-03 4.127526902944e-03 0.0 
0.0 0.0 0.0 
-1.919488276956e-03 8.826719214596e-04 0.0 
8.826719214596e-04 1.172708903030e-02 0.0 
0.0 0.0 0.0 
1.492701056844e-04 4.090801339789e-03 0.0 
4.090801339789e-03 2.705703309986e-03 0.0 
0.0 0.0 0.0 
3.358550894024e-03 2.357316482555e-03 0.0 
2.357316482555e-03 -1.174752722212e-04 0.0 
0.0 0.0 0.0 
2.960707052456e-03 2.889319115379e-03 0.0 
2.889319115379e-03 -2.668339019592e-03 0.0 
0.0 0.0 0.0 
0.0 3.047471289773e-03 0.0 
3.047471289773e-03 5.589089695613e-03 0.0 
0.0 0.0 0.0 
0.0 3.530636417353e-03 0.0 
3.530636417353e-03 1.129815391141e-02 0.0 
0.0 0.0 0.0 
0.0 3.069330014280e-03 0.0 
3.069330014280e-03 1.202094255243e-02 0.0 
0.0 0.0 0.0 
1.756286673297e-03 -1.627116251964e-03 0.0 
-1.627116251964e-03 1.699573106353e-04 0.0 
0.0 0.0 0.0 
-6.024433933153e-04 -1.614424097323e-03 0.0 
-1.614424097323e-03 2.203058414667e-03 0.0 
0.0 0.0 0.0 
1.387791479126e-03 4.158640802068e-03 0.0 
4.158640802068e-03 2.539777166017e-03 0.0 
0.0 0.0 0.0 
1.711777827787e-03 -1.438335753404e-03 0.0 
-1.438335753404e-03 8.218656946417e-04 0.0 
0.0 0.0 0.0 
0.0 2.398693116159e-03 0.0 
2.398693116159e-03 4.990205668136e-03 0.0 
0.0 0.0 0.0 
2.842968231182e-03 3.611360695910e-03 0.0 
3.611360695910e-03 -9.450005406308e-04 0.0 
0.0 0.0 0.0 
4.364908569610e-03 -1.117306816759e-03 0.0 
-1.117306816759e-03 -3.332199820924e-03 0.0 
0.0 0.0 0.0 
3.946578925703e-03 -1.667460747213e-03 0.0 
-1.667460747213e-03 -2.788886209681e-03 0.0 
0.0 0.0 0.0 
-1.802283072862e-03 8.689583406259e-04 0.0 
8.689583406259e-04 1.195089049309e-02 0.0 
0.0 0.0 0.0 
4.880159710139e-04 7.261760739997e-04 0.0 
7.261760739997e-04 4.448590829731e-03 0.0 
0.0 0.0 0.0 
-9.463469158950e-04 -3.490640604471e-03 0.0 
-3.490640604471e-03 -5.448810386388e-05 0.0 
0.0 0.0 0.0 
0.0 1.617628374104e-03 0.0 
1.617628374104e-03 4.567999351810e-03 0.0 
0.0 0.0 0.0 
3.310076073503e-03 -2.274561663963e-03 0.0 
-2.274561663963e-03 -2.303838699777e-03 0.0 
0.0 0.0 0.0 
0.0 4.062824539709e-03 0.0 
4.062824539709e-03 9.973375301054e-03 0.0 
0.0 0.0 0.0 
-9.951220272542e-04 3.428648696738e-03 0.0 
3.428648696738e-03 1.020352249680e-02 0.0 
0.0 0.0 0.0 
-9.750748638393e-05 -9.995373450574e-05 0.0 
-9.995373450574e-05 1.774055999919e-04 0.0 
0.0 0.0 0.0 
1.608375395845e-03 4.144543160889e-03 0.0 
4.144543160889e-03 1.590058156470e-03 0.0 
0.0 0.0 0.0 
-1.416543197168e-03 2.041495572333e-03 0.0 
2.041495572333e-03 1.233717907082e-02 0.0 
0.0 0.0 0.0 
0.0 4.192902758869e-03 0.0 
4.192902758869e-03 8.934520165371e-03 0.0 
0.0 0.0 0.0 
-1.609194842031e-03 3.373950763210e-03 0.0 
3.373950763210e-03 9.270971400167e-03 0.0 
0.0 0.0 0.0 
1.468844722291e-03 3.593299638298e-03 0.0 
3.593299638298e-03 3.715552748731e-03 0.0 
0.0 0.0 0.0 
1.342468355370e-03 4.121481919495e-03 0.0 
4.121481919495e-03 -1.451533053977e-03 0.0 
0.0 0.0 0.0 
1.205591602391e-03 1.409879056859e-03 0.0 
1.409879056859e-03 3.058378138547e-03 0.0 
0.0 0.0 0.0 
2.772045170483e-03 -2.461263764522e-03 0.0 
-2.461263764522e-03 -1.647634550657e-03 0.0 
0.0 0.0 0.0 
3.356697627529e-03 -2.228714909761e-03 0.0 
-2.228714909761e-03 -2.711305622247e-03 0.0 
0.0 0.0 0.0 
-1.797345324263e-03 -3.343404897653e-03 0.0 
-3.343404897653e-03 -3.302094918145e-05 0.0 
0.0 0.0 0.0 
0.0 4.117842507718e-03 0.0 
4.117842507718e-03 7.861481363648e-03 0.0 
0.0 0.0 0.0 
3.468233177647e-03 2.543853935828e-03 0.0 
2.543853935828e-03 -2.705041991626e-03 0.0 
0.0 0.0 0.0 
1.835987487548e-03 1.315150424895e-04 0.0 
1.315150424895e-04 1.752425405267e-03 0.0 
0.0 0.0 0.0 
-2.095179972282e-03 7.152083648329e-04 0.0 
7.152083648329e-04 1.162802712751e-02 0.0 
0.0 0.0 0.0 
9.693579441983e-04 -2.809546748143e-03 0.0 
-2.809546748143e-03 -3.134532530318e-04 0.0 
0.0 0.0 0.0 
3.846719053700e-03 -1.885965250153e-03 0.0 
-1.885965250153e-03 -3.218643112427e-03 0.0 
0.0 0.0 0.0 
-1.468063540459e-03 3.615786516195e-03 0.0 
3.615786516195e-03 8.631063275993e-03 0.0 
0.0 0.0 0.0 
0.0 3.346908379173e-03 0.0 
3.346908379173e-03 5.975417598860e-03 0.0 
0.0 0.0 0.0 
-6.842885674496e-04 -1.534745049632e-03 0.0 
-1.534745049632e-03 2.611900697533e-03 0.0 
0.0 0.0 0.0 
1.904132032514e-03 -9.750715531434e-04 0.0 
-9.750715531434e-04 6.696651837377e-04 0.0 
0.0 0.0 0.0 
7.692767618266e-04 4.263366613412e-03 0.0 
4.263366613412e-03 3.652066215050e-03 0.0 
0.0 0.0 0.0 
3.241534496983e-03 -5.829986556111e-04 0.0 
-5.829986556111e-04 -1.197553647021e-03 0.0 
0.0 0.0 0.0 
4.382286065006e-03 -1.112416124554e-03 0.0 
-1.112416124554e-03 -3.426631277239e-03 0.0 
0.0 0.0 0.0 
2.084798428934e-03 -1.333912581802e-03 0.0 
-1.333912581802e-03 1.314461105428e-05 0.0 
0.0 0.0 0.0 
4.413827501111e-04 4.296743715920e-03 0.0 
4.296743715920e-03 4.461696524860e-03 0.0 
0.0 0.0 0.0 
2.869441328683e-04 3.995001063973e-03 0.0 
3.995001063973e-03 6.173234432704e-03 0.0 
0.0 0.0 0.0 
2.919073403666e-03 2.279990066525e-03 0.0 
2.279990066525e-03 7.783917085162e-04 0.0 
0.0 0.0 0.0 
1.245769091749e-03 4.227575432329e-03 0.0 
4.227575432329e-03 2.657712397143e-03 0.0 
0.0 0.0 0.0 
5.669443240601e-04 -2.229358507031e-03 0.0 
-2.229358507031e-03 1.150867705310e-03 0.0 
0.0 0.0 0.0 
2.426855417851e-03 3.857034265317e-03 0.0 
3.857034265317e-03 -1.396011495634e-04 0.0 
0.0 0.0 0.0 
-4.529629625174e-04 -1.784533342729e-03 0.0 
-1.784533342729e-03 2.227743755881e-03 0.0 
0.0 0.0 0.0 
1.416823107584e-03 3.704443447865e-03 0.0 
3.704443447865e-03 4.143580073973e-03 0.0 
0.0 0.0 0.0 
4.323536130819e-03 1.875811696174e-03 0.0 
1.875811696174e-03 -1.887211188994e-03 0.0 
0.0 0.0 0.0 
6.160045537338e-04 1.471835451904e-03 0.0 
1.471835451904e-03 4.530021189280e-03 0.0 
0.0 0.0 0.0 
-1.288617432638e-03 2.318678838928e-03 0.0 
2.318678838928e-03 1.221317200980e-02 0.0 
0.0 0.0 0.0 
7.014715653024e-04 -2.653536699195e-03 0.0 
-2.653536699195e-03 2.510702121152e-04 0.0 
0.0 0.0 0.0 
0.0 1.995168467038e-03 0.0 
1.995168467038e-03 4.699728370491e-03 0.0 
0.0 0.0 0.0 
1.206167951551e-03 1.572847061398e-03 0.0 
1.572847061398e-03 3.795484425518e-03 0.0 
0.0 0.0 0.0 
2.897020263735e-03 3.754173040149e-03 0.0 
3.754173040149e-03 -1.191819272288e-04 0.0 
0.0 0.0 0.0 
-8.671356416750e-04 -2.319093234859e-03 0.0 
-2.319093234859e-03 8.658378002058e-04 0.0 
0.0 0.0 0.0 
5.059979695805e-04 4.261550947142e-04 0.0 
4.261550947142e-04 4.498652544312e-03 0.0 
0.0 0.0 0.0 
-1.278894661599e-03 2.696674679360e-03 0.0 
2.696674679360e-03 1.170982306027e-02 0.0 
0.0 0.0 0.0 
2.598908855645e-03 -2.749680956396e-03 0.0 
-2.749680956396e-03 -1.637533705745e-03 0.0 
0.0 0.0 0.0 
0.0 8.970563075533e-04 0.0 
8.970563075533e-04 4.421345190330e-03 0.0 
0.0 0.0 0.0 
1.638919967342e-03 -1.334303898423e-03 0.0 
-1.334303898423e-03 7.030026536325e-04 0.0 
0.0 0.0 0.0 
-5.933641483775e-04 4.015157032713e-03 0.0 
4.015157032713e-03 5.248531948996e-03 0.0 
0.0 0.0 0.0 
-2.265841913710e-03 2.105337264511e-03 0.0 
2.105337264511e-03 1.050155967299e-02 0.0 
0.0 0.0 0.0 
4.364729342009e-03 1.978762640242e-03 0.0 
1.978762640242e-03 -1.673120485156e-03 0.0 
0.0 0.0 0.0 
1.852387136713e-03 -1.844921359583e-03 0.0 
-1.844921359583e-03 -2.525003911885e-04 0.0 
0.0 0.0 0.0 
3.311540256268e-03 8.110369549136e-06 0.0 
8.110369549136e-06 -8.751410546752e-04 0.0 
0.0 0.0 0.0 
-2.100129998804e-03 2.171692345715e-03 0.0 
2.171692345715e-03 1.129096872966e-02 0.0 
0.0 0.0 0.0 
-1.345807575242e-03 3.598470182176e-03 0.0 
3.598470182176e-03 7.055776283005e-03 0.0 
0.0 0.0 0.0 
2.519550142924e-03 2.613706369524e-03 0.0 
2.613706369524e-03 1.614966639541e-03 0.0 
0.0 0.0 0.0 
-1.551889159769e-03 1.440860262340e-04 0.0 
1.440860262340e-04 1.187695874325e-02 0.0 
0.0 0.0 0.0 
2.620917487297e-04 -2.177657250438e-03 0.0 
-2.177657250438e-03 1.144822719288e-03 0.0 
0.0 0.0 0.0 
3.319360649547e-03 1.869660077181e-03 0.0 
1.869660077181e-03 -2.284640266637e-05 0.0 
0.0 0.0 0.0 
2.174645409165e-03 -2.688999053254e-03 0.0 
-2.688999053254e-03 -1.616260848854e-03 0.0 
0.0 0.0 0.0 
2.091698629614e-05 -1.289851127152e-03 0.0 
-1.289851127152e-03 2.999794156137e-03 0.0 
0.0 0.0 0.0 
-2.763095156170e-04 -2.349719506228e-04 0.0 
-2.349719506228e-04 1.508946554076e-04 0.0 
0.0 0.0 0.0 
1.974855045703e-03 4.047333589016e-03 0.0 
4.047333589016e-03 6.760334657909e-04 0.0 
0.0 0.0 0.0 
2.700459298002e-03 -2.711918671181e-03 0.0 
-2.711918671181e-03 -2.238727431825e-03 0.0 
0.0 0.0 0.0 
-1.203838891971e-04 -1.828064409457e-03 0.0 
-1.828064409457e-03 2.179004739027e-03 0.0 
0.0 0.0 0.0 
2.289269878089e-03 3.893904990378e-03 0.0 
3.893904990378e-03 9.199532258246e-04 0.0 
0.0 0.0 0.0 
2.061518679476e-03 -1.132015418365e-03 0.0 
-1.132015418365e-03 6.709019713766e-04 0.0 
0.0 0.0 0.0 
-1.978339014438e-03 7.026628982823e-04 0.0 
7.026628982823e-04 1.185428122812e-02 0.0 
0.0 0.0 0.0 
1.992961016359e-03 -2.986714853406e-03 0.0 
-2.986714853406e-03 -1.597036456933e-03 0.0 
0.0 0.0 0.0 
0.0 5.988126296020e-04 0.0 
5.988126296020e-04 4.476066438124e-03 0.0 
0.0 0.0 0.0 
-7.523513137339e-04 4.015714099131e-03 0.0 
4.015714099131e-03 7.225627930403e-03 0.0 
0.0 0.0 0.0 
-3.880064583541e-04 -1.594532560195e-03 0.0 
-1.594532560195e-03 2.643729476719e-03 0.0 
0.0 0.0 0.0 
-4.027386765714e-04 4.157116127206e-03 0.0 
4.157116127206e-03 6.358133537623e-03 0.0 
0.0 0.0 0.0 
-3.487589574571e-04 -1.727924737849e-03 0.0 
-1.727924737849e-03 2.165364373409e-03 0.0 
0.0 0.0 0.0 
-8.095686008043e-04 -1.303654742478e-04 0.0 
-1.303654742478e-04 4.530011812023e-04 0.0 
0.0 0.0 0.0 
-2.373839827919e-03 2.137973531786e-03 0.0 
2.137973531786e-03 1.081269457588e-02 0.0 
0.0 0.0 0.0 
-1.222617931297e-03 -6.218056339744e-04 0.0 
-6.218056339744e-04 3.172102865195e-03 0.0 
0.0 0.0 0.0 
1.303121809804e-03 -1.432594823000e-04 0.0 
-1.432594823000e-04 -4.363202697879e-04 0.0 
0.0 0.0 0.0 
-6.572192540635e-04 -1.459657984979e-03 0.0 
-1.459657984979e-03 2.831252781464e-03 0.0 
0.0 0.0 0.0 
1.866582422045e-03 -7.946783569333e-04 0.0 
-7.946783569333e-04 1.286344247490e-03 0.0 
0.0 0.0 0.0 
-9.211089451864e-04 6.574197209986e-04 0.0 
6.574197209986e-04 1.300792229282e-02 0.0 
0.0 0.0 0.0 
3.719064337343e-03 -2.111829022177e-04 0.0 
-2.111829022177e-04 -1.675764825395e-03 0.0 
0.0 0.0 0.0 
3.573348102977e-03 -1.784867035596e-04 0.0 
-1.784867035596e-04 -1.269542838441e-03 0.0 
0.0 0.0 0.0 
-2.643687840623e-03 1.684164097094e-03 0.0 
1.684164097094e-03 1.051698515891e-02 0.0 
0.0 0.0 0.0 
-2.227069703257e-03 5.492878881967e-04 0.0 
5.492878881967e-04 1.090448635970e-02 0.0 
0.0 0.0 0.0 
-4.258062978584e-04 2.345559569118e-03 0.0 
2.345559569118e-03 1.258947245579e-02 0.0 
0.0 0.0 0.0 
-6.080287855426e-06 4.254085465312e-03 0.0 
4.254085465312e-03 5.429437756178e-03 0.0 
0.0 0.0 0.0 
2.001618525080e-03 -1.652183817161e-04 0.0 
-1.652183817161e-04 -7.098871673041e-04 0.0 
0.0 0.0 0.0 
-7.171583618526e-05 -1.509935940546e-03 0.0 
-1.509935940546e-03 9.452659451419e-04 0.0 
0.0 0.0 0.0 
-9.096976578489e-04 -1.403997993741e-03 0.0 
-1.403997993741e-03 9.263810418767e-04 0.0 
0.0 0.0 0.0 
3.106833085937e-04 -2.469720160553e-03 0.0 
-2.469720160553e-03 5.874647505963e-04 0.0 
0.0 0.0 0.0 
-2.852276432476e-04 3.812443343470e-03 0.0 
3.812443343470e-03 8.178359759450e-03 0.0 
0.0 0.0 0.0 
-1.041623801335e-03 6.394480237763e-04 0.0 
6.394480237763e-04 1.301050508114e-02 0.0 
0.0 0.0 0.0 
7.454436923617e-04 -7.507713517817e-04 0.0 
-7.507713517817e-04 3.083623248793e-03 0.0 
0.0 0.0 0.0 
-7.860795027681e-05 -2.051830839300e-03 0.0 
-2.051830839300e-03 1.266519819831e-03 0.0 
0.0 0.0 0.0 
-2.389545873878e-04 -1.267017646848e-03 0.0 
-1.267017646848e-03 2.997802002930e-03 0.0 
0.0 0.0 0.0 
1.675328725306e-03 1.725549918412e-04 0.0 
1.725549918412e-04 2.215800185925e-03 0.0 
0.0 0.0 0.0 
3.087476127348e-03 4.141739912659e-04 0.0 
4.141739912659e-04 -4.206437835165e-03 0.0 
0.0 0.0 0.0 
-1.229249284085e-03 -3.819815484731e-04 0.0 
-3.819815484731e-04 3.167790059811e-03 0.0 
0.0 0.0 0.0 
-1.096908364541e-03 -3.481343318295e-04 0.0 
-3.481343318295e-04 2.798383957684e-03 0.0 
0.0 0.0 0.0 
3.881510665165e-04 1.327875793787e-04 0.0 
1.327875793787e-04 4.570781102899e-03 0.0 
0.0 0.0 0.0 
0.0 2.908595457659e-04 0.0 
2.908595457659e-04 4.521196875600e-03 0.0 
0.0 0.0 0.0 
-1.265414784433e-03 -3.966337670798e-04 0.0 
-3.966337670798e-04 3.388198376587e-03 0.0 
0.0 0.0 0.0 
-5.897703207577e-04 -1.481067253210e-03 0.0 
-1.481067253210e-03 2.627586831070e-03 0.0 
0.0 0.0 0.0 
1.768659916588e-03 -1.690499374678e-03 0.0 
-1.690499374678e-03 3.799971836156e-04 0.0 
0.0 0.0 0.0 
1.626317559712e-03 5.292657134834e-04 0.0 
5.292657134834e-04 2.497124690802e-03 0.0 
0.0 0.0 0.0 
-2.754544040482e-04 -1.600010190090e-03 0.0 
-1.600010190090e-03 1.073514334683e-03 0.0 
0.0 0.0 0.0 
1.690563462499e-03 -1.771585488528e-04 0.0 
-1.771585488528e-04 2.016928318849e-03 0.0 
0.0 0.0 0.0 
1.124006430125e-03 -4.144515564347e-04 0.0 
-4.144515564347e-04 2.618506219325e-04 0.0 
0.0 0.0 0.0 
-6.025729405927e-04 -1.568064805141e-03 0.0 
-1.568064805141e-03 2.400328071235e-03 0.0 
0.0 0.0 0.0 
-4.975150984932e-05 -1.832742335675e-03 0.0 
-1.832742335675e-03 1.896768196206e-03 0.0 
0.0 0.0 0.0 
1.297695256804e-03 -2.139479490635e-04 0.0 
-2.139479490635e-04 -1.560623807820e-04 0.0 
0.0 0.0 0.0 
-1.281816762684e-03 -3.710072804282e-04 0.0 
-3.710072804282e-04 3.348280838535e-03 0.0 
0.0 0.0 0.0 
-1.062584951160e-03 2.268608732230e-03 0.0 
2.268608732230e-03 1.222017323657e-02 0.0 
0.0 0.0 0.0 
2.241403682586e-03 -1.071895739126e-04 0.0 
-1.071895739126e-04 -7.983615404733e-04 0.0 
0.0 0.0 0.0 
-2.320594608258e-03 7.067140279984e-04 0.0 
7.067140279984e-04 1.085596445416e-02 0.0 
0.0 0.0 0.0 
-2.328116740726e-03 8.504453375096e-04 0.0 
8.504453375096e-04 1.070821984828e-02 0.0 
0.0 0.0 0.0 
3.271524452842e-03 6.048022327959e-04 0.0 
6.048022327959e-04 -3.911234469308e-04 0.0 
0.0 0.0 0.0 
-1.062669228057e-03 -8.961915385872e-05 0.0 
-8.961915385872e-05 2.807903970541e-03 0.0 
0.0 0.0 0.0 
2.068745279158e-03 -2.724094192313e-03 0.0 
-2.724094192313e-03 -9.928662251604e-04 0.0 
0.0 0.0 0.0 
1.030774120135e-03 3.976944324178e-03 0.0 
3.976944324178e-03 4.202391887560e-04 0.0 
0.0 0.0 0.0 
3.485932199625e-04 -5.553525766503e-04 0.0 
-5.553525766503e-04 4.079698890850e-03 0.0 
0.0 0.0 0.0 
9.701760343028e-05 3.944012396353e-03 0.0 
3.944012396353e-03 7.713453638244e-03 0.0 
0.0 0.0 0.0 
-1.343495876917e-03 9.418296887550e-04 0.0 
9.418296887550e-04 1.277248726910e-02 0.0 
0.0 0.0 0.0 
2.428704032555e-04 4.047953595061e-03 0.0 
4.047953595061e-03 2.710713994584e-03 0.0 
0.0 0.0 0.0 
-4.049121826910e-04 -1.238479454916e-03 0.0 
-1.238479454916e-03 8.535978788242e-04 0.0 
0.0 0.0 0.0 
-2.016726524671e-03 3.273382725768e-03 0.0 
3.273382725768e-03 8.491226578154e-03 0.0 
0.0 0.0 0.0 
-1.958417184112e-03 2.591512454006e-04 0.0 
2.591512454006e-04 1.095644231924e-02 0.0 
0.0 0.0 0.0 
-1.900210422870e-03 2.324596537632e-04 0.0 
2.324596537632e-04 1.090480643318e-02 0.0 
0.0 0.0 0.0 
1.517764149051e-03 -1.274180287022e-04 0.0 
-1.274180287022e-04 -5.333189807183e-04 0.0 
0.0 0.0 0.0 
1.124349655303e-03 -2.870130685937e-04 0.0 
-2.870130685937e-04 -7.845471425560e-05 0.0 
0.0 0.0 0.0 
8.949712898296e-04 -1.836504713393e-04 0.0 
-1.836504713393e-04 3.801640081362e-04 0.0 
0.0 0.0 0.0 
-2.807930298094e-04 -1.779432674753e-03 0.0 
-1.779432674753e-03 1.401615933671e-03 0.0 
0.0 0.0 0.0 
1.919799904465e-03 -1.832683522181e-04 0.0 
-1.832683522181e-04 -3.989323685163e-04 0.0 
0.0 0.0 0.0 
-1.273152239785e-03 -3.558219552240e-04 0.0 
-3.558219552240e-04 3.570523357991e-03 0.0 
0.0 0.0 0.0 
-1.576690285193e-03 -1.219162330324e-03 0.0 
-1.219162330324e-03 -1.723982300749e-03 0.0 
0.0 0.0 0.0 
-2.496820561783e-04 -1.939877088419e-03 0.0 
-1.939877088419e-03 1.538089718875e-03 0.0 
0.0 0.0 0.0 
-1.371891999213e-03 1.961621294351e-04 0.0 
1.961621294351e-04 1.217803580958e-02 0.0 
0.0 0.0 0.0 
-2.155266425009e-03 5.145022037432e-04 0.0 
5.145022037432e-04 1.083782727136e-02 0.0 
0.0 0.0 0.0 
-4.568919212895e-04 3.772011865014e-03 0.0 
3.772011865014e-03 8.885953631965e-03 0.0 
0.0 0.0 0.0 
1.629012971015e-03 -1.123040919336e-03 0.0 
-1.123040919336e-03 1.343395630750e-03 0.0 
0.0 0.0 0.0 
-1.459038251133e-03 1.372305330863e-04 0.0 
1.372305330863e-04 1.187023089558e-02 0.0 
0.0 0.0 0.0 
-1.170458080101e-03 -1.309151396752e-04 0.0 
-1.309151396752e-04 2.971295510811e-03 0.0 
0.0 0.0 0.0 
1.425498690345e-03 -2.294057755877e-04 0.0 
-2.294057755877e-04 1.523608036844e-04 0.0 
0.0 0.0 0.0 
0.0 1.268111853878e-03 0.0 
1.268111853878e-03 1.343458303030e-02 0.0 
0.0 0.0 0.0 
-3.423641650077e-04 1.410762323001e-03 0.0 
1.410762323001e-03 1.338563437704e-02 0.0 
0.0 0.0 0.0 
-1.900140576372e-03 6.762142895116e-04 0.0 
6.762142895116e-04 1.163067009287e-02 0.0 
0.0 0.0 0.0 
-2.055015860493e-03 3.278069799709e-04 0.0 
3.278069799709e-04 1.094473932821e-02 0.0 
0.0 0.0 0.0 
-1.124620481364e-03 -3.437304416896e-04 0.0 
-3.437304416896e-04 2.934647833030e-03 0.0 
0.0 0.0 0.0 
-2.992440463041e-04 1.000100148477e-03 0.0 
1.000100148477e-03 1.354249644574e-02 0.0 
0.0 0.0 0.0 
-8.396183927373e-05 -1.937412601664e-03 0.0 
-1.937412601664e-03 1.199395630340e-03 0.0 
0.0 0.0 0.0 
-2.244141234149e-03 6.636990615731e-04 0.0 
6.636990615731e-04 1.077946422950e-02 0.0 
0.0 0.0 0.0 
-2.140571982468e-03 4.310382463910e-04 0.0 
4.310382463910e-04 1.093184118520e-02 0.0 
0.0 0.0 0.0 
-2.211628215207e-03 2.358813867693e-03 0.0 
2.358813867693e-03 9.124646347673e-03 0.0 
0.0 0.0 0.0 
0.0 2.616915955436e-03 0.0 
2.616915955436e-03 1.253990421037e-02 0.0 
0.0 0.0 0.0 
-3.386500218096e-04 1.204616537151e-03 0.0 
1.204616537151e-03 1.347388679430e-02 0.0 
0.0 0.0 0.0 
1.759964608418e-03 -2.420783043056e-04 0.0 
-2.420783043056e-04 -3.438178484613e-04 0.0 
0.0 0.0 0.0 
1.759837982309e-03 -1.069425099807e-04 0.0 
-1.069425099807e-04 -6.375735339529e-04 0.0 
0.0 0.0 0.0 
-3.389776410256e-04 -1.209121450502e-03 0.0 
-1.209121450502e-03 9.270517300279e-04 0.0 
0.0 0.0 0.0 
2.208222151745e-04 -1.887413605562e-03 0.0 
-1.887413605562e-03 1.903404504955e-03 0.0 
0.0 0.0 0.0 
-4.163598182600e-04 -9.578661044987e-05 0.0 
-9.578661044987e-05 5.593841777450e-03 0.0 
0.0 0.0 0.0 
-4.431639380166e-03 -2.032418924450e-03 0.0 
-2.032418924450e-03 -1.591967512490e-03 0.0 
0.0 0.0 0.0 
-1.057940415462e-03 7.794774420240e-05 0.0 
7.794774420240e-05 1.283110383419e-02 0.0 
0.0 0.0 0.0 
-1.751001769455e-03 -1.141833424087e-03 0.0 
-1.141833424087e-03 8.217071662981e-04 0.0 
0.0 0.0 0.0 
3.226236312688e-03 9.341107479493e-05 0.0 
9.341107479493e-05 -4.430412194498e-04 0.0 
0.0 0.0 0.0 
-9.961091558541e-04 -7.327303319713e-04 0.0 
-7.327303319713e-04 9.849380939708e-05 0.0 
0.0 0.0 0.0 
-2.623610245375e-03 -2.307256843234e-03 0.0 
-2.307256843234e-03 -2.755522677848e-04 0.0 
0.0 0.0 0.0 
3.169200126254e-03 -4.589075749365e-04 0.0 
-4.589075749365e-04 -6.793385677250e-04 0.0 
0.0 0.0 0.0 
-3.230886380632e-04 -3.930927638641e-04 0.0 
-3.930927638641e-04 5.187310269990e-03 0.0 
0.0 0.0 0.0 
-1.464791053592e-03 1.451562732329e-04 0.0 
1.451562732329e-04 1.215080271665e-02 0.0 
0.0 0.0 0.0 
-1.581862819855e-03 3.672521110829e-03 0.0 
3.672521110829e-03 7.808316832778e-03 0.0 
0.0 0.0 0.0 
1.426151945724e-03 -1.572089899678e-04 0.0 
-1.572089899678e-04 -2.105330268569e-04 0.0 
0.0 0.0 0.0 
-4.292715966275e-04 -1.049820820822e-03 0.0 
-1.049820820822e-03 3.453469364248e-03 0.0 
0.0 0.0 0.0 
0.0 3.991946981730e-04 0.0 
3.991946981730e-04 1.365502389903e-02 0.0 
0.0 0.0 0.0 
-2.723371769835e-04 4.555000856435e-04 0.0 
4.555000856435e-04 1.365637323860e-02 0.0 
0.0 0.0 0.0 
-2.059344177027e-03 3.973354696219e-04 0.0 
3.973354696219e-04 1.086586698852e-02 0.0 
0.0 0.0 0.0 
3.148970493759e-03 6.252727274797e-04 0.0 
6.252727274797e-04 -6.861801808511e-05 0.0 
0.0 0.0 0.0 
0.0 1.066373121442e-03 0.0 
1.066373121442e-03 1.351583043479e-02 0.0 
0.0 0.0 0.0 
1.644672469550e-03 3.462071877040e-03 0.0 
3.462071877040e-03 3.733683543330e-03 0.0 
0.0 0.0 0.0 
1.501399113199e-03 -1.213312304919e-04 0.0 
-1.213312304919e-04 1.013143862691e-04 0.0 
0.0 0.0 0.0 
2.037645420478e-03 -1.246024769142e-04 0.0 
-1.246024769142e-04 -4.513787496564e-04 0.0 
0.0 0.0 0.0 
1.517437155230e-03 -4.809578395792e-05 0.0 
-4.809578395792e-05 -2.239472314792e-04 0.0 
0.0 0.0 0.0 
-1.277591457043e-03 -1.239768610009e-04 0.0 
-1.239768610009e-04 3.246991913960e-03 0.0 
0.0 0.0 0.0 
-1.405669834058e-04 -3.886714377625e-04 0.0 
-3.886714377625e-04 5.881045584662e-03 0.0 
0.0 0.0 0.0 
-4.682010438211e-04 -7.382313800488e-06 0.0 
-7.382313800488e-06 1.346230294515e-02 0.0 
0.0 0.0 0.0 
2.039671686401e-03 -7.505317839270e-05 0.0 
-7.505317839270e-05 -7.670025617466e-04 0.0 
0.0 0.0 0.0 
-1.296132384688e-03 -1.474316833637e-04 0.0 
-1.474316833637e-04 3.570222826885e-03 0.0 
0.0 0.0 0.0 
0.0 -2.873970027674e-04 0.0 
-2.873970027674e-04 5.953890886156e-03 0.0 
0.0 0.0 0.0 
-1.310731775125e-04 -4.496571133499e-04 0.0 
-4.496571133499e-04 5.782731409732e-03 0.0 
0.0 0.0 0.0 
3.807501114368e-04 -1.035245916179e-04 0.0 
-1.035245916179e-04 4.682388566118e-03 0.0 
0.0 0.0 0.0 
-1.216636710453e-03 9.348448682763e-05 0.0 
9.348448682763e-05 1.254393822060e-02 0.0 
0.0 0.0 0.0 
-9.502816488502e-04 -1.439872448847e-05 0.0 
-1.439872448847e-05 1.297206285525e-02 0.0 
0.0 0.0 0.0 
0.0 -3.681701736852e-04 0.0 
-3.681701736852e-04 5.832781546994e-03 0.0 
0.0 0.0 0.0 
0.0 -4.422821277174e-04 0.0 
-4.422821277174e-04 5.730524450681e-03 0.0 
0.0 0.0 0.0 
-1.040791346839e-03 1.061247716819e-04 0.0 
1.061247716819e-04 1.283209234787e-02 0.0 
0.0 0.0 0.0 
2.773195606190e-03 -3.678481440493e-06 0.0 
-3.678481440493e-06 -1.064364303730e-03 0.0 
0.0 0.0 0.0 
-1.775225519420e-03 1.383818765774e-04 0.0 
1.383818765774e-04 1.090274098258e-02 0.0 
0.0 0.0 0.0 
-1.979469339320e-03 3.100832600043e-04 0.0 
3.100832600043e-04 1.090458665287e-02 0.0 
0.0 0.0 0.0 
1.920559801785e-03 -8.393670431736e-05 0.0 
-8.393670431736e-05 -7.074689763622e-04 0.0 
0.0 0.0 0.0 
0.0 -4.748378148420e-04 0.0 
-4.748378148420e-04 5.293823478303e-03 0.0 
0.0 0.0 0.0 
2.625877366351e-04 -2.952499759138e-04 0.0 
-2.952499759138e-04 4.822087777925e-03 0.0 
0.0 0.0 0.0 
0.0 -3.004591225479e-04 0.0 
-3.004591225479e-04 4.895814084814e-03 0.0 
0.0 0.0 0.0 
2.607982627677e-03 -6.638192621588e-05 0.0 
-6.638192621588e-05 -9.527968513695e-04 0.0 
0.0 0.0 0.0 
2.444166215598e-03 -8.844197344599e-05 0.0 
-8.844197344599e-05 -8.870952495746e-04 0.0 
0.0 0.0 0.0 
0.0 6.189070722838e-05 0.0 
6.189070722838e-05 4.618300135296e-03 0.0 
0.0 0.0 0.0 
0.0 -1.491486085288e-04 0.0 
-1.491486085288e-04 4.741353528024e-03 0.0 
0.0 0.0 0.0 
-1.296844012795e-03 -2.101701980909e-05 0.0 
-2.101701980909e-05 1.238482357929e-02 0.0 
0.0 0.0 0.0 
-1.656314332146e-03 6.027866317317e-05 0.0 
6.027866317317e-05 1.088701843216e-02 0.0 
0.0 0.0 0.0 
-1.136618381899e-03 -1.714049013767e-05 0.0 
-1.714049013767e-05 1.269052584320e-02 0.0 
0.0 0.0 0.0 
-1.509487179648e-03 -2.585581640632e-05 0.0 
-2.585581640632e-05 1.169909149837e-02 0.0 
0.0 0.0 0.0 
-1.608707495706e-03 2.306545283152e-05 0.0 
2.306545283152e-05 1.087676092753e-02 0.0 
0.0 0.0 0.0 
1.668737817530e-03 -1.941382255478e-04 0.0 
-1.941382255478e-04 -5.711958967929e-04 0.0 
0.0 0.0 0.0 
8.589562127614e-04 -1.664931568691e-04 0.0 
-1.664931568691e-04 -1.741701736070e-04 0.0 
0.0 0.0 0.0 
5.535122795377e-04 -1.610659373622e-04 0.0 
-1.610659373622e-04 -4.639377782167e-05 0.0 
0.0 0.0 0.0 
1.850120623079e-04 -1.279972315538e-04 0.0 
-1.279972315538e-04 1.414365568224e-04 0.0 
0.0 0.0 0.0 
-1.285790438283e-03 -9.715637511170e-05 0.0 
-9.715637511170e-05 3.708678355400e-03 0.0 
0.0 0.0 0.0 
-1.305981098933e-03 -1.139131632828e-04 0.0 
-1.139131632828e-04 3.483273128000e-03 0.0 
0.0 0.0 0.0 
1.251050681739e-04 -1.738734500824e-04 0.0 
-1.738734500824e-04 7.896890313575e-05 0.0 
0.0 0.0 0.0 
-1.039032136752e-03 -5.659316661150e-05 0.0 
-5.659316661150e-05 4.369533955892e-03 0.0 
0.0 0.0 0.0 
-1.920148752000e-04 -1.716840313689e-04 0.0 
-1.716840313689e-04 2.205635530070e-04 0.0 
0.0 0.0 0.0 
0.0 2.134379791310e-03 0.0 
2.134379791310e-03 1.295119419297e-02 0.0 
0.0 0.0 0.0 
0.0 8.916477504788e-04 0.0 
8.916477504788e-04 1.356832838643e-02 0.0 
0.0 0.0 0.0 
0.0 1.477974843440e-03 0.0 
1.477974843440e-03 1.333316345540e-02 0.0 
0.0 0.0 0.0 
3.868880265814e-04 -1.242031529661e-04 0.0 
-1.242031529661e-04 1.103961594147e-03 0.0 
0.0 0.0 0.0 
-9.624091139337e-04 -1.311200918808e-04 0.0 
-1.311200918808e-04 2.632980091020e-03 0.0 
0.0 0.0 0.0 
0.0 7.066124757561e-04 0.0 
7.066124757561e-04 1.359480340241e-02 0.0 
0.0 0.0 0.0 
-6.554777205504e-04 -1.413222741572e-05 0.0 
-1.413222741572e-05 5.178979784785e-03 0.0 
0.0 0.0 0.0 
0.0 5.569738700294e-04 0.0 
5.569738700294e-04 1.365870137864e-02 0.0 
0.0 0.0 0.0 
-5.073866015053e-04 -1.863327050166e-06 0.0 
-1.863327050166e-06 5.468739523734e-03 0.0 
0.0 0.0 0.0 
-3.344835144334e-04 4.959688984014e-06 0.0 
4.959688984014e-06 5.749797421206e-03 0.0 
0.0 0.0 0.0 
-1.291734185429e-03 -1.409341952715e-04 0.0 
-1.409341952715e-04 3.348195197870e-03 0.0 
0.0 0.0 0.0 
-3.260677107163e-04 8.066234510527e-04 0.0 
8.066234510527e-04 1.358216256736e-02 0.0 
0.0 0.0 0.0 
-2.636042805012e-04 6.780911076147e-04 0.0 
6.780911076147e-04 1.361899900149e-02 0.0 
0.0 0.0 0.0 
-5.747166733902e-04 -1.128374609930e-04 0.0 
-1.128374609930e-04 5.289668656760e-03 0.0 
0.0 0.0 0.0 
-4.190452023487e-04 -1.126310109514e-04 0.0 
-1.126310109514e-04 5.594797383800e-03 0.0 
0.0 0.0 0.0 
-6.872366778231e-04 -6.362063104720e-04 0.0 
-6.362063104720e-04 4.213776436192e-03 0.0 
0.0 0.0 0.0 
-1.234106194380e-03 -3.580251204436e-04 0.0 
-3.580251204436e-04 6.110653260076e-04 0.0 
0.0 0.0 0.0 
-8.056912926240e-04 -1.363038505848e-03 0.0 
-1.363038505848e-03 2.588266796705e-03 0.0 
0.0 0.0 0.0 
1.527685593028e-03 -3.220030154556e-04 0.0 
-3.220030154556e-04 -2.325757455903e-04 0.0 
0.0 0.0 0.0 
2.012137381646e-04 -6.230452724428e-04 0.0 
-6.230452724428e-04 4.086925266663e-03 0.0 
0.0 0.0 0.0 
-4.279282390289e-04 -1.707156062933e-03 0.0 
-1.707156062933e-03 2.420388225829e-03 0.0 
0.0 0.0 0.0 
-2.850792405776e-04 -5.879504087980e-04 0.0 
-5.879504087980e-04 4.528107338632e-03 0.0 
0.0 0.0 0.0 
-6.624988062198e-05 -1.717335286924e-03 0.0 
-1.717335286924e-03 1.127189998185e-03 0.0 
0.0 0.0 0.0 
3.604439716471e-04 -6.133527431987e-04 0.0 
-6.133527431987e-04 5.399198542539e-04 0.0 
0.0 0.0 0.0 
-3.459173673922e-04 -5.091331266549e-04 0.0 
-5.091331266549e-04 4.883133363439e-03 0.0 
0.0 0.0 0.0 
-8.101239359835e-04 -1.310058515927e-03 0.0 
-1.310058515927e-03 2.808217699416e-03 0.0 
0.0 0.0 0.0 
-1.219282503661e-03 -3.705058598716e-04 0.0 
-3.705058598716e-04 3.093280167277e-03 0.0 
0.0 0.0 0.0 
-4.239905865525e-04 -5.921570341109e-04 0.0 
-5.921570341109e-04 4.529650247763e-03 0.0 
0.0 0.0 0.0 
-7.103157032738e-04 3.355131514884e-04 0.0 
3.355131514884e-04 1.319088585677e-02 0.0 
0.0 0.0 0.0 
-1.223647572809e-03 -1.202854052608e-04 0.0 
-1.202854052608e-04 3.098014924204e-03 0.0 
0.0 0.0 0.0 
1.698006940447e-03 -6.402025558904e-04 0.0 
-6.402025558904e-04 1.353817379679e-03 0.0 
0.0 0.0 0.0 
6.192604864026e-04 -1.416453187054e-03 0.0 
-1.416453187054e-03 2.288570155370e-03 0.0 
0.0 0.0 0.0 
-5.318703208729e-04 -6.825800841200e-04 0.0 
-6.825800841200e-04 4.220002462916e-03 0.0 
0.0 0.0 0.0 
-6.341218240130e-04 -4.973216441364e-04 0.0 
-4.973216441364e-04 4.517546715653e-03 0.0 
0.0 0.0 0.0 
4.810339194016e-03 2.099074949061e-03 0.0 
2.099074949061e-03 -3.122253783877e-03 0.0 
0.0 0.0 0.0 
-1.752540524107e-03 3.547410711294e-03 0.0 
3.547410711294e-03 7.814250870393e-03 0.0 
0.0 0.0 0.0 
2.026569750187e-03 3.976644132684e-03 0.0 
3.976644132684e-03 1.725665694084e-03 0.0 
0.0 0.0 0.0 
-2.048037991321e-04 -1.084632494542e-03 0.0 
-1.084632494542e-03 3.457501357852e-03 0.0 
0.0 0.0 0.0 
-4.927017307609e-04 -4.577518817070e-04 0.0 
-4.577518817070e-04 4.855538677275e-03 0.0 
0.0 0.0 0.0 
-6.900530291747e-04 -3.272340326943e-04 0.0 
-3.272340326943e-04 4.767875304893e-03 0.0 
0.0 0.0 0.0 
1.805793192269e-04 -2.393152260000e-03 0.0 
-2.393152260000e-03 7.019565180983e-04 0.0 
0.0 0.0 0.0 
-7.701770636350e-04 5.789179654151e-04 0.0 
5.789179654151e-04 1.315348752829e-02 0.0 
0.0 0.0 0.0 
-1.001514102235e-03 5.055470060288e-04 0.0 
5.055470060288e-04 1.290770978030e-02 0.0 
0.0 0.0 0.0 
-1.633413289491e-03 2.111505666889e-04 0.0 
2.111505666889e-04 1.143388384642e-02 0.0 
0.0 0.0 0.0 
5.844593880067e-05 -1.071572635506e-03 0.0 
-1.071572635506e-03 3.340781917460e-03 0.0 
0.0 0.0 0.0 
-3.886673053479e-04 -8.799489680803e-04 0.0 
-8.799489680803e-04 3.863138978028e-03 0.0 
0.0 0.0 0.0 
-7.989931818632e-04 3.198797460087e-04 0.0 
3.198797460087e-04 1.319705362203e-02 0.0 
0.0 0.0 0.0 
-8.828823239341e-04 4.359775392731e-04 0.0 
4.359775392731e-04 1.305868123774e-02 0.0 
0.0 0.0 0.0 
6.121594772577e-04 -1.621915454137e-03 0.0 
-1.621915454137e-03 1.702096374173e-03 0.0 
0.0 0.0 0.0 
-3.845857860005e-04 -4.057129050810e-04 0.0 
-4.057129050810e-04 5.188569168882e-03 0.0 
0.0 0.0 0.0 
-1.177185743885e-03 9.438523854955e-04 0.0 
9.438523854955e-04 1.277167216246e-02 0.0 
0.0 0.0 0.0 
-7.449384380266e-04 -2.745057139844e-04 0.0 
-2.745057139844e-04 4.767924931858e-03 0.0 
0.0 0.0 0.0 
5.242707259479e-05 -5.929438241037e-04 0.0 
-5.929438241037e-04 4.550088672826e-03 0.0 
0.0 0.0 0.0 
-8.662532539713e-04 5.656064718061e-04 0.0 
5.656064718061e-04 1.315635079870e-02 0.0 
0.0 0.0 0.0 
-1.439014555965e-03 4.492437906905e-04 0.0 
4.492437906905e-04 1.247155523075e-02 0.0 
0.0 0.0 0.0 
1.499907513178e-03 -9.822718068541e-04 0.0 
-9.822718068541e-04 1.316821591463e-03 0.0 
0.0 0.0 0.0 
-5.113850863802e-04 -8.427692229354e-04 0.0 
-8.427692229354e-04 1.880410334703e-03 0.0 
0.0 0.0 0.0 
2.558109053772e-04 -2.545578100394e-03 0.0 
-2.545578100394e-03 4.519103710983e-04 0.0 
0.0 0.0 0.0 
-6.525406934632e-05 -1.039430658111e-03 0.0 
-1.039430658111e-03 8.249165538339e-04 0.0 
0.0 0.0 0.0 
-1.241753583192e-03 -1.878534778337e-03 0.0 
-1.878534778337e-03 4.802798857106e-04 0.0 
0.0 0.0 0.0 
-9.461451179987e-04 4.122832277851e-04 0.0 
4.122832277851e-04 1.306113572183e-02 0.0 
0.0 0.0 0.0 
-4.458713389660e-04 -3.284207933745e-04 0.0 
-3.284207933745e-04 5.132828768900e-03 0.0 
0.0 0.0 0.0 
-8.180656819394e-04 -1.147847492114e-03 0.0 
-1.147847492114e-03 5.918243033056e-04 0.0 
0.0 0.0 0.0 
-1.199454531643e-03 3.066579130929e-03 0.0 
3.066579130929e-03 1.106242974832e-02 0.0 
0.0 0.0 0.0 
-1.636467528276e-03 2.831795294257e-04 0.0 
2.831795294257e-04 1.161509592353e-02 0.0 
0.0 0.0 0.0 
-3.197975585356e-04 -7.422721203991e-04 0.0 
-7.422721203991e-04 4.150833090976e-03 0.0 
0.0 0.0 0.0 
-5.348887764337e-04 -4.048473361590e-04 0.0 
-4.048473361590e-04 4.817426610933e-03 0.0 
0.0 0.0 0.0 
1.600579500795e-03 -2.603754834916e-03 0.0 
-2.603754834916e-03 -4.055973999861e-04 0.0 
0.0 0.0 0.0 
-6.402822104810e-04 -3.885903875947e-04 0.0 
-3.885903875947e-04 4.815633740130e-03 0.0 
0.0 0.0 0.0 
-1.713948208127e-03 1.637023309733e-04 0.0 
1.637023309733e-04 1.143284029842e-02 0.0 
0.0 0.0 0.0 
3.002041795879e-03 1.995314639520e-03 0.0 
1.995314639520e-03 8.198263394550e-04 0.0 
0.0 0.0 0.0 
-7.829142126825e-07 -4.899124927609e-04 0.0 
-4.899124927609e-04 4.957011480357e-03 0.0 
0.0 0.0 0.0 
-4.550116764616e-04 -4.746739140401e-04 0.0 
-4.746739140401e-04 1.907009555699e-03 0.0 
0.0 0.0 0.0 
3.244081320029e-04 -5.417979393304e-04 0.0 
-5.417979393304e-04 4.142171077186e-03 0.0 
0.0 0.0 0.0 
-1.301365429060e-03 4.053037082296e-04 0.0 
4.053037082296e-04 1.263833530277e-02 0.0 
0.0 0.0 0.0 
-6.615797061080e-04 -7.047416537186e-04 0.0 
-7.047416537186e-04 2.136483991380e-03 0.0 
0.0 0.0 0.0 
4.939335686822e-04 -2.641624747084e-03 0.0 
-2.641624747084e-03 2.504148762621e-04 0.0 
0.0 0.0 0.0 
-1.066935852486e-03 -6.634719115125e-04 0.0 
-6.634719115125e-04 3.752419861103e-03 0.0 
0.0 0.0 0.0 
-1.557539678058e-03 5.142337308539e-04 0.0 
5.142337308539e-04 1.211402745130e-02 0.0 
0.0 0.0 0.0 
-4.664124847129e-04 -1.805217792907e-03 0.0 
-1.805217792907e-03 2.051283937146e-03 0.0 
0.0 0.0 0.0 
-1.162453756839e-03 3.516648646896e-04 0.0 
3.516648646896e-04 1.280214267447e-02 0.0 
0.0 0.0 0.0 
-1.455292970420e-03 3.222117061621e-04 0.0 
3.222117061621e-04 1.233234175472e-02 0.0 
0.0 0.0 0.0 
-6.053297596019e-04 -1.345992301174e-03 0.0 
-1.345992301174e-03 3.060655811072e-03 0.0 
0.0 0.0 0.0 
-7.424739923214e-04 -4.472974990725e-04 0.0 
-4.472974990725e-04 4.514121286436e-03 0.0 
0.0 0.0 0.0 
-5.888436498517e-04 -5.455128136561e-04 0.0 
-5.455128136561e-04 4.521535476510e-03 0.0 
0.0 0.0 0.0 
-1.196760943686e-03 4.280240424471e-04 0.0 
4.280240424471e-04 1.263457748526e-02 0.0 
0.0 0.0 0.0 
-6.876909005249e-05 -8.136260145764e-04 0.0 
-8.136260145764e-04 1.345183062193e-03 0.0 
0.0 0.0 0.0 
-8.395030854785e-04 -1.199610849259e-03 0.0 
-1.199610849259e-03 3.192013360955e-03 0.0 
0.0 0.0 0.0 
1.762378713705e-03 2.885650242128e-03 0.0 
2.885650242128e-03 3.212967644170e-03 0.0 
0.0 0.0 0.0 
-1.261957595341e-03 5.458513508315e-04 0.0 
5.458513508315e-04 1.275483361924e-02 0.0 
0.0 0.0 0.0 
-8.782594975261e-04 -1.278586662057e-03 0.0 
-1.278586662057e-03 2.972915571879e-03 0.0 
0.0 0.0 0.0 
2.976178757887e-04 -1.449568364710e-03 0.0 
-1.449568364710e-03 2.295949580346e-03 0.0 
0.0 0.0 0.0 
5.313814582477e-04 -5.198425318944e-04 0.0 
-5.198425318944e-04 3.669973896550e-03 0.0 
0.0 0.0 0.0 
-1.322979571325e-03 4.691970862855e-04 0.0 
4.691970862855e-04 1.246883400505e-02 0.0 
0.0 0.0 0.0 
1.748898463920e-03 -8.079039674652e-04 0.0 
-8.079039674652e-04 -4.539973118044e-03 0.0 
0.0 0.0 0.0 
2.911822290763e-04 -7.085697867997e-04 0.0 
-7.085697867997e-04 6.671409674219e-04 0.0 
0.0 0.0 0.0 
3.758649234617e-03 3.459409324514e-04 0.0 
3.459409324514e-04 -4.052463748485e-03 0.0 
0.0 0.0 0.0 
-3.901358893951e-04 -4.571868348113e-04 0.0 
-4.571868348113e-04 4.854868709159e-03 0.0 
0.0 0.0 0.0 
-1.443108046271e-03 4.975632457551e-04 0.0 
4.975632457551e-04 1.229527237828e-02 0.0 
0.0 0.0 0.0 
-1.088754974131e-03 -4.550891914708e-04 0.0 
-4.550891914708e-04 3.959064927593e-03 0.0 
0.0 0.0 0.0 
-1.654352115807e-03 3.909283945223e-04 0.0 
3.909283945223e-04 1.178302689984e-02 0.0 
0.0 0.0 0.0 
1.489005261872e-03 -2.358311616072e-05 0.0 
-2.358311616072e-05 2.245191141424e-03 0.0 
0.0 0.0 0.0 
-7.747063169240e-04 -1.088426197601e-03 0.0 
-1.088426197601e-03 3.423490694219e-03 0.0 
0.0 0.0 0.0 
-4.507787329726e-04 -5.627380694135e-04 0.0 
-5.627380694135e-04 4.523364017413e-03 0.0 
0.0 0.0 0.0 
-3.469033513874e-04 -5.773573425451e-04 0.0 
-5.773573425451e-04 1.836374607235e-03 0.0 
0.0 0.0 0.0 
1.410483636521e-04 -5.300271907555e-04 0.0 
-5.300271907555e-04 4.552664029590e-03 0.0 
0.0 0.0 0.0 
-7.823720843368e-04 -1.223288124415e-03 0.0 
-1.223288124415e-03 3.042425119067e-03 0.0 
0.0 0.0 0.0 
-5.206048252709e-04 -4.334034570728e-04 0.0 
-4.334034570728e-04 2.093442480992e-03 0.0 
0.0 0.0 0.0 
-9.696950544021e-04 -1.042794412033e-03 0.0 
-1.042794412033e-03 3.167257735010e-03 0.0 
0.0 0.0 0.0 
-6.899696724847e-04 -1.573814737353e-03 0.0 
-1.573814737353e-03 2.413328064877e-03 0.0 
0.0 0.0 0.0 
-2.689162559727e-04 -1.739854171820e-03 0.0 
-1.739854171820e-03 1.506963653044e-03 0.0 
0.0 0.0 0.0 
-9.795094100465e-04 -5.798970105122e-04 0.0 
-5.798970105122e-04 3.982182883599e-03 0.0 
0.0 0.0 0.0 
9.980694267142e-04 -1.398014066006e-04 0.0 
-1.398014066006e-04 -2.921682323678e-04 0.0 
0.0 0.0 0.0 
5.799903292267e-04 -1.993947233887e-04 0.0 
-1.993947233887e-04 -1.191730023357e-04 0.0 
0.0 0.0 0.0 
-5.766785271570e-04 -8.392888811113e-04 0.0 
-8.392888811113e-04 3.858002991007e-03 0.0 
0.0 0.0 0.0 
-1.650252553920e-04 -6.880321762885e-04 0.0 
-6.880321762885e-04 1.585240001807e-03 0.0 
0.0 0.0 0.0 
-1.912534467312e-04 -1.071170559009e-03 0.0 
-1.071170559009e-03 3.342193114561e-03 0.0 
0.0 0.0 0.0 
2.973698541342e-05 -1.262422962639e-03 0.0 
-1.262422962639e-03 2.844404806959e-03 0.0 
0.0 0.0 0.0 
1.642486386979e-04 -2.163035196571e-03 0.0 
-2.163035196571e-03 1.507968496036e-03 0.0 
0.0 0.0 0.0 
1.794019256877e-03 -2.949679294673e-03 0.0 
-2.949679294673e-03 -8.784859584562e-04 0.0 
0.0 0.0 0.0 
-1.156650647729e-03 8.832750786162e-04 0.0 
8.832750786162e-04 1.293187359848e-02 0.0 
0.0 0.0 0.0 
1.626767471353e-03 3.330271848520e-03 0.0 
3.330271848520e-03 -3.066676816063e-03 0.0 
0.0 0.0 0.0 
-8.795575715083e-04 -1.325436337142e-03 0.0 
-1.325436337142e-03 2.732227384127e-03 0.0 
0.0 0.0 0.0 
1.434258043741e-03 3.597319834108e-04 0.0 
3.597319834108e-04 2.481982469867e-03 0.0 
0.0 0.0 0.0 
-1.621930427108e-04 -6.619527958694e-04 0.0 
-6.619527958694e-04 1.449941523503e-03 0.0 
0.0 0.0 0.0 
-1.684416791790e-03 3.722524007115e-04 0.0 
3.722524007115e-04 1.197578697966e-02 0.0 
0.0 0.0 0.0 
-1.761361313496e-03 2.557261071417e-04 0.0 
2.557261071417e-04 1.161932551667e-02 0.0 
0.0 0.0 0.0 
-5.043626645085e-05 -1.409065705138e-03 0.0 
-1.409065705138e-03 1.039701032076e-03 0.0 
0.0 0.0 0.0 
7.965811693911e-04 -4.745434418136e-04 0.0 
-4.745434418136e-04 3.134501267097e-03 0.0 
0.0 0.0 0.0 
-1.549660727141e-03 8.032906437250e-04 0.0 
8.032906437250e-04 1.252001787338e-02 0.0 
0.0 0.0 0.0 
-3.890451261256e-04 -9.619841792725e-04 0.0 
-9.619841792725e-04 1.642570940300e-03 0.0 
0.0 0.0 0.0 
-1.092792575078e-03 1.075872816442e-03 0.0 
1.075872816442e-03 1.299228370397e-02 0.0 
0.0 0.0 0.0 
-9.204457177667e-04 1.081318033858e-03 0.0 
1.081318033858e-03 1.299038443611e-02 0.0 
0.0 0.0 0.0 
-3.208699589025e-04 -1.039388677081e-03 0.0 
-1.039388677081e-03 1.668179928428e-03 0.0 
0.0 0.0 0.0 
-6.903630619437e-05 4.111016090461e-03 0.0 
4.111016090461e-03 3.551153673420e-03 0.0 
0.0 0.0 0.0 
-1.940436944494e-04 -1.566210404561e-03 0.0 
-1.566210404561e-03 1.367817211606e-03 0.0 
0.0 0.0 0.0 
-4.955540933339e-04 -7.117282335839e-04 0.0 
-7.117282335839e-04 4.183512344158e-03 0.0 
0.0 0.0 0.0 
-8.978658845212e-04 -8.293529422135e-04 0.0 
-8.293529422135e-04 3.727326023970e-03 0.0 
0.0 0.0 0.0 
-1.071952520607e-03 2.637112989141e-03 0.0 
2.637112989141e-03 1.171856075345e-02 0.0 
0.0 0.0 0.0 
-1.008577027569e-03 8.849855313273e-04 0.0 
8.849855313273e-04 1.293116264887e-02 0.0 
0.0 0.0 0.0 
-3.660264131653e-04 -8.857845023716e-04 0.0 
-8.857845023716e-04 3.788874192848e-03 0.0 
0.0 0.0 0.0 
-1.624765274895e-04 -8.971910126037e-04 0.0 
-8.971910126037e-04 3.789427772719e-03 0.0 
0.0 0.0 0.0 
-2.852516256545e-04 -1.514272373169e-03 0.0 
-1.514272373169e-03 1.226997067876e-03 0.0 
0.0 0.0 0.0 
-3.391169643697e-04 -7.304678248548e-04 0.0 
-7.304678248548e-04 4.185464424463e-03 0.0 
0.0 0.0 0.0 
-1.385145603022e-03 8.023938833544e-04 0.0 
8.023938833544e-04 1.251956179379e-02 0.0 
0.0 0.0 0.0 
-1.019478894224e-03 -7.020581328700e-04 0.0 
-7.020581328700e-04 3.708336186249e-03 0.0 
0.0 0.0 0.0 
-1.571700272689e-03 4.821961866681e-04 0.0 
4.821961866681e-04 1.229749581531e-02 0.0 
0.0 0.0 0.0 
-1.385015197745e-03 7.594214028459e-04 0.0 
7.594214028459e-04 1.269046675475e-02 0.0 
0.0 0.0 0.0 
4.412279392640e-03 2.507504968077e-03 0.0 
2.507504968077e-03 -2.092597328968e-03 0.0 
0.0 0.0 0.0 
-1.079551428991e-03 7.167524418926e-04 0.0 
7.167524418926e-04 1.285300859292e-02 0.0 
0.0 0.0 0.0 
-1.028119591718e-03 -1.021089916421e-03 0.0 
-1.021089916421e-03 3.281440146101e-03 0.0 
0.0 0.0 0.0 
-9.248980791552e-04 -9.588968634781e-04 0.0 
-9.588968634781e-04 3.404053313574e-03 0.0 
0.0 0.0 0.0 
-8.519532887588e-04 -1.328499308996e-03 0.0 
-1.328499308996e-03 2.528844631363e-03 0.0 
0.0 0.0 0.0 
5.715125053993e-04 -2.472664376201e-03 0.0 
-2.472664376201e-03 5.475577230520e-04 0.0 
0.0 0.0 0.0 
-1.417503622509e-03 6.387438854340e-04 0.0 
6.387438854340e-04 1.241696651882e-02 0.0 
0.0 0.0 0.0 
1.452238824575e-03 -2.049336891988e-03 0.0 
-2.049336891988e-03 5.290800776359e-05 0.0 
0.0 0.0 0.0 
-3.516778226423e-04 -1.392784823018e-03 0.0 
-1.392784823018e-03 1.643336258549e-03 0.0 
0.0 0.0 0.0 
1.123402418668e-05 -1.021610052255e-03 0.0 
-1.021610052255e-03 9.021644150295e-04 0.0 
0.0 0.0 0.0 
-1.564948424484e-03 6.323573588395e-04 0.0 
6.323573588395e-04 1.241821396062e-02 0.0 
0.0 0.0 0.0 
-4.194985458599e-04 -1.623698824334e-03 0.0 
-1.623698824334e-03 1.679517038824e-03 0.0 
0.0 0.0 0.0 
4.320256389270e-04 -4.415094850620e-04 0.0 
-4.415094850620e-04 4.131852318845e-03 0.0 
0.0 0.0 0.0 
-1.281702762148e-03 6.072347381107e-04 0.0 
6.072347381107e-04 1.258847260219e-02 0.0 
0.0 0.0 0.0 
-1.268302271857e-04 -7.305456634587e-04 0.0 
-7.305456634587e-04 4.147942406283e-03 0.0 
0.0 0.0 0.0 
6.212772281016e-04 1.323585996352e-03 0.0 
1.323585996352e-03 3.712123377805e-03 0.0 
0.0 0.0 0.0 
-9.750970684218e-04 -1.099280849026e-03 0.0 
-1.099280849026e-03 2.936394556555e-03 0.0 
0.0 0.0 0.0 
-4.680152977995e-04 -1.286430102726e-03 0.0 
-1.286430102726e-03 1.707184935700e-03 0.0 
0.0 0.0 0.0 
-2.691466851321e-04 -1.179422243976e-03 0.0 
-1.179422243976e-03 1.036368256081e-03 0.0 
0.0 0.0 0.0 
6.281205026104e-05 -1.049348408556e-03 0.0 
-1.049348408556e-03 3.229033815278e-03 0.0 
0.0 0.0 0.0 
-1.466840868436e-03 3.804070865587e-04 0.0 
3.804070865587e-04 1.215878820800e-02 0.0 
0.0 0.0 0.0 
-7.130580670345e-05 -8.889083404853e-04 0.0 
-8.889083404853e-04 7.165728955112e-04 0.0 
0.0 0.0 0.0 
-5.560927342194e-04 -1.609956245339e-03 0.0 
-1.609956245339e-03 2.021824061460e-03 0.0 
0.0 0.0 0.0 
-9.523627730745e-05 -3.089238823244e-04 0.0 
-3.089238823244e-04 1.626629421556e-03 0.0 
0.0 0.0 0.0 
-1.698203818663e-03 5.059174213674e-04 0.0 
5.059174213674e-04 1.211546128148e-02 0.0 
0.0 0.0 0.0 
-7.717896686464e-04 -1.372710428451e-03 0.0 
-1.372710428451e-03 2.383034309269e-03 0.0 
0.0 0.0 0.0 
3.184079698104e-04 -1.248746741407e-03 0.0 
-1.248746741407e-03 2.840427458292e-03 0.0 
0.0 0.0 0.0 
-8.762952352575e-04 -1.081676766085e-03 0.0 
-1.081676766085e-03 2.503158519659e-03 0.0 
0.0 0.0 0.0 
-1.104574778017e-03 4.868989302922e-04 0.0 
4.868989302922e-04 1.291058025842e-02 0.0 
0.0 0.0 0.0 
-4.567250926599e-04 -1.750493595363e-03 0.0 
-1.750493595363e-03 1.875610787768e-03 0.0 
0.0 0.0 0.0 
5.549501443756e-04 -1.082375435267e-03 0.0 
-1.082375435267e-03 2.599868053012e-03 0.0 
0.0 0.0 0.0 
2.226644150694e-04 -2.462454015497e-03 0.0 
-2.462454015497e-03 4.390932738980e-04 0.0 
0.0 0.0 0.0 
3.098227117690e-04 -1.206172443566e-03 0.0 
-1.206172443566e-03 2.700104718159e-03 0.0 
0.0 0.0 0.0 
-1.089362029663e-03 -7.705464347628e-04 0.0 
-7.705464347628e-04 3.479736546034e-03 0.0 
0.0 0.0 0.0 
7.818922942460e-05 -8.742023047236e-04 0.0 
-8.742023047236e-04 3.709128865594e-03 0.0 
0.0 0.0 0.0 
4.791885178744e-03 -2.688698988138e-04 0.0 
-2.688698988138e-04 -3.546191765544e-03 0.0 
0.0 0.0 0.0 
-3.095722984697e-04 -5.847904656723e-04 0.0 
-5.847904656723e-04 1.699671298627e-03 0.0 
0.0 0.0 0.0 
-1.670766083428e-03 2.612085330789e-04 0.0 
2.612085330789e-04 1.182252546816e-02 0.0 
0.0 0.0 0.0 
2.912302117422e-03 -2.618129670977e-04 0.0 
-2.618129670977e-04 -3.885043529440e-04 0.0 
0.0 0.0 0.0 
5.697675904668e-04 4.294690202289e-03 0.0 
4.294690202289e-03 3.400284358734e-03 0.0 
0.0 0.0 0.0 
-1.573750016506e-03 3.536465025237e-04 0.0 
3.536465025237e-04 1.215969183792e-02 0.0 
0.0 0.0 0.0 
6.552535900379e-04 -2.821372556238e-03 0.0 
-2.821372556238e-03 -1.418865950987e-04 0.0 
0.0 0.0 0.0 
-1.669023576392e-03 8.521723972846e-04 0.0 
8.521723972846e-04 1.214853266337e-02 0.0 
0.0 0.0 0.0 
6.630074691527e-05 -4.262630344166e-04 0.0 
-4.262630344166e-04 1.352827165057e-03 0.0 
0.0 0.0 0.0 
4.152729941957e-04 -6.661931851369e-04 0.0 
-6.661931851369e-04 3.625555556849e-03 0.0 
0.0 0.0 0.0 
2.936126172384e-03 2.945713057143e-04 0.0 
2.945713057143e-04 -1.783607936257e-05 0.0 
0.0 0.0 0.0 
2.620446977138e-03 2.375540601498e-03 0.0 
2.375540601498e-03 1.647545281787e-03 0.0 
0.0 0.0 0.0 
-8.827320211209e-04 1.003713165898e-03 0.0 
1.003713165898e-03 1.314931307238e-02 0.0 
0.0 0.0 0.0 
1.393035249864e-03 -1.839957747915e-03 0.0 
-1.839957747915e-03 4.046128081863e-04 0.0 
0.0 0.0 0.0 
-2.959050204373e-04 -1.057865900891e-03 0.0 
-1.057865900891e-03 1.401148422114e-03 0.0 
0.0 0.0 0.0 
9.371878106184e-04 -1.491213355074e-03 0.0 
-1.491213355074e-03 1.504294154805e-03 0.0 
0.0 0.0 0.0 
6.615782070456e-04 -4.042417286735e-04 0.0 
-4.042417286735e-04 3.651290312282e-03 0.0 
0.0 0.0 0.0 
1.554730836298e-03 -2.832447372358e-03 0.0 
-2.832447372358e-03 -9.743186366580e-04 0.0 
0.0 0.0 0.0 
-1.477741458717e-04 -8.942705973070e-04 0.0 
-8.942705973070e-04 3.713500121668e-03 0.0 
0.0 0.0 0.0 
-1.415840452366e-03 5.935383389054e-04 0.0 
5.935383389054e-04 1.259053180522e-02 0.0 
0.0 0.0 0.0 
2.262480602084e-03 -2.996083832389e-03 0.0 
-2.996083832389e-03 -1.475048403464e-03 0.0 
0.0 0.0 0.0 
5.995632551612e-04 -1.356705942558e-03 0.0 
-1.356705942558e-03 2.124940708363e-03 0.0 
0.0 0.0 0.0 
-1.919138189919e-03 5.316792377650e-04 0.0 
5.316792377650e-04 1.172572279204e-02 0.0 
0.0 0.0 0.0 
-6.709307755356e-04 -7.147778285306e-04 0.0 
-7.147778285306e-04 2.219117064606e-03 0.0 
0.0 0.0 0.0 
-3.212244646469e-04 -1.837407814650e-03 0.0 
-1.837407814650e-03 1.647441455424e-03 0.0 
0.0 0.0 0.0 
1.003199276964e-03 4.236732220234e-03 0.0 
4.236732220234e-03 3.654678116769e-03 0.0 
0.0 0.0 0.0 
3.220080134112e-04 -1.018705640508e-03 0.0 
-1.018705640508e-03 3.222784203568e-03 0.0 
0.0 0.0 0.0 
-4.576458951863e-04 4.203804790277e-03 0.0 
4.203804790277e-03 5.221337289402e-03 0.0 
0.0 0.0 0.0 
1.488441523954e-03 4.125238443057e-03 0.0 
4.125238443057e-03 2.671649543855e-03 0.0 
0.0 0.0 0.0 
-1.530705933440e-03 8.298143265843e-04 0.0 
8.298143265843e-04 1.233904211427e-02 0.0 
0.0 0.0 0.0 
-1.561901346177e-03 3.921684228997e-04 0.0 
3.921684228997e-04 1.197306355911e-02 0.0 
0.0 0.0 0.0 
-1.786432206327e-03 6.771395207810e-04 0.0 
6.771395207810e-04 1.185681213007e-02 0.0 
0.0 0.0 0.0 
-9.732401605729e-04 -9.346993500549e-04 0.0 
-9.346993500549e-04 3.514230385190e-03 0.0 
0.0 0.0 0.0 
1.106831606811e-03 -4.328468390179e-04 0.0 
-4.328468390179e-04 2.600920093341e-03 0.0 
0.0 0.0 0.0 
1.323350437411e-03 -1.590638275384e-03 0.0 
-1.590638275384e-03 8.467906768388e-04 0.0 
0.0 0.0 0.0 
-1.792593112526e-03 3.828019540716e-04 0.0 
3.828019540716e-04 1.178440818707e-02 0.0 
0.0 0.0 0.0 
-9.809785028152e-04 3.342434816599e-03 0.0 
3.342434816599e-03 1.075317140301e-02 0.0 
0.0 0.0 0.0 
2.214769298251e-03 2.686686024130e-03 0.0 
2.686686024130e-03 2.490004178278e-03 0.0 
0.0 0.0 0.0 
6.065655228691e-04 -1.158026237253e-03 0.0 
-1.158026237253e-03 2.690932122053e-03 0.0 
0.0 0.0 0.0 
-1.234050666173e-03 7.641946143015e-04 0.0 
7.641946143015e-04 1.268939224297e-02 0.0 
0.0 0.0 0.0 
2.372808342319e-04 -2.275439850614e-03 0.0 
-2.275439850614e-03 1.025773991982e-03 0.0 
0.0 0.0 0.0 
-7.905137503306e-05 -2.092336545477e-03 0.0 
-2.092336545477e-03 1.370773873434e-03 0.0 
0.0 0.0 0.0 
-6.646507697017e-05 -1.300618551263e-03 0.0 
-1.300618551263e-03 1.192841866299e-03 0.0 
0.0 0.0 0.0 
1.239004197555e-03 -1.276417582939e-03 0.0 
-1.276417582939e-03 1.368876456754e-03 0.0 
0.0 0.0 0.0 
-3.530665044970e-04 -1.860910613906e-03 0.0 
-1.860910613906e-03 1.791188878955e-03 0.0 
0.0 0.0 0.0 
-1.708148471215e-03 6.616574865023e-04 0.0 
6.616574865023e-04 1.223825972039e-02 0.0 
0.0 0.0 0.0 
-1.844606473786e-03 6.860239280957e-04 0.0 
6.860239280957e-04 1.204998260856e-02 0.0 
0.0 0.0 0.0 
4.658175233914e-03 1.380826383187e-03 0.0 
1.380826383187e-03 -2.281526434373e-03 0.0 
0.0 0.0 0.0 
3.482171753966e-05 -2.201722555815e-03 0.0 
-2.201722555815e-03 1.287489788800e-03 0.0 
0.0 0.0 0.0 
4.645639911822e-03 2.199079327507e-03 0.0 
2.199079327507e-03 -3.292134836048e-03 0.0 
0.0 0.0 0.0 
-2.216967569280e-04 -2.015973692624e-03 0.0 
-2.015973692624e-03 1.674509618996e-03 0.0 
0.0 0.0 0.0 
1.027381558063e-04 -2.222050094285e-03 0.0 
-2.222050094285e-03 1.389699544661e-03 0.0 
0.0 0.0 0.0 
-3.538661269864e-04 -1.420996232747e-03 0.0 
-1.420996232747e-03 1.459757887985e-03 0.0 
0.0 0.0 0.0 
1.449080366067e-03 -3.622771724578e-04 0.0 
-3.622771724578e-04 2.045077819650e-03 0.0 
0.0 0.0 0.0 
1.430062367539e-03 -2.292854071891e-03 0.0 
-2.292854071891e-03 1.990124975011e-04 0.0 
0.0 0.0 0.0 
-1.214828999682e-03 7.035098700051e-04 0.0 
7.035098700051e-04 1.285503230121e-02 0.0 
0.0 0.0 0.0 
1.888911624258e-03 -2.111685780875e-03 0.0 
-2.111685780875e-03 -2.117836745322e-04 0.0 
0.0 0.0 0.0 
1.312332435900e-03 -1.380705062776e-03 0.0 
-1.380705062776e-03 1.485253685543e-03 0.0 
0.0 0.0 0.0 
1.378148063048e-03 -1.890289766176e-03 0.0 
-1.890289766176e-03 6.782930052185e-04 0.0 
0.0 0.0 0.0 
2.654600494122e-03 3.753386571760e-03 0.0 
3.753386571760e-03 9.390808157752e-04 0.0 
0.0 0.0 0.0 
-1.858908454173e-04 -1.179734166528e-03 0.0 
-1.179734166528e-03 1.418764273605e-03 0.0 
0.0 0.0 0.0 
9.710659897066e-04 -3.577236450852e-04 0.0 
-3.577236450852e-04 3.111430135251e-03 0.0 
0.0 0.0 0.0 
8.523587945191e-04 -2.697454207890e-04 0.0 
-2.697454207890e-04 3.314086307291e-03 0.0 
0.0 0.0 0.0 
4.317515750141e-04 4.080469170028e-03 0.0 
4.080469170028e-03 5.226066587628e-03 0.0 
0.0 0.0 0.0 
5.046993500972e-04 -2.352336502589e-03 0.0 
-2.352336502589e-03 1.036049057013e-03 0.0 
0.0 0.0 0.0 
1.341135429242e-03 -1.657828561450e-03 0.0 
-1.657828561450e-03 1.049355724636e-03 0.0 
0.0 0.0 0.0 
-1.547786161966e-03 6.606237316322e-04 0.0 
6.606237316322e-04 1.223784069212e-02 0.0 
0.0 0.0 0.0 
-7.578430095367e-05 -2.054689676850e-03 0.0 
-2.054689676850e-03 1.492773810368e-03 0.0 
0.0 0.0 0.0 
1.233515200329e-03 4.194541970784e-03 0.0 
4.194541970784e-03 2.490774048352e-03 0.0 
0.0 0.0 0.0 
-4.770620167776e-04 -1.535823972290e-03 0.0 
-1.535823972290e-03 1.842592029490e-03 0.0 
0.0 0.0 0.0 
1.268388239747e-03 -3.018430083451e-03 0.0 
-3.018430083451e-03 -8.647551054474e-04 0.0 
0.0 0.0 0.0 
6.185301284602e-04 -2.371976521884e-03 0.0 
-2.371976521884e-03 6.244995388447e-04 0.0 
0.0 0.0 0.0 
-5.895355731245e-04 -1.451115900774e-03 0.0 
-1.451115900774e-03 1.979483610605e-03 0.0 
0.0 0.0 0.0 
-4.905702903782e-04 -8.795871473512e-04 0.0 
-8.795871473512e-04 1.943438179562e-03 0.0 
0.0 0.0 0.0 
1.014744016975e-03 -1.980468467138e-03 0.0 
-1.980468467138e-03 6.942510980146e-04 0.0 
0.0 0.0 0.0 
9.415496045653e-04 -1.280562723963e-03 0.0 
-1.280562723963e-03 2.111258680148e-03 0.0 
0.0 0.0 0.0 
1.783016278920e-04 3.858146064123e-03 0.0 
3.858146064123e-03 6.903331745472e-03 0.0 
0.0 0.0 0.0 
1.231210373715e-03 -1.954748285664e-04 0.0 
-1.954748285664e-04 -3.779205602257e-04 0.0 
0.0 0.0 0.0 
3.310990150203e-03 -1.550387082071e-03 0.0 
-1.550387082071e-03 -1.664736350938e-03 0.0 
0.0 0.0 0.0 
2.328321147010e-03 -2.047018521510e-03 0.0 
-2.047018521510e-03 -7.612860159675e-04 0.0 
0.0 0.0 0.0 
9.631399961405e-04 -2.378176454993e-03 0.0 
-2.378176454993e-03 6.235993533950e-04 0.0 
0.0 0.0 0.0 
-1.671103319333e-03 6.720161120204e-04 0.0 
6.720161120204e-04 1.205101849740e-02 0.0 
0.0 0.0 0.0 
1.421329825796e-03 -2.097495136231e-03 0.0 
-2.097495136231e-03 3.893465904861e-04 0.0 
0.0 0.0 0.0 
-6.616879403507e-04 -1.544664998036e-03 0.0 
-1.544664998036e-03 2.209627810417e-03 0.0 
0.0 0.0 0.0 
1.039070411417e-03 -2.362138820985e-03 0.0 
-2.362138820985e-03 2.119278312591e-04 0.0 
0.0 0.0 0.0 
-1.142200981299e-03 5.640920766361e-04 0.0 
5.640920766361e-04 1.275231513942e-02 0.0 
0.0 0.0 0.0 
-6.797505755961e-04 -1.324877522567e-03 0.0 
-1.324877522567e-03 2.175634797569e-03 0.0 
0.0 0.0 0.0 
-1.153084885430e-05 -8.661054991587e-04 0.0 
-8.661054991587e-04 8.488194738441e-04 0.0 
0.0 0.0 0.0 
-2.435569720490e-04 -1.117781872333e-03 0.0 
-1.117781872333e-03 1.184796139355e-03 0.0 
0.0 0.0 0.0 
1.351479957142e-03 -2.771284309642e-03 0.0 
-2.771284309642e-03 -3.209550120566e-04 0.0 
0.0 0.0 0.0 
4.168083997509e-04 -2.396501858071e-03 0.0 
-2.396501858071e-03 9.529989564894e-04 0.0 
0.0 0.0 0.0 
2.760932599460e-03 -1.691359066835e-03 0.0 
-1.691359066835e-03 -1.118636267791e-03 0.0 
0.0 0.0 0.0 
1.476976194854e-03 -2.253468248567e-03 0.0 
-2.253468248567e-03 -1.857731791358e-04 0.0 
0.0 0.0 0.0 
2.993212098108e-04 -2.614227041045e-03 0.0 
-2.614227041045e-03 1.599691936978e-04 0.0 
0.0 0.0 0.0 
5.847973498208e-05 -8.710937823254e-04 0.0 
-8.710937823254e-04 1.146929375926e-03 0.0 
0.0 0.0 0.0 
-2.145411563022e-03 9.296031823886e-04 0.0 
9.296031823886e-04 1.172741697213e-02 0.0 
0.0 0.0 0.0 
-5.353074827966e-04 -1.212921724370e-03 0.0 
-1.212921724370e-03 1.942875794722e-03 0.0 
0.0 0.0 0.0 
1.617041836188e-03 -5.058288426409e-04 0.0 
-5.058288426409e-04 1.921158681615e-03 0.0 
0.0 0.0 0.0 
4.679539623138e-04 3.854535462809e-03 0.0 
3.854535462809e-03 6.021346052854e-03 0.0 
0.0 0.0 0.0 
-2.213405567650e-03 2.495328627600e-03 0.0 
2.495328627600e-03 1.056793484327e-02 0.0 
0.0 0.0 0.0 
-1.212515950392e-03 1.416460106431e-03 0.0 
1.416460106431e-03 1.266087892433e-02 0.0 
0.0 0.0 0.0 
-3.180979350936e-05 3.847057208777e-03 0.0 
3.847057208777e-03 7.718566042708e-03 0.0 
0.0 0.0 0.0 
4.579878012652e-03 2.002609149725e-03 0.0 
2.002609149725e-03 -2.017922546885e-03 0.0 
0.0 0.0 0.0 
4.693142910013e-04 3.937585708103e-03 0.0 
3.937585708103e-03 5.604927305577e-03 0.0 
0.0 0.0 0.0 
8.743756621357e-04 -3.105592699990e-03 0.0 
-3.105592699990e-03 -6.057650534795e-04 0.0 
0.0 0.0 0.0 
6.413684277637e-04 -2.217144658984e-03 0.0 
-2.217144658984e-03 7.749554910279e-04 0.0 
0.0 0.0 0.0 
3.503502507707e-03 3.539225001602e-03 0.0 
3.539225001602e-03 -1.038002924910e-03 0.0 
0.0 0.0 0.0 
3.548950199469e-03 -2.225262164778e-03 0.0 
-2.225262164778e-03 -2.928006616098e-03 0.0 
0.0 0.0 0.0 
3.341587400816e-04 -2.926387791634e-03 0.0 
-2.926387791634e-03 -1.732599644647e-04 0.0 
0.0 0.0 0.0 
-1.853613444992e-04 -2.018206996288e-03 0.0 
-2.018206996288e-03 1.814244064020e-03 0.0 
0.0 0.0 0.0 
1.904812032429e-03 -2.271643537526e-03 0.0 
-2.271643537526e-03 -7.194124161193e-04 0.0 
0.0 0.0 0.0 
2.345016837321e-03 -1.993236413949e-03 0.0 
-1.993236413949e-03 -1.067656555375e-03 0.0 
0.0 0.0 0.0 
-7.610344424043e-04 -1.264311996313e-03 0.0 
-1.264311996313e-03 2.274751835026e-03 0.0 
0.0 0.0 0.0 
1.845114259017e-03 -1.905248626986e-03 0.0 
-1.905248626986e-03 2.858194496969e-05 0.0 
0.0 0.0 0.0 
2.774268870876e-03 -1.847318742538e-03 0.0 
-1.847318742538e-03 -1.609367968261e-03 0.0 
0.0 0.0 0.0 
3.789243854235e-03 -1.063175124306e-03 0.0 
-1.063175124306e-03 -2.016667514620e-03 0.0 
0.0 0.0 0.0 
2.050221857879e-04 -2.302220627339e-03 0.0 
-2.302220627339e-03 9.401535204421e-04 0.0 
0.0 0.0 0.0 
3.113516105925e-03 1.146267285268e-03 0.0 
1.146267285268e-03 2.053223224325e-04 0.0 
0.0 0.0 0.0 
-1.707470435010e-03 8.425326176491e-04 0.0 
8.425326176491e-04 1.233816271777e-02 0.0 
0.0 0.0 0.0 
4.379859929334e-03 -6.549334828192e-04 0.0 
-6.549334828192e-04 -2.674356775219e-03 0.0 
0.0 0.0 0.0 
1.322951849681e-03 -2.737767236387e-04 0.0 
-2.737767236387e-04 2.575588847369e-03 0.0 
0.0 0.0 0.0 
1.677990505314e-03 -3.225996254244e-03 0.0 
-3.225996254244e-03 -1.437289227365e-03 0.0 
0.0 0.0 0.0 
1.264805341594e-03 3.460189321578e-04 0.0 
3.460189321578e-04 2.997366580272e-03 0.0 
0.0 0.0 0.0 
2.325369285299e-03 -1.842497945856e-03 0.0 
-1.842497945856e-03 -5.839652619788e-04 0.0 
0.0 0.0 0.0 
-1.397680215338e-04 3.910197062713e-03 0.0 
3.910197062713e-03 8.504601144810e-03 0.0 
0.0 0.0 0.0 
-1.031988931802e-03 3.838605231165e-03 0.0 
3.838605231165e-03 8.026293467824e-03 0.0 
0.0 0.0 0.0 
9.671278034755e-04 -2.876363534849e-03 0.0 
-2.876363534849e-03 -1.352851825195e-04 0.0 
0.0 0.0 0.0 
-1.987220358181e-03 2.833485392954e-03 0.0 
2.833485392954e-03 1.024123657931e-02 0.0 
0.0 0.0 0.0 
-1.201647482706e-03 1.987099512757e-03 0.0 
1.987099512757e-03 1.234319307766e-02 0.0 
0.0 0.0 0.0 
2.730786228849e-03 -1.495327029004e-03 0.0 
-1.495327029004e-03 -8.994255026854e-04 0.0 
0.0 0.0 0.0 
2.313036180648e-03 4.013291836372e-03 0.0 
4.013291836372e-03 5.758726201537e-04 0.0 
0.0 0.0 0.0 
-1.706063145012e-03 3.133813713890e-03 0.0 
3.133813713890e-03 9.841678532886e-03 0.0 
0.0 0.0 0.0 
6.858488184451e-04 4.285336449173e-03 0.0 
4.285336449173e-03 3.485124798477e-03 0.0 
0.0 0.0 0.0 
3.738914493365e-04 -2.767935192113e-03 0.0 
-2.767935192113e-03 1.845498571398e-04 0.0 
0.0 0.0 0.0 
-5.849543032719e-04 1.752873793562e-03 0.0 
1.752873793562e-03 1.299852141475e-02 0.0 
0.0 0.0 0.0 
-1.609292481553e-04 -2.290028508336e-03 0.0 
-2.290028508336e-03 6.607246843142e-04 0.0 
0.0 0.0 0.0 
1.617219741880e-03 2.175885883603e-03 0.0 
2.175885883603e-03 3.255106319604e-03 0.0 
0.0 0.0 0.0 
-8.380066953244e-04 8.181392401903e-04 0.0 
8.181392401903e-04 1.308609686053e-02 0.0 
0.0 0.0 0.0 
2.845361835409e-03 8.110840888087e-04 0.0 
8.110840888087e-04 4.781841177881e-04 0.0 
0.0 0.0 0.0 
-1.666255905411e-03 5.231715456416e-04 0.0 
5.231715456416e-04 1.192111205502e-02 0.0 
0.0 0.0 0.0 
-1.476829168954e-03 1.210603119990e-03 0.0 
1.210603119990e-03 1.264347733065e-02 0.0 
0.0 0.0 0.0 
3.255206168802e-03 -1.422934003313e-03 0.0 
-1.422934003313e-03 -1.954690555928e-03 0.0 
0.0 0.0 0.0 
4.362233543713e-03 1.414097498344e-03 0.0 
1.414097498344e-03 -1.822166319283e-03 0.0 
0.0 0.0 0.0 
-9.239267582137e-04 1.580080151539e-03 0.0 
1.580080151539e-03 1.283681565485e-02 0.0 
0.0 0.0 0.0 
8.685008351939e-04 -9.958377823353e-04 0.0 
-9.958377823353e-04 2.584491824593e-03 0.0 
0.0 0.0 0.0 
-1.693062004266e-03 1.045205356437e-03 0.0 
1.045205356437e-03 1.241057712947e-02 0.0 
0.0 0.0 0.0 
2.837348414630e-03 -1.444433922004e-04 0.0 
-1.444433922004e-04 1.187251447359e-04 0.0 
0.0 0.0 0.0 
1.361499666586e-03 -3.087357424067e-03 0.0 
-3.087357424067e-03 -6.116494977284e-04 0.0 
0.0 0.0 0.0 
-1.661567457944e-03 1.270382609977e-03 0.0 
1.270382609977e-03 1.245228467641e-02 0.0 
0.0 0.0 0.0 
3.001873997952e-04 4.116630758692e-03 0.0 
4.116630758692e-03 7.406307677308e-03 0.0 
0.0 0.0 0.0 
9.631500209675e-04 -1.016512479115e-04 0.0 
-1.016512479115e-04 3.275410420066e-03 0.0 
0.0 0.0 0.0 
9.905321415045e-04 -2.206613113686e-03 0.0 
-2.206613113686e-03 7.713215426675e-04 0.0 
0.0 0.0 0.0 
-1.816211193257e-03 5.190377062295e-04 0.0 
5.190377062295e-04 1.192182132813e-02 0.0 
0.0 0.0 0.0 
-1.763540928120e-03 5.206607266514e-04 0.0 
5.206607266514e-04 1.172647462146e-02 0.0 
0.0 0.0 0.0 
1.910841791180e-03 -2.053511142809e-03 0.0 
-2.053511142809e-03 -5.491269891542e-04 0.0 
0.0 0.0 0.0 
1.231140052240e-03 -1.072705268999e-03 0.0 
-1.072705268999e-03 1.982459164207e-03 0.0 
0.0 0.0 0.0 
1.458392545530e-03 -8.088811003932e-04 0.0 
-8.088811003932e-04 1.913844300182e-03 0.0 
0.0 0.0 0.0 
5.039944945251e-05 -9.672006972647e-04 0.0 
-9.672006972647e-04 1.001046778872e-03 0.0 
0.0 0.0 0.0 
4.352993787773e-03 2.389157921625e-03 0.0 
2.389157921625e-03 -3.457188519821e-03 0.0 
0.0 0.0 0.0 
4.639052168140e-03 1.658898491439e-07 0.0 
1.658898491439e-07 -2.761836540697e-03 0.0 
0.0 0.0 0.0 
3.902330162487e-03 -1.171666900196e-03 0.0 
-1.171666900196e-03 -2.584318833759e-03 0.0 
0.0 0.0 0.0 
1.721984723298e-03 4.114826869023e-03 0.0 
4.114826869023e-03 1.706909774165e-03 0.0 
0.0 0.0 0.0 
-9.010630940499e-04 1.510328285188e-03 0.0 
1.510328285188e-03 1.302736731436e-02 0.0 
0.0 0.0 0.0 
-1.022101648634e-03 3.004650466605e-03 0.0 
3.004650466605e-03 1.106900856170e-02 0.0 
0.0 0.0 0.0 
-9.664836393602e-04 8.038328304667e-04 0.0 
8.038328304667e-04 1.308741292020e-02 0.0 
0.0 0.0 0.0 
-8.636640259498e-04 4.093479271321e-03 0.0 
4.093479271321e-03 6.142946290894e-03 0.0 
0.0 0.0 0.0 
-1.486839471111e-03 1.788831903278e-03 0.0 
1.788831903278e-03 1.218289815775e-02 0.0 
0.0 0.0 0.0 
8.776203317800e-04 -1.187790740419e-03 0.0 
-1.187790740419e-03 2.001995910025e-03 0.0 
0.0 0.0 0.0 
-8.420020063888e-04 1.279976687724e-03 0.0 
1.279976687724e-03 1.301896764228e-02 0.0 
0.0 0.0 0.0 
-1.833893416934e-03 1.326799873001e-03 0.0 
1.326799873001e-03 1.224718845569e-02 0.0 
0.0 0.0 0.0 
1.043908031610e-03 -2.174519309018e-03 0.0 
-2.174519309018e-03 4.035559851063e-04 0.0 
0.0 0.0 0.0 
4.914273455544e-03 6.226327283891e-04 0.0 
6.226327283891e-04 -2.971295366229e-03 0.0 
0.0 0.0 0.0 
-1.457873841261e-03 1.238830527339e-03 0.0 
1.238830527339e-03 1.245527039853e-02 0.0 
0.0 0.0 0.0 
-1.210681868787e-03 1.367873712365e-03 0.0 
1.367873712365e-03 1.284811351672e-02 0.0 
0.0 0.0 0.0 
-1.342859887642e-03 9.852270456748e-04 0.0 
9.852270456748e-04 1.259574827999e-02 0.0 
0.0 0.0 0.0 
-1.501677764773e-03 1.023596734659e-03 0.0 
1.023596734659e-03 1.241244366812e-02 0.0 
0.0 0.0 0.0 
8.932629028338e-04 -5.615673892898e-04 0.0 
-5.615673892898e-04 3.071995730417e-03 0.0 
0.0 0.0 0.0 
1.723811130669e-03 2.440710934625e-03 0.0 
2.440710934625e-03 3.204347077327e-03 0.0 
0.0 0.0 0.0 
1.240771109721e-03 -5.489484801781e-04 0.0 
-5.489484801781e-04 2.504841612724e-03 0.0 
0.0 0.0 0.0 
9.594251701379e-04 -1.558913178681e-03 0.0 
-1.558913178681e-03 1.689965765609e-03 0.0 
0.0 0.0 0.0 
-2.087401721512e-03 2.593025317556e-03 0.0 
2.593025317556e-03 8.618363458083e-03 0.0 
0.0 0.0 0.0 
2.653552548478e-03 1.289285338216e-03 0.0 
1.289285338216e-03 1.053858123715e-03 0.0 
0.0 0.0 0.0 
-1.783186533912e-03 1.944199543610e-03 0.0 
1.944199543610e-03 1.162554393377e-02 0.0 
0.0 0.0 0.0 
-6.114189051991e-04 -1.143333876119e-03 0.0 
-1.143333876119e-03 1.983988732783e-03 0.0 
0.0 0.0 0.0 
4.282387380443e-03 -5.518007531624e-04 0.0 
-5.518007531624e-04 -2.670610141479e-03 0.0 
0.0 0.0 0.0 
3.838646899073e-03 -3.238632059636e-04 0.0 
-3.238632059636e-04 -1.739143117566e-03 0.0 
0.0 0.0 0.0 
3.886553885615e-03 1.466079930812e-03 0.0 
1.466079930812e-03 -9.876461401135e-04 0.0 
0.0 0.0 0.0 
4.309083715947e-03 -4.666089457275e-04 0.0 
-4.666089457275e-04 -4.043567125966e-03 0.0 
0.0 0.0 0.0 
4.672199447348e-03 -9.696306536274e-06 0.0 
-9.696306536274e-06 -2.863036102969e-03 0.0 
0.0 0.0 0.0 
3.332820571123e-03 1.533745902027e-03 0.0 
1.533745902027e-03 2.688775882986e-05 0.0 
0.0 0.0 0.0 
-1.624019581736e-03 3.352287796372e-03 0.0 
3.352287796372e-03 7.854088229367e-03 0.0 
0.0 0.0 0.0 
9.776132144157e-04 -2.016717257786e-03 0.0 
-2.016717257786e-03 1.007687181014e-03 0.0 
0.0 0.0 0.0 
-2.006418041824e-03 1.134695471433e-03 0.0 
1.134695471433e-03 1.200463707423e-02 0.0 
0.0 0.0 0.0 
-1.789133748459e-03 2.659962904109e-04 0.0 
2.659962904109e-04 1.118163748842e-02 0.0 
0.0 0.0 0.0 
-1.518075638081e-03 3.467940022566e-03 0.0 
3.467940022566e-03 1.658701318015e-03 0.0 
0.0 0.0 0.0 
9.763719582840e-04 -1.759561026954e-03 0.0 
-1.759561026954e-03 1.067028361051e-03 0.0 
0.0 0.0 0.0 
2.697168810769e-03 8.056597343731e-04 0.0 
8.056597343731e-04 7.793269861418e-04 0.0 
0.0 0.0 0.0 
-9.173021376718e-04 2.900022680862e-03 0.0 
2.900022680862e-03 1.145958861829e-02 0.0 
0.0 0.0 0.0 
4.605607763084e-03 1.301890990489e-03 0.0 
1.301890990489e-03 -2.399993227624e-03 0.0 
0.0 0.0 0.0 
9.620089819620e-04 -1.805251564272e-03 0.0 
-1.805251564272e-03 1.319138250897e-03 0.0 
0.0 0.0 0.0 
-1.858463129391e-03 8.754100137946e-04 0.0 
8.754100137946e-04 1.214651244276e-02 0.0 
0.0 0.0 0.0 
-1.422667558474e-03 3.452749996930e-03 0.0 
3.452749996930e-03 2.880828402081e-03 0.0 
0.0 0.0 0.0 
2.966603639901e-03 1.115492290477e-03 0.0 
1.115492290477e-03 4.316397870376e-04 0.0 
0.0 0.0 0.0 
4.148876909560e-03 8.613498317031e-04 0.0 
8.613498317031e-04 -1.742667703514e-03 0.0 
0.0 0.0 0.0 
-1.846097534700e-03 3.423138791738e-03 0.0 
3.423138791738e-03 8.500544311087e-03 0.0 
0.0 0.0 0.0 
1.127937111868e-03 -9.545226006936e-04 0.0 
-9.545226006936e-04 1.937711692241e-03 0.0 
0.0 0.0 0.0 
2.904779952724e-03 -2.863889997208e-03 0.0 
-2.863889997208e-03 -2.843347929783e-03 0.0 
0.0 0.0 0.0 
1.324266844521e-03 -6.778696735156e-04 0.0 
-6.778696735156e-04 1.949009301333e-03 0.0 
0.0 0.0 0.0 
1.323424670760e-03 1.942736204067e-05 0.0 
1.942736204067e-05 2.727535509926e-03 0.0 
0.0 0.0 0.0 
3.179070887757e-03 1.464898646050e-03 0.0 
1.464898646050e-03 1.571669279687e-04 0.0 
0.0 0.0 0.0 
-1.521174773979e-03 9.972619014834e-04 0.0 
9.972619014834e-04 1.259494672856e-02 0.0 
0.0 0.0 0.0 
1.232464126175e-03 3.594537428696e-03 0.0 
3.594537428696e-03 4.676307218382e-03 0.0 
0.0 0.0 0.0 
1.152850034970e-03 -1.390735639019e-04 0.0 
-1.390735639019e-04 2.748316975348e-03 0.0 
0.0 0.0 0.0 
-1.460037372355e-03 3.337808245964e-03 0.0 
3.337808245964e-03 4.056776953835e-03 0.0 
0.0 0.0 0.0 
-1.855909566620e-03 1.090020180991e-03 0.0 
1.090020180991e-03 1.221434428955e-02 0.0 
0.0 0.0 0.0 
1.425933436596e-03 2.988135049227e-03 0.0 
2.988135049227e-03 4.012387134911e-03 0.0 
0.0 0.0 0.0 
-1.286294897085e-03 1.192099575428e-03 0.0 
1.192099575428e-03 1.264499887602e-02 0.0 
0.0 0.0 0.0 
3.661524780669e-03 1.380576803766e-03 0.0 
1.380576803766e-03 -7.525148397782e-04 0.0 
0.0 0.0 0.0 
4.762374798912e-03 7.059180121290e-04 0.0 
7.059180121290e-04 -2.656175400385e-03 0.0 
0.0 0.0 0.0 
-3.321371153551e-04 -1.448171071725e-03 0.0 
-1.448171071725e-03 2.889237528887e-03 0.0 
0.0 0.0 0.0 
2.869560154154e-03 8.012142761061e-04 0.0 
8.012142761061e-04 -4.869258797496e-03 0.0 
0.0 0.0 0.0 
-1.109505483636e-03 1.134916041183e-03 0.0 
1.134916041183e-03 1.282114733446e-02 0.0 
0.0 0.0 0.0 
-7.660142965747e-04 -9.761935518371e-04 0.0 
-9.761935518371e-04 2.253235236893e-03 0.0 
0.0 0.0 0.0 
-1.541491295792e-03 3.165194455511e-03 0.0 
3.165194455511e-03 5.346682488375e-03 0.0 
0.0 0.0 0.0 
9.911354155294e-04 3.779241944621e-03 0.0 
3.779241944621e-03 5.092721702035e-03 0.0 
0.0 0.0 0.0 
-7.492486622626e-04 1.001833099535e-03 0.0 
1.001833099535e-03 1.314900706596e-02 0.0 
0.0 0.0 0.0 
2.106404094455e-03 -3.335749487892e-03 0.0 
-3.335749487892e-03 -2.132389204875e-03 0.0 
0.0 0.0 0.0 
5.362935500974e-04 4.260494122082e-03 0.0 
4.260494122082e-03 4.648392422680e-03 0.0 
0.0 0.0 0.0 
-1.621538829532e-03 1.280743384702e-03 0.0 
1.280743384702e-03 1.225177278456e-02 0.0 
0.0 0.0 0.0 
2.783239772146e-04 -1.874889880690e-03 0.0 
-1.874889880690e-03 1.610934888125e-03 0.0 
0.0 0.0 0.0 
3.965206212817e-03 -1.590166925674e-03 0.0 
-1.590166925674e-03 -3.864143140332e-03 0.0 
0.0 0.0 0.0 
2.468060199230e-03 4.062473067389e-03 0.0 
4.062473067389e-03 -3.151103793509e-04 0.0 
0.0 0.0 0.0 
5.589762868603e-04 -2.994719726490e-03 0.0 
-2.994719726490e-03 -1.634241328810e-04 0.0 
0.0 0.0 0.0 
2.690610511611e-03 -2.779344453267e-03 0.0 
-2.779344453267e-03 -2.203583038012e-03 0.0 
0.0 0.0 0.0 
1.831919005433e-03 -3.255990455757e-03 0.0 
-3.255990455757e-03 -1.187177287682e-03 0.0 
0.0 0.0 0.0 
4.222894701115e-03 1.315561647464e-03 0.0 
1.315561647464e-03 -1.810748964745e-03 0.0 
0.0 0.0 0.0 
-4.148166818396e-04 2.588100479934e-03 0.0 
2.588100479934e-03 1.265174204644e-02 0.0 
0.0 0.0 0.0 
-2.283502911777e-03 2.977973730804e-03 0.0 
2.977973730804e-03 7.044901485552e-03 0.0 
0.0 0.0 0.0 
5.879556148622e-04 -5.636922443911e-04 0.0 
-5.636922443911e-04 3.607806389136e-03 0.0 
0.0 0.0 0.0 
4.820433731335e-03 2.023291680128e-03 0.0 
2.023291680128e-03 -2.840378600545e-03 0.0 
0.0 0.0 0.0 
-1.992782120467e-03 1.389621339473e-03 0.0 
1.389621339473e-03 1.202631185521e-02 0.0 
0.0 0.0 0.0 
3.568247342858e-03 6.560822926397e-04 0.0 
6.560822926397e-04 -4.515076647620e-03 0.0 
0.0 0.0 0.0 
1.118243677754e-03 1.645602461956e-04 0.0 
1.645602461956e-04 2.987125361223e-03 0.0 
0.0 0.0 0.0 
1.144678113157e-03 -3.436986111672e-03 0.0 
-3.436986111672e-03 -1.168514957583e-03 0.0 
0.0 0.0 0.0 
-9.340177581160e-04 -1.053016449714e-03 0.0 
-1.053016449714e-03 2.583660764062e-03 0.0 
0.0 0.0 0.0 
2.850395074090e-03 1.894830218718e-03 0.0 
1.894830218718e-03 8.529383299765e-04 0.0 
0.0 0.0 0.0 
2.753127939834e-03 -1.628506202888e-03 0.0 
-1.628506202888e-03 -1.345377597624e-03 0.0 
0.0 0.0 0.0 
1.803845078417e-03 2.705637022136e-03 0.0 
2.705637022136e-03 3.236220437466e-03 0.0 
0.0 0.0 0.0 
9.812381222067e-04 4.196110840904e-03 0.0 
4.196110840904e-03 2.504000766636e-03 0.0 
0.0 0.0 0.0 
-1.853927367624e-03 1.944369693727e-03 0.0 
1.944369693727e-03 1.190826444464e-02 0.0 
0.0 0.0 0.0 
1.582989041914e-03 2.345552049106e-03 0.0 
2.345552049106e-03 3.229356401751e-03 0.0 
0.0 0.0 0.0 
-1.653737530337e-03 1.054725816791e-03 0.0 
1.054725816791e-03 1.221762590286e-02 0.0 
0.0 0.0 0.0 
-1.085860602740e-03 2.978184762736e-03 0.0 
2.978184762736e-03 1.144880955219e-02 0.0 
0.0 0.0 0.0 
-1.607545815594e-03 1.512686846643e-03 0.0 
1.512686846643e-03 1.245873587267e-02 0.0 
0.0 0.0 0.0 
-1.526560910719e-03 1.768809249523e-03 0.0 
1.768809249523e-03 1.242264778624e-02 0.0 
0.0 0.0 0.0 
3.215693114645e-03 3.414967403354e-03 0.0 
3.414967403354e-03 -2.851938208767e-03 0.0 
0.0 0.0 0.0 
4.554455565167e-04 -7.037115414266e-04 0.0 
-7.037115414266e-04 3.604685733620e-03 0.0 
0.0 0.0 0.0 
-1.567856318756e-03 1.527292587286e-03 0.0 
1.527292587286e-03 1.224161345564e-02 0.0 
0.0 0.0 0.0 
3.911351418237e-03 2.958712469131e-03 0.0 
2.958712469131e-03 -1.370946201994e-03 0.0 
0.0 0.0 0.0 
-1.996968604045e-03 1.877469837218e-03 0.0 
1.877469837218e-03 8.416871629076e-03 0.0 
0.0 0.0 0.0 
1.231274959203e-03 2.529072111771e-03 0.0 
2.529072111771e-03 3.957937848299e-03 0.0 
0.0 0.0 0.0 
4.447981490168e-03 1.575134504904e-03 0.0 
1.575134504904e-03 -4.037741811743e-03 0.0 
0.0 0.0 0.0 
-7.266600161480e-04 -1.011240297314e-03 0.0 
-1.011240297314e-03 2.237956307048e-03 0.0 
0.0 0.0 0.0 
2.115865176222e-03 2.585040773142e-03 0.0 
2.585040773142e-03 2.403376562979e-03 0.0 
0.0 0.0 0.0 
1.032645020309e-04 4.367994181350e-05 0.0 
4.367994181350e-05 1.469033083302e-03 0.0 
0.0 0.0 0.0 
2.035106989521e-03 3.916260824142e-03 0.0 
3.916260824142e-03 1.927829169150e-03 0.0 
0.0 0.0 0.0 
2.705741797370e-03 1.546153519542e-03 0.0 
1.546153519542e-03 1.019324515113e-03 0.0 
0.0 0.0 0.0 
-1.209695463252e-03 1.935982131587e-03 0.0 
1.935982131587e-03 1.258065677541e-02 0.0 
0.0 0.0 0.0 
-1.077781684765e-03 2.229060021123e-03 0.0 
2.229060021123e-03 1.247528188490e-02 0.0 
0.0 0.0 0.0 
2.859054834451e-03 1.617173136530e-03 0.0 
1.617173136530e-03 8.933131742428e-04 0.0 
0.0 0.0 0.0 
-1.412187077514e-03 1.443894831730e-03 0.0 
1.443894831730e-03 1.265831823905e-02 0.0 
0.0 0.0 0.0 
4.506956352689e-03 2.589569140372e-03 0.0 
2.589569140372e-03 -2.303342016283e-03 0.0 
0.0 0.0 0.0 
2.909056310507e-04 3.892896625703e-03 0.0 
3.892896625703e-03 6.521055646735e-03 0.0 
0.0 0.0 0.0 
-2.163597914638e-03 1.456558047870e-03 0.0 
1.456558047870e-03 9.168745577856e-03 0.0 
0.0 0.0 0.0 
-6.222088931421e-04 3.530749164337e-03 0.0 
3.530749164337e-03 9.832746546522e-03 0.0 
0.0 0.0 0.0 
-2.316973048445e-03 1.255323576373e-03 0.0 
1.255323576373e-03 9.775021909430e-03 0.0 
0.0 0.0 0.0 
-2.365443304767e-03 1.176689761917e-03 0.0 
1.176689761917e-03 1.007485076521e-02 0.0 
0.0 0.0 0.0 
4.602099470121e-03 1.903049184417e-03 0.0 
1.903049184417e-03 -2.357803936775e-03 0.0 
0.0 0.0 0.0 
-2.392415004024e-03 1.133725450645e-03 0.0 
1.133725450645e-03 1.034477288322e-02 0.0 
0.0 0.0 0.0 
2.460616288663e-03 3.615303144141e-03 0.0 
3.615303144141e-03 1.648046509980e-03 0.0 
0.0 0.0 0.0 
3.287744547493e-03 3.535496559034e-03 0.0 
3.535496559034e-03 -8.837693030417e-05 0.0 
0.0 0.0 0.0 
4.494094331682e-03 1.107238131909e-04 0.0 
1.107238131909e-04 -2.594323557788e-03 0.0 
0.0 0.0 0.0 
3.843038051705e-03 -1.494956977313e-03 0.0 
-1.494956977313e-03 -3.723288152595e-03 0.0 
0.0 0.0 0.0 
4.848761145071e-03 1.295272409860e-03 0.0 
1.295272409860e-03 -2.746129490861e-03 0.0 
0.0 0.0 0.0 
-1.024117390789e-03 1.355914461517e-03 0.0 
1.355914461517e-03 1.284887618793e-02 0.0 
0.0 0.0 0.0 
-7.891049550959e-04 3.292391482453e-03 0.0 
3.292391482453e-03 1.075556969718e-02 0.0 
0.0 0.0 0.0 
5.468061974254e-04 -9.038003357076e-04 0.0 
-9.038003357076e-04 3.140317248635e-03 0.0 
0.0 0.0 0.0 
1.691847730602e-03 2.603878142526e-03 0.0 
2.603878142526e-03 3.180234754381e-03 0.0 
0.0 0.0 0.0 
3.180815064931e-03 -1.289920329655e-03 0.0 
-1.289920329655e-03 -1.400841209222e-03 0.0 
0.0 0.0 0.0 
-1.312633450998e-03 1.725145276956e-03 0.0 
1.725145276956e-03 1.242713498600e-02 0.0 
0.0 0.0 0.0 
4.720615731274e-03 6.675971841780e-04 0.0 
6.675971841780e-04 -2.678819716633e-03 0.0 
0.0 0.0 0.0 
2.180106273173e-04 -6.401072299358e-04 0.0 
-6.401072299358e-04 4.084898714735e-03 0.0 
0.0 0.0 0.0 
-1.395129613167e-03 1.475643224224e-03 0.0 
1.475643224224e-03 1.246235904958e-02 0.0 
0.0 0.0 0.0 
-1.701538934876e-03 1.852771306873e-03 0.0 
1.852771306873e-03 1.217577807823e-02 0.0 
0.0 0.0 0.0 
3.437246115332e-03 9.663874142837e-04 0.0 
9.663874142837e-04 -4.471843974934e-04 0.0 
0.0 0.0 0.0 
4.776405593556e-03 1.943774203096e-03 0.0 
1.943774203096e-03 -2.616316735484e-03 0.0 
0.0 0.0 0.0 
2.625339582079e-04 3.846048493062e-03 0.0 
3.846048493062e-03 6.904049969058e-03 0.0 
0.0 0.0 0.0 
-1.126650580978e-03 3.673907743216e-03 0.0 
3.673907743216e-03 8.049019249347e-03 0.0 
0.0 0.0 0.0 
3.398760010078e-03 -2.542570347145e-03 0.0 
-2.542570347145e-03 -3.553310445727e-03 0.0 
0.0 0.0 0.0 
4.329765378946e-03 3.866535621305e-04 0.0 
3.866535621305e-04 -3.846670514195e-03 0.0 
0.0 0.0 0.0 
1.443264650217e-03 4.172992136756e-03 0.0 
4.172992136756e-03 1.548807046896e-03 0.0 
0.0 0.0 0.0 
3.235671280335e-04 4.235051421611e-03 0.0 
4.235051421611e-03 4.652984655548e-03 0.0 
0.0 0.0 0.0 
3.066318624478e-05 -5.650474435870e-04 0.0 
-5.650474435870e-04 4.524918960993e-03 0.0 
0.0 0.0 0.0 
-1.781947746836e-03 1.583424153771e-03 0.0 
1.583424153771e-03 1.223570100122e-02 0.0 
0.0 0.0 0.0 
4.819139444513e-03 1.348958040500e-03 0.0 
1.348958040500e-03 -2.525547021420e-03 0.0 
0.0 0.0 0.0 
2.246486528521e-04 4.138563013850e-03 0.0 
4.138563013850e-03 5.863075133123e-03 0.0 
0.0 0.0 0.0 
2.499470316138e-03 1.251655059392e-03 0.0 
1.251655059392e-03 1.295370609331e-03 0.0 
0.0 0.0 0.0 
-1.285643390542e-03 1.147511126747e-03 0.0 
1.147511126747e-03 1.282026527123e-02 0.0 
0.0 0.0 0.0 
-2.280554711453e-05 3.894569412739e-03 0.0 
3.894569412739e-03 7.713427255293e-03 0.0 
0.0 0.0 0.0 
-1.910028761326e-03 1.367320125395e-03 0.0 
1.367320125395e-03 1.179512764500e-02 0.0 
0.0 0.0 0.0 
2.019024568566e-03 3.521913044047e-04 0.0 
3.521913044047e-04 1.717700576727e-03 0.0 
0.0 0.0 0.0 
4.538796620525e-03 7.699789998387e-04 0.0 
7.699789998387e-04 -2.319515622034e-03 0.0 
0.0 0.0 0.0 
2.394687307782e-03 9.883430662340e-04 0.0 
9.883430662340e-04 1.319896099616e-03 0.0 
0.0 0.0 0.0 
1.777675367465e-03 4.077187743708e-03 0.0 
4.077187743708e-03 1.905220308191e-03 0.0 
0.0 0.0 0.0 
-1.116675271980e-03 1.606146713610e-03 0.0 
1.606146713610e-03 1.283465105495e-02 0.0 
0.0 0.0 0.0 
-2.267389210292e-04 3.915600721435e-03 0.0 
3.915600721435e-03 8.504351851535e-03 0.0 
0.0 0.0 0.0 
3.921401421598e-03 8.114517408344e-04 0.0 
8.114517408344e-04 -1.402250905042e-03 0.0 
0.0 0.0 0.0 
4.241167912007e-03 5.972440776302e-04 0.0 
5.972440776302e-04 -4.339815636835e-03 0.0 
0.0 0.0 0.0 
1.276428825797e-03 3.501584714982e-03 0.0 
3.501584714982e-03 4.317313678054e-03 0.0 
0.0 0.0 0.0 
2.009788159917e-03 3.882620725528e-03 0.0 
3.882620725528e-03 2.218794143928e-03 0.0 
0.0 0.0 0.0 
4.684951813472e-03 2.014358651188e-03 0.0 
2.014358651188e-03 -2.214727265380e-03 0.0 
0.0 0.0 0.0 
3.586080116608e-03 9.915105522364e-04 0.0 
9.915105522364e-04 -6.939244796593e-04 0.0 
0.0 0.0 0.0 
1.811153582075e-03 -2.657555277053e-04 0.0 
-2.657555277053e-04 1.498776262853e-03 0.0 
0.0 0.0 0.0 
4.024973677764e-03 -7.016363972653e-04 0.0 
-7.016363972653e-04 -4.128017840728e-03 0.0 
0.0 0.0 0.0 
4.393804941561e-03 7.108122548559e-04 0.0 
7.108122548559e-04 -2.182106831403e-03 0.0 
0.0 0.0 0.0 
-1.655437168492e-03 2.957283124861e-03 0.0 
2.957283124861e-03 9.865139505678e-03 0.0 
0.0 0.0 0.0 
-9.742893868281e-05 -6.153079471237e-04 0.0 
-6.153079471237e-04 4.532580084631e-03 0.0 
0.0 0.0 0.0 
-1.374778298981e-03 3.236991721905e-03 0.0 
3.236991721905e-03 9.404484962743e-03 0.0 
0.0 0.0 0.0 
1.080755029072e-03 3.699340463251e-03 0.0 
3.699340463251e-03 4.661864709380e-03 0.0 
0.0 0.0 0.0 
-1.887407598268e-03 2.639846131702e-03 0.0 
2.639846131702e-03 1.026631576864e-02 0.0 
0.0 0.0 0.0 
-2.177435656816e-03 1.943576612276e-03 0.0 
1.943576612276e-03 1.084200380639e-02 0.0 
0.0 0.0 0.0 
-7.307119367055e-04 3.853613785286e-03 0.0 
3.853613785286e-03 7.412145276786e-03 0.0 
0.0 0.0 0.0 
2.048079076309e-03 2.293385713823e-03 0.0 
2.293385713823e-03 2.424805717667e-03 0.0 
0.0 0.0 0.0 
4.993957885810e-04 -8.445481391577e-04 0.0 
-8.445481391577e-04 3.100082323561e-03 0.0 
0.0 0.0 0.0 
-1.724544119673e-03 1.585209004981e-03 0.0 
1.585209004981e-03 1.199954030315e-02 0.0 
0.0 0.0 0.0 
-8.941052416056e-04 2.183396092736e-03 0.0 
2.183396092736e-03 1.248028556514e-02 0.0 
0.0 0.0 0.0 
-2.066456556507e-03 2.296825207750e-03 0.0 
2.296825207750e-03 1.059434206233e-02 0.0 
0.0 0.0 0.0 
4.867352347190e-03 1.336243715384e-03 0.0 
1.336243715384e-03 -3.000138571587e-03 0.0 
0.0 0.0 0.0 
1.008620060539e-03 3.558574021069e-03 0.0 
3.558574021069e-03 5.221846402931e-03 0.0 
0.0 0.0 0.0 
-1.002603833481e-03 1.291799175375e-03 0.0 
1.291799175375e-03 1.301813789653e-02 0.0 
0.0 0.0 0.0 
2.842735217068e-03 3.634938623308e-03 0.0 
3.634938623308e-03 1.897577589454e-04 0.0 
0.0 0.0 0.0 
2.269896753611e-03 3.852340975817e-03 0.0 
3.852340975817e-03 1.234495346922e-03 0.0 
0.0 0.0 0.0 
4.908041198098e-03 1.338699034585e-03 0.0 
1.338699034585e-03 -2.733765286118e-03 0.0 
0.0 0.0 0.0 
-1.644430626550e-03 1.859997791811e-03 0.0 
1.859997791811e-03 1.191852725304e-02 0.0 
0.0 0.0 0.0 
-1.538406523360e-05 4.221206932791e-03 0.0 
4.221206932791e-03 4.312800074328e-03 0.0 
0.0 0.0 0.0 
2.539069089162e-03 3.513159371679e-03 0.0 
3.513159371679e-03 1.180839476127e-03 0.0 
0.0 0.0 0.0 
1.611899886222e-04 4.300297681237e-03 0.0 
4.300297681237e-03 4.301228544384e-03 0.0 
0.0 0.0 0.0 
2.490076718133e-03 2.267159041677e-03 0.0 
2.267159041677e-03 1.610847604385e-03 0.0 
0.0 0.0 0.0 
7.173253418034e-04 3.603681075267e-03 0.0 
3.603681075267e-03 5.768686208251e-03 0.0 
0.0 0.0 0.0 
4.881418678954e-03 6.298305716178e-04 0.0 
6.298305716178e-04 -2.879370029379e-03 0.0 
0.0 0.0 0.0 
2.784475127037e-03 -8.070296069726e-04 0.0 
-8.070296069726e-04 -4.608622863590e-03 0.0 
0.0 0.0 0.0 
-9.098074798397e-04 2.561266994048e-03 0.0 
2.561266994048e-03 1.204668184977e-02 0.0 
0.0 0.0 0.0 
-4.595938472228e-04 4.097049512332e-03 0.0 
4.097049512332e-03 5.253969816871e-03 0.0 
0.0 0.0 0.0 
3.562068323215e-03 -8.332080579189e-04 0.0 
-8.332080579189e-04 -1.620757739093e-03 0.0 
0.0 0.0 0.0 
1.069912054014e-03 3.503624088804e-03 0.0 
3.503624088804e-03 4.909032225150e-03 0.0 
0.0 0.0 0.0 
-1.939804369912e-03 1.660667721648e-03 0.0 
1.660667721648e-03 1.199133126565e-02 0.0 
0.0 0.0 0.0 
7.916971487933e-04 -9.038619604429e-04 0.0 
-9.038619604429e-04 2.534765131481e-03 0.0 
0.0 0.0 0.0 
3.869368386447e-03 3.166441451033e-03 0.0 
3.166441451033e-03 -9.840228026644e-04 0.0 
0.0 0.0 0.0 
2.512896553739e-03 -4.369840171128e-04 0.0 
-4.369840171128e-04 -4.983363089172e-03 0.0 
0.0 0.0 0.0 
-1.984732741278e-04 -5.508897013890e-04 0.0 
-5.508897013890e-04 4.947614890979e-03 0.0 
0.0 0.0 0.0 
8.339268043214e-04 4.224403119540e-03 0.0 
4.224403119540e-03 3.897006056028e-03 0.0 
0.0 0.0 0.0 
2.616439041951e-03 2.720312465839e-03 0.0 
2.720312465839e-03 1.716917489818e-03 0.0 
0.0 0.0 0.0 
4.304946503078e-04 3.856823421817e-03 0.0 
3.856823421817e-03 6.475427046043e-03 0.0 
0.0 0.0 0.0 
1.036784125164e-03 -2.002320412930e-05 0.0 
-2.002320412930e-05 -4.722206984087e-03 0.0 
0.0 0.0 0.0 
1.084286722680e-03 -7.892372356024e-04 0.0 
-7.892372356024e-04 2.515282714690e-03 0.0 
0.0 0.0 0.0 
3.298963493394e-03 3.446360643516e-03 0.0 
3.446360643516e-03 -1.085591356638e-03 0.0 
0.0 0.0 0.0 
-2.145732398881e-03 1.452155150150e-03 0.0 
1.452155150150e-03 1.178629466256e-02 0.0 
0.0 0.0 0.0 
2.866856947914e-04 -1.680708829639e-03 0.0 
-1.680708829639e-03 1.930720406335e-03 0.0 
0.0 0.0 0.0 
4.973986929718e-03 1.298677464579e-03 0.0 
1.298677464579e-03 -2.990865757295e-03 0.0 
0.0 0.0 0.0 
5.409640939336e-05 -6.927583631270e-04 0.0 
-6.927583631270e-04 4.093992115797e-03 0.0 
0.0 0.0 0.0 
2.202567625568e-03 3.821818967002e-03 0.0 
3.821818967002e-03 1.618107579657e-03 0.0 
0.0 0.0 0.0 
5.033392172691e-03 1.348730560984e-03 0.0 
1.348730560984e-03 -3.316749691639e-03 0.0 
0.0 0.0 0.0 
6.239750274346e-04 4.197294946758e-03 0.0 
4.197294946758e-03 4.896945041895e-03 0.0 
0.0 0.0 0.0 
2.267745977202e-03 -2.325174711207e-03 0.0 
-2.325174711207e-03 -4.642562856427e-03 0.0 
0.0 0.0 0.0 
6.678329354810e-04 3.909803617200e-03 0.0 
3.909803617200e-03 5.607796091037e-03 0.0 
0.0 0.0 0.0 
2.537318690464e-03 2.027192956440e-03 0.0 
2.027192956440e-03 1.646506932279e-03 0.0 
0.0 0.0 0.0 
-3.488885970763e-04 3.822889376969e-03 0.0 
3.822889376969e-03 9.168206592638e-03 0.0 
0.0 0.0 0.0 
5.983983741726e-04 3.819265375429e-03 0.0 
3.819265375429e-03 6.025597027829e-03 0.0 
0.0 0.0 0.0 
4.652591495647e-03 4.212276284091e-04 0.0 
4.212276284091e-04 -3.598954397213e-03 0.0 
0.0 0.0 0.0 
2.857567353369e-04 -9.637946240238e-04 0.0 
-9.637946240238e-04 3.151373995691e-03 0.0 
0.0 0.0 0.0 
-7.151484686921e-04 1.512110382923e-03 0.0 
1.512110382923e-03 1.302722541995e-02 0.0 
0.0 0.0 0.0 
8.214017986636e-04 2.863761655615e-03 0.0 
2.863761655615e-03 4.707524932630e-03 0.0 
0.0 0.0 0.0 
2.177804947006e-03 2.390955401389e-03 0.0 
2.390955401389e-03 2.432007218950e-03 0.0 
0.0 0.0 0.0 
4.315485550765e-03 2.611914056096e-03 0.0 
2.611914056096e-03 -1.574858790307e-03 0.0 
0.0 0.0 0.0 
6.898703599412e-04 4.059660954134e-03 0.0 
4.059660954134e-03 5.227694262006e-03 0.0 
0.0 0.0 0.0 
-2.414736569071e-04 -4.875742968483e-04 0.0 
-4.875742968483e-04 4.878629313126e-03 0.0 
0.0 0.0 0.0 
-1.144924827897e-03 -5.162297987346e-04 0.0 
-5.162297987346e-04 3.726209102889e-03 0.0 
0.0 0.0 0.0 
8.049004179065e-04 3.834576487061e-03 0.0 
3.834576487061e-03 5.085750838819e-03 0.0 
0.0 0.0 0.0 
-1.773981047392e-03 1.321648985883e-03 0.0 
1.321648985883e-03 1.203332549399e-02 0.0 
0.0 0.0 0.0 
2.542191124775e-04 -7.714287195069e-04 0.0 
-7.714287195069e-04 3.616263931461e-03 0.0 
0.0 0.0 0.0 
9.809133224679e-04 -6.841853598642e-04 0.0 
-6.841853598642e-04 2.527327258902e-03 0.0 
0.0 0.0 0.0 
-1.630907922367e-03 4.443234079941e-05 0.0 
4.443234079941e-05 1.089662935853e-02 0.0 
0.0 0.0 0.0 
-1.610558521160e-03 3.281050544421e-05 0.0 
3.281050544421e-05 1.088879963044e-02 0.0 
0.0 0.0 0.0 
-1.754650504589e-03 2.941601436127e-03 0.0 
2.941601436127e-03 1.034209849336e-02 0.0 
0.0 0.0 0.0 
8.373778931401e-04 3.968973699458e-03 0.0 
3.968973699458e-03 4.639365710145e-03 0.0 
0.0 0.0 0.0 
-1.402169045539e-06 -1.480966034162e-03 0.0 
-1.480966034162e-03 2.490217006059e-03 0.0 
0.0 0.0 0.0 
-8.378514652954e-04 3.774218861008e-03 0.0 
3.774218861008e-03 8.180576959419e-03 0.0 
0.0 0.0 0.0 
2.731331384686e-03 3.585426826553e-03 0.0 
3.585426826553e-03 6.068063701337e-04 0.0 
0.0 0.0 0.0 
1.671380330251e-03 1.080023211666e-03 0.0 
1.080023211666e-03 2.425655227965e-03 0.0 
0.0 0.0 0.0 
4.035522709285e-03 3.062996719570e-03 0.0 
3.062996719570e-03 -1.640721791926e-03 0.0 
0.0 0.0 0.0 
-3.824598806420e-04 2.318777206987e-03 0.0 
2.318777206987e-03 1.286520276158e-02 0.0 
0.0 0.0 0.0 
-2.347984669121e-03 1.732224652324e-03 0.0 
1.732224652324e-03 1.070107995153e-02 0.0 
0.0 0.0 0.0 
2.550842363481e-03 3.678886121603e-03 0.0 
3.678886121603e-03 1.259339217880e-03 0.0 
0.0 0.0 0.0 
6.022332985529e-04 -1.665350708981e-03 0.0 
-1.665350708981e-03 1.926192143656e-03 0.0 
0.0 0.0 0.0 
4.445872491538e-03 1.401402353753e-03 0.0 
1.401402353753e-03 -3.303417257912e-03 0.0 
0.0 0.0 0.0 
6.370594840110e-04 -2.046002768350e-03 0.0 
-2.046002768350e-03 1.014266861439e-03 0.0 
0.0 0.0 0.0 
8.522908977449e-04 4.136855951831e-03 0.0 
4.136855951831e-03 4.224756629658e-03 0.0 
0.0 0.0 0.0 
-7.111338176136e-05 4.155086063748e-03 0.0 
4.155086063748e-03 5.624887109609e-03 0.0 
0.0 0.0 0.0 
-1.867485770974e-03 1.650775601650e-03 0.0 
1.650775601650e-03 1.174208279361e-02 0.0 
0.0 0.0 0.0 
-5.548291134934e-04 3.794111277505e-03 0.0 
3.794111277505e-03 7.616437341922e-03 0.0 
0.0 0.0 0.0 
-6.818597199344e-04 3.732428660709e-03 0.0 
3.732428660709e-03 8.368203461792e-03 0.0 
0.0 0.0 0.0 
8.930342671285e-04 -1.694146120488e-04 0.0 
-1.694146120488e-04 6.957095136613e-04 0.0 
0.0 0.0 0.0 
5.798063577536e-04 -2.067035944338e-03 0.0 
-2.067035944338e-03 1.347448724436e-03 0.0 
0.0 0.0 0.0 
-2.776777871879e-04 4.254793734133e-03 0.0 
4.254793734133e-03 5.234957361310e-03 0.0 
0.0 0.0 0.0 
-1.285415972385e-03 3.443397665328e-03 0.0 
3.443397665328e-03 8.763783389111e-03 0.0 
0.0 0.0 0.0 
-1.383857181384e-03 3.402233291999e-03 0.0 
3.402233291999e-03 9.371740992479e-03 0.0 
0.0 0.0 0.0 
1.907014770227e-03 1.987420006835e-03 0.0 
1.987420006835e-03 2.498695923686e-03 0.0 
0.0 0.0 0.0 
-2.229635705907e-04 -1.384639294551e-04 0.0 
-1.384639294551e-04 1.740017974839e-03 0.0 
0.0 0.0 0.0 
3.628535915083e-03 -1.778420948500e-03 0.0 
-1.778420948500e-03 -4.094602435195e-03 0.0 
0.0 0.0 0.0 
1.295724433996e-03 4.190899248221e-03 0.0 
4.190899248221e-03 2.887287849272e-03 0.0 
0.0 0.0 0.0 
2.724501368587e-04 -2.038529469141e-03 0.0 
-2.038529469141e-03 1.344897460722e-03 0.0 
0.0 0.0 0.0 
-2.605185123079e-03 1.496119037821e-03 0.0 
1.496119037821e-03 1.001164543593e-02 0.0 
0.0 0.0 0.0 
-2.620442887692e-03 1.390359930202e-03 0.0 
1.390359930202e-03 1.031023474965e-02 0.0 
0.0 0.0 0.0 
-2.077816817081e-03 1.752936252380e-03 0.0 
1.752936252380e-03 1.173082526349e-02 0.0 
0.0 0.0 0.0 
2.641603786559e-03 3.413382987588e-03 0.0 
3.413382987588e-03 -1.679249594137e-03 0.0 
0.0 0.0 0.0 
2.523854246987e-04 -1.703870200588e-03 0.0 
-1.703870200588e-03 2.176057925587e-03 0.0 
0.0 0.0 0.0 
2.528758816473e-03 5.351738373331e-04 0.0 
5.351738373331e-04 8.213443892469e-04 0.0 
0.0 0.0 0.0 
3.853326764402e-03 -4.608842607736e-04 0.0 
-4.608842607736e-04 -4.379907379140e-03 0.0 
0.0 0.0 0.0 
1.937633519311e-04 3.838641286221e-03 0.0 
3.838641286221e-03 7.092383919231e-03 0.0 
0.0 0.0 0.0 
-1.323584013212e-03 1.683005862798e-03 0.0 
1.683005862798e-03 1.264037693164e-02 0.0 
0.0 0.0 0.0 
-3.252181563143e-04 -1.604308622623e-03 0.0 
-1.604308622623e-03 2.409744930520e-03 0.0 
0.0 0.0 0.0 
2.756742855718e-04 -8.018115185865e-04 0.0 
-8.018115185865e-04 3.649484146614e-03 0.0 
0.0 0.0 0.0 
7.087526234120e-04 -3.258495507649e-04 0.0 
-3.258495507649e-04 4.481396494374e-04 0.0 
0.0 0.0 0.0 
2.564493071842e-03 4.555757459271e-05 0.0 
4.555757459271e-05 4.328874464754e-04 0.0 
0.0 0.0 0.0 
1.058946983367e-03 4.188159459294e-03 0.0 
4.188159459294e-03 3.901101890728e-03 0.0 
0.0 0.0 0.0 
8.763586499065e-04 -2.466994125118e-04 0.0 
-2.466994125118e-04 3.923055889650e-04 0.0 
0.0 0.0 0.0 
-1.121828153084e-03 1.657118957454e-03 0.0 
1.657118957454e-03 1.264228198650e-02 0.0 
0.0 0.0 0.0 
3.381516754823e-03 -7.584241864774e-04 0.0 
-7.584241864774e-04 -4.281885312219e-03 0.0 
0.0 0.0 0.0 
-1.230337832240e-03 3.611480786361e-03 0.0 
3.611480786361e-03 8.737782600498e-03 0.0 
0.0 0.0 0.0 
1.104680639128e-04 4.220011796594e-03 0.0 
4.220011796594e-03 5.615317888858e-03 0.0 
0.0 0.0 0.0 
3.693467511321e-03 -9.250095017954e-04 0.0 
-9.250095017954e-04 -2.174970024603e-03 0.0 
0.0 0.0 0.0 
2.500690466456e-03 -1.077082320563e-03 0.0 
-1.077082320563e-03 -2.629328713510e-05 0.0 
0.0 0.0 0.0 
-1.020662359986e-03 1.910294052844e-03 0.0 
1.910294052844e-03 1.258205845266e-02 0.0 
0.0 0.0 0.0 
2.302909600326e-03 -7.398662565210e-04 0.0 
-7.398662565210e-04 6.326268302641e-04 0.0 
0.0 0.0 0.0 
1.785684932945e-03 4.036139325827e-03 0.0 
4.036139325827e-03 2.196823831452e-03 0.0 
0.0 0.0 0.0 
1.532097844698e-03 4.089211434813e-03 0.0 
4.089211434813e-03 2.900987198971e-03 0.0 
0.0 0.0 0.0 
-1.728771907525e-03 3.466636381238e-03 0.0 
3.466636381238e-03 1.096216270059e-03 0.0 
0.0 0.0 0.0 
3.208536541776e-03 -5.040714531366e-04 0.0 
-5.040714531366e-04 -4.598618483542e-03 0.0 
0.0 0.0 0.0 
8.497891404597e-04 3.717939980769e-03 0.0 
3.717939980769e-03 5.563344027293e-03 0.0 
0.0 0.0 0.0 
-2.298620507358e-03 1.989973059264e-03 0.0 
1.989973059264e-03 1.114375089881e-02 0.0 
0.0 0.0 0.0 
9.377845380005e-04 3.669027543208e-03 0.0 
3.669027543208e-03 5.202383664027e-03 0.0 
0.0 0.0 0.0 
2.927680119787e-03 3.888292921179e-03 0.0 
3.888292921179e-03 -1.150394302202e-03 0.0 
0.0 0.0 0.0 
-1.309503185979e-03 2.815300943405e-03 0.0 
2.815300943405e-03 1.093934927653e-02 0.0 
0.0 0.0 0.0 
4.876847307607e-04 3.808555012033e-03 0.0 
3.808555012033e-03 6.478867314465e-03 0.0 
0.0 0.0 0.0 
-2.424796362915e-03 1.519420716777e-03 0.0 
1.519420716777e-03 1.024112318031e-02 0.0 
0.0 0.0 0.0 
7.202796619730e-04 3.751075368203e-03 0.0 
3.751075368203e-03 5.558552885572e-03 0.0 
0.0 0.0 0.0 
6.120713156266e-05 -8.441484571185e-04 0.0 
-8.441484571185e-04 3.657522382037e-03 0.0 
0.0 0.0 0.0 
1.252513907113e-03 3.986186167235e-03 0.0 
3.986186167235e-03 3.632704728360e-03 0.0 
0.0 0.0 0.0 
5.856887713060e-04 -1.881396160205e-03 0.0 
-1.881396160205e-03 1.610133086733e-03 0.0 
0.0 0.0 0.0 
6.242609441887e-04 -1.852931462943e-03 0.0 
-1.852931462943e-03 1.328396523531e-03 0.0 
0.0 0.0 0.0 
-1.133513562324e-03 2.635562843099e-03 0.0 
2.635562843099e-03 1.202927863791e-02 0.0 
0.0 0.0 0.0 
2.604994973758e-03 -1.311197958509e-03 0.0 
-1.311197958509e-03 -5.383756429750e-04 0.0 
0.0 0.0 0.0 
4.022657750848e-04 4.194200305101e-03 0.0 
4.194200305101e-03 4.898401673481e-03 0.0 
0.0 0.0 0.0 
3.689366492989e-03 2.900859946063e-03 0.0 
2.900859946063e-03 -8.548249845609e-04 0.0 
0.0 0.0 0.0 
2.013208207878e-03 -4.273256185866e-04 0.0 
-4.273256185866e-04 1.320954148830e-03 0.0 
0.0 0.0 0.0 
3.202812705067e-03 3.422301945350e-03 0.0 
3.422301945350e-03 2.188598508677e-04 0.0 
0.0 0.0 0.0 
4.886565524386e-03 5.358258778048e-04 0.0 
5.358258778048e-04 -3.773590492574e-03 0.0 
0.0 0.0 0.0 
3.972679517207e-03 1.954197052631e-04 0.0 
1.954197052631e-04 -1.745097490034e-03 0.0 
0.0 0.0 0.0 
4.955835639876e-03 1.375642030241e-03 0.0 
1.375642030241e-03 -3.547214268647e-03 0.0 
0.0 0.0 0.0 
-9.267705430269e-04 3.655885137683e-03 0.0 
3.655885137683e-03 8.197902137931e-03 0.0 
0.0 0.0 0.0 
4.858489571559e-03 4.761621018230e-04 0.0 
4.761621018230e-04 -3.406906462525e-03 0.0 
0.0 0.0 0.0 
-5.736417518764e-04 3.971603310901e-03 0.0 
3.971603310901e-03 7.395398948506e-03 0.0 
0.0 0.0 0.0 
2.067952661529e-03 2.087777850986e-03 0.0 
2.087777850986e-03 2.456322181295e-03 0.0 
0.0 0.0 0.0 
2.389609892087e-03 1.933872932570e-03 0.0 
1.933872932570e-03 1.690533312321e-03 0.0 
0.0 0.0 0.0 
3.461348686267e-03 3.410724584393e-03 0.0 
3.410724584393e-03 -8.230057416668e-04 0.0 
0.0 0.0 0.0 
-1.984311622008e-03 1.729314947021e-03 0.0 
1.729314947021e-03 1.145525186656e-02 0.0 
0.0 0.0 0.0 
5.337665564031e-05 -6.963260701612e-04 0.0 
-6.963260701612e-04 4.112011834120e-03 0.0 
0.0 0.0 0.0 
-1.219423349325e-04 -7.284813573513e-04 0.0 
-7.284813573513e-04 4.118307421200e-03 0.0 
0.0 0.0 0.0 
1.466315848653e-03 3.535819981378e-03 0.0 
3.535819981378e-03 -1.352298332592e-03 0.0 
0.0 0.0 0.0 
-3.104099540868e-04 3.952073743532e-03 0.0 
3.952073743532e-03 6.778785344606e-03 0.0 
0.0 0.0 0.0 
-1.153654569638e-04 -4.901289879824e-04 0.0 
-4.901289879824e-04 4.932727146109e-03 0.0 
0.0 0.0 0.0 
-1.293126509583e-03 3.519987339395e-03 0.0 
3.519987339395e-03 6.266069282792e-03 0.0 
0.0 0.0 0.0 
-2.861794723509e-04 -1.448484613923e-03 0.0 
-1.448484613923e-03 2.686570827962e-03 0.0 
0.0 0.0 0.0 
-1.859048628648e-03 3.448164296745e-03 0.0 
3.448164296745e-03 1.658006299878e-03 0.0 
0.0 0.0 0.0 
-1.192421460338e-04 -5.902408739474e-04 0.0 
-5.902408739474e-04 4.522766575822e-03 0.0 
0.0 0.0 0.0 
4.727449138658e-03 1.451673359905e-03 0.0 
1.451673359905e-03 -3.758445762938e-03 0.0 
0.0 0.0 0.0 
-1.116259838231e-03 -4.156132955857e-04 0.0 
-4.156132955857e-04 3.949628190626e-03 0.0 
0.0 0.0 0.0 
2.474592362587e-03 2.974198348671e-03 0.0 
2.974198348671e-03 1.687106979332e-03 0.0 
0.0 0.0 0.0 
-2.203291102296e-03 1.851351219820e-03 0.0 
1.851351219820e-03 1.144032776633e-02 0.0 
0.0 0.0 0.0 
-2.114740257142e-03 1.832274570296e-03 0.0 
1.832274570296e-03 1.116350723177e-02 0.0 
0.0 0.0 0.0 
1.304056168250e-03 4.132699074718e-03 0.0 
4.132699074718e-03 3.206557844364e-03 0.0 
0.0 0.0 0.0 
-2.536846073732e-03 1.792692496955e-03 0.0 
1.792692496955e-03 9.394117886785e-03 0.0 
0.0 0.0 0.0 
-2.567944520918e-03 1.630968366304e-03 0.0 
1.630968366304e-03 9.717242867118e-03 0.0 
0.0 0.0 0.0 
-2.567190831712e-04 -6.181378255484e-04 0.0 
-6.181378255484e-04 4.528271763169e-03 0.0 
0.0 0.0 0.0 
2.333985999326e-03 -9.267083392900e-04 0.0 
-9.267083392900e-04 1.977489170213e-05 0.0 
0.0 0.0 0.0 
3.464074637588e-03 -7.174044207608e-04 0.0 
-7.174044207608e-04 -1.671650373960e-03 0.0 
0.0 0.0 0.0 
2.820284906431e-03 3.502637152397e-04 0.0 
3.502637152397e-04 3.939258945291e-04 0.0 
0.0 0.0 0.0 
4.375096215902e-03 1.237320156362e-04 0.0 
1.237320156362e-04 -2.298138218082e-03 0.0 
0.0 0.0 0.0 
4.708240144343e-03 1.327519006567e-03 0.0 
1.327519006567e-03 -3.155889705521e-03 0.0 
0.0 0.0 0.0 
-2.242985286094e-03 1.324307228852e-03 0.0 
1.324307228852e-03 9.497305793967e-03 0.0 
0.0 0.0 0.0 
-2.463878079710e-03 1.781195545057e-03 0.0 
1.781195545057e-03 1.097608173143e-02 0.0 
0.0 0.0 0.0 
-1.630933126928e-03 3.829074649372e-05 0.0 
3.829074649372e-05 1.088917868406e-02 0.0 
0.0 0.0 0.0 
2.390529328497e-03 1.707535550189e-03 0.0 
1.707535550189e-03 1.722588483199e-03 0.0 
0.0 0.0 0.0 
3.810686945445e-03 3.083890820803e-03 0.0 
3.083890820803e-03 -7.774746297501e-04 0.0 
0.0 0.0 0.0 
1.256609253961e-03 2.653768303465e-03 0.0 
2.653768303465e-03 3.933069278939e-03 0.0 
0.0 0.0 0.0 
-5.776020894421e-04 -2.571501089545e-04 0.0 
-2.571501089545e-04 5.070247061701e-03 0.0 
0.0 0.0 0.0 
4.214073990968e-03 2.473805976511e-04 0.0 
2.473805976511e-04 -2.107972834367e-03 0.0 
0.0 0.0 0.0 
-5.625321560698e-05 -5.490998832549e-04 0.0 
-5.490998832549e-04 4.963482406288e-03 0.0 
0.0 0.0 0.0 
4.776975167126e-03 -2.822757405371e-04 0.0 
-2.822757405371e-04 -3.428368518459e-03 0.0 
0.0 0.0 0.0 
1.346699604500e-03 2.905322418552e-03 0.0 
2.905322418552e-03 3.940698133489e-03 0.0 
0.0 0.0 0.0 
1.556457131191e-03 4.025077416204e-03 0.0 
4.025077416204e-03 3.221322543820e-03 0.0 
0.0 0.0 0.0 
1.607471158949e-03 3.743421858434e-03 0.0 
3.743421858434e-03 3.144312820635e-03 0.0 
0.0 0.0 0.0 
1.761630112790e-03 5.313214200699e-04 0.0 
5.313214200699e-04 2.074613187642e-03 0.0 
0.0 0.0 0.0 
9.952501515240e-04 -2.530077611818e-03 0.0 
-2.530077611818e-03 1.180221336279e-04 0.0 
0.0 0.0 0.0 
1.295098707055e-05 4.105036880558e-03 0.0 
4.105036880558e-03 5.867586811456e-03 0.0 
0.0 0.0 0.0 
4.025134226346e-03 -3.505095955143e-04 0.0 
-3.505095955143e-04 -2.223869473701e-03 0.0 
0.0 0.0 0.0 
-2.613055297053e-04 4.125704030652e-03 0.0 
4.125704030652e-03 6.532789142498e-03 0.0 
0.0 0.0 0.0 
2.837823160161e-03 3.757210129236e-03 0.0 
3.757210129236e-03 -2.724560483639e-04 0.0 
0.0 0.0 0.0 
1.890018381810e-03 3.490209141316e-03 0.0 
3.490209141316e-03 2.791361490681e-03 0.0 
0.0 0.0 0.0 
4.165030599398e-03 -4.932039996869e-04 0.0 
-4.932039996869e-04 -2.246999813454e-03 0.0 
0.0 0.0 0.0 
2.903228492013e-04 -1.488091833894e-03 0.0 
-1.488091833894e-03 2.489391329814e-03 0.0 
0.0 0.0 0.0 
-4.259619582052e-04 4.026291280514e-03 0.0 
4.026291280514e-03 6.546805595744e-03 0.0 
0.0 0.0 0.0 
-1.053610904017e-03 4.186743694885e-03 0.0 
4.186743694885e-03 -6.015808746921e-04 0.0 
0.0 0.0 0.0 
3.306394478132e-03 2.874258567533e-03 0.0 
2.874258567533e-03 -1.113699413889e-04 0.0 
0.0 0.0 0.0 
-9.013763303990e-04 3.812444978734e-03 0.0 
3.812444978734e-03 1.219055619884e-03 0.0 
0.0 0.0 0.0 
3.264304308481e-05 -8.065943691726e-04 0.0 
-8.065943691726e-04 9.973093809292e-04 0.0 
0.0 0.0 0.0 
-3.058633579234e-05 -1.497029927965e-03 0.0 
-1.497029927965e-03 2.693112834866e-03 0.0 
0.0 0.0 0.0 
-2.676027437121e-05 3.857883544236e-03 0.0 
3.857883544236e-03 7.368913605941e-03 0.0 
0.0 0.0 0.0 
-2.002763486580e-03 2.147410502097e-03 0.0 
2.147410502097e-03 1.097105991733e-02 0.0 
0.0 0.0 0.0 
-2.451254981316e-03 2.299534487789e-03 0.0 
2.299534487789e-03 8.694170540689e-03 0.0 
0.0 0.0 0.0 
0.0 2.363123421662e-03 0.0 
2.363123421662e-03 1.277054998792e-02 0.0 
0.0 0.0 0.0 
-2.174373735730e-03 3.883141141183e-03 0.0 
3.883141141183e-03 4.211093971938e-04 0.0 
0.0 0.0 0.0 
-2.465630000095e-03 2.015350449411e-03 0.0 
2.015350449411e-03 9.078235021981e-03 0.0 
0.0 0.0 0.0 
3.343012650389e-03 -6.729503640611e-04 0.0 
-6.729503640611e-04 -1.279169845332e-03 0.0 
0.0 0.0 0.0 
-5.495046133968e-04 -1.359896911567e-03 0.0 
-1.359896911567e-03 2.876262317368e-03 0.0 
0.0 0.0 0.0 
-2.338485271506e-03 2.779463600465e-03 0.0 
2.779463600465e-03 9.038295698024e-03 0.0 
0.0 0.0 0.0 
3.991031179444e-03 -1.487596688659e-03 0.0 
-1.487596688659e-03 -2.648430591950e-03 0.0 
0.0 0.0 0.0 
2.563171556991e-03 -1.240084542792e-03 0.0 
-1.240084542792e-03 -6.561243634513e-04 0.0 
0.0 0.0 0.0 
1.107299877286e-03 4.085602229986e-03 0.0 
4.085602229986e-03 4.231004024843e-03 0.0 
0.0 0.0 0.0 
2.913612524380e-03 2.705894725849e-03 0.0 
2.705894725849e-03 7.984996259105e-04 0.0 
0.0 0.0 0.0 
-6.039616482344e-04 3.595391639196e-03 0.0 
3.595391639196e-03 9.262627694395e-03 0.0 
0.0 0.0 0.0 
2.543295582177e-03 3.787149322398e-03 0.0 
3.787149322398e-03 -2.846953522834e-03 0.0 
0.0 0.0 0.0 
-8.051835565881e-05 -1.677360874764e-03 0.0 
-1.677360874764e-03 2.419578077791e-03 0.0 
0.0 0.0 0.0 
-5.352400903855e-04 -1.205642618699e-03 0.0 
-1.205642618699e-03 3.305113953187e-03 0.0 
0.0 0.0 0.0 
1.448093703842e-04 -2.253027167860e-03 0.0 
-2.253027167860e-03 9.185180762918e-04 0.0 
0.0 0.0 0.0 
-2.432139041300e-03 1.446097001254e-03 0.0 
1.446097001254e-03 1.056155044930e-02 0.0 
0.0 0.0 0.0 
-2.169841657392e-03 2.314300327158e-03 0.0 
2.314300327158e-03 1.094848320021e-02 0.0 
0.0 0.0 0.0 
-8.416342512698e-04 -1.248919664855e-04 0.0 
-1.248919664855e-04 4.717368996954e-03 0.0 
0.0 0.0 0.0 
1.298388467162e-03 -3.184061287368e-04 0.0 
-3.184061287368e-04 1.868184301916e-04 0.0 
0.0 0.0 0.0 
1.178090511627e-04 -6.692328278142e-04 0.0 
-6.692328278142e-04 -4.502784100159e-03 0.0 
0.0 0.0 0.0 
-1.956664675618e-05 -1.864804771751e-03 0.0 
-1.864804771751e-03 9.514311378886e-04 0.0 
0.0 0.0 0.0 
-7.243843274514e-04 -1.108919893331e-03 0.0 
-1.108919893331e-03 3.290571861719e-03 0.0 
0.0 0.0 0.0 
4.744445798570e-03 -1.523180494713e-04 0.0 
-1.523180494713e-04 -3.103260886173e-03 0.0 
0.0 0.0 0.0 
3.973327143194e-03 -1.634589855497e-03 0.0 
-1.634589855497e-03 -3.050776606136e-03 0.0 
0.0 0.0 0.0 
4.619410245653e-03 -4.268306136994e-04 0.0 
-4.268306136994e-04 -3.628162401080e-03 0.0 
0.0 0.0 0.0 
-2.671553943969e-04 -1.275265647178e-03 0.0 
-1.275265647178e-03 3.159368838051e-03 0.0 
0.0 0.0 0.0 
-1.642829525470e-03 2.776978105784e-03 0.0 
2.776978105784e-03 1.037311468256e-02 0.0 
0.0 0.0 0.0 
-6.924468557393e-04 -9.602370443835e-04 0.0 
-9.602370443835e-04 3.664056361192e-03 0.0 
0.0 0.0 0.0 
4.998814506721e-03 5.910212563375e-04 0.0 
5.910212563375e-04 -3.226422414356e-03 0.0 
0.0 0.0 0.0 
-1.280895147624e-04 4.017242729549e-03 0.0 
4.017242729549e-03 6.769532619058e-03 0.0 
0.0 0.0 0.0 
-2.019356648451e-03 7.108495624308e-04 0.0 
7.108495624308e-04 1.142819082855e-02 0.0 
0.0 0.0 0.0 
2.120344505174e-03 2.890332221252e-03 0.0 
2.890332221252e-03 2.465355755470e-03 0.0 
0.0 0.0 0.0 
-8.520864501371e-04 -8.579922289621e-04 0.0 
-8.579922289621e-04 3.648075512301e-03 0.0 
0.0 0.0 0.0 
-4.932711976237e-04 -1.212498080194e-03 0.0 
-1.212498080194e-03 3.150105461108e-03 0.0 
0.0 0.0 0.0 
-2.368070646746e-03 2.877077951011e-03 0.0 
2.877077951011e-03 7.798929912148e-03 0.0 
0.0 0.0 0.0 
4.398320799297e-03 -7.183098567329e-04 0.0 
-7.183098567329e-04 -2.899254313804e-03 0.0 
0.0 0.0 0.0 
-8.091307479382e-04 -7.167919685913e-04 0.0 
-7.167919685913e-04 3.974842962220e-03 0.0 
0.0 0.0 0.0 
-1.361195240862e-03 7.742223742601e-05 0.0 
7.742223742601e-05 1.223430591417e-02 0.0 
0.0 0.0 0.0 
-1.472428348572e-03 6.435145901629e-05 0.0 
6.435145901629e-05 1.191679787135e-02 0.0 
0.0 0.0 0.0 
-2.420207307296e-03 2.572291120681e-03 0.0 
2.572291120681e-03 8.289813681365e-03 0.0 
0.0 0.0 0.0 
-4.594171860622e-04 -1.046410004455e-03 0.0 
-1.046410004455e-03 3.570933324616e-03 0.0 
0.0 0.0 0.0 
2.835278298087e-03 -2.408990563351e-03 0.0 
-2.408990563351e-03 -2.158100160935e-03 0.0 
0.0 0.0 0.0 
7.425805006922e-05 4.109869877869e-03 0.0 
4.109869877869e-03 7.819763789314e-04 0.0 
0.0 0.0 0.0 
1.363299912196e-03 2.752245921838e-03 0.0 
2.752245921838e-03 3.975071059171e-03 0.0 
0.0 0.0 0.0 
-1.322231062378e-04 -2.144084698166e-03 0.0 
-2.144084698166e-03 8.269380938652e-04 0.0 
0.0 0.0 0.0 
2.806748817157e-03 -2.213647577556e-03 0.0 
-2.213647577556e-03 -1.499195650981e-03 0.0 
0.0 0.0 0.0 
3.327169871560e-03 2.986631335676e-03 0.0 
2.986631335676e-03 1.760965919770e-04 0.0 
0.0 0.0 0.0 
-2.060828474415e-03 1.581684704394e-03 0.0 
1.581684704394e-03 8.903925385216e-03 0.0 
0.0 0.0 0.0 
-9.403007458548e-04 -6.142065338551e-04 0.0 
-6.142065338551e-04 3.951359659197e-03 0.0 
0.0 0.0 0.0 
-7.979765022886e-04 -6.259311327675e-05 0.0 
-6.259311327675e-05 2.442215372004e-03 0.0 
0.0 0.0 0.0 
-2.601332485256e-03 1.508285902819e-03 0.0 
1.508285902819e-03 1.082801118749e-02 0.0 
0.0 0.0 0.0 
-6.525243757032e-04 -9.772610172531e-04 0.0 
-9.772610172531e-04 3.560327310203e-03 0.0 
0.0 0.0 0.0 
3.128301072979e-03 -1.197723482346e-03 0.0 
-1.197723482346e-03 -1.556454217917e-03 0.0 
0.0 0.0 0.0 
-2.917745491726e-05 -1.673265393155e-03 0.0 
-1.673265393155e-03 2.172952485787e-03 0.0 
0.0 0.0 0.0 
-7.508275493862e-05 2.892239791125e-03 0.0 
2.892239791125e-03 -2.356709574011e-03 0.0 
0.0 0.0 0.0 
-8.834583738134e-04 8.775291694269e-05 0.0 
8.775291694269e-05 1.308888899302e-02 0.0 
0.0 0.0 0.0 
3.396661409791e-03 -1.714555937532e-03 0.0 
-1.714555937532e-03 -2.333608328535e-03 0.0 
0.0 0.0 0.0 
2.018684062195e-03 1.394802695492e-03 0.0 
1.394802695492e-03 2.177350502954e-03 0.0 
0.0 0.0 0.0 
1.867338813428e-03 3.607699771599e-03 0.0 
3.607699771599e-03 3.167221738945e-03 0.0 
0.0 0.0 0.0 
-6.100282371071e-04 -8.217770705775e-04 0.0 
-8.217770705775e-04 3.930595703572e-03 0.0 
0.0 0.0 0.0 
-7.706321464248e-04 -7.458628612786e-04 0.0 
-7.458628612786e-04 3.918726221542e-03 0.0 
0.0 0.0 0.0 
4.842909869730e-03 -2.012431207154e-04 0.0 
-2.012431207154e-04 -3.333075589236e-03 0.0 
0.0 0.0 0.0 
-6.191508247010e-04 -1.915345529864e-03 0.0 
-1.915345529864e-03 8.395170256530e-04 0.0 
0.0 0.0 0.0 
4.922953069135e-04 3.888526874061e-03 0.0 
3.888526874061e-03 -2.559459434062e-03 0.0 
0.0 0.0 0.0 
-7.241954018888e-04 -6.046192819819e-04 0.0 
-6.046192819819e-04 4.248076873527e-03 0.0 
0.0 0.0 0.0 
1.918778642445e-03 7.526945008467e-04 0.0 
7.526945008467e-04 2.082520655879e-03 0.0 
0.0 0.0 0.0 
1.722792728318e-03 -2.629845944058e-03 0.0 
-2.629845944058e-03 -9.057417327181e-04 0.0 
0.0 0.0 0.0 
9.609206662153e-05 3.976241995989e-03 0.0 
3.976241995989e-03 6.176705748470e-03 0.0 
0.0 0.0 0.0 
-1.008264883556e-03 3.630268704470e-03 0.0 
3.630268704470e-03 5.483188140858e-03 0.0 
0.0 0.0 0.0 
-4.379506270091e-04 3.875631542018e-03 0.0 
3.875631542018e-03 7.604460361537e-03 0.0 
0.0 0.0 0.0 
7.091501914287e-04 -9.985184442491e-06 0.0 
-9.985184442491e-06 4.023984254058e-03 0.0 
0.0 0.0 0.0 
-5.425023593606e-03 -6.241763981456e-05 0.0 
-6.241763981456e-05 -2.488275808785e-03 0.0 
0.0 0.0 0.0 
0.0 2.396873872614e-04 0.0 
2.396873872614e-04 1.368055602317e-02 0.0 
0.0 0.0 0.0 
0.0 -1.847132004334e-04 0.0 
-1.847132004334e-04 5.997254613372e-03 0.0 
0.0 0.0 0.0 
-1.569161706256e-03 -2.486528186692e-05 0.0 
-2.486528186692e-05 1.131728259952e-02 0.0 
0.0 0.0 0.0 
2.302764112710e-03 -2.218041544479e-03 0.0 
-2.218041544479e-03 -1.209668040538e-03 0.0 
0.0 0.0 0.0 
1.544047223509e-03 3.872301449387e-03 0.0 
3.872301449387e-03 3.649533158136e-03 0.0 
0.0 0.0 0.0 
4.923924134816e-03 5.482286603008e-04 0.0 
5.482286603008e-04 -3.188271479932e-03 0.0 
0.0 0.0 0.0 
3.618956153773e-04 -6.539913871714e-04 0.0 
-6.539913871714e-04 7.658084923716e-04 0.0 
0.0 0.0 0.0 
-2.168229812783e-03 3.731877474568e-03 0.0 
3.731877474568e-03 1.097694567424e-03 0.0 
0.0 0.0 0.0 
-7.845583474076e-04 7.270002380285e-04 0.0 
7.270002380285e-04 1.323243475605e-02 0.0 
0.0 0.0 0.0 
-1.989993691539e-03 2.641681018784e-03 0.0 
2.641681018784e-03 1.067962969662e-02 0.0 
0.0 0.0 0.0 
-2.644041746983e-03 1.329079330887e-03 0.0 
1.329079330887e-03 1.058120077603e-02 0.0 
0.0 0.0 0.0 
2.876489769521e-04 4.134464682631e-03 0.0 
4.134464682631e-03 7.114831389936e-03 0.0 
0.0 0.0 0.0 
-4.181424124762e-04 -2.655393172585e-05 0.0 
-2.655393172585e-05 1.997452712744e-03 0.0 
0.0 0.0 0.0 
3.328959340909e-04 3.910538509995e-03 0.0 
3.910538509995e-03 6.622397454579e-03 0.0 
0.0 0.0 0.0 
-1.847666720019e-03 2.477032366885e-03 0.0 
2.477032366885e-03 1.070669497155e-02 0.0 
0.0 0.0 0.0 
1.441131006712e-03 -2.460194072169e-03 0.0 
-2.460194072169e-03 -3.145905744456e-04 0.0 
0.0 0.0 0.0 
1.721105992315e-03 3.937297753121e-03 0.0 
3.937297753121e-03 2.608753772990e-03 0.0 
0.0 0.0 0.0 
2.256283635870e-03 -2.245500436046e-03 0.0 
-2.245500436046e-03 -8.571874249031e-04 0.0 
0.0 0.0 0.0 
6.845582798620e-06 4.022550682257e-03 0.0 
4.022550682257e-03 1.501048827540e-03 0.0 
0.0 0.0 0.0 
1.729694169246e-03 -2.454576720713e-03 0.0 
-2.454576720713e-03 -4.046847686054e-04 0.0 
0.0 0.0 0.0 
-1.397506386031e-03 3.057564407100e-03 0.0 
3.057564407100e-03 9.972887883088e-03 0.0 
0.0 0.0 0.0 
-5.126017018823e-04 -3.332161412949e-04 0.0 
-3.332161412949e-04 5.134048244788e-03 0.0 
0.0 0.0 0.0 
3.437524981608e-03 -1.828135032097e-03 0.0 
-1.828135032097e-03 -2.031915251130e-03 0.0 
0.0 0.0 0.0 
-1.845394051810e-04 3.869909702881e-03 0.0 
3.869909702881e-03 7.050062598672e-03 0.0 
0.0 0.0 0.0 
-2.076290558309e-03 -2.092538649125e-04 0.0 
-2.092538649125e-04 -4.216169838319e-03 0.0 
0.0 0.0 0.0 
4.499092532973e-03 -8.226335306598e-04 0.0 
-8.226335306598e-04 -2.919882480137e-03 0.0 
0.0 0.0 0.0 
-1.686330442874e-03 2.645181135204e-03 0.0 
2.645181135204e-03 1.120344398454e-02 0.0 
0.0 0.0 0.0 
8.644236230175e-04 -2.483849802309e-03 0.0 
-2.483849802309e-03 5.473779746770e-04 0.0 
0.0 0.0 0.0 
1.202322628120e-03 -2.732035734764e-03 0.0 
-2.732035734764e-03 -3.858625133512e-04 0.0 
0.0 0.0 0.0 
1.994608443915e-03 3.786413149197e-03 0.0 
3.786413149197e-03 2.631648190060e-03 0.0 
0.0 0.0 0.0 
2.194738687843e-03 -3.067835663377e-03 0.0 
-3.067835663377e-03 -1.967912477341e-03 0.0 
0.0 0.0 0.0 
-1.801456897432e-03 3.224118398158e-03 0.0 
3.224118398158e-03 6.113000318801e-03 0.0 
0.0 0.0 0.0 
-2.057081851457e-03 3.359440643757e-03 0.0 
3.359440643757e-03 6.994755813273e-03 0.0 
0.0 0.0 0.0 
7.269884241035e-04 -2.532128165984e-03 0.0 
-2.532128165984e-03 5.238115637307e-04 0.0 
0.0 0.0 0.0 
3.027327510212e-03 -1.028098474848e-03 0.0 
-1.028098474848e-03 -1.209785604320e-03 0.0 
0.0 0.0 0.0 
3.341459958126e-03 3.306952528324e-03 0.0 
3.306952528324e-03 -4.202264224873e-04 0.0 
0.0 0.0 0.0 
-5.882039133498e-05 3.908071574175e-03 0.0 
3.908071574175e-03 7.045297861928e-03 0.0 
0.0 0.0 0.0 
-5.272342136295e-04 3.469827476979e-03 0.0 
3.469827476979e-03 1.038465649333e-02 0.0 
0.0 0.0 0.0 
-1.963807506607e-03 2.126117884847e-03 0.0 
2.126117884847e-03 7.951343593220e-03 0.0 
0.0 0.0 0.0 
-1.224972056398e-03 5.632310143937e-05 0.0 
5.632310143937e-05 1.254679817997e-02 0.0 
0.0 0.0 0.0 
3.789280305000e-05 3.881126277505e-03 0.0 
3.881126277505e-03 8.077442028300e-03 0.0 
0.0 0.0 0.0 
5.017230798246e-03 5.426093472323e-04 0.0 
5.426093472323e-04 -3.559374231984e-03 0.0 
0.0 0.0 0.0 
-7.086660063389e-04 3.898006472040e-03 0.0 
3.898006472040e-03 1.222096412857e-03 0.0 
0.0 0.0 0.0 
-1.288756591090e-03 3.808551352968e-03 0.0 
3.808551352968e-03 6.214791677221e-03 0.0 
0.0 0.0 0.0 
2.701228143334e-03 -1.419115902991e-03 0.0 
-1.419115902991e-03 -1.087718593104e-03 0.0 
0.0 0.0 0.0 
-7.280625873393e-04 3.653960239066e-03 0.0 
3.653960239066e-03 8.378323482593e-03 0.0 
0.0 0.0 0.0 
3.075530078138e-03 -1.095386774442e-03 0.0 
-1.095386774442e-03 -1.138992400361e-03 0.0 
0.0 0.0 0.0 
1.627567641214e-03 3.360926846481e-03 0.0 
3.360926846481e-03 -2.289243381642e-03 0.0 
0.0 0.0 0.0 
2.775079048029e-03 -8.177436028892e-04 0.0 
-8.177436028892e-04 -6.228277869245e-04 0.0 
0.0 0.0 0.0 
-1.400596202638e-04 3.990263529982e-03 0.0 
3.990263529982e-03 2.220990849987e-03 0.0 
0.0 0.0 0.0 
3.618219755218e-03 3.007937011098e-03 0.0 
3.007937011098e-03 -3.789390669082e-04 0.0 
0.0 0.0 0.0 
2.914294827944e-03 -9.343780259250e-04 0.0 
-9.343780259250e-04 -7.053342607493e-04 0.0 
0.0 0.0 0.0 
2.052949931691e-03 3.671214216256e-03 0.0 
3.671214216256e-03 2.162931687108e-03 0.0 
0.0 0.0 0.0 
-1.464741842072e-03 2.199926801023e-04 0.0 
2.199926801023e-04 1.215942747263e-02 0.0 
0.0 0.0 0.0 
4.733674439117e-04 -2.505086446977e-03 0.0 
-2.505086446977e-03 5.213004857250e-04 0.0 
0.0 0.0 0.0 
2.216379796285e-04 4.170658866315e-03 0.0 
4.170658866315e-03 2.421485809356e-05 0.0 
0.0 0.0 0.0 
2.741928265749e-03 -6.349374308924e-04 0.0 
-6.349374308924e-04 -2.619452711194e-05 0.0 
0.0 0.0 0.0 
-2.786602650412e-04 3.921453796359e-03 0.0 
3.921453796359e-03 2.960964535310e-03 0.0 
0.0 0.0 0.0 
2.935223499225e-04 1.028874843353e-03 0.0 
1.028874843353e-03 -4.680626385038e-03 0.0 
0.0 0.0 0.0 
-5.719836771190e-04 1.350586311166e-04 0.0 
1.350586311166e-04 1.333169802018e-02 0.0 
0.0 0.0 0.0 
-8.290155339835e-04 1.165969254354e-04 0.0 
1.165969254354e-04 1.309000924867e-02 0.0 
0.0 0.0 0.0 
-4.822798381934e-04 -6.738855404196e-04 0.0 
-6.738855404196e-04 6.160714345413e-04 0.0 
0.0 0.0 0.0 
2.499452433476e-03 -4.518894586055e-04 0.0 
-4.518894586055e-04 1.561684372196e-04 0.0 
0.0 0.0 0.0 
6.139810046024e-05 -2.120322920047e-03 0.0 
-2.120322920047e-03 9.263782873026e-04 0.0 
0.0 0.0 0.0 
-7.708383606064e-05 -2.107753368884e-03 0.0 
-2.107753368884e-03 1.228843510284e-03 0.0 
0.0 0.0 0.0 
-9.150121509760e-05 3.837230998370e-03 0.0 
3.837230998370e-03 7.370299872794e-03 0.0 
0.0 0.0 0.0 
2.341422157483e-03 3.459933332426e-03 0.0 
3.459933332426e-03 2.190283446403e-03 0.0 
0.0 0.0 0.0 
1.590595743599e-04 3.891990586181e-03 0.0 
3.891990586181e-03 6.521709233835e-03 0.0 
0.0 0.0 0.0 
3.974091963557e-03 -1.433341505679e-03 0.0 
-1.433341505679e-03 -2.803090519460e-03 0.0 
0.0 0.0 0.0 
-1.721879692197e-03 1.107198231695e-04 0.0 
1.107198231695e-04 1.089778566560e-02 0.0 
0.0 0.0 0.0 
2.871915951841e-04 -2.043110058830e-04 0.0 
-2.043110058830e-04 4.234667141868e-03 0.0 
0.0 0.0 0.0 
-1.830069074588e-04 -1.900949410342e-03 0.0 
-1.900949410342e-03 1.153874752991e-03 0.0 
0.0 0.0 0.0 
2.163275746530e-03 1.430732919364e-03 0.0 
1.430732919364e-03 1.865937957270e-03 0.0 
0.0 0.0 0.0 
3.009700114048e-03 3.376287567507e-03 0.0 
3.376287567507e-03 6.391908103860e-04 0.0 
0.0 0.0 0.0 
2.081131957876e-06 -3.774524116311e-04 0.0 
-3.774524116311e-04 1.389873871420e-03 0.0 
0.0 0.0 0.0 
-1.057588461671e-03 3.467051219404e-03 0.0 
3.467051219404e-03 8.895175201783e-03 0.0 
0.0 0.0 0.0 
4.783506785349e-03 -9.196530416517e-05 0.0 
-9.196530416517e-05 -3.010179241598e-03 0.0 
0.0 0.0 0.0 
-5.369161022475e-04 -1.959168332453e-03 0.0 
-1.959168332453e-03 8.616366142051e-04 0.0 
0.0 0.0 0.0 
4.467366152864e-03 -9.573928916361e-04 0.0 
-9.573928916361e-04 -3.151943286000e-03 0.0 
0.0 0.0 0.0 
-9.100634390579e-04 -4.233851005452e-05 0.0 
-4.233851005452e-05 4.626410391132e-03 0.0 
0.0 0.0 0.0 
-1.473931862401e-03 3.213542852513e-03 0.0 
3.213542852513e-03 9.937449233126e-03 0.0 
0.0 0.0 0.0 
-2.046906727382e-05 -2.143923842065e-03 0.0 
-2.143923842065e-03 6.368549770386e-04 0.0 
0.0 0.0 0.0 
-1.213477400351e-03 -2.895078685147e-04 0.0 
-2.895078685147e-04 3.923563619705e-03 0.0 
0.0 0.0 0.0 
-4.049509351894e-04 3.775009438955e-03 0.0 
3.775009438955e-03 7.865494446761e-03 0.0 
0.0 0.0 0.0 
1.823724893056e-03 2.970132900739e-03 0.0 
2.970132900739e-03 3.327790311548e-03 0.0 
0.0 0.0 0.0 
1.232029913535e-03 -2.556615863585e-03 0.0 
-2.556615863585e-03 5.941009738364e-05 0.0 
0.0 0.0 0.0 
-8.712333121190e-04 -3.215590114052e-04 0.0 
-3.215590114052e-04 2.436493351888e-03 0.0 
0.0 0.0 0.0 
3.103777639294e-03 3.274389319917e-03 0.0 
3.274389319917e-03 1.374214684677e-04 0.0 
0.0 0.0 0.0 
-1.416327691284e-03 -2.286531125110e-05 0.0 
-2.286531125110e-05 1.205188081683e-02 0.0 
0.0 0.0 0.0 
-3.152424243379e-04 -2.719368561451e-03 0.0 
-2.719368561451e-03 6.576677820889e-04 0.0 
0.0 0.0 0.0 
1.037044927301e-04 4.180893794034e-03 0.0 
4.180893794034e-03 8.012731490486e-03 0.0 
0.0 0.0 0.0 
-3.586860023586e-04 3.268001062353e-03 0.0 
3.268001062353e-03 1.131441128245e-02 0.0 
0.0 0.0 0.0 
-1.532752367538e-03 1.403065573491e-05 0.0 
1.403065573491e-05 1.155014660450e-02 0.0 
0.0 0.0 0.0 
-7.943260814599e-04 1.777436954090e-03 0.0 
1.777436954090e-03 1.299608720393e-02 0.0 
0.0 0.0 0.0 
-2.481785357212e-04 3.655792105341e-03 0.0 
3.655792105341e-03 1.045315097562e-02 0.0 
0.0 0.0 0.0 
3.982886989696e-03 -1.296982336312e-03 0.0 
-1.296982336312e-03 -2.413877924881e-03 0.0 
0.0 0.0 0.0 
2.841585073824e-03 -2.140803289014e-03 0.0 
-2.140803289014e-03 -1.969764306898e-03 0.0 
0.0 0.0 0.0 
1.127963975040e-03 1.950695357142e-03 0.0 
1.950695357142e-03 3.994524762825e-03 0.0 
0.0 0.0 0.0 
-1.785685583007e-03 4.891072835740e-04 0.0 
4.891072835740e-04 -4.085872609346e-03 0.0 
0.0 0.0 0.0 
-6.536153596551e-04 -1.323989462274e-04 0.0 
-1.323989462274e-04 2.229506142759e-03 0.0 
0.0 0.0 0.0 
-1.125502156300e-03 -1.917126628440e-04 0.0 
-1.917126628440e-04 4.028476854987e-03 0.0 
0.0 0.0 0.0 
8.938899675348e-04 -2.626852684249e-03 0.0 
-2.626852684249e-03 7.475089026454e-05 0.0 
0.0 0.0 0.0 
3.408681963369e-03 -2.022878622032e-03 0.0 
-2.022878622032e-03 -2.210675593337e-03 0.0 
0.0 0.0 0.0 
-1.600043660432e-03 3.256632094729e-03 0.0 
3.256632094729e-03 4.695141560081e-03 0.0 
0.0 0.0 0.0 
-1.729929798892e-03 3.477217782967e-03 0.0 
3.477217782967e-03 5.298290151937e-03 0.0 
0.0 0.0 0.0 
-2.034304908555e-03 5.540790829942e-04 0.0 
5.540790829942e-04 1.153110941033e-02 0.0 
0.0 0.0 0.0 
4.466438617631e-03 -9.433506288017e-04 0.0 
-9.433506288017e-04 -3.206929289306e-03 0.0 
0.0 0.0 0.0 
-9.088501947293e-04 -7.914126170354e-04 0.0 
-7.914126170354e-04 2.490543184286e-03 0.0 
0.0 0.0 0.0 
1.663118032553e-03 3.377819013949e-03 0.0 
3.377819013949e-03 3.457170815435e-03 0.0 
0.0 0.0 0.0 
1.077150364983e-04 -5.115200937860e-04 0.0 
-5.115200937860e-04 5.195849970485e-03 0.0 
0.0 0.0 0.0 
1.836316085768e-04 -4.352112525960e-04 0.0 
-4.352112525960e-04 4.980745126063e-03 0.0 
0.0 0.0 0.0 
2.789863241918e-03 -1.944932733488e-03 0.0 
-1.944932733488e-03 -1.264088392545e-03 0.0 
0.0 0.0 0.0 
-2.129724278363e-03 6.570054470831e-04 0.0 
6.570054470831e-04 1.120080208702e-02 0.0 
0.0 0.0 0.0 
-1.986624504316e-03 1.414473098352e-04 0.0 
1.414473098352e-04 -3.560729632251e-03 0.0 
0.0 0.0 0.0 
-1.624522989378e-03 3.454472021790e-03 0.0 
3.454472021790e-03 3.469488685720e-03 0.0 
0.0 0.0 0.0 
1.842917809719e-03 -3.560350561952e-03 0.0 
-3.560350561952e-03 -2.601152455014e-03 0.0 
0.0 0.0 0.0 
-1.611188298076e-03 3.378459092990e-03 0.0 
3.378459092990e-03 4.061657723351e-03 0.0 
0.0 0.0 0.0 
2.818575349478e-03 3.266458519776e-03 0.0 
3.266458519776e-03 1.208712052545e-03 0.0 
0.0 0.0 0.0 
2.190762771730e-03 -2.451180910297e-03 0.0 
-2.451180910297e-03 -9.299176111064e-04 0.0 
0.0 0.0 0.0 
3.457595860936e-03 -1.993381342017e-03 0.0 
-1.993381342017e-03 -2.564550209869e-03 0.0 
0.0 0.0 0.0 
9.836512123516e-04 -3.489596826726e-03 0.0 
-3.489596826726e-03 -3.275042780159e-03 0.0 
0.0 0.0 0.0 
-7.163854369276e-04 2.071760015345e-04 0.0 
2.071760015345e-04 1.314220221239e-02 0.0 
0.0 0.0 0.0 
2.284312635482e-03 -2.429200571160e-03 0.0 
-2.429200571160e-03 -1.465305198062e-03 0.0 
0.0 0.0 0.0 
-6.550100070398e-04 7.413605942232e-04 0.0 
7.413605942232e-04 1.322942510543e-02 0.0 
0.0 0.0 0.0 
-1.004913000696e-03 2.734226347177e-04 0.0 
2.734226347177e-04 1.292263064826e-02 0.0 
0.0 0.0 0.0 
-2.728074906478e-04 3.315770765586e-04 0.0 
3.315770765586e-04 1.366759482932e-02 0.0 
0.0 0.0 0.0 
-1.671806677741e-04 -2.406348679436e-04 0.0 
-2.406348679436e-04 5.981092458198e-03 0.0 
0.0 0.0 0.0 
-1.547530839373e-03 5.160762514832e-05 0.0 
5.160762514832e-05 1.155898097852e-02 0.0 
0.0 0.0 0.0 
1.843337856759e-03 -2.485750195263e-03 0.0 
-2.485750195263e-03 -8.134400768537e-04 0.0 
0.0 0.0 0.0 
-1.712413380310e-03 3.102101942613e-03 0.0 
3.102101942613e-03 6.100762656990e-03 0.0 
0.0 0.0 0.0 
1.861755885447e-03 -2.314177613215e-03 0.0 
-2.314177613215e-03 -3.420093648436e-04 0.0 
0.0 0.0 0.0 
0.0 -4.988641013407e-04 0.0 
-4.988641013407e-04 5.426686591434e-03 0.0 
0.0 0.0 0.0 
-1.756186802106e-03 3.500241281298e-03 0.0 
3.500241281298e-03 2.320660373878e-03 0.0 
0.0 0.0 0.0 
-1.645570071424e-03 3.463511833900e-03 0.0 
3.463511833900e-03 2.882315750526e-03 0.0 
0.0 0.0 0.0 
1.920855162399e-03 1.825152444938e-03 0.0 
1.825152444938e-03 2.511695828831e-03 0.0 
0.0 0.0 0.0 
-1.944528624672e-03 4.150779564551e-04 0.0 
4.150779564551e-04 1.123043978522e-02 0.0 
0.0 0.0 0.0 
-6.055943305525e-04 4.962683903638e-04 0.0 
4.962683903638e-04 1.329343080261e-02 0.0 
0.0 0.0 0.0 
-3.421311324755e-04 3.816690333907e-03 0.0 
3.816690333907e-03 7.862811949037e-03 0.0 
0.0 0.0 0.0 
1.405563150481e-03 3.107399310015e-03 0.0 
3.107399310015e-03 3.982678302727e-03 0.0 
0.0 0.0 0.0 
-9.798068877162e-04 3.518762327017e-03 0.0 
3.518762327017e-03 9.642206762080e-03 0.0 
0.0 0.0 0.0 
-1.563682804005e-03 1.993311440866e-04 0.0 
1.993311440866e-04 1.163813596306e-02 0.0 
0.0 0.0 0.0 
7.188613321532e-04 -2.676913897666e-03 0.0 
-2.676913897666e-03 1.222508051817e-04 0.0 
0.0 0.0 0.0 
1.012932699520e-03 -2.629777130284e-03 0.0 
-2.629777130284e-03 1.148089053604e-04 0.0 
0.0 0.0 0.0 
-1.280754791384e-03 1.494111184918e-04 0.0 
1.494111184918e-04 1.239162731690e-02 0.0 
0.0 0.0 0.0 
1.425086266186e-03 3.175041369336e-03 0.0 
3.175041369336e-03 4.136766855865e-03 0.0 
0.0 0.0 0.0 
-2.374678829002e-03 8.865193510613e-04 0.0 
8.865193510613e-04 1.076906233497e-02 0.0 
0.0 0.0 0.0 
-1.610574135789e-03 5.340865983352e-05 0.0 
5.340865983352e-05 1.122486478986e-02 0.0 
0.0 0.0 0.0 
-1.593770517724e-03 9.048288313398e-05 0.0 
9.048288313398e-05 1.154434206800e-02 0.0 
0.0 0.0 0.0 
-1.658613023035e-03 1.666662496302e-04 0.0 
1.666662496302e-04 1.165278248376e-02 0.0 
0.0 0.0 0.0 
2.649926079202e-03 -1.833313706113e-03 0.0 
-1.833313706113e-03 -4.047439532644e-03 0.0 
0.0 0.0 0.0 
5.000890716260e-04 -2.518752289419e-03 0.0 
-2.518752289419e-03 5.934986254290e-04 0.0 
0.0 0.0 0.0 
-5.483949508787e-04 1.063207011003e-03 0.0 
1.063207011003e-03 1.335757057541e-02 0.0 
0.0 0.0 0.0 
-1.576442488761e-03 2.476685140501e-04 0.0 
2.476685140501e-04 1.200714061653e-02 0.0 
0.0 0.0 0.0 
6.482515421351e-04 2.740520015877e-03 0.0 
2.740520015877e-03 4.751810169811e-03 0.0 
0.0 0.0 0.0 
-7.603775240871e-04 3.639489902121e-03 0.0 
3.639489902121e-03 1.031561735057e-02 0.0 
0.0 0.0 0.0 
-1.037156592355e-03 3.599687363664e-03 0.0 
3.599687363664e-03 8.870343081331e-03 0.0 
0.0 0.0 0.0 
-1.003090605023e-03 1.843167671389e-03 0.0 
1.843167671389e-03 1.278758006099e-02 0.0 
0.0 0.0 0.0 
-1.033255112672e-03 -1.060884760514e-03 0.0 
-1.060884760514e-03 3.045330354109e-03 0.0 
0.0 0.0 0.0 
-9.929898516273e-04 -1.126555656071e-03 0.0 
-1.126555656071e-03 2.791805137812e-03 0.0 
0.0 0.0 0.0 
6.013355769219e-04 -2.276812629786e-04 0.0 
-2.276812629786e-04 3.727082888972e-03 0.0 
0.0 0.0 0.0 
4.580351051751e-04 -2.015998475267e-03 0.0 
-2.015998475267e-03 -3.711303688130e-03 0.0 
0.0 0.0 0.0 
-6.040792835237e-04 -2.183141630047e-04 0.0 
-2.183141630047e-04 2.285522058613e-03 0.0 
0.0 0.0 0.0 
0.0 3.834705105456e-03 0.0 
3.834705105456e-03 6.850942590998e-03 0.0 
0.0 0.0 0.0 
6.474578671711e-04 4.064781747939e-05 0.0 
4.064781747939e-05 7.891324489360e-04 0.0 
0.0 0.0 0.0 
-1.588239082421e-03 6.846856266693e-05 0.0 
6.846856266693e-05 1.123496953923e-02 0.0 
0.0 0.0 0.0 
1.543221551304e-03 1.293462577489e-03 0.0 
1.293462577489e-03 3.089940685590e-03 0.0 
0.0 0.0 0.0 
-1.993461036649e-04 -8.652752474117e-04 0.0 
-8.652752474117e-04 6.086033021717e-04 0.0 
0.0 0.0 0.0 
1.313466437074e-03 -4.190865610119e-04 0.0 
-4.190865610119e-04 -1.806054048017e-04 0.0 
0.0 0.0 0.0 
-3.539252505665e-04 1.591856242133e-03 0.0 
1.591856242133e-03 1.330149512540e-02 0.0 
0.0 0.0 0.0 
-1.855217298838e-03 2.008241414977e-04 0.0 
2.008241414977e-04 1.092443088557e-02 0.0 
0.0 0.0 0.0 
-5.814513102167e-04 1.411225856158e-03 0.0 
1.411225856158e-03 1.319519669091e-02 0.0 
0.0 0.0 0.0 
1.160204061017e-03 1.699217347367e-03 0.0 
1.699217347367e-03 3.185261108277e-03 0.0 
0.0 0.0 0.0 
-1.835363873524e-03 1.438378572159e-04 0.0 
1.438378572159e-04 1.092448243848e-02 0.0 
0.0 0.0 0.0 
-1.789491769035e-03 6.890831969945e-04 0.0 
6.890831969945e-04 -3.507844839436e-03 0.0 
0.0 0.0 0.0 
-2.939011060653e-04 2.536413378172e-04 0.0 
2.536413378172e-04 1.351176955205e-02 0.0 
0.0 0.0 0.0 
2.325470915572e-04 -5.556052754886e-04 0.0 
-5.556052754886e-04 9.844952015323e-04 0.0 
0.0 0.0 0.0 
-6.134971155668e-04 1.184244305270e-03 0.0 
1.184244305270e-03 1.315427033126e-02 0.0 
0.0 0.0 0.0 
0.0 -4.775109875235e-04 0.0 
-4.775109875235e-04 5.632565343234e-03 0.0 
0.0 0.0 0.0 
-8.320204578564e-04 3.165096039329e-03 0.0 
3.165096039329e-03 1.118860044734e-02 0.0 
0.0 0.0 0.0 
3.460737942178e-03 -1.593240024659e-03 0.0 
-1.593240024659e-03 -4.095847885152e-03 0.0 
0.0 0.0 0.0 
-2.216491754578e-03 1.061953410536e-03 0.0 
1.061953410536e-03 1.131320069955e-02 0.0 
0.0 0.0 0.0 
-1.192235761778e-03 -6.514719393867e-04 0.0 
-6.514719393867e-04 3.165406688555e-03 0.0 
0.0 0.0 0.0 
1.758731478107e-03 3.185514792519e-03 0.0 
3.185514792519e-03 3.471422555002e-03 0.0 
0.0 0.0 0.0 
4.670739123795e-04 3.012240052290e-03 0.0 
3.012240052290e-03 5.474079920376e-03 0.0 
0.0 0.0 0.0 
-1.136417931580e-03 1.832269618188e-04 0.0 
1.832269618188e-04 1.270648433899e-02 0.0 
0.0 0.0 0.0 
5.387077960242e-04 2.639154824991e-03 0.0 
2.639154824991e-03 5.096246635653e-03 0.0 
0.0 0.0 0.0 
1.677933397702e-03 -1.662180969356e-03 0.0 
-1.662180969356e-03 -4.540217908669e-03 0.0 
0.0 0.0 0.0 
3.534554962736e-05 -5.569146748504e-04 0.0 
-5.569146748504e-04 5.068270941680e-03 0.0 
0.0 0.0 0.0 
3.224188066879e-03 -2.536117851082e-03 0.0 
-2.536117851082e-03 -2.861851858596e-03 0.0 
0.0 0.0 0.0 
4.481753610968e-04 -2.579761812770e-04 0.0 
-2.579761812770e-04 8.821508339720e-04 0.0 
0.0 0.0 0.0 
9.547364429430e-04 8.460204796037e-04 0.0 
8.460204796037e-04 3.756574003639e-03 0.0 
0.0 0.0 0.0 
-7.604104739070e-04 2.529974357494e-03 0.0 
2.529974357494e-03 1.248803682230e-02 0.0 
0.0 0.0 0.0 
-4.798511586838e-04 1.620372648515e-03 0.0 
1.620372648515e-03 1.314503292253e-02 0.0 
0.0 0.0 0.0 
-1.675766621448e-03 1.964414469870e-04 0.0 
1.964414469870e-04 1.122430048636e-02 0.0 
0.0 0.0 0.0 
-2.257494120720e-03 1.575169011713e-03 0.0 
1.575169011713e-03 1.104175012365e-02 0.0 
0.0 0.0 0.0 
3.591750755549e-05 3.936650702200e-03 0.0 
3.936650702200e-03 1.496880040023e-03 0.0 
0.0 0.0 0.0 
-4.861567499774e-04 3.878333866096e-03 0.0 
3.878333866096e-03 1.029771784291e-02 0.0 
0.0 0.0 0.0 
-1.139233402898e-03 -5.976611107361e-04 0.0 
-5.976611107361e-04 2.924215325678e-03 0.0 
0.0 0.0 0.0 
9.605495806755e-04 3.771611762432e-03 0.0 
3.771611762432e-03 -1.108320146604e-03 0.0 
0.0 0.0 0.0 
1.761944547854e-03 3.141764620769e-03 0.0 
3.141764620769e-03 3.305397921653e-03 0.0 
0.0 0.0 0.0 
-1.688174057717e-03 7.708662779449e-05 0.0 
7.708662779449e-05 1.087526905353e-02 0.0 
0.0 0.0 0.0 
-7.089068534063e-04 2.434547942375e-03 0.0 
2.434547942375e-03 1.230364981278e-02 0.0 
0.0 0.0 0.0 
-2.311352860749e-04 -8.353844388637e-06 0.0 
-8.353844388637e-06 1.368993597007e-02 0.0 
0.0 0.0 0.0 
0.0 1.155676430371e-04 0.0 
1.155676430371e-04 1.370664365884e-02 0.0 
0.0 0.0 0.0 
2.803956959239e-03 7.955865072305e-05 0.0 
7.955865072305e-05 -1.005669974432e-03 0.0 
0.0 0.0 0.0 
2.282795642097e-03 -1.367454271151e-04 0.0 
-1.367454271151e-04 -9.171168129666e-04 0.0 
0.0 0.0 0.0 
-1.595807071848e-03 -2.332370154148e-05 0.0 
-2.332370154148e-05 1.091755953779e-02 0.0 
0.0 0.0 0.0 
-1.613631126586e-03 1.116869594347e-05 0.0 
1.116869594347e-05 1.086639879756e-02 0.0 
0.0 0.0 0.0 
0.0 -8.768888403348e-05 0.0 
-8.768888403348e-05 6.039162719499e-03 0.0 
0.0 0.0 0.0 
-1.753777680666e-04 7.788981563694e-06 0.0 
7.788981563694e-06 6.023584756372e-03 0.0 
0.0 0.0 0.0 
2.163323445202e-03 -6.041575334017e-05 0.0 
-6.041575334017e-05 -6.041585451897e-04 0.0 
0.0 0.0 0.0 
-1.829314787387e-03 -3.473268380163e-04 0.0 
-3.473268380163e-04 -4.331756683796e-03 0.0 
0.0 0.0 0.0 
-1.921623106198e-04 -4.215225485469e-04 0.0 
-4.215225485469e-04 5.213562970505e-03 0.0 
0.0 0.0 0.0 
7.764076610837e-04 3.787630504088e-03 0.0 
3.787630504088e-03 5.803899216630e-03 0.0 
0.0 0.0 0.0 
2.577796541932e-04 -5.758865706954e-04 0.0 
-5.758865706954e-04 1.143067423637e-03 0.0 
0.0 0.0 0.0 
1.527635555396e-04 -5.270144399846e-04 0.0 
-5.270144399846e-04 4.519008569683e-03 0.0 
0.0 0.0 0.0 
-1.065715145376e-03 -1.201465889352e-04 0.0 
-1.201465889352e-04 4.231292884325e-03 0.0 
0.0 0.0 0.0 
-1.255435112247e-03 -1.452040561672e-04 0.0 
-1.452040561672e-04 3.783219387807e-03 0.0 
0.0 0.0 0.0 
-1.478834883165e-03 2.345054453590e-04 0.0 
2.345054453590e-04 1.216936236325e-02 0.0 
0.0 0.0 0.0 
7.642443027804e-04 -3.224832424447e-03 0.0 
-3.224832424447e-03 -6.973109569790e-04 0.0 
0.0 0.0 0.0 
2.078911342394e-03 3.290813621624e-03 0.0 
3.290813621624e-03 2.816265628575e-03 0.0 
0.0 0.0 0.0 
5.175970813207e-04 -6.219430805445e-04 0.0 
-6.219430805445e-04 7.917265313475e-04 0.0 
0.0 0.0 0.0 
-1.103117257310e-03 -8.146587738781e-04 0.0 
-8.146587738781e-04 3.262001487191e-03 0.0 
0.0 0.0 0.0 
-3.806471978610e-04 3.661128890744e-03 0.0 
3.661128890744e-03 9.977698092381e-03 0.0 
0.0 0.0 0.0 
-7.312432378930e-04 -1.295906969522e-05 0.0 
-1.295906969522e-05 1.323086533757e-02 0.0 
0.0 0.0 0.0 
-1.226004559831e-03 -2.517841608552e-04 0.0 
-2.517841608552e-04 3.838297845814e-03 0.0 
0.0 0.0 0.0 
-1.537925253952e-03 6.961419606852e-05 0.0 
6.961419606852e-05 1.181229994018e-02 0.0 
0.0 0.0 0.0 
2.813341935499e-04 4.057500310823e-03 0.0 
4.057500310823e-03 7.277837266260e-03 0.0 
0.0 0.0 0.0 
-7.173384843348e-04 3.666823026148e-03 0.0 
3.666823026148e-03 9.252812679610e-03 0.0 
0.0 0.0 0.0 
-8.706466933579e-04 3.618484987958e-03 0.0 
3.618484987958e-03 9.044170106944e-03 0.0 
0.0 0.0 0.0 
-1.755861023803e-03 1.210970717011e-04 0.0 
1.210970717011e-04 1.091603139193e-02 0.0 
0.0 0.0 0.0 
2.541766526400e-03 3.094082933366e-03 0.0 
3.094082933366e-03 1.892765515040e-03 0.0 
0.0 0.0 0.0 
-6.943101941128e-04 2.793891759915e-03 0.0 
2.793891759915e-03 1.181232041440e-02 0.0 
0.0 0.0 0.0 
-7.972645617912e-04 -5.298468974383e-04 0.0 
-5.298468974383e-04 2.339874011566e-03 0.0 
0.0 0.0 0.0 
-1.787470850706e-04 -6.305330286071e-04 0.0 
-6.305330286071e-04 4.525889024691e-04 0.0 
0.0 0.0 0.0 
1.627345953608e-04 3.853980617646e-03 0.0 
3.853980617646e-03 7.293078508259e-03 0.0 
0.0 0.0 0.0 
2.227202917762e-03 1.631942825497e-03 0.0 
1.631942825497e-03 1.852436150991e-03 0.0 
0.0 0.0 0.0 
7.298682219552e-04 -3.302518527549e-03 0.0 
-3.302518527549e-03 -8.544262758994e-04 0.0 
0.0 0.0 0.0 
-1.364829822274e-03 1.232064582606e-04 0.0 
1.232064582606e-04 1.240897925840e-02 0.0 
0.0 0.0 0.0 
-1.182379074989e-04 -4.121890195000e-04 0.0 
-4.121890195000e-04 5.486477303486e-03 0.0 
0.0 0.0 0.0 
6.036354764909e-04 3.728855885753e-03 0.0 
3.728855885753e-03 6.032618638820e-03 0.0 
0.0 0.0 0.0 
4.861433522323e-04 3.961577557402e-03 0.0 
3.961577557402e-03 6.700934483470e-03 0.0 
0.0 0.0 0.0 
-9.586520024698e-04 -1.372592033573e-04 0.0 
-1.372592033573e-04 4.443089194131e-03 0.0 
0.0 0.0 0.0 
-1.023963131586e-05 2.924707779049e-03 0.0 
2.924707779049e-03 -3.429327161003e-03 0.0 
0.0 0.0 0.0 
-1.489421604151e-03 3.248651620345e-03 0.0 
3.248651620345e-03 4.694211909293e-03 0.0 
0.0 0.0 0.0 
-3.171537121132e-04 3.907844360357e-03 0.0 
3.907844360357e-03 2.960447737650e-03 0.0 
0.0 0.0 0.0 
-2.204943572121e-03 1.105334734881e-03 0.0 
1.105334734881e-03 1.135646541374e-02 0.0 
0.0 0.0 0.0 
2.323161552041e-03 3.335943930540e-03 0.0 
3.335943930540e-03 1.864420166550e-03 0.0 
0.0 0.0 0.0 
-6.516309082625e-04 8.830126923278e-04 0.0 
8.830126923278e-04 1.326693772023e-02 0.0 
0.0 0.0 0.0 
6.758357257444e-04 2.032913658754e-03 0.0 
2.032913658754e-03 4.003639001228e-03 0.0 
0.0 0.0 0.0 
-9.207654223171e-04 -2.381613870571e-03 0.0 
-2.381613870571e-03 4.727477000896e-04 0.0 
0.0 0.0 0.0 
-5.166002712920e-04 -1.358106089748e-03 0.0 
-1.358106089748e-03 6.871196730605e-04 0.0 
0.0 0.0 0.0 
-1.429123127981e-03 3.411571437306e-03 0.0 
3.411571437306e-03 3.465384670235e-03 0.0 
0.0 0.0 0.0 
-1.251898622034e-03 3.162529684501e-04 0.0 
3.162529684501e-04 1.249403441415e-02 0.0 
0.0 0.0 0.0 
-8.896843907769e-04 -8.217612020475e-04 0.0 
-8.217612020475e-04 2.521922098536e-03 0.0 
0.0 0.0 0.0 
-8.386145373120e-04 2.074518223928e-03 0.0 
2.074518223928e-03 1.269310387611e-02 0.0 
0.0 0.0 0.0 
4.443386293551e-04 -2.706588041600e-04 0.0 
-2.706588041600e-04 1.078294019974e-03 0.0 
0.0 0.0 0.0 
1.314609764679e-03 1.995496939716e-03 0.0 
1.995496939716e-03 3.260026653426e-03 0.0 
0.0 0.0 0.0 
-1.853841473213e-03 5.201039258710e-04 0.0 
5.201039258710e-04 1.153640474246e-02 0.0 
0.0 0.0 0.0 
4.470245876014e-04 3.337770203632e-03 0.0 
3.337770203632e-03 5.586491231485e-03 0.0 
0.0 0.0 0.0 
1.378669045489e-03 3.395585469846e-03 0.0 
3.395585469846e-03 4.336240772386e-03 0.0 
0.0 0.0 0.0 
-2.329836137399e-03 1.308602060175e-03 0.0 
1.308602060175e-03 1.127949580841e-02 0.0 
0.0 0.0 0.0 
7.967597524086e-04 2.482633461229e-04 0.0 
2.482633461229e-04 3.892325052719e-03 0.0 
0.0 0.0 0.0 
-6.671058456252e-04 2.348297517495e-03 0.0 
2.348297517495e-03 1.265639892897e-02 0.0 
0.0 0.0 0.0 
-4.811580649285e-04 2.244237579513e-04 0.0 
2.244237579513e-04 1.352437445203e-02 0.0 
0.0 0.0 0.0 
-1.470261202226e-03 3.471943829849e-03 0.0 
3.471943829849e-03 2.319011109979e-03 0.0 
0.0 0.0 0.0 
-7.961607382497e-04 1.823060749271e-03 0.0 
1.823060749271e-03 1.278880619617e-02 0.0 
0.0 0.0 0.0 
2.374500521030e-05 3.979026891075e-03 0.0 
3.979026891075e-03 8.286489529845e-03 0.0 
0.0 0.0 0.0 
1.559079921995e-03 1.930184173381e-03 0.0 
1.930184173381e-03 3.276536086460e-03 0.0 
0.0 0.0 0.0 
1.416497702127e-03 3.328349508358e-03 0.0 
3.328349508358e-03 4.101482417594e-03 0.0 
0.0 0.0 0.0 
0.0 -4.080037927046e-04 0.0 
-4.080037927046e-04 5.112938971394e-03 0.0 
0.0 0.0 0.0 
-8.257007358736e-04 3.527063295962e-03 0.0 
3.527063295962e-03 9.056462710427e-03 0.0 
0.0 0.0 0.0 
-1.768402377201e-03 2.129641717491e-03 0.0 
2.129641717491e-03 -2.466213772400e-03 0.0 
0.0 0.0 0.0 
5.575942559422e-04 4.123704709844e-03 0.0 
4.123704709844e-03 2.243098412791e-05 0.0 
0.0 0.0 0.0 
-7.611077886271e-04 3.624658583572e-03 0.0 
3.624658583572e-03 9.816260639909e-03 0.0 
0.0 0.0 0.0 
-2.054000112730e-03 1.165359027300e-03 0.0 
1.165359027300e-03 1.157579668708e-02 0.0 
0.0 0.0 0.0 
-3.685062886841e-04 -3.040646224414e-04 0.0 
-3.040646224414e-04 5.444664837846e-03 0.0 
0.0 0.0 0.0 
1.060195987558e-03 3.390980051262e-03 0.0 
3.390980051262e-03 4.925969226918e-03 0.0 
0.0 0.0 0.0 
1.095999726537e-04 -4.561427373618e-04 0.0 
-4.561427373618e-04 4.834363122216e-03 0.0 
0.0 0.0 0.0 
-1.089822378898e-03 3.793718202759e-04 0.0 
3.793718202759e-04 1.279855689712e-02 0.0 
0.0 0.0 0.0 
4.525854300541e-04 3.103509305445e-03 0.0 
3.103509305445e-03 5.197943186976e-03 0.0 
0.0 0.0 0.0 
7.781917192624e-04 7.177430550198e-06 0.0 
7.177430550198e-06 3.465422085697e-03 0.0 
0.0 0.0 0.0 
8.696633283247e-04 1.393779776597e-04 0.0 
1.393779776597e-04 3.453229917570e-03 0.0 
0.0 0.0 0.0 
-1.012626763707e-03 -5.774191170264e-04 0.0 
-5.774191170264e-04 2.741826162863e-03 0.0 
0.0 0.0 0.0 
4.700000740221e-05 -5.535457326547e-04 0.0 
-5.535457326547e-04 5.369757433848e-03 0.0 
0.0 0.0 0.0 
-2.131646932943e-03 6.166038574267e-04 0.0 
6.166038574267e-04 1.114551081986e-02 0.0 
0.0 0.0 0.0 
-6.934499407310e-04 4.689061023093e-04 0.0 
4.689061023093e-04 1.329713105371e-02 0.0 
0.0 0.0 0.0 
-3.999829807123e-04 -1.542307443669e-03 0.0 
-1.542307443669e-03 8.681943530919e-04 0.0 
0.0 0.0 0.0 
-8.960464713509e-04 2.147578346252e-04 0.0 
2.147578346252e-04 1.314589718603e-02 0.0 
0.0 0.0 0.0 
-1.378707841554e-03 2.187982632120e-04 0.0 
2.187982632120e-04 1.242252053295e-02 0.0 
0.0 0.0 0.0 
1.417264658926e-03 8.951612967064e-05 0.0 
8.951612967064e-05 1.735605489095e-04 0.0 
0.0 0.0 0.0 
2.967275149343e-03 -2.033018521747e-03 0.0 
-2.033018521747e-03 -4.364590634377e-03 0.0 
0.0 0.0 0.0 
-5.433973482315e-04 3.684482657284e-03 0.0 
3.684482657284e-03 8.619231231017e-03 0.0 
0.0 0.0 0.0 
-3.628306405462e-04 1.256386964275e-03 0.0 
1.256386964275e-03 1.327873435554e-02 0.0 
0.0 0.0 0.0 
-6.406585170989e-04 2.243587633671e-04 0.0 
2.243587633671e-04 1.334474445222e-02 0.0 
0.0 0.0 0.0 
9.857816477286e-04 3.058194860757e-03 0.0 
3.058194860757e-03 4.710928511559e-03 0.0 
0.0 0.0 0.0 
-1.563039548738e-03 2.921364983390e-04 0.0 
2.921364983390e-04 1.181731667551e-02 0.0 
0.0 0.0 0.0 
6.166555352176e-04 -4.158234918728e-04 0.0 
-4.158234918728e-04 1.113097842855e-04 0.0 
0.0 0.0 0.0 
7.479978836109e-04 2.118320664324e-03 0.0 
2.118320664324e-03 -3.923783645865e-03 0.0 
0.0 0.0 0.0 
1.890159699964e-04 -5.633564838040e-04 0.0 
-5.633564838040e-04 2.742725085565e-04 0.0 
0.0 0.0 0.0 
-2.790998345285e-04 -1.689830780001e-03 0.0 
-1.689830780001e-03 8.358826703454e-04 0.0 
0.0 0.0 0.0 
-1.758570602441e-03 4.478204401902e-03 0.0 
4.478204401902e-03 -1.506262945757e-03 0.0 
0.0 0.0 0.0 
-1.178867321725e-03 -8.113268632107e-04 0.0 
-8.113268632107e-04 3.346989582834e-03 0.0 
0.0 0.0 0.0 
-3.352286044273e-04 -2.863714411571e-04 0.0 
-2.863714411571e-04 5.444284931518e-03 0.0 
0.0 0.0 0.0 
-7.184620443085e-04 3.194944814863e-03 0.0 
3.194944814863e-03 1.119226169374e-02 0.0 
0.0 0.0 0.0 
-2.374696175911e-03 1.670332023174e-03 0.0 
1.670332023174e-03 1.127649840722e-02 0.0 
0.0 0.0 0.0 
-9.410508242264e-04 -1.135380038328e-03 0.0 
-1.135380038328e-03 2.705261965076e-03 0.0 
0.0 0.0 0.0 
5.748945551851e-04 -3.456465038083e-04 0.0 
-3.456465038083e-04 3.768203757107e-03 0.0 
0.0 0.0 0.0 
1.530122851381e-03 9.434059933546e-04 0.0 
9.434059933546e-04 2.885532741959e-03 0.0 
0.0 0.0 0.0 
7.318289465017e-04 3.612924268453e-03 0.0 
3.612924268453e-03 5.770776070982e-03 0.0 
0.0 0.0 0.0 
9.428383918508e-05 3.849019447891e-03 0.0 
3.849019447891e-03 7.644395042219e-03 0.0 
0.0 0.0 0.0 
-3.786753520759e-04 3.753484873358e-03 0.0 
3.753484873358e-03 8.887093331623e-03 0.0 
0.0 0.0 0.0 
-4.555883628242e-04 -1.257696584221e-03 0.0 
-1.257696584221e-03 8.049505749139e-04 0.0 
0.0 0.0 0.0 
7.161668997877e-04 -1.802832400347e-03 0.0 
-1.802832400347e-03 -3.964879061467e-03 0.0 
0.0 0.0 0.0 
-2.600946321688e-04 -4.650749714521e-04 0.0 
-4.650749714521e-04 5.229400226862e-03 0.0 
0.0 0.0 0.0 
9.795215872257e-04 -9.639604186814e-05 0.0 
-9.639604186814e-05 3.172215109024e-04 0.0 
0.0 0.0 0.0 
1.017171383298e-03 -7.788667073585e-05 0.0 
-7.788667073585e-05 4.431399959746e-04 0.0 
0.0 0.0 0.0 
-8.663558522000e-04 3.977721408656e-03 0.0 
3.977721408656e-03 -5.627411245323e-04 0.0 
0.0 0.0 0.0 
2.329720461394e-04 -6.891285487847e-04 0.0 
-6.891285487847e-04 6.139268175598e-04 0.0 
0.0 0.0 0.0 
3.914272829055e-04 1.614373965109e-04 0.0 
1.614373965109e-04 3.955783042155e-03 0.0 
0.0 0.0 0.0 
-1.977950390336e-04 3.903213685944e-03 0.0 
3.903213685944e-03 9.524290456025e-03 0.0 
0.0 0.0 0.0 
-5.726928028673e-04 8.936476710378e-04 0.0 
8.936476710378e-04 1.326748504037e-02 0.0 
0.0 0.0 0.0 
3.359819030631e-04 3.557287147429e-03 0.0 
3.557287147429e-03 6.059324649559e-03 0.0 
0.0 0.0 0.0 
1.613798388578e-03 9.291307796271e-04 0.0 
9.291307796271e-04 2.444908598443e-03 0.0 
0.0 0.0 0.0 
-1.493928272950e-03 2.930384342630e-04 0.0 
2.930384342630e-04 1.201115810016e-02 0.0 
0.0 0.0 0.0 
0.0 1.688667141035e-03 0.0 
1.688667141035e-03 1.324753515278e-02 0.0 
0.0 0.0 0.0 
2.415069139176e-03 -3.213926732674e-03 0.0 
-3.213926732674e-03 -2.884790778970e-03 0.0 
0.0 0.0 0.0 
-1.826340822609e-03 1.765325014983e-04 0.0 
1.765325014983e-04 1.087168102414e-02 0.0 
0.0 0.0 0.0 
-3.650944332684e-04 -3.411859364308e-03 0.0 
-3.411859364308e-03 -4.385650043226e-05 0.0 
0.0 0.0 0.0 
8.899368581312e-04 -3.502054467882e-04 0.0 
-3.502054467882e-04 -1.440851774881e-05 0.0 
0.0 0.0 0.0 
-7.082192882146e-05 -5.119593958042e-04 0.0 
-5.119593958042e-04 5.673675381315e-03 0.0 
0.0 0.0 0.0 
-2.428899045501e-03 1.171151760450e-03 0.0 
1.171151760450e-03 1.093305530976e-02 0.0 
0.0 0.0 0.0 
8.753488726625e-04 -3.001064290128e-04 0.0 
-3.001064290128e-04 6.335744455899e-04 0.0 
0.0 0.0 0.0 
-1.231290855291e-03 -5.878614781626e-04 0.0 
-5.878614781626e-04 3.415139672655e-03 0.0 
0.0 0.0 0.0 
-3.011810378692e-04 4.044599620098e-03 0.0 
4.044599620098e-03 9.759798254568e-03 0.0 
0.0 0.0 0.0 
-7.861741323056e-04 1.191219195008e-03 0.0 
1.191219195008e-03 1.315627909488e-02 0.0 
0.0 0.0 0.0 
-4.040913337607e-04 2.571646206033e-03 0.0 
2.571646206033e-03 1.237502391014e-02 0.0 
0.0 0.0 0.0 
-9.256732272455e-04 -2.853250687734e-04 0.0 
-2.853250687734e-04 2.658337213490e-03 0.0 
0.0 0.0 0.0 
9.805282124209e-04 2.455317285621e-04 0.0 
2.455317285621e-04 -4.472160532918e-03 0.0 
0.0 0.0 0.0 
2.114415686925e-04 -4.997235314336e-04 0.0 
-4.997235314336e-04 4.682338700017e-03 0.0 
0.0 0.0 0.0 
-2.529188246374e-04 1.751446954452e-04 0.0 
1.751446954452e-04 1.369691492692e-02 0.0 
0.0 0.0 0.0 
-1.898436312768e-04 -1.429326621580e-04 0.0 
-1.429326621580e-04 6.024155690955e-03 0.0 
0.0 0.0 0.0 
-1.585965067242e-03 3.568465438018e-05 0.0 
3.568465438018e-05 1.116652546822e-02 0.0 
0.0 0.0 0.0 
1.101783417965e-03 1.095622299101e-03 0.0 
1.095622299101e-03 3.028272368785e-03 0.0 
0.0 0.0 0.0 
4.275047745559e-04 -2.601075299253e-04 0.0 
-2.601075299253e-04 8.821565925989e-04 0.0 
0.0 0.0 0.0 
-6.978835779611e-04 2.063278561220e-03 0.0 
2.063278561220e-03 1.269196687443e-02 0.0 
0.0 0.0 0.0 
7.270386320954e-04 -3.816801748282e-04 0.0 
-3.816801748282e-04 5.265917448094e-05 0.0 
0.0 0.0 0.0 
4.884130830702e-04 6.905951285326e-04 0.0 
6.905951285326e-04 3.792048393496e-03 0.0 
0.0 0.0 0.0 
-6.809177973538e-04 2.803639835866e-03 0.0 
2.803639835866e-03 1.218082236289e-02 0.0 
0.0 0.0 0.0 
3.834751134726e-04 1.284486681795e-03 0.0 
1.284486681795e-03 -4.612088463493e-03 0.0 
0.0 0.0 0.0 
6.705417747657e-04 3.742578275537e-03 0.0 
3.742578275537e-03 6.025434225685e-03 0.0 
0.0 0.0 0.0 
-1.213559977781e-03 2.344721117685e-04 0.0 
2.344721117685e-04 1.266034240213e-02 0.0 
0.0 0.0 0.0 
-2.954618055716e-04 9.374840895225e-04 0.0 
9.374840895225e-04 1.340357397786e-02 0.0 
0.0 0.0 0.0 
0.0 2.728914708814e-03 0.0 
2.728914708814e-03 5.317366728666e-03 0.0 
0.0 0.0 0.0 
-1.368881629984e-03 3.135342973539e-05 0.0 
3.135342973539e-05 1.223375321389e-02 0.0 
0.0 0.0 0.0 
-1.959797266655e-04 3.822602415746e-03 0.0 
3.822602415746e-03 1.002128602395e-02 0.0 
0.0 0.0 0.0 
-9.025863520337e-04 2.487461324108e-03 0.0 
2.487461324108e-03 1.229109377198e-02 0.0 
0.0 0.0 0.0 
-1.239093892313e-03 1.774017204108e-04 0.0 
1.774017204108e-04 1.242843864856e-02 0.0 
0.0 0.0 0.0 
-3.381094422290e-04 3.744068572110e-03 0.0 
3.744068572110e-03 9.620458567828e-03 0.0 
0.0 0.0 0.0 
-1.141189156656e-03 -6.088110653286e-04 0.0 
-6.088110653286e-04 2.981895372351e-03 0.0 
0.0 0.0 0.0 
-1.667294827802e-03 5.696106608747e-05 0.0 
5.696106608747e-05 1.088727095945e-02 0.0 
0.0 0.0 0.0 
7.497447485070e-04 3.586776619443e-03 0.0 
3.586776619443e-03 5.595722973293e-03 0.0 
0.0 0.0 0.0 
-3.186197907268e-04 1.377967563037e-04 0.0 
1.377967563037e-04 1.354434746924e-02 0.0 
0.0 0.0 0.0 
2.178293585742e-03 -2.312041789221e-05 0.0 
-2.312041789221e-05 -8.466806815011e-04 0.0 
0.0 0.0 0.0 
-1.599938983445e-03 2.327476665594e-05 0.0 
2.327476665594e-05 1.087342665705e-02 0.0 
0.0 0.0 0.0 
-2.359459498211e-04 -1.070578007611e-04 0.0 
-1.070578007611e-04 5.848137330836e-03 0.0 
0.0 0.0 0.0 
-7.208284756410e-05 -7.881120112502e-04 0.0 
-7.881120112502e-04 1.250924332684e-03 0.0 
0.0 0.0 0.0 
1.600691993757e-03 1.616276704307e-03 0.0 
1.616276704307e-03 3.164489924179e-03 0.0 
0.0 0.0 0.0 
-9.736697021746e-04 2.887759737207e-03 0.0 
2.887759737207e-03 1.178361694410e-02 0.0 
0.0 0.0 0.0 
-5.505738699662e-04 8.380500494638e-04 0.0 
8.380500494638e-04 1.340554277989e-02 0.0 
0.0 0.0 0.0 
2.203506887173e-04 -5.182679120246e-04 0.0 
-5.182679120246e-04 1.159732843098e-03 0.0 
0.0 0.0 0.0 
4.780973639595e-04 4.524703415338e-03 0.0 
4.524703415338e-03 -2.018911498887e-03 0.0 
0.0 0.0 0.0 
-1.206822737454e-03 -5.682589062803e-05 0.0 
-5.682589062803e-05 3.920726346331e-03 0.0 
0.0 0.0 0.0 
-9.606054210710e-04 2.048416361402e-04 0.0 
2.048416361402e-04 1.295163076545e-02 0.0 
0.0 0.0 0.0 
-5.917121240958e-03 -2.880410289612e-04 0.0 
-2.880410289612e-04 -1.984133048418e-03 0.0 
0.0 0.0 0.0 
-3.693141612063e-04 2.153291197565e-03 0.0 
2.153291197565e-03 1.278056574098e-02 0.0 
0.0 0.0 0.0 
-1.357517737254e-03 1.309341468764e-04 0.0 
1.309341468764e-04 1.213615047211e-02 0.0 
0.0 0.0 0.0 
3.897133206976e-04 -3.312268380780e-03 0.0 
-3.312268380780e-03 -7.062662635606e-04 0.0 
0.0 0.0 0.0 
-1.482674036426e-03 1.863935415607e-04 0.0 
1.863935415607e-04 1.190108696763e-02 0.0 
0.0 0.0 0.0 
5.322742148062e-04 3.823780381273e-03 0.0 
3.823780381273e-03 6.356787802812e-03 0.0 
0.0 0.0 0.0 
-1.178246355923e-03 -1.132491097499e-04 0.0 
-1.132491097499e-04 4.017527328661e-03 0.0 
0.0 0.0 0.0 
-2.452684158132e-03 4.459890083475e-03 0.0 
4.459890083475e-03 4.188166277288e-04 0.0 
0.0 0.0 0.0 
-1.077581099138e-03 -7.773057141062e-04 0.0 
-7.773057141062e-04 2.802744296932e-03 0.0 
0.0 0.0 0.0 
-1.119301792734e-03 -7.588406469970e-04 0.0 
-7.588406469970e-04 3.579503607325e-03 0.0 
0.0 0.0 0.0 
-1.143997531756e-03 -3.628117409505e-05 0.0 
-3.628117409505e-05 4.141478736480e-03 0.0 
0.0 0.0 0.0 
1.003050859650e-03 3.067052830904e-03 0.0 
3.067052830904e-03 4.678133794630e-03 0.0 
0.0 0.0 0.0 
-1.236408619475e-03 -3.810708231980e-04 0.0 
-3.810708231980e-04 3.576350960102e-03 0.0 
0.0 0.0 0.0 
-1.181500994634e-03 -4.871953407042e-04 0.0 
-4.871953407042e-04 3.776198965195e-03 0.0 
0.0 0.0 0.0 
3.013052304117e-04 -6.649147578271e-04 0.0 
-6.649147578271e-04 4.348891282024e-04 0.0 
0.0 0.0 0.0 
2.114268735462e-04 -4.803966437134e-04 0.0 
-4.803966437134e-04 4.528553150181e-03 0.0 
0.0 0.0 0.0 
1.721464206665e-04 3.910242222578e-03 0.0 
3.910242222578e-03 7.298996660729e-03 0.0 
0.0 0.0 0.0 
1.384916247098e-03 3.909446809877e-03 0.0 
3.909446809877e-03 -2.576490049302e-03 0.0 
0.0 0.0 0.0 
-2.617331671336e-04 1.293762314863e-04 0.0 
1.293762314863e-04 1.353781451312e-02 0.0 
0.0 0.0 0.0 
-2.042796486719e-04 -8.796266708595e-05 0.0 
-8.796266708595e-05 5.841764586467e-03 0.0 
0.0 0.0 0.0 
-1.601148584293e-03 3.801836424053e-06 0.0 
3.801836424053e-06 1.118415153756e-02 0.0 
0.0 0.0 0.0 
-1.428788499243e-03 1.099334385755e-04 0.0 
1.099334385755e-04 1.213070949064e-02 0.0 
0.0 0.0 0.0 
-1.230500869255e-03 -5.694546191816e-04 0.0 
-5.694546191816e-04 3.597345887410e-03 0.0 
0.0 0.0 0.0 
-1.197984352089e-03 -5.714389854277e-04 0.0 
-5.714389854277e-04 3.492822130427e-03 0.0 
0.0 0.0 0.0 
-1.237655577989e-03 -3.718921833885e-04 0.0 
-3.718921833885e-04 3.703769068713e-03 0.0 
0.0 0.0 0.0 
1.719849667536e-03 1.724649050326e-03 0.0 
1.724649050326e-03 2.663543959629e-03 0.0 
0.0 0.0 0.0 
8.367851475488e-05 -2.926762383013e-03 0.0 
-2.926762383013e-03 4.278854599868e-04 0.0 
0.0 0.0 0.0 
1.897772142634e-05 4.032881202317e-03 0.0 
4.032881202317e-03 8.006390223063e-03 0.0 
0.0 0.0 0.0 
-1.531469737286e-03 9.235108188670e-05 0.0 
9.235108188670e-05 1.152846979118e-02 0.0 
0.0 0.0 0.0 
-7.106852568455e-04 2.053258136402e-03 0.0 
2.053258136402e-03 1.285570148919e-02 0.0 
0.0 0.0 0.0 
1.596646017931e-03 1.547914546397e-03 0.0 
1.547914546397e-03 2.642023587513e-03 0.0 
0.0 0.0 0.0 
-1.577562663441e-03 1.967183811334e-04 0.0 
1.967183811334e-04 1.190155424239e-02 0.0 
0.0 0.0 0.0 
-4.511004378185e-04 3.694164557998e-03 0.0 
3.694164557998e-03 9.456404706469e-03 0.0 
0.0 0.0 0.0 
9.574406989390e-04 3.112652210491e-03 0.0 
3.112652210491e-03 4.663385957814e-03 0.0 
0.0 0.0 0.0 
8.244132323474e-04 3.385848526540e-03 0.0 
3.385848526540e-03 5.378819214754e-03 0.0 
0.0 0.0 0.0 
-1.048942036353e-03 4.340369619915e-03 0.0 
4.340369619915e-03 -1.981642959599e-03 0.0 
0.0 0.0 0.0 
-5.408875325252e-04 3.734023992156e-03 0.0 
3.734023992156e-03 9.452259296708e-03 0.0 
0.0 0.0 0.0 
-3.120500526266e-04 3.948966038189e-03 0.0 
3.948966038189e-03 9.212230650779e-03 0.0 
0.0 0.0 0.0 
7.613840754848e-04 -5.518607342857e-04 0.0 
-5.518607342857e-04 3.387750993611e-04 0.0 
0.0 0.0 0.0 
-1.216380855092e-03 -5.926716656810e-04 0.0 
-5.926716656810e-04 3.393992695299e-03 0.0 
0.0 0.0 0.0 
-1.570248299196e-03 3.675608388434e-03 0.0 
3.675608388434e-03 -1.496823802197e-03 0.0 
0.0 0.0 0.0 
-5.565018576320e-04 3.842500415493e-03 0.0 
3.842500415493e-03 9.874804364844e-03 0.0 
0.0 0.0 0.0 
-1.532769192652e-03 -1.381314269726e-05 0.0 
-1.381314269726e-05 9.212797744872e-03 0.0 
0.0 0.0 0.0 
-1.457324327537e-03 -1.987776329361e-05 0.0 
-1.987776329361e-05 9.156231533237e-03 0.0 
0.0 0.0 0.0 
-1.529552306679e-03 -2.566839960989e-05 0.0 
-2.566839960989e-05 9.155833039553e-03 0.0 
0.0 0.0 0.0 
-1.460488040555e-03 -5.447301659384e-05 0.0 
-5.447301659384e-05 9.150028468269e-03 0.0 
0.0 0.0 0.0 
-1.533170916112e-03 -4.585884636106e-05 0.0 
-4.585884636106e-05 9.151729434977e-03 0.0 
0.0 0.0 0.0 
-1.464080927392e-03 -7.494778435303e-05 0.0 
-7.494778435303e-05 9.148126632497e-03 0.0 
0.0 0.0 0.0 
-1.540736541804e-03 -6.265803863985e-05 0.0 
-6.265803863985e-05 9.151351137781e-03 0.0 
0.0 0.0 0.0 
-1.463961518615e-03 -9.300925514032e-05 0.0 
-9.300925514032e-05 9.145684889523e-03 0.0 
0.0 0.0 0.0 
-1.551693561342e-03 -7.658997251032e-05 0.0 
-7.658997251032e-05 9.151160523344e-03 0.0 
0.0 0.0 0.0 
-1.460642899642e-03 -1.096490478208e-04 0.0 
-1.096490478208e-04 9.141576848287e-03 0.0 
0.0 0.0 0.0 
-1.564139136858e-03 -8.847152793824e-05 0.0 
-8.847152793824e-05 9.150258769582e-03 0.0 
0.0 0.0 0.0 
-1.453065931348e-03 -1.244230320473e-04 0.0 
-1.244230320473e-04 9.133979550851e-03 0.0 
0.0 0.0 0.0 
-1.573097624154e-03 -9.834498674494e-05 0.0 
-9.834498674494e-05 9.146782837289e-03 0.0 
0.0 0.0 0.0 
-1.440813802274e-03 -1.363319324800e-04 0.0 
-1.363319324800e-04 9.122900304447e-03 0.0 
0.0 0.0 0.0 
-1.584340184991e-03 -1.036514843574e-04 0.0 
-1.036514843574e-04 9.141713538989e-03 0.0 
0.0 0.0 0.0 
-1.423651452462e-03 -1.437607417308e-04 0.0 
-1.437607417308e-04 9.107369217921e-03 0.0 
0.0 0.0 0.0 
-1.716038295152e-03 1.207443961522e-03 0.0 
1.207443961522e-03 8.583010741740e-03 0.0 
0.0 0.0 0.0 
-1.596338436734e-03 -1.023675897737e-04 0.0 
-1.023675897737e-04 9.134738414857e-03 0.0 
0.0 0.0 0.0 
-1.402308143911e-03 -1.439435200232e-04 0.0 
-1.439435200232e-04 9.087960270489e-03 0.0 
0.0 0.0 0.0 
-1.193644012838e-03 8.683512975311e-04 0.0 
8.683512975311e-04 8.297081586506e-03 0.0 
0.0 0.0 0.0 
-1.608530643682e-03 -9.413072135130e-05 0.0 
-9.413072135130e-05 9.125755576029e-03 0.0 
0.0 0.0 0.0 
-1.377805162376e-03 -1.358107992700e-04 0.0 
-1.358107992700e-04 9.064916607860e-03 0.0 
0.0 0.0 0.0 
-2.047976917530e-03 9.733523387822e-04 0.0 
9.733523387822e-04 8.900087020078e-03 0.0 
0.0 0.0 0.0 
-1.624800222751e-03 -7.759193788650e-05 0.0 
-7.759193788650e-05 9.115615983022e-03 0.0 
0.0 0.0 0.0 
-1.350887006237e-03 -1.170684842943e-04 0.0 
-1.170684842943e-04 9.036665671853e-03 0.0 
0.0 0.0 0.0 
-1.646331782321e-03 -4.973057817311e-05 0.0 
-4.973057817311e-05 9.103658445329e-03 0.0 
0.0 0.0 0.0 
-1.323927264739e-03 -8.334899943139e-05 0.0 
-8.334899943139e-05 9.002147755654e-03 0.0 
0.0 0.0 0.0 
-1.675428112328e-03 -6.576299941575e-06 0.0 
-6.576299941575e-06 9.089177287303e-03 0.0 
0.0 0.0 0.0 
-1.301105570320e-03 -2.677966911956e-05 0.0 
-2.677966911956e-05 8.957290393181e-03 0.0 
0.0 0.0 0.0 
-2.431382752634e-03 1.748920120071e-03 0.0 
1.748920120071e-03 9.008654311962e-03 0.0 
0.0 0.0 0.0 
-1.694761446333e-03 6.132716692661e-05 0.0 
6.132716692661e-05 9.067188023178e-03 0.0 
0.0 0.0 0.0 
-1.231505835022e-03 5.508116334021e-05 0.0 
5.508116334021e-05 8.894036304434e-03 0.0 
0.0 0.0 0.0 
-1.701863839473e-03 1.454015627617e-04 0.0 
1.454015627617e-04 9.027920698331e-03 0.0 
0.0 0.0 0.0 
-1.163122610260e-03 1.596684975979e-04 0.0 
1.596684975979e-04 8.816853533953e-03 0.0 
0.0 0.0 0.0 
-1.114624162445e-03 3.026211870854e-04 0.0 
3.026211870854e-04 8.735838612703e-03 0.0 
0.0 0.0 0.0 
-1.726715297901e-03 2.599651506210e-04 0.0 
2.599651506210e-04 8.987265686350e-03 0.0 
0.0 0.0 0.0 
-1.105462608377e-03 4.958841728983e-04 0.0 
4.958841728983e-04 8.623294745870e-03 0.0 
0.0 0.0 0.0 
-1.781571759003e-03 3.970319696910e-04 0.0 
3.970319696910e-04 8.936555187509e-03 0.0 
0.0 0.0 0.0 
-1.195705012452e-03 7.897097095519e-04 0.0 
7.897097095519e-04 8.533332673751e-03 0.0 
0.0 0.0 0.0 
-1.814339571442e-03 6.217909968575e-04 0.0 
6.217909968575e-04 8.880158472426e-03 0.0 
0.0 0.0 0.0 
-2.235267325885e-03 1.042888475372e-03 0.0 
1.042888475372e-03 9.130379116546e-03 0.0 
0.0 0.0 0.0 
-1.512500470732e-03 -5.857756176458e-05 0.0 
-5.857756176458e-05 9.149205134203e-03 0.0 
0.0 0.0 0.0 
-1.549809907571e-03 5.088677541911e-05 0.0 
5.088677541911e-05 9.216043391223e-03 0.0 
0.0 0.0 0.0 
-1.528903303173e-03 -9.797167255487e-06 0.0 
-9.797167255487e-06 9.069676307499e-03 0.0 
0.0 0.0 0.0 
-1.533943141910e-03 4.198446218248e-06 0.0 
4.198446218248e-06 9.292002289058e-03 0.0 
0.0 0.0 0.0 
-2.554491756823e-03 1.837761049495e-03 0.0 
1.837761049495e-03 8.415312650151e-03 0.0 
0.0 0.0 0.0 
-1.532769192652e-03 -2.941174956743e-05 0.0 
-2.941174956743e-05 9.567643292932e-03 0.0 
0.0 0.0 0.0 
-1.575370287973e-03 -2.446920779614e-05 0.0 
-2.446920779614e-05 9.615481610825e-03 0.0 
0.0 0.0 0.0 
-1.529552306679e-03 -2.500596588255e-05 0.0 
-2.500596588255e-05 9.615420741681e-03 0.0 
0.0 0.0 0.0 
-1.580928409919e-03 -4.763433454028e-05 0.0 
-4.763433454028e-05 9.617516937998e-03 0.0 
0.0 0.0 0.0 
-1.533170916112e-03 -3.608093548472e-05 0.0 
-3.608093548472e-05 9.615515292237e-03 0.0 
0.0 0.0 0.0 
-1.592264786831e-03 -6.151993367926e-05 0.0 
-6.151993367926e-05 9.617591130770e-03 0.0 
0.0 0.0 0.0 
-1.540736541804e-03 -4.712550619471e-05 0.0 
-4.712550619471e-05 9.614196962823e-03 0.0 
0.0 0.0 0.0 
-1.608298510661e-03 -7.386573645183e-05 0.0 
-7.386573645183e-05 9.619128692280e-03 0.0 
0.0 0.0 0.0 
-1.551693561342e-03 -5.508128545837e-05 0.0 
-5.508128545837e-05 9.613548127199e-03 0.0 
0.0 0.0 0.0 
-1.631411957159e-03 -8.373285231956e-05 0.0 
-8.373285231956e-05 9.622437004513e-03 0.0 
0.0 0.0 0.0 
-1.564139136858e-03 -5.942987161903e-05 0.0 
-5.942987161903e-05 9.613632471847e-03 0.0 
0.0 0.0 0.0 
-1.658364483842e-03 -9.131282654186e-05 0.0 
-9.131282654186e-05 9.625157723017e-03 0.0 
0.0 0.0 0.0 
-1.573097624154e-03 -5.931166588797e-05 0.0 
-5.931166588797e-05 9.611346019211e-03 0.0 
0.0 0.0 0.0 
-1.693259356912e-03 -9.663311956196e-05 0.0 
-9.663311956196e-05 9.628535202299e-03 0.0 
0.0 0.0 0.0 
-1.584340184991e-03 -5.630860677409e-05 0.0 
-5.630860677409e-05 9.608048630308e-03 0.0 
0.0 0.0 0.0 
-2.049276924551e-03 1.166303926998e-03 0.0 
1.166303926998e-03 9.146555954941e-03 0.0 
0.0 0.0 0.0 
-1.734883610035e-03 -9.977634427857e-05 0.0 
-9.977634427857e-05 9.631093781845e-03 0.0 
0.0 0.0 0.0 
-2.240730449030e-03 9.055624932912e-04 0.0 
9.055624932912e-04 9.419992583968e-03 0.0 
0.0 0.0 0.0 
-1.596338436734e-03 -4.725245180735e-05 0.0 
-4.725245180735e-05 9.600444180836e-03 0.0 
0.0 0.0 0.0 
-1.773428745759e-03 -9.366115713099e-05 0.0 
-9.366115713099e-05 9.630444421680e-03 0.0 
0.0 0.0 0.0 
-1.608530643682e-03 -2.749753975150e-05 0.0 
-2.749753975150e-05 9.587056481613e-03 0.0 
0.0 0.0 0.0 
-1.816545508981e-03 -7.394130636516e-05 0.0 
-7.394130636516e-05 9.629050833599e-03 0.0 
0.0 0.0 0.0 
-1.624800222751e-03 4.870685959535e-06 0.0 
4.870685959535e-06 9.571203500553e-03 0.0 
0.0 0.0 0.0 
-1.867665117020e-03 -4.111453080753e-05 0.0 
-4.111453080753e-05 9.625827995275e-03 0.0 
0.0 0.0 0.0 
-1.814339571442e-03 1.050587378216e-03 0.0 
1.050587378216e-03 8.940779145832e-03 0.0 
0.0 0.0 0.0 
-1.646331782321e-03 5.471567466713e-05 0.0 
5.471567466713e-05 9.548409871873e-03 0.0 
0.0 0.0 0.0 
-1.928189527379e-03 1.211452170214e-05 0.0 
1.211452170214e-05 9.619319750467e-03 0.0 
0.0 0.0 0.0 
-1.675428112328e-03 1.275996464137e-04 0.0 
1.275996464137e-04 9.517556494947e-03 0.0 
0.0 0.0 0.0 
-1.997953982944e-03 8.838606888873e-05 0.0 
8.838606888873e-05 9.602846024506e-03 0.0 
0.0 0.0 0.0 
-1.694761446333e-03 2.281681158823e-04 0.0 
2.281681158823e-04 9.467857505885e-03 0.0 
0.0 0.0 0.0 
-2.052295553871e-03 2.042409082751e-04 0.0 
2.042409082751e-04 9.577610257140e-03 0.0 
0.0 0.0 0.0 
-1.701863839473e-03 3.677666610354e-04 0.0 
3.677666610354e-04 9.405686482745e-03 0.0 
0.0 0.0 0.0 
-2.099793372672e-03 3.542823971729e-04 0.0 
3.542823971729e-04 9.532759998071e-03 0.0 
0.0 0.0 0.0 
-2.121246227700e-03 5.893498344402e-04 0.0 
5.893498344402e-04 9.467467995603e-03 0.0 
0.0 0.0 0.0 
-1.726715297901e-03 5.626766802769e-04 0.0 
5.626766802769e-04 9.306352079639e-03 0.0 
0.0 0.0 0.0 
-2.310204843745e-03 1.400054868738e-03 0.0 
1.400054868738e-03 9.329101630951e-03 0.0 
0.0 0.0 0.0 
-1.781571759003e-03 8.318375981476e-04 0.0 
8.318375981476e-04 9.199999695561e-03 0.0 
0.0 0.0 0.0 
-2.218210608629e-03 1.102861431964e-03 0.0 
1.102861431964e-03 9.283218368073e-03 0.0 
0.0 0.0 0.0 
-1.569806707016e-03 -6.180883683990e-05 0.0 
-6.180883683990e-05 9.626510890361e-03 0.0 
0.0 0.0 0.0 
-1.535154520945e-03 4.104399390627e-05 0.0 
4.104399390627e-05 9.564121996589e-03 0.0 
0.0 0.0 0.0 
-1.570121496924e-03 -1.558450153028e-05 0.0 
-1.558450153028e-05 9.716947591371e-03 0.0 
0.0 0.0 0.0 
-1.533943141910e-03 -2.831739572291e-06 0.0 
-2.831739572291e-06 9.477412749110e-03 0.0 
0.0 0.0 0.0 
-2.047976917530e-03 1.567016939842e-03 0.0 
1.567016939842e-03 8.831006088570e-03 0.0 
0.0 0.0 0.0 
-1.605746508511e-03 -2.155328662777e-05 0.0 
-2.155328662777e-05 1.010607629610e-02 0.0 
0.0 0.0 0.0 
-1.575370287973e-03 -1.468066891476e-05 0.0 
-1.468066891476e-05 1.006623194837e-02 0.0 
0.0 0.0 0.0 
-1.613423615963e-03 -1.546617327617e-05 0.0 
-1.546617327617e-05 1.006627120851e-02 0.0 
0.0 0.0 0.0 
-1.580928409919e-03 -2.887210489822e-05 0.0 
-2.887210489822e-05 1.006370357083e-02 0.0 
0.0 0.0 0.0 
-1.631692563570e-03 -1.712464046079e-05 0.0 
-1.712464046079e-05 1.006617187544e-02 0.0 
0.0 0.0 0.0 
-1.592264786831e-03 -3.400875859503e-05 0.0 
-3.400875859503e-05 1.006527101205e-02 0.0 
0.0 0.0 0.0 
-1.655749458048e-03 -2.043750885771e-05 0.0 
-2.043750885771e-05 1.006934292785e-02 0.0 
0.0 0.0 0.0 
-1.608298510661e-03 -3.819061360967e-05 0.0 
-3.819061360967e-05 1.006510666125e-02 0.0 
0.0 0.0 0.0 
-1.683306135584e-03 -1.767250996322e-05 0.0 
-1.767250996322e-05 1.007276353483e-02 0.0 
0.0 0.0 0.0 
-1.631411957159e-03 -3.752305957670e-05 0.0 
-3.752305957670e-05 1.007026389000e-02 0.0 
0.0 0.0 0.0 
-1.722799711712e-03 -1.558599654424e-05 0.0 
-1.558599654424e-05 1.008085236826e-02 0.0 
0.0 0.0 0.0 
-1.658364483842e-03 -3.483781781750e-05 0.0 
-3.483781781750e-05 1.007079446405e-02 0.0 
0.0 0.0 0.0 
-1.765654269187e-03 -3.684098900245e-06 0.0 
-3.684098900245e-06 1.008817021635e-02 0.0 
0.0 0.0 0.0 
-2.281180642495e-03 1.005101037063e-03 0.0 
1.005101037063e-03 9.735976016328e-03 0.0 
0.0 0.0 0.0 
-1.693259356912e-03 -2.335751187045e-05 0.0 
-2.335751187045e-05 1.007592422450e-02 0.0 
0.0 0.0 0.0 
-1.822303991408e-03 1.028871264877e-05 0.0 
1.028871264877e-05 1.009890208153e-02 0.0 
0.0 0.0 0.0 
-2.121246227700e-03 9.301140836454e-04 0.0 
9.301140836454e-04 9.554263919801e-03 0.0 
0.0 0.0 0.0 
-1.734883610035e-03 -4.594809985608e-06 0.0 
-4.594809985608e-06 1.007352513525e-02 0.0 
0.0 0.0 0.0 
-1.882523760690e-03 3.683894592529e-05 0.0 
3.683894592529e-05 1.010580568091e-02 0.0 
0.0 0.0 0.0 
-2.391069335888e-03 8.297638884225e-04 0.0 
8.297638884225e-04 9.938785338317e-03 0.0 
0.0 0.0 0.0 
-1.773428745759e-03 2.547084395540e-05 0.0 
2.547084395540e-05 1.006749600426e-02 0.0 
0.0 0.0 0.0 
-1.956033989540e-03 7.319368454439e-05 0.0 
7.319368454439e-05 1.011136456477e-02 0.0 
0.0 0.0 0.0 
-1.816545508981e-03 6.717470658821e-05 0.0 
6.717470658821e-05 1.005567622159e-02 0.0 
0.0 0.0 0.0 
-2.021096198989e-03 1.194080849720e-04 0.0 
1.194080849720e-04 1.011088487253e-02 0.0 
0.0 0.0 0.0 
-1.867665117020e-03 1.286406220991e-04 0.0 
1.286406220991e-04 1.003469757215e-02 0.0 
0.0 0.0 0.0 
-2.452867599892e-03 1.185280576866e-03 0.0 
1.185280576866e-03 9.870655651665e-03 0.0 
0.0 0.0 0.0 
-2.098216928799e-03 1.879160477610e-04 0.0 
1.879160477610e-04 1.010525830589e-02 0.0 
0.0 0.0 0.0 
-1.928189527379e-03 2.170025877300e-04 0.0 
2.170025877300e-04 1.000446447965e-02 0.0 
0.0 0.0 0.0 
-1.997953982944e-03 3.373632736282e-04 0.0 
3.373632736282e-04 9.962220428880e-03 0.0 
0.0 0.0 0.0 
-2.180252044235e-03 2.816982514346e-04 0.0 
2.816982514346e-04 1.009078760425e-02 0.0 
0.0 0.0 0.0 
-2.052295553871e-03 5.016804574729e-04 0.0 
5.016804574729e-04 9.876934726393e-03 0.0 
0.0 0.0 0.0 
-2.268943116144e-03 3.992186343113e-04 0.0 
3.992186343113e-04 1.005910639207e-02 0.0 
0.0 0.0 0.0 
-2.099793372672e-03 7.336241886246e-04 0.0 
7.336241886246e-04 9.783796895452e-03 0.0 
0.0 0.0 0.0 
-2.290822072091e-03 5.838803801130e-04 0.0 
5.838803801130e-04 9.995890079053e-03 0.0 
0.0 0.0 0.0 
-2.395347440697e-03 9.864527929200e-04 0.0 
9.864527929200e-04 9.789001243950e-03 0.0 
0.0 0.0 0.0 
-1.563363548286e-03 -5.820139512325e-05 0.0 
-5.820139512325e-05 1.003680114892e-02 0.0 
0.0 0.0 0.0 
-1.604145170410e-03 4.624710983879e-05 0.0 
4.624710983879e-05 1.011006316947e-02 0.0 
0.0 0.0 0.0 
-1.570121496924e-03 -1.215144872869e-05 0.0 
-1.215144872869e-05 9.953776344727e-03 0.0 
0.0 0.0 0.0 
-1.598418242180e-03 2.997837140734e-06 0.0 
2.997837140734e-06 1.018862263582e-02 0.0 
0.0 0.0 0.0 
-2.240730449030e-03 1.304372266234e-03 0.0 
1.304372266234e-03 9.432427522720e-03 0.0 
0.0 0.0 0.0 
-1.605746508511e-03 -1.479581895791e-05 0.0 
-1.479581895791e-05 1.046705571108e-02 0.0 
0.0 0.0 0.0 
-1.608707495706e-03 1.545984340916e-07 0.0 
1.545984340916e-07 1.049782055462e-02 0.0 
0.0 0.0 0.0 
-1.613423615963e-03 5.450505621169e-06 0.0 
5.450505621169e-06 1.049721382547e-02 0.0 
0.0 0.0 0.0 
-1.630933126928e-03 2.265479451955e-06 0.0 
2.265479451955e-06 1.050596175356e-02 0.0 
0.0 0.0 0.0 
-1.631692563570e-03 1.289685194071e-05 0.0 
1.289685194071e-05 1.050409154157e-02 0.0 
0.0 0.0 0.0 
-1.656314332146e-03 6.809481408195e-06 0.0 
6.809481408195e-06 1.051251831998e-02 0.0 
0.0 0.0 0.0 
-1.655749458048e-03 1.981721050353e-05 0.0 
1.981721050353e-05 1.050944985951e-02 0.0 
0.0 0.0 0.0 
-1.688174057717e-03 9.421972476023e-06 0.0 
9.421972476023e-06 1.051530598316e-02 0.0 
0.0 0.0 0.0 
-1.683306135584e-03 3.414783583255e-05 0.0 
3.414783583255e-05 1.050792839528e-02 0.0 
0.0 0.0 0.0 
-1.721879692197e-03 2.831284064055e-05 0.0 
2.831284064055e-05 1.052447842776e-02 0.0 
0.0 0.0 0.0 
-1.722799711712e-03 4.986411476353e-05 0.0 
4.986411476353e-05 1.051690074685e-02 0.0 
0.0 0.0 0.0 
-1.775225519420e-03 3.811412130310e-05 0.0 
3.811412130310e-05 1.053129990415e-02 0.0 
0.0 0.0 0.0 
-2.418534309446e-03 9.141881095281e-04 0.0 
9.141881095281e-04 1.028846634551e-02 0.0 
0.0 0.0 0.0 
-1.765654269187e-03 7.659371960924e-05 0.0 
7.659371960924e-05 1.051504966190e-02 0.0 
0.0 0.0 0.0 
-2.424122389313e-03 7.522254490974e-04 0.0 
7.522254490974e-04 1.043246222059e-02 0.0 
0.0 0.0 0.0 
-1.826340822609e-03 7.094037457677e-05 0.0 
7.094037457677e-05 1.054189135403e-02 0.0 
0.0 0.0 0.0 
-1.822303991408e-03 1.097500569803e-04 0.0 
1.097500569803e-04 1.052340448171e-02 0.0 
0.0 0.0 0.0 
-1.900210422870e-03 9.820006762708e-05 0.0 
9.820006762708e-05 1.054853989501e-02 0.0 
0.0 0.0 0.0 
-1.882523760690e-03 1.569977923656e-04 0.0 
1.569977923656e-04 1.051617239748e-02 0.0 
0.0 0.0 0.0 
-1.979469339320e-03 1.503229801232e-04 0.0 
1.503229801232e-04 1.055505419655e-02 0.0 
0.0 0.0 0.0 
-1.956033989540e-03 2.210479046686e-04 0.0 
2.210479046686e-04 1.051142402039e-02 0.0 
0.0 0.0 0.0 
-2.059344177027e-03 2.180027336785e-04 0.0 
2.180027336785e-04 1.055458011189e-02 0.0 
0.0 0.0 0.0 
-2.290822072091e-03 8.753938743081e-04 0.0 
8.753938743081e-04 1.010653421098e-02 0.0 
0.0 0.0 0.0 
-2.021096198989e-03 3.064009899750e-04 0.0 
3.064009899750e-04 1.049337777536e-02 0.0 
0.0 0.0 0.0 
-2.155266425009e-03 3.046517181794e-04 0.0 
3.046517181794e-04 1.054728908921e-02 0.0 
0.0 0.0 0.0 
-2.098216928799e-03 4.117584618396e-04 0.0 
4.117584618396e-04 1.046457781737e-02 0.0 
0.0 0.0 0.0 
-2.244141234149e-03 4.151703889088e-04 0.0 
4.151703889088e-04 1.052446090607e-02 0.0 
0.0 0.0 0.0 
-2.328116740726e-03 5.666176298227e-04 0.0 
5.666176298227e-04 1.048475169298e-02 0.0 
0.0 0.0 0.0 
-2.180252044235e-03 5.489585812078e-04 0.0 
5.489585812078e-04 1.041281208681e-02 0.0 
0.0 0.0 0.0 
-2.268943116144e-03 7.202154996179e-04 0.0 
7.202154996179e-04 1.034822643135e-02 0.0 
0.0 0.0 0.0 
-2.530629123850e-03 1.043998718104e-03 0.0 
1.043998718104e-03 1.038657445520e-02 0.0 
0.0 0.0 0.0 
-2.481866028670e-03 8.963539331491e-04 0.0 
8.963539331491e-04 1.026623342221e-02 0.0 
0.0 0.0 0.0 
-1.616960964711e-03 -4.753312851552e-05 0.0 
-4.753312851552e-05 1.050095543821e-02 0.0 
0.0 0.0 0.0 
-1.595633778247e-03 6.016552776116e-05 0.0 
6.016552776116e-05 1.046263747206e-02 0.0 
0.0 0.0 0.0 
-1.613631126586e-03 3.872619428754e-06 0.0 
3.872619428754e-06 1.059760622080e-02 0.0 
0.0 0.0 0.0 
-1.598418242180e-03 1.101099971436e-05 0.0 
1.101099971436e-05 1.036984293943e-02 0.0 
0.0 0.0 0.0 
-2.391069335888e-03 1.142869183342e-03 0.0 
1.142869183342e-03 1.003104759951e-02 0.0 
0.0 0.0 0.0 

TENSORS element_materi_strain_plasti float
-1.278716781713e-04 2.317088785895e-03 0.0 
2.317088785895e-03 1.725589617193e-03 0.0 
0.0 0.0 -6.847362595807e-04 
-1.156199042648e-04 2.024353748068e-03 0.0 
2.024353748068e-03 1.515455915080e-03 0.0 
0.0 0.0 -5.999297189210e-04 
-1.399419419615e-03 2.869344170324e-03 0.0 
2.869344170324e-03 7.127002349296e-03 0.0 
0.0 0.0 -1.278236581085e-03 
-1.499770292198e-03 1.938127459123e-04 0.0 
1.938127459123e-04 8.462485561252e-03 0.0 
0.0 0.0 -1.255598393855e-03 
-1.590286579790e-03 5.866412250785e-04 0.0 
5.866412250785e-04 5.570411940462e-03 0.0 
0.0 0.0 -7.961861350945e-04 
9.753052699299e-04 2.049730811989e-03 0.0 
2.049730811989e-03 -7.410546550660e-04 0.0 
0.0 0.0 -1.003931206560e-04 
-1.532722360608e-03 5.037005669365e-04 0.0 
5.037005669365e-04 5.548158926813e-03 0.0 
0.0 0.0 -8.011023898636e-04 
6.217083316276e-05 2.386622999709e-03 0.0 
2.386622999709e-03 1.415043626867e-03 0.0 
0.0 0.0 -6.330919114413e-04 
-1.605315258057e-03 4.380832637377e-06 0.0 
4.380832637377e-06 5.621376957900e-03 0.0 
0.0 0.0 -7.977904104815e-04 
-1.475813289088e-03 8.034655794974e-04 0.0 
8.034655794974e-04 8.366055234102e-03 0.0 
0.0 0.0 -1.253060141438e-03 
-1.723349006480e-03 -4.463465104632e-04 0.0 
-4.463465104632e-04 5.097851564140e-03 0.0 
0.0 0.0 -1.066978692879e-03 
5.108532101030e-06 1.964113970332e-03 0.0 
1.964113970332e-03 1.245831196254e-03 0.0 
0.0 0.0 -5.361170264378e-04 
-1.727294747470e-03 -3.711696677191e-04 0.0 
-3.711696677191e-04 6.945132129710e-03 0.0 
0.0 0.0 -1.259187713256e-03 
-1.707478703098e-03 1.059006860170e-03 0.0 
1.059006860170e-03 5.791719022601e-03 0.0 
0.0 0.0 -8.526168115438e-04 
-1.560262196776e-03 -9.393570101401e-04 0.0 
-9.393570101401e-04 6.928774089182e-03 0.0 
0.0 0.0 -1.289538875031e-03 
-1.440818830272e-03 6.754770737443e-04 0.0 
6.754770737443e-04 8.548838696717e-03 0.0 
0.0 0.0 -1.285984941237e-03 
-1.662616207287e-03 5.344607310422e-04 0.0 
5.344607310422e-04 5.529033418926e-03 0.0 
0.0 0.0 -7.740676797406e-04 
7.357046437425e-05 6.570695833459e-05 0.0 
6.570695833459e-05 -7.357046437425e-05 0.0 
0.0 0.0 0.0 
-6.149932217399e-04 -2.296531181353e-04 0.0 
-2.296531181353e-04 1.902161440616e-03 0.0 
0.0 0.0 -2.776016825098e-04 
-5.498585393581e-04 -2.166839192677e-04 0.0 
-2.166839192677e-04 1.738279106343e-03 0.0 
0.0 0.0 -4.484512109716e-04 
-1.512957112042e-03 4.043623184242e-04 0.0 
4.043623184242e-04 8.437324312554e-03 0.0 
0.0 0.0 -1.250388265701e-03 
-3.873012428043e-04 2.129273940428e-03 0.0 
2.129273940428e-03 2.185606563766e-03 0.0 
0.0 0.0 -7.707022804121e-04 
-4.415956435739e-04 2.226005795527e-03 0.0 
2.226005795527e-03 2.374460708771e-03 0.0 
0.0 0.0 -8.283707422273e-04 
-4.392711161920e-04 -9.745966439416e-04 0.0 
-9.745966439416e-04 3.836297522503e-03 0.0 
0.0 0.0 -1.210372970477e-03 
-1.729903628601e-03 1.506745383258e-03 0.0 
1.506745383258e-03 5.975665893657e-03 0.0 
0.0 0.0 -9.130988374533e-04 
-1.810671457854e-03 -7.476421640110e-04 0.0 
-7.476421640110e-04 5.330964071115e-03 0.0 
0.0 0.0 -1.080045423496e-03 
-1.736477005164e-03 1.109495533801e-03 0.0 
1.109495533801e-03 4.957414051106e-03 0.0 
0.0 0.0 -7.148082707961e-04 
-9.553018808659e-04 3.102749138761e-03 0.0 
3.102749138761e-03 5.566273317297e-03 0.0 
0.0 0.0 -1.266047838742e-03 
-1.821356794347e-03 1.188786638151e-03 0.0 
1.188786638151e-03 6.013421513739e-03 0.0 
0.0 0.0 -9.113908267906e-04 
-6.554257296263e-04 -8.444129216472e-04 0.0 
-8.444129216472e-04 4.294151155513e-03 0.0 
0.0 0.0 -1.237914324842e-03 
1.345111965206e-03 -2.563071370678e-03 0.0 
-2.563071370678e-03 -3.409519374557e-04 0.0 
0.0 0.0 -4.303542976074e-04 
3.575551772738e-04 -9.432915107626e-04 0.0 
-9.432915107626e-04 3.359353657627e-04 0.0 
0.0 0.0 -1.059755802940e-04 
-1.524187206040e-03 3.047553797097e-03 0.0 
3.047553797097e-03 7.492448074924e-03 0.0 
0.0 0.0 -1.261301343383e-03 
-2.126259398598e-03 -4.008249318176e-04 0.0 
-4.008249318176e-04 6.245433906960e-03 0.0 
0.0 0.0 -1.090200430068e-03 
-1.168924377092e-03 -2.135391167217e-03 0.0 
-2.135391167217e-03 5.528728836968e-03 0.0 
0.0 0.0 -1.254989870190e-03 
-1.506183274607e-03 -1.403999252581e-03 0.0 
-1.403999252581e-03 6.695784423920e-03 0.0 
0.0 0.0 -1.314886350686e-03 
-1.405965625827e-03 -2.094418066157e-03 0.0 
-2.094418066157e-03 6.677666447639e-03 0.0 
0.0 0.0 -1.314653105918e-03 
-6.328504155879e-04 1.260189016710e-03 0.0 
1.260189016710e-03 4.185986138576e-03 0.0 
0.0 0.0 -1.264739017786e-03 
-1.486815579568e-03 -1.990720886798e-04 0.0 
-1.990720886798e-04 5.107008468447e-03 0.0 
0.0 0.0 -7.380763454961e-04 
-1.448070308282e-03 4.493602178438e-04 0.0 
4.493602178438e-04 5.173305882684e-03 0.0 
0.0 0.0 -7.371174501546e-04 
-8.280494050984e-04 2.109474212237e-03 0.0 
2.109474212237e-03 3.158688487348e-03 0.0 
0.0 0.0 -8.774464902234e-04 
-1.113239206738e-03 -1.655283581889e-03 0.0 
-1.655283581889e-03 5.115282801902e-03 0.0 
0.0 0.0 -1.280756488215e-03 
3.008174076713e-04 2.119260517804e-03 0.0 
2.119260517804e-03 8.825314744810e-04 0.0 
0.0 0.0 -5.071495209224e-04 
-1.653413400617e-03 1.159238962241e-03 0.0 
1.159238962241e-03 4.683778627350e-03 0.0 
0.0 0.0 -7.557105610435e-04 
-1.547330050851e-03 3.671214089611e-05 0.0 
3.671214089611e-05 8.340609894927e-03 0.0 
0.0 0.0 -1.212858513926e-03 
3.049695683184e-04 2.191509382836e-03 0.0 
2.191509382836e-03 9.207765491606e-04 0.0 
0.0 0.0 -5.253197646338e-04 
1.207574275293e-03 -2.365696291912e-03 0.0 
-2.365696291912e-03 -7.132596237324e-04 0.0 
0.0 0.0 -2.118491363831e-04 
-1.445646034229e-03 2.633500934319e-04 0.0 
2.633500934319e-04 8.137788974429e-03 0.0 
0.0 0.0 -1.234743356787e-03 
1.908988241954e-04 -8.061125310431e-04 0.0 
-8.061125310431e-04 -1.579045808257e-05 0.0 
0.0 0.0 -7.504644261978e-05 
-1.740092141895e-03 6.147961927965e-04 0.0 
6.147961927965e-04 5.664008038323e-03 0.0 
0.0 0.0 -8.229436299569e-04 
-6.078592580179e-04 2.220023986171e-03 0.0 
2.220023986171e-03 2.788765867991e-03 0.0 
0.0 0.0 -9.296584868968e-04 
-8.623973456416e-04 -2.162048895284e-04 0.0 
-2.162048895284e-04 2.432076766193e-03 0.0 
0.0 0.0 -4.150917825895e-04 
2.292279279293e-03 -2.762669743217e-03 0.0 
-2.762669743217e-03 -9.405005062222e-04 0.0 
0.0 0.0 -5.793337598876e-04 
-6.898259874441e-04 2.091701766161e-03 0.0 
2.091701766161e-03 2.855891423984e-03 0.0 
0.0 0.0 -8.656335400463e-04 
-1.445100174427e-03 2.379194139466e-03 0.0 
2.379194139466e-03 7.706829156199e-03 0.0 
0.0 0.0 -1.282189168212e-03 
-9.586804568965e-04 -6.913799780171e-04 0.0 
-6.913799780171e-04 2.989840683449e-03 0.0 
0.0 0.0 -7.128710764410e-04 
-6.997308059935e-04 -2.320910788817e-04 0.0 
-2.320910788817e-04 2.233925226019e-03 0.0 
0.0 0.0 -5.951090654820e-04 
-2.130460140960e-03 -2.340494849444e-04 0.0 
-2.340494849444e-04 6.282260078053e-03 0.0 
0.0 0.0 -1.087734043503e-03 
1.076454852669e-04 -7.426368379909e-04 0.0 
-7.426368379909e-04 1.194913348537e-03 0.0 
0.0 0.0 -3.122055485762e-04 
-1.457512378927e-03 3.071898754378e-04 0.0 
3.071898754378e-04 8.560769857503e-03 0.0 
0.0 0.0 -1.285320035817e-03 
0.0 0.0 0.0 
0.0 0.0 0.0 
0.0 0.0 0.0 
-5.387044635242e-04 2.656482396914e-03 0.0 
2.656482396914e-03 4.203857407929e-03 0.0 
0.0 0.0 -1.210824713543e-03 
3.439414593790e-04 2.794168595655e-03 0.0 
2.794168595655e-03 1.235314347192e-03 0.0 
0.0 0.0 -6.768239171020e-04 
2.349935129578e-03 -2.770680198001e-03 0.0 
-2.770680198001e-03 -6.796113691984e-04 0.0 
0.0 0.0 -7.158530401625e-04 
-1.671429738175e-03 -1.210022446990e-03 0.0 
-1.210022446990e-03 6.777156017205e-03 0.0 
0.0 0.0 -1.257478522087e-03 
-5.278364963199e-04 2.118194625541e-03 0.0 
2.118194625541e-03 2.531471725177e-03 0.0 
0.0 0.0 -8.587008123673e-04 
0.0 0.0 0.0 
0.0 0.0 0.0 
0.0 0.0 0.0 
-1.493925828084e-03 3.040545355870e-03 0.0 
3.040545355870e-03 7.302395090943e-03 0.0 
0.0 0.0 -1.261660853087e-03 
4.867824217369e-04 -2.505859056628e-03 0.0 
-2.505859056628e-03 8.835287678333e-04 0.0 
0.0 0.0 -5.872762241015e-04 
-1.271990412820e-03 3.214687538356e-03 0.0 
3.214687538356e-03 6.250345422673e-03 0.0 
0.0 0.0 -1.282376455277e-03 
-1.831786578585e-03 -1.075910520083e-03 0.0 
-1.075910520083e-03 5.407233681497e-03 0.0 
0.0 0.0 -1.080053202689e-03 
-1.338499280800e-03 1.682976327997e-03 0.0 
1.682976327997e-03 8.399936015446e-03 0.0 
0.0 0.0 -1.338499280800e-03 
-9.312572041143e-04 2.894697176184e-03 0.0 
2.894697176184e-03 4.910832013066e-03 0.0 
0.0 0.0 -1.232909111256e-03 
1.433784453303e-03 -9.093882019497e-05 0.0 
-9.093882019497e-05 -5.456392549777e-05 0.0 
0.0 0.0 -2.878745769087e-04 
-9.147252279940e-04 -5.669281210358e-04 0.0 
-5.669281210358e-04 2.973437083954e-03 0.0 
0.0 0.0 -8.116687730804e-04 
-1.536993954654e-03 1.126957410002e-03 0.0 
1.126957410002e-03 8.303326713538e-03 0.0 
0.0 0.0 -1.262626981217e-03 
-1.574019976009e-03 2.576738749078e-03 0.0 
2.576738749078e-03 7.875617774672e-03 0.0 
0.0 0.0 -1.265352048664e-03 
4.720058723338e-04 2.134723574062e-03 0.0 
2.134723574062e-03 6.830651359346e-04 0.0 
0.0 0.0 -4.950304321150e-04 
-3.200456338227e-04 -3.352696368382e-04 0.0 
-3.352696368382e-04 1.110105412521e-03 0.0 
0.0 0.0 -3.374836250442e-04 
5.206675697946e-04 2.217090668705e-03 0.0 
2.217090668705e-03 6.763455683265e-04 0.0 
0.0 0.0 -5.130056306233e-04 
4.804782057485e-04 -2.508358039830e-03 0.0 
-2.508358039830e-03 8.916054330170e-04 0.0 
0.0 0.0 -5.880358451852e-04 
-1.625607394925e-03 4.831506481737e-04 0.0 
4.831506481737e-04 5.291976980867e-03 0.0 
0.0 0.0 -7.918363975426e-04 
-2.908848742719e-04 2.252062443166e-03 0.0 
2.252062443166e-03 2.033636756898e-03 0.0 
0.0 0.0 -7.468936639825e-04 
-2.599695243754e-04 1.891700121758e-03 0.0 
1.891700121758e-03 1.743771242898e-03 0.0 
0.0 0.0 -6.359150222241e-04 
-1.678000531135e-03 1.594922248822e-04 0.0 
1.594922248822e-04 5.821879659601e-03 0.0 
0.0 0.0 -8.336771054075e-04 
-1.596383286677e-03 5.670740920774e-04 0.0 
5.670740920774e-04 5.789976808295e-03 0.0 
0.0 0.0 -8.358076868167e-04 
-1.951624680642e-03 -7.308270384445e-04 0.0 
-7.308270384445e-04 5.657668243585e-03 0.0 
0.0 0.0 -1.080533843704e-03 
-2.196082702137e-03 8.354918695911e-05 0.0 
8.354918695911e-05 6.184278536814e-03 0.0 
0.0 0.0 -1.059807920279e-03 
-1.525646772161e-03 2.625569910847e-03 0.0 
2.625569910847e-03 6.112973773832e-03 0.0 
0.0 0.0 -1.085941371602e-03 
-1.648645582224e-03 1.246285648401e-04 0.0 
1.246285648401e-04 5.489793155500e-03 0.0 
0.0 0.0 -7.983229688164e-04 
-1.123057724715e-05 -5.872900984588e-04 0.0 
-5.872900984588e-04 3.960725969021e-04 0.0 
0.0 0.0 -1.649322941379e-04 
-1.757846623502e-03 1.222419041867e-03 0.0 
1.222419041867e-03 5.122536551657e-03 0.0 
0.0 0.0 -7.928983479555e-04 
-1.578530100158e-03 5.920453420347e-05 0.0 
5.920453420347e-05 7.247400490716e-03 0.0 
0.0 0.0 -1.069439317440e-03 
-1.600676841679e-03 3.339381263473e-04 0.0 
3.339381263473e-04 7.321452075562e-03 0.0 
0.0 0.0 -1.046447409317e-03 
-1.502072334268e-03 1.832498170444e-03 0.0 
1.832498170444e-03 8.633609047693e-03 0.0 
0.0 0.0 -1.319970921405e-03 
-9.007094055422e-04 1.223013959388e-03 0.0 
1.223013959388e-03 4.725884480151e-03 0.0 
0.0 0.0 -1.294194962782e-03 
-1.674253522828e-03 4.484898109266e-04 0.0 
4.484898109266e-04 5.280548957068e-03 0.0 
0.0 0.0 -7.889745663688e-04 
-1.078149223136e-03 -1.912876176720e-03 0.0 
-1.912876176720e-03 5.515902141362e-03 0.0 
0.0 0.0 -1.263183913703e-03 
-1.546584036688e-03 -9.624953365827e-05 0.0 
-9.624953365827e-05 6.233353762451e-03 0.0 
0.0 0.0 -9.040008563810e-04 
1.411194399049e-04 2.915371637598e-03 0.0 
2.915371637598e-03 1.618838156256e-03 0.0 
0.0 0.0 -7.542675412120e-04 
-1.587713497171e-03 1.272120189302e-04 0.0 
1.272120189302e-04 5.375209747655e-03 0.0 
0.0 0.0 -7.643292725052e-04 
-1.604005809179e-03 -6.682657737697e-04 0.0 
-6.682657737697e-04 6.948639054056e-03 0.0 
0.0 0.0 -1.287517816355e-03 
3.542986660605e-04 2.115271012738e-03 0.0 
2.115271012738e-03 2.453989176071e-03 0.0 
0.0 0.0 -1.043751955586e-03 
-5.121197440995e-04 2.106847301720e-03 0.0 
2.106847301720e-03 4.264562002622e-03 0.0 
0.0 0.0 -1.209599240962e-03 
8.414669120651e-04 2.750323762399e-03 0.0 
2.750323762399e-03 6.433152604662e-04 0.0 
0.0 0.0 -6.363352167991e-04 
5.516999887664e-04 -2.796976242529e-03 0.0 
-2.796976242529e-03 1.148224010342e-04 0.0 
0.0 0.0 -2.856524527717e-04 
-1.904299824368e-03 -6.917450604687e-04 0.0 
-6.917450604687e-04 6.641778035438e-03 0.0 
0.0 0.0 -1.189902873528e-03 
-1.601708388107e-03 3.286250233117e-04 0.0 
3.286250233117e-04 7.722816405099e-03 0.0 
0.0 0.0 -1.108790581071e-03 
3.810766207412e-05 -6.205157488134e-04 0.0 
-6.205157488134e-04 -3.810766207412e-05 0.0 
0.0 0.0 0.0 
-1.434793545909e-03 -1.524718547292e-03 0.0 
-1.524718547292e-03 6.503522325473e-03 0.0 
0.0 0.0 -1.285127980003e-03 
-1.436465131336e-03 2.957908754166e-03 0.0 
2.957908754166e-03 5.615958785865e-03 0.0 
0.0 0.0 -1.051491716222e-03 
2.107685358584e-03 1.966346604052e-04 0.0 
1.966346604052e-04 -5.019158565474e-04 0.0 
0.0 0.0 -2.190510374322e-04 
1.208695653732e-03 2.926354061763e-03 0.0 
2.926354061763e-03 1.261066979529e-04 0.0 
0.0 0.0 -5.720581507223e-04 
-1.531499204645e-03 1.574438431832e-03 0.0 
1.574438431832e-03 4.499656748010e-03 0.0 
0.0 0.0 -7.914135736088e-04 
-9.815222315618e-04 -1.138374471426e-03 0.0 
-1.138374471426e-03 3.347141370850e-03 0.0 
0.0 0.0 -9.587991763485e-04 
2.655737035557e-04 2.419593458192e-03 0.0 
2.419593458192e-03 1.115288623384e-03 0.0 
0.0 0.0 -5.917981401168e-04 
3.744529332960e-04 2.946102748991e-03 0.0 
2.946102748991e-03 1.286129190467e-03 0.0 
0.0 0.0 -7.116780530414e-04 
-1.321847859093e-03 -1.772500593240e-03 0.0 
-1.772500593240e-03 5.826707907603e-03 0.0 
0.0 0.0 -1.283833066805e-03 
-1.525040410968e-03 2.578190730368e-04 0.0 
2.578190730368e-04 6.156621214154e-03 0.0 
0.0 0.0 -8.766975940251e-04 
5.363756903500e-04 2.629255494055e-03 0.0 
2.629255494055e-03 8.922896369145e-04 0.0 
0.0 0.0 -6.122851402562e-04 
1.683483209039e-04 -2.096310185990e-03 0.0 
-2.096310185990e-03 1.080312045122e-03 0.0 
0.0 0.0 -5.351401568681e-04 
-1.746303579404e-03 1.473532537081e-03 0.0 
1.473532537081e-03 5.178940412439e-03 0.0 
0.0 0.0 -7.744920945421e-04 
-1.517476482960e-03 1.097936493812e-04 0.0 
1.097936493812e-04 7.545801257606e-03 0.0 
0.0 0.0 -1.129288753466e-03 
5.838877050126e-04 2.764835075281e-03 0.0 
2.764835075281e-03 9.155423273699e-04 0.0 
0.0 0.0 -6.426128710211e-04 
3.893622582553e-04 1.575203385168e-03 0.0 
1.575203385168e-03 3.980592224466e-04 0.0 
0.0 0.0 -3.374663488723e-04 
-1.195366450636e-03 1.829833708586e-03 0.0 
1.829833708586e-03 3.827762851113e-03 0.0 
0.0 0.0 -8.233021825037e-04 
-1.094193203907e-03 -1.066143348073e-03 0.0 
-1.066143348073e-03 3.532112380788e-03 0.0 
0.0 0.0 -8.981558865158e-04 
-1.046482062160e-03 1.913988030913e-03 0.0 
1.913988030913e-03 3.510208918747e-03 0.0 
0.0 0.0 -8.113141688877e-04 
-1.442225258082e-03 1.605824937381e-03 0.0 
1.605824937381e-03 8.359073722744e-03 0.0 
0.0 0.0 -1.290671971449e-03 
1.101065632512e-03 2.933128537393e-03 0.0 
2.933128537393e-03 9.745442457705e-05 0.0 
0.0 0.0 -5.136514530381e-04 
-1.801548102835e-03 -7.282038970032e-04 0.0 
-7.282038970032e-04 5.288878918754e-03 0.0 
0.0 0.0 -1.060402641786e-03 
-1.486141105577e-03 5.585996661944e-04 0.0 
5.585996661944e-04 8.452622925900e-03 0.0 
0.0 0.0 -1.256690274141e-03 
-3.198454740031e-04 3.015481670953e-03 0.0 
3.015481670953e-03 2.568097898378e-03 0.0 
0.0 0.0 -9.635367533037e-04 
-1.021958554670e-03 1.956756434106e-03 0.0 
1.956756434106e-03 3.500404682426e-03 0.0 
0.0 0.0 -8.457158960689e-04 
-1.158957625686e-03 -1.674495574427e-03 0.0 
-1.674495574427e-03 5.533719249484e-03 0.0 
0.0 0.0 -1.254964138299e-03 
-1.718729624033e-03 -7.379037217155e-04 0.0 
-7.379037217155e-04 6.953664324138e-03 0.0 
0.0 0.0 -1.261070974318e-03 
-1.967620110819e-03 -6.331696876036e-04 0.0 
-6.331696876036e-04 5.669647458342e-03 0.0 
0.0 0.0 -1.061066130071e-03 
-6.061740370739e-04 3.049979969874e-03 0.0 
3.049979969874e-03 3.089302566165e-03 0.0 
0.0 0.0 -9.441827087005e-04 
-7.851765230129e-04 -1.170373150230e-03 0.0 
-1.170373150230e-03 4.916146318737e-03 0.0 
0.0 0.0 -1.270330610962e-03 
-5.043578746139e-04 2.747041251980e-03 0.0 
2.747041251980e-03 2.809200300211e-03 0.0 
0.0 0.0 -9.719555150774e-04 
-1.411040385942e-03 9.892815171228e-04 0.0 
9.892815171228e-04 8.317615504874e-03 0.0 
0.0 0.0 -1.283174495648e-03 
-1.289076372121e-03 3.481935391156e-03 0.0 
3.481935391156e-03 6.606253020577e-03 0.0 
0.0 0.0 -1.267437373369e-03 
-1.784736589840e-03 7.085096522011e-04 0.0 
7.085096522011e-04 5.733057783552e-03 0.0 
0.0 0.0 -8.543707170918e-04 
-1.586571893561e-03 5.026260166066e-04 0.0 
5.026260166066e-04 6.801986481939e-03 0.0 
0.0 0.0 -9.817831382938e-04 
-5.156399995053e-04 2.841155344974e-03 0.0 
2.841155344974e-03 2.858892473080e-03 0.0 
0.0 0.0 -9.645491798066e-04 
-8.623176927628e-04 1.998107917208e-03 0.0 
1.998107917208e-03 3.164246376073e-03 0.0 
0.0 0.0 -8.398345356346e-04 
-3.881715109885e-04 3.210536691478e-03 0.0 
3.210536691478e-03 2.805390491743e-03 0.0 
0.0 0.0 -1.009766620266e-03 
9.302504035183e-04 2.952397877038e-03 0.0 
2.952397877038e-03 6.425944529841e-04 0.0 
0.0 0.0 -6.740763670724e-04 
-1.542505755946e-03 1.216931962656e-05 0.0 
1.216931962656e-05 5.518918282905e-03 0.0 
0.0 0.0 -7.693993191400e-04 
1.440386328935e-03 3.141679147944e-03 0.0 
3.141679147944e-03 1.287757348394e-04 0.0 
0.0 0.0 -6.724980273319e-04 
1.173568897977e-04 -7.192653952147e-04 0.0 
-7.192653952147e-04 2.932653952173e-04 0.0 
0.0 0.0 -1.759809792922e-04 
-1.513364044801e-03 4.633102658988e-05 0.0 
4.633102658988e-05 5.921965621168e-03 0.0 
0.0 0.0 -8.171079392438e-04 
-4.255541535768e-04 -1.657123349734e-04 0.0 
-1.657123349734e-04 1.278602330907e-03 0.0 
0.0 0.0 -2.802839825148e-04 
-1.368206188634e-03 1.704449020245e-03 0.0 
1.704449020245e-03 4.168743630605e-03 0.0 
0.0 0.0 -8.053258742841e-04 
-1.010207907769e-03 -1.246817911064e-03 0.0 
-1.246817911064e-03 4.735746548095e-03 0.0 
0.0 0.0 -1.284796145094e-03 
7.390568671829e-04 2.553228098249e-03 0.0 
2.553228098249e-03 5.918003010214e-04 0.0 
0.0 0.0 -5.703673578019e-04 
-2.093082199977e-03 -2.605836003403e-04 0.0 
-2.605836003403e-04 5.949086090445e-03 0.0 
0.0 0.0 -1.062413871926e-03 
1.655520854684e-04 2.161371362285e-03 0.0 
2.161371362285e-03 1.103022204114e-03 0.0 
0.0 0.0 -5.436746955351e-04 
2.242015872536e-04 2.776975076431e-03 0.0 
2.776975076431e-03 2.408189383906e-03 0.0 
0.0 0.0 -1.044905595188e-03 
-1.509926535812e-03 9.806530388370e-05 0.0 
9.806530388370e-05 5.368363465218e-03 0.0 
0.0 0.0 -7.899655494116e-04 
1.682599579449e-03 2.941445331381e-03 0.0 
2.941445331381e-03 -2.715371857708e-04 0.0 
0.0 0.0 -6.047410258623e-04 
-2.057240178145e-03 -7.296543458156e-04 0.0 
-7.296543458156e-04 6.353419805029e-03 0.0 
0.0 0.0 -1.120963572432e-03 
7.939550842651e-05 -1.701837783695e-03 0.0 
-1.701837783695e-03 9.541700722220e-04 0.0 
0.0 0.0 -4.429566774208e-04 
-1.888286542342e-03 -4.078361496187e-04 0.0 
-4.078361496187e-04 6.637817436663e-03 0.0 
0.0 0.0 -1.189111243166e-03 
-1.407485654430e-03 2.291313923690e-03 0.0 
2.291313923690e-03 4.423118315057e-03 0.0 
0.0 0.0 -8.496092609019e-04 
-1.655956820216e-03 -1.430755689950e-03 0.0 
-1.430755689950e-03 6.808595235967e-03 0.0 
0.0 0.0 -1.265987209193e-03 
-1.479137566383e-03 6.125436213776e-05 0.0 
6.125436213776e-05 5.372221524286e-03 0.0 
0.0 0.0 -7.842605076999e-04 
1.138347058752e-03 2.740886700746e-03 0.0 
2.740886700746e-03 1.338850972854e-04 0.0 
0.0 0.0 -5.452423525874e-04 
-1.371065394049e-03 1.713545049238e-03 0.0 
1.713545049238e-03 4.152463321133e-03 0.0 
0.0 0.0 -7.801847948469e-04 
-1.782923268792e-03 -4.744584193542e-04 0.0 
-4.744584193542e-04 5.239530130494e-03 0.0 
0.0 0.0 -1.068702715777e-03 
1.574789883305e-04 2.145072666255e-03 0.0 
2.145072666255e-03 1.105288466408e-03 0.0 
0.0 0.0 -5.411860520308e-04 
1.917158204157e-03 2.902714119045e-03 0.0 
2.902714119045e-03 -2.818191306246e-04 0.0 
0.0 0.0 -7.008596029424e-04 
-1.624113157274e-03 6.876053139899e-05 0.0 
6.876053139899e-05 7.048361475913e-03 0.0 
0.0 0.0 -1.016465148841e-03 
-1.496185645618e-03 2.597795714976e-04 0.0 
2.597795714976e-04 5.580042956141e-03 0.0 
0.0 0.0 -7.680022369673e-04 
1.209193990119e-03 2.857448575399e-03 0.0 
2.857448575399e-03 6.945453600021e-05 0.0 
0.0 0.0 -5.479922254795e-04 
-1.208481437465e-03 1.793019710120e-03 0.0 
1.793019710120e-03 3.824789842828e-03 0.0 
0.0 0.0 -7.984459790235e-04 
-1.152184433486e-03 3.335097296693e-03 0.0 
3.335097296693e-03 5.424015752646e-03 0.0 
0.0 0.0 -1.136725521675e-03 
-1.147448492341e-03 -1.324005404889e-03 0.0 
-1.324005404889e-03 3.757906895843e-03 0.0 
0.0 0.0 -9.635001610743e-04 
-1.057040178935e-03 2.860292126594e-03 0.0 
2.860292126594e-03 5.175691718835e-03 0.0 
0.0 0.0 -1.285202198870e-03 
-1.235950081423e-03 3.387647794385e-03 0.0 
3.387647794385e-03 6.387700415222e-03 0.0 
0.0 0.0 -1.265486236287e-03 
9.281696803103e-05 2.658900655702e-03 0.0 
2.658900655702e-03 1.536267417270e-03 0.0 
0.0 0.0 -6.981790222718e-04 
-1.143109251794e-03 -9.968271358534e-04 0.0 
-9.968271358534e-04 3.727905850470e-03 0.0 
0.0 0.0 -9.933498913217e-04 
8.375618411642e-06 -4.309904929494e-04 0.0 
-4.309904929494e-04 3.045007785971e-03 0.0 
0.0 0.0 -1.152822474774e-03 
-6.877546197814e-04 2.505636337626e-03 0.0 
2.505636337626e-03 3.038701524841e-03 0.0 
0.0 0.0 -9.245708556394e-04 
1.703115487888e-04 2.091650289530e-03 0.0 
2.091650289530e-03 1.051916456575e-03 0.0 
0.0 0.0 -5.238120022987e-04 
-1.475392442541e-03 1.965496358724e-03 0.0 
1.965496358724e-03 4.467421796523e-03 0.0 
0.0 0.0 -8.137754052845e-04 
9.749921592096e-04 3.123149167265e-03 0.0 
3.123149167265e-03 7.036965901566e-04 0.0 
0.0 0.0 -7.194380354427e-04 
-1.431612767918e-03 8.458326217491e-04 0.0 
8.458326217491e-04 8.384155646033e-03 0.0 
0.0 0.0 -1.279059907835e-03 
-1.564281029058e-03 2.665406032541e-03 0.0 
2.665406032541e-03 6.081997352065e-03 0.0 
0.0 0.0 -1.060691896764e-03 
-1.994493389840e-03 -1.486147162618e-04 0.0 
-1.486147162618e-04 6.559276794178e-03 0.0 
0.0 0.0 -1.155968210243e-03 
4.093528604226e-04 2.208508467563e-03 0.0 
2.208508467563e-03 7.981291822907e-04 0.0 
0.0 0.0 -5.174923040200e-04 
2.334418016396e-03 2.579116851284e-03 0.0 
2.579116851284e-03 -5.999483228990e-04 0.0 
0.0 0.0 -7.433441543560e-04 
-1.484568773685e-03 2.868377484862e-03 0.0 
2.868377484862e-03 6.031945958818e-03 0.0 
0.0 0.0 -1.089453766084e-03 
0.0 0.0 0.0 
0.0 0.0 0.0 
0.0 0.0 0.0 
-6.877179378264e-04 2.407578529618e-03 0.0 
2.407578529618e-03 2.994584755227e-03 0.0 
0.0 0.0 -9.117638418509e-04 
1.701472924961e-04 -1.416553182353e-03 0.0 
-1.416553182353e-03 2.527445138619e-03 0.0 
0.0 0.0 -1.080675545910e-03 
7.614101656211e-04 -9.306526935755e-04 0.0 
-9.306526935755e-04 6.714955075901e-04 0.0 
0.0 0.0 -3.004177607877e-04 
-1.466695883915e-03 2.895664536321e-03 0.0 
2.895664536321e-03 7.498365973997e-03 0.0 
0.0 0.0 -1.257517519450e-03 
-1.714163728762e-03 1.976135659385e-03 0.0 
1.976135659385e-03 6.108584287411e-03 0.0 
0.0 0.0 -9.749624431058e-04 
4.925108656531e-04 -3.055158529449e-03 0.0 
-3.055158529449e-03 1.195571453177e-03 0.0 
0.0 0.0 -7.234638509273e-04 
2.687278214663e-04 -6.810653139458e-04 0.0 
-6.810653139458e-04 2.481884598028e-03 0.0 
0.0 0.0 -1.082135573043e-03 
-1.799351909415e-03 1.409259675503e-03 0.0 
1.409259675503e-03 5.578155389814e-03 0.0 
0.0 0.0 -8.259898420369e-04 
-1.801064707900e-03 1.064269352962e-03 0.0 
1.064269352962e-03 5.991738140388e-03 0.0 
0.0 0.0 -8.838609275114e-04 
-6.913788155710e-04 -1.227574140941e-03 0.0 
-1.227574140941e-03 4.246435019945e-03 0.0 
0.0 0.0 -1.237791025003e-03 
1.617016974439e-05 -2.476429670131e-03 0.0 
-2.476429670131e-03 1.553276678470e-03 0.0 
0.0 0.0 -6.726200778060e-04 
-1.931314796257e-04 3.392233640780e-03 0.0 
3.392233640780e-03 2.538226820427e-03 0.0 
0.0 0.0 -1.005040860343e-03 
-1.319730188756e-03 2.601972306617e-03 0.0 
2.601972306617e-03 4.340655659079e-03 0.0 
0.0 0.0 -8.816854262052e-04 
-1.791217628275e-03 1.648610109221e-03 0.0 
1.648610109221e-03 6.470941124492e-03 0.0 
0.0 0.0 -1.008548823165e-03 
-1.624650418518e-03 2.058268446018e-03 0.0 
2.058268446018e-03 4.841940123608e-03 0.0 
0.0 0.0 -8.379792476443e-04 
-1.489577849007e-03 1.897054155513e-03 0.0 
1.897054155513e-03 4.494677002446e-03 0.0 
0.0 0.0 -8.233332215064e-04 
9.144592983676e-04 2.103723640953e-03 0.0 
2.103723640953e-03 1.164621970286e-03 0.0 
0.0 0.0 -8.910348294228e-04 
-1.234709836901e-03 2.936622841749e-03 0.0 
2.936622841749e-03 5.525011386670e-03 0.0 
0.0 0.0 -1.105110859848e-03 
0.0 0.0 0.0 
0.0 0.0 0.0 
0.0 0.0 0.0 
5.533753092925e-05 2.321065575708e-03 0.0 
2.321065575708e-03 1.385026181291e-03 0.0 
0.0 0.0 -6.172987338087e-04 
9.775337925356e-05 2.647350784272e-03 0.0 
2.647350784272e-03 1.520581698043e-03 0.0 
0.0 0.0 -6.935721759841e-04 
-4.200121646643e-04 3.335963278249e-03 0.0 
3.335963278249e-03 2.868206010904e-03 0.0 
0.0 0.0 -9.575728814879e-04 
-1.648855317221e-03 2.317084043405e-03 0.0 
2.317084043405e-03 6.523041636329e-03 0.0 
0.0 0.0 -1.095076276885e-03 
2.058287304795e-03 2.313329836799e-03 0.0 
2.313329836799e-03 -1.214980310369e-03 0.0 
0.0 0.0 -3.614172833254e-04 
1.621278099486e-04 -1.894393997341e-03 0.0 
-1.894393997341e-03 2.355296152545e-03 0.0 
0.0 0.0 -1.043355442177e-03 
-1.517251520276e-03 -1.088769506638e-04 0.0 
-1.088769506638e-04 5.367725382565e-03 0.0 
0.0 0.0 -7.763349569542e-04 
2.071225716726e-03 2.817742222964e-03 0.0 
2.817742222964e-03 -5.830940965428e-04 0.0 
0.0 0.0 -6.377706943641e-04 
8.701785889745e-05 -2.378886716450e-03 0.0 
-2.378886716450e-03 2.268431335651e-03 0.0 
0.0 0.0 -1.006238978475e-03 
6.688501451719e-04 -8.570105726374e-04 0.0 
-8.570105726374e-04 2.508766139633e-04 0.0 
0.0 0.0 -2.227849532966e-04 
-1.684683593515e-03 2.138149817611e-03 0.0 
2.138149817611e-03 6.451465524737e-03 0.0 
0.0 0.0 -1.040010908530e-03 
1.085799585697e-03 -9.338136306232e-04 0.0 
-9.338136306232e-04 4.841625588176e-05 0.0 
0.0 0.0 -1.827119720807e-04 
1.032861128012e-04 -6.271925775052e-04 0.0 
-6.271925775052e-04 6.433353347809e-04 0.0 
0.0 0.0 -2.890002659678e-04 
4.284292636794e-04 2.188011980544e-03 0.0 
2.188011980544e-03 7.634628543711e-04 0.0 
0.0 0.0 -5.108109077359e-04 
5.217682496461e-06 -2.221552624950e-03 0.0 
-2.221552624950e-03 1.410136832977e-03 0.0 
0.0 0.0 -6.065805066316e-04 
-1.756426844714e-03 1.797081824779e-03 0.0 
1.797081824779e-03 6.815040634103e-03 0.0 
0.0 0.0 -1.073797489760e-03 
1.622101319788e-04 -2.264597495009e-03 0.0 
-2.264597495009e-03 1.173181540105e-03 0.0 
0.0 0.0 -5.723107166073e-04 
1.082074594484e-03 2.640607073619e-03 0.0 
2.640607073619e-03 2.626720583109e-04 0.0 
0.0 0.0 -5.763199940550e-04 
1.605964786137e-03 -3.583242349909e-03 0.0 
-3.583242349909e-03 -7.906667844752e-05 0.0 
0.0 0.0 -6.543849032956e-04 
-3.494454807525e-05 -1.610984925714e-03 0.0 
-1.610984925714e-03 1.099950761190e-03 0.0 
0.0 0.0 -4.564312341920e-04 
1.739023189570e-04 -2.645147422265e-04 0.0 
-2.645147422265e-04 2.696870324371e-03 0.0 
0.0 0.0 -1.117524173959e-03 
-1.429083730494e-03 2.211537082543e-03 0.0 
2.211537082543e-03 4.453302943283e-03 0.0 
0.0 0.0 -8.507820156577e-04 
-1.682802659426e-03 -8.879633472863e-04 0.0 
-8.879633472863e-04 6.796328964063e-03 0.0 
0.0 0.0 -1.256743614961e-03 
0.0 0.0 0.0 
0.0 0.0 0.0 
0.0 0.0 0.0 
1.341168508293e-03 2.860330611598e-03 0.0 
2.860330611598e-03 7.949426344501e-05 0.0 
0.0 0.0 -6.088554736019e-04 
2.068683241690e-03 2.743594093827e-03 0.0 
2.743594093827e-03 -6.076247593681e-04 0.0 
0.0 0.0 -6.261679209952e-04 
-4.650783933680e-04 2.487333802040e-03 0.0 
2.487333802040e-03 2.583809885183e-03 0.0 
0.0 0.0 -9.080277822064e-04 
3.082871487027e-04 -1.189402361213e-03 0.0 
-1.189402361213e-03 2.304624928689e-03 0.0 
0.0 0.0 -1.045235091131e-03 
-1.579554839483e-03 -1.394031692893e-03 0.0 
-1.394031692893e-03 6.678028948098e-03 0.0 
0.0 0.0 -1.275930989368e-03 
-1.684299046229e-03 2.211375405385e-03 0.0 
2.211375405385e-03 6.180161065170e-03 0.0 
0.0 0.0 -1.029499106509e-03 
2.603806802799e-03 2.336705660835e-03 0.0 
2.336705660835e-03 -7.411156882784e-04 0.0 
0.0 0.0 -7.982961919374e-04 
1.043592575535e-04 -8.852470439530e-04 0.0 
-8.852470439530e-04 2.718008520162e-03 0.0 
0.0 0.0 -1.116166892424e-03 
-1.922924089839e-03 -2.680134474821e-04 0.0 
-2.680134474821e-04 5.558845052998e-03 0.0 
0.0 0.0 -1.068822925414e-03 
-7.222094777076e-04 3.206300168432e-03 0.0 
3.206300168432e-03 3.349356457826e-03 0.0 
0.0 0.0 -9.235973587808e-04 
-1.677093997722e-03 2.220083154297e-03 0.0 
2.220083154297e-03 6.117933896180e-03 0.0 
0.0 0.0 -1.003200534345e-03 
-7.865873312168e-04 2.395249233040e-03 0.0 
2.395249233040e-03 4.693437656803e-03 0.0 
0.0 0.0 -1.239730878702e-03 
2.351260119446e-03 2.575200545511e-03 0.0 
2.575200545511e-03 -6.504486438349e-04 0.0 
0.0 0.0 -7.289192038335e-04 
9.551102574568e-04 2.654829682591e-03 0.0 
2.654829682591e-03 4.928673923672e-04 0.0 
0.0 0.0 -6.205618499245e-04 
-1.702788092325e-03 2.198389791733e-03 0.0 
2.198389791733e-03 5.173682012494e-03 0.0 
0.0 0.0 -8.662621843288e-04 
-1.465090691244e-03 1.772844143032e-03 0.0 
1.772844143032e-03 8.679771669805e-03 0.0 
0.0 0.0 -1.323568725688e-03 
-2.196076664333e-04 3.542355712652e-03 0.0 
3.542355712652e-03 2.609169075547e-03 0.0 
0.0 0.0 -9.604425725471e-04 
2.156116458846e-03 1.930277635860e-03 0.0 
1.930277635860e-03 -8.514533959833e-04 0.0 
0.0 0.0 -5.591413126556e-04 
-1.551301896676e-03 9.806982104899e-05 0.0 
9.806982104899e-05 6.010438701821e-03 0.0 
0.0 0.0 -8.293613651800e-04 
5.856186318512e-04 -2.658816906517e-03 0.0 
-2.658816906517e-03 8.548743103245e-04 0.0 
0.0 0.0 -6.173541180753e-04 
-1.598852307231e-03 2.167741205054e-03 0.0 
2.167741205054e-03 4.803959338789e-03 0.0 
0.0 0.0 -8.353017157004e-04 
2.274495282906e-03 2.779935450298e-03 0.0 
2.779935450298e-03 -7.589577722122e-04 0.0 
0.0 0.0 -6.495160760114e-04 
2.298330951285e-03 2.091471460167e-03 0.0 
2.091471460167e-03 -1.204105301713e-03 0.0 
0.0 0.0 -4.689538498166e-04 
2.194832401766e-03 -2.977249775004e-03 0.0 
-2.977249775004e-03 -1.184035248941e-03 0.0 
0.0 0.0 -4.331987797821e-04 
-1.681597496447e-03 2.058302471615e-03 0.0 
2.058302471615e-03 6.767260745606e-03 0.0 
0.0 0.0 -1.075985979751e-03 
-1.563333733845e-03 2.379244648904e-03 0.0 
2.379244648904e-03 4.793451180047e-03 0.0 
0.0 0.0 -8.585603458244e-04 
7.771067329277e-04 2.601388271392e-03 0.0 
2.601388271392e-03 5.653213737160e-04 0.0 
0.0 0.0 -5.753263314187e-04 
-1.744996038836e-03 1.710273158382e-03 0.0 
1.710273158382e-03 7.117718959599e-03 0.0 
0.0 0.0 -1.109763131677e-03 
-1.606390224900e-03 2.419672085247e-03 0.0 
2.419672085247e-03 6.148327333334e-03 0.0 
0.0 0.0 -1.057773507355e-03 
-9.992751282894e-04 3.042009890222e-03 0.0 
3.042009890222e-03 3.819168416919e-03 0.0 
0.0 0.0 -9.009204134091e-04 
-1.375955048470e-03 -1.683400062222e-03 0.0 
-1.683400062222e-03 6.152421885777e-03 0.0 
0.0 0.0 -1.288412101370e-03 
1.944327134549e-03 1.768812360803e-03 0.0 
1.768812360803e-03 -8.136324325899e-04 0.0 
0.0 0.0 -4.845834436969e-04 
-1.254552424136e-03 2.860314366234e-03 0.0 
2.860314366234e-03 4.275922517579e-03 0.0 
0.0 0.0 -8.847105569873e-04 
9.718205800213e-04 3.231436175948e-03 0.0 
3.231436175948e-03 7.715228841926e-04 0.0 
0.0 0.0 -7.471471989488e-04 
1.727666947234e-03 1.978971680572e-03 0.0 
1.978971680572e-03 -4.287431573860e-04 0.0 
0.0 0.0 -5.566816242204e-04 
2.636933750934e-03 1.964049691199e-03 0.0 
1.964049691199e-03 -1.267164226969e-03 0.0 
0.0 0.0 -5.870440816995e-04 
-1.756261579278e-03 1.027223545009e-03 0.0 
1.027223545009e-03 5.150592098184e-03 0.0 
0.0 0.0 -7.898058234521e-04 
2.669142654027e-03 2.047008583083e-03 0.0 
2.047008583083e-03 -9.582484116816e-04 0.0 
0.0 0.0 -7.332403895767e-04 
2.689606729154e-03 -1.689602510838e-03 0.0 
-1.689602510838e-03 -1.205625742808e-03 0.0 
0.0 0.0 -6.359918512911e-04 
-1.629595190705e-03 2.449686769187e-03 0.0 
2.449686769187e-03 6.117601231972e-03 0.0 
0.0 0.0 -1.032318248600e-03 
0.0 0.0 0.0 
0.0 0.0 0.0 
0.0 0.0 0.0 
-1.769475386321e-03 1.897454184282e-03 0.0 
1.897454184282e-03 5.196794091963e-03 0.0 
0.0 0.0 -8.386390795737e-04 
2.679831450569e-03 2.298078295471e-03 0.0 
2.298078295471e-03 -1.117110075304e-03 0.0 
0.0 0.0 -6.697377322564e-04 
1.525405513799e-03 2.895304825734e-03 0.0 
2.895304825734e-03 1.054559655311e-04 0.0 
0.0 0.0 -6.989406339984e-04 
2.631491351563e-03 9.404993485972e-04 0.0 
9.404993485972e-04 -1.150887457296e-03 0.0 
0.0 0.0 -6.345445261146e-04 
-1.595995973144e-03 2.618038279511e-03 0.0 
2.618038279511e-03 5.071323653385e-03 0.0 
0.0 0.0 -8.965110541436e-04 
1.511841627677e-04 -1.773057166612e-03 0.0 
-1.773057166612e-03 8.535234281834e-04 0.0 
0.0 0.0 -3.901044503889e-04 
-9.397222903951e-05 2.775799572976e-03 0.0 
2.775799572976e-03 1.950195750929e-03 0.0 
0.0 0.0 -7.955243665241e-04 
1.510533742235e-03 1.893368219128e-03 0.0 
1.893368219128e-03 -3.333023352098e-04 0.0 
0.0 0.0 -5.045277458680e-04 
-1.529633938128e-03 2.472556152499e-03 0.0 
2.472556152499e-03 4.747231259560e-03 0.0 
0.0 0.0 -8.651285257930e-04 
-1.800570073848e-03 1.187623183650e-03 0.0 
1.187623183650e-03 5.684872286068e-03 0.0 
0.0 0.0 -8.301023967811e-04 
9.558821828944e-04 1.012922103067e-03 0.0 
1.012922103067e-03 -8.983468077863e-04 0.0 
0.0 0.0 -2.465801790350e-05 
2.929345942082e-03 -7.362875197769e-04 0.0 
-7.362875197769e-04 -1.325012703078e-03 0.0 
0.0 0.0 -6.875713881444e-04 
2.465820499106e-03 -2.486373233668e-03 0.0 
-2.486373233668e-03 -9.885187097241e-04 0.0 
0.0 0.0 -6.331293383067e-04 
-1.000270138248e-04 2.665501899130e-03 0.0 
2.665501899130e-03 1.891739969722e-03 0.0 
0.0 0.0 -7.678769810987e-04 
-1.745645462288e-03 1.969965136157e-03 0.0 
1.969965136157e-03 6.177510406470e-03 0.0 
0.0 0.0 -1.000663671924e-03 
-6.743676206496e-05 2.958894746749e-03 0.0 
2.958894746749e-03 2.016036742517e-03 0.0 
0.0 0.0 -8.351142773366e-04 
2.740866472437e-03 2.036102310260e-03 0.0 
2.036102310260e-03 -1.186449683482e-03 0.0 
0.0 0.0 -6.661786238380e-04 
2.465496107494e-03 2.525824601176e-03 0.0 
2.525824601176e-03 -9.322172367962e-04 0.0 
0.0 0.0 -6.571195160133e-04 
1.273787981714e-03 8.615297331710e-04 0.0 
8.615297331710e-04 -7.497623681705e-04 0.0 
0.0 0.0 -2.245824058045e-04 
1.142131131016e-03 2.936542087170e-03 0.0 
2.936542087170e-03 2.802751358821e-04 0.0 
0.0 0.0 -6.096026858133e-04 
8.727535464249e-04 2.453256376776e-03 0.0 
2.453256376776e-03 4.670237874706e-04 0.0 
0.0 0.0 -5.741902859552e-04 
-1.475760748405e-03 2.695142501196e-03 0.0 
2.695142501196e-03 8.197923622285e-03 0.0 
0.0 0.0 -1.321446319728e-03 
-1.492107186378e-03 3.030650340964e-03 0.0 
3.030650340964e-03 7.905007360297e-03 0.0 
0.0 0.0 -1.318029376683e-03 
-1.178085073701e-05 3.500120593452e-03 0.0 
3.500120593452e-03 2.258084084144e-03 0.0 
0.0 0.0 -9.627013857460e-04 
2.548877331085e-03 2.529452683065e-03 0.0 
2.529452683065e-03 -1.024625724028e-03 0.0 
0.0 0.0 -6.532506887387e-04 
1.850654072594e-03 2.843628912083e-03 0.0 
2.843628912083e-03 -1.310735320691e-04 0.0 
0.0 0.0 -7.369630887965e-04 
-1.088841516862e-03 3.167027765780e-03 0.0 
3.167027765780e-03 4.070335559596e-03 0.0 
0.0 0.0 -9.333628341409e-04 
2.340427504556e-03 2.434956062557e-03 0.0 
2.434956062557e-03 -5.727957500432e-04 0.0 
0.0 0.0 -7.575564662197e-04 
2.682095355776e-03 -1.550453496673e-03 0.0 
-1.550453496673e-03 -1.096738406614e-03 0.0 
0.0 0.0 -6.794386924979e-04 
-6.843102871119e-04 3.138323977980e-03 0.0 
3.138323977980e-03 3.288670793621e-03 0.0 
0.0 0.0 -9.652881140700e-04 
-1.560571318974e-03 1.068024078019e-03 0.0 
1.068024078019e-03 8.561491499252e-03 0.0 
0.0 0.0 -1.266640259566e-03 
2.402271625794e-03 2.610626999267e-03 0.0 
2.610626999267e-03 -8.722989033853e-04 0.0 
0.0 0.0 -6.557025953181e-04 
6.813860835502e-04 2.812347985425e-03 0.0 
2.812347985425e-03 1.059490988612e-03 0.0 
0.0 0.0 -7.460901737839e-04 
1.236363456041e-03 2.703241249809e-03 0.0 
2.703241249809e-03 7.838624202409e-05 0.0 
0.0 0.0 -5.634641563138e-04 
-9.652389989341e-04 -6.720183629338e-04 0.0 
-6.720183629338e-04 5.271242622276e-03 0.0 
0.0 0.0 -1.322863172658e-03 
2.098067576592e-03 2.923737740925e-03 0.0 
2.923737740925e-03 -6.205768400508e-04 0.0 
0.0 0.0 -6.332103156605e-04 
-5.055876985533e-04 3.367364034790e-03 0.0 
3.367364034790e-03 3.063510178626e-03 0.0 
0.0 0.0 -9.919420460789e-04 
1.879903345484e-03 1.255087970799e-03 0.0 
1.255087970799e-03 -1.207356077200e-03 0.0 
0.0 0.0 -2.882345435504e-04 
1.114970489587e-03 -6.571475029199e-04 0.0 
-6.571475029199e-04 3.550721468189e-04 0.0 
0.0 0.0 -6.300182727452e-04 
2.369471702773e-03 2.352310472614e-03 0.0 
2.352310472614e-03 -9.003050297678e-04 0.0 
0.0 0.0 -6.296428598595e-04 
2.511210871122e-03 -2.213592529972e-03 0.0 
-2.213592529972e-03 -7.926901794877e-04 0.0 
0.0 0.0 -7.365088678434e-04 
-1.351376459572e-03 2.550480813182e-03 0.0 
2.550480813182e-03 4.385207787700e-03 0.0 
0.0 0.0 -8.710486452961e-04 
-1.397658873592e-03 3.467085405935e-03 0.0 
3.467085405935e-03 7.331557043367e-03 0.0 
0.0 0.0 -1.324865334549e-03 
2.762976518654e-03 2.129275318385e-03 0.0 
2.129275318385e-03 -1.188719051590e-03 0.0 
0.0 0.0 -6.746817715991e-04 
1.650992187785e-03 1.271809720393e-03 0.0 
1.271809720393e-03 -3.513789338484e-04 0.0 
0.0 0.0 -5.569771088299e-04 
1.383242402169e-03 2.669272504238e-03 0.0 
2.669272504238e-03 1.108605796806e-04 0.0 
0.0 0.0 -6.403298493639e-04 
-1.712702943967e-03 1.199021659258e-03 0.0 
1.199021659258e-03 6.429834953111e-03 0.0 
0.0 0.0 -9.576894438039e-04 
2.851085176734e-04 -1.709536430844e-03 0.0 
-1.709536430844e-03 2.195876444368e-03 0.0 
0.0 0.0 -1.008345180213e-03 
7.579314461175e-04 2.705809604616e-03 0.0 
2.705809604616e-03 6.993839864940e-04 0.0 
0.0 0.0 -6.245637568335e-04 
-1.777734376668e-03 7.086825961679e-04 0.0 
7.086825961679e-04 6.354608604567e-03 0.0 
0.0 0.0 -9.257128893455e-04 
-1.277191206466e-03 3.589282529004e-03 0.0 
3.589282529004e-03 6.665823351058e-03 0.0 
0.0 0.0 -1.322580803729e-03 
1.403185707489e-06 -1.439264409054e-03 0.0 
-1.439264409054e-03 2.848558759865e-03 0.0 
0.0 0.0 -1.075861678316e-03 
-1.430658668499e-03 3.358596416292e-03 0.0 
3.358596416292e-03 7.549163922134e-03 0.0 
0.0 0.0 -1.322091174222e-03 
-1.793445118784e-03 9.356262614995e-04 0.0 
9.356262614995e-04 6.204769543778e-03 0.0 
0.0 0.0 -9.196498359204e-04 
-1.442068331431e-03 2.746821175537e-03 0.0 
2.746821175537e-03 5.682562585269e-03 0.0 
0.0 0.0 -1.048263655743e-03 
5.998084775859e-04 2.508005665207e-03 0.0 
2.508005665207e-03 7.531788584781e-04 0.0 
0.0 0.0 -5.798517154560e-04 
-1.223045542115e-03 2.387086346015e-03 0.0 
2.387086346015e-03 4.064515837256e-03 0.0 
0.0 0.0 -8.681697709544e-04 
-1.209389184573e-03 2.902758957536e-03 0.0 
2.902758957536e-03 4.217242041572e-03 0.0 
0.0 0.0 -9.102795160361e-04 
-1.488840206319e-03 2.679198250696e-03 0.0 
2.679198250696e-03 4.716368235080e-03 0.0 
0.0 0.0 -8.732807453983e-04 
1.119499660130e-04 3.567291341735e-03 0.0 
3.567291341735e-03 2.082472498151e-03 0.0 
0.0 0.0 -9.404667703562e-04 
-1.189299144518e-03 3.334584496646e-03 0.0 
3.334584496646e-03 6.217817091132e-03 0.0 
0.0 0.0 -1.322334986692e-03 
-1.743738005580e-03 1.571409251216e-03 0.0 
1.571409251216e-03 5.783273679231e-03 0.0 
0.0 0.0 -8.810748613436e-04 
-1.668503733379e-03 1.747174983457e-03 0.0 
1.747174983457e-03 4.858766838357e-03 0.0 
0.0 0.0 -8.123974380148e-04 
2.689502468919e-03 2.075432867186e-03 0.0 
2.075432867186e-03 -9.257907609435e-04 0.0 
0.0 0.0 -7.558764462751e-04 
-2.431074983303e-05 -1.913003925140e-03 0.0 
-1.913003925140e-03 1.267148434552e-03 0.0 
0.0 0.0 -5.326447220222e-04 
-1.300250353668e-03 2.028546891134e-03 0.0 
2.028546891134e-03 4.120204910714e-03 0.0 
0.0 0.0 -8.415228793236e-04 
1.029960534553e-03 2.697834854064e-03 0.0 
2.697834854064e-03 2.742713854926e-04 0.0 
0.0 0.0 -5.589565371624e-04 
-1.478386704748e-03 4.206789908739e-05 0.0 
4.206789908739e-05 5.616715806328e-03 0.0 
0.0 0.0 -7.696142143080e-04 
2.082223251132e-03 -2.739881630323e-03 0.0 
-2.739881630323e-03 -6.915223042800e-04 0.0 
0.0 0.0 -5.960146915079e-04 
2.687145576905e-03 2.150944824992e-03 0.0 
2.150944824992e-03 -8.619858571997e-04 0.0 
0.0 0.0 -7.822113084450e-04 
-1.642192723937e-03 2.370627921536e-03 0.0 
2.370627921536e-03 6.463774212935e-03 0.0 
0.0 0.0 -1.069052450572e-03 
1.210732016110e-03 2.901093481449e-03 0.0 
2.901093481449e-03 3.403089247521e-04 0.0 
0.0 0.0 -6.647318317980e-04 
-1.090838761359e-03 2.744646813510e-03 0.0 
2.744646813510e-03 3.916911857046e-03 0.0 
0.0 0.0 -9.030726692333e-04 
1.373131851669e-03 1.385595291722e-03 0.0 
1.385595291722e-03 -2.069114301952e-04 0.0 
0.0 0.0 -4.998087520603e-04 
5.484712090762e-04 -3.075676285272e-03 0.0 
-3.075676285272e-03 1.137788810983e-03 0.0 
0.0 0.0 -7.226828657397e-04 
-1.016387097360e-03 2.517297286892e-03 0.0 
2.517297286892e-03 5.594754578216e-03 0.0 
0.0 0.0 -1.324762665914e-03 
-9.072903591933e-04 2.355207703591e-03 0.0 
2.355207703591e-03 3.405907050817e-03 0.0 
0.0 0.0 -8.881387192877e-04 
2.946142820410e-03 1.617684650386e-04 0.0 
1.617684650386e-04 -1.452636572549e-03 0.0 
0.0 0.0 -6.400741062262e-04 
6.309307785542e-04 -2.673296576986e-03 0.0 
-2.673296576986e-03 8.118285156915e-04 0.0 
0.0 0.0 -6.183254118196e-04 
2.654857369397e-04 2.566176722282e-03 0.0 
2.566176722282e-03 1.206224560431e-03 0.0 
0.0 0.0 -6.307329845874e-04 
6.292944620548e-04 2.356029893105e-03 0.0 
2.356029893105e-03 6.393485700988e-04 0.0 
0.0 0.0 -5.437041566372e-04 
-1.573343830476e-03 2.521088319541e-03 0.0 
2.521088319541e-03 6.487888532466e-03 0.0 
0.0 0.0 -1.123886314723e-03 
-8.643744592464e-04 3.301393799564e-03 0.0 
3.301393799564e-03 3.642299074364e-03 0.0 
0.0 0.0 -9.055216267950e-04 
-4.630807398905e-04 2.550759047776e-03 0.0 
2.550759047776e-03 2.616100997212e-03 0.0 
0.0 0.0 -9.227229674235e-04 
-9.883417377340e-04 2.554278731018e-03 0.0 
2.554278731018e-03 3.636783780997e-03 0.0 
0.0 0.0 -8.916891917129e-04 
-9.188251607234e-04 7.915048635257e-04 0.0 
7.915048635257e-04 5.164894119245e-03 0.0 
0.0 0.0 -1.320675234999e-03 
-5.234519663279e-04 8.018217957374e-04 0.0 
8.018217957374e-04 4.358356351167e-03 0.0 
0.0 0.0 -1.258064670439e-03 
-1.519847497081e-03 2.784288839478e-03 0.0 
2.784288839478e-03 6.420730520918e-03 0.0 
0.0 0.0 -1.126590436115e-03 
-1.758421539440e-03 1.881967215149e-03 0.0 
1.881967215149e-03 6.509172932200e-03 0.0 
0.0 0.0 -1.037522200811e-03 
7.328240466091e-04 -2.682401726123e-03 0.0 
-2.682401726123e-03 7.115913620792e-04 0.0 
0.0 0.0 -6.190351751521e-04 
1.760096404851e-04 3.185483329578e-03 0.0 
3.185483329578e-03 1.733233248228e-03 0.0 
0.0 0.0 -8.182469523055e-04 
2.700024770010e-03 1.747528214601e-03 0.0 
1.747528214601e-03 -9.576266826323e-04 0.0 
0.0 0.0 -7.467420374474e-04 
2.935361494200e-03 1.596241168019e-03 0.0 
1.596241168019e-03 -1.073012164550e-03 0.0 
0.0 0.0 -7.981497127072e-04 
-5.548455542571e-04 3.454533405249e-03 0.0 
3.454533405249e-03 3.132006875912e-03 0.0 
0.0 0.0 -9.270064166112e-04 
1.279127165458e-03 -9.870557535994e-04 0.0 
-9.870557535994e-04 -3.854326390960e-05 0.0 
0.0 0.0 -5.316788149495e-04 
-4.227815079073e-04 -2.784371059583e-03 0.0 
-2.784371059583e-03 2.659310912429e-03 0.0 
0.0 0.0 -9.585126019377e-04 
-1.599277265462e-03 2.517332469059e-03 0.0 
2.517332469059e-03 6.812542085539e-03 0.0 
0.0 0.0 -1.134236807130e-03 
2.838543821024e-03 -9.388703813827e-04 0.0 
-9.388703813827e-04 -1.339013732820e-03 0.0 
0.0 0.0 -6.426557520872e-04 
4.165970448057e-04 3.486050932692e-03 0.0 
3.486050932692e-03 1.558675942698e-03 0.0 
0.0 0.0 -8.465455660731e-04 
-9.570428297717e-04 3.028568391790e-03 0.0 
3.028568391790e-03 3.758744006407e-03 0.0 
0.0 0.0 -9.331417602438e-04 
4.382192218767e-04 3.304842555304e-03 0.0 
3.304842555304e-03 1.417845423766e-03 0.0 
0.0 0.0 -7.954562767040e-04 
-1.443236035943e-03 3.221098478814e-03 0.0 
3.221098478814e-03 7.736365815094e-03 0.0 
0.0 0.0 -1.320088186226e-03 
-1.483693740833e-03 2.932428243371e-03 0.0 
2.932428243371e-03 8.049345893719e-03 0.0 
0.0 0.0 -1.318462653075e-03 
-1.548932721531e-03 2.525807133433e-03 0.0 
2.525807133433e-03 7.540510939249e-03 0.0 
0.0 0.0 -1.256494544188e-03 
5.199835747165e-04 -2.886590158864e-03 0.0 
-2.886590158864e-03 1.061442334883e-03 0.0 
0.0 0.0 -6.777539612569e-04 
-1.663138327388e-03 1.991577787862e-03 0.0 
1.991577787862e-03 7.067165816428e-03 0.0 
0.0 0.0 -1.112065035246e-03 
8.530770766536e-04 2.505748462956e-03 0.0 
2.505748462956e-03 4.288710739428e-04 0.0 
0.0 0.0 -5.494063502556e-04 
2.976026969438e-03 1.471613804293e-03 0.0 
1.471613804293e-03 -1.145802400427e-03 0.0 
0.0 0.0 -7.843819581477e-04 
2.176227096681e-03 9.823823306462e-04 0.0 
9.823823306462e-04 -1.042597419614e-03 0.0 
0.0 0.0 -4.858412901716e-04 
-2.813268701102e-04 2.910442502919e-03 0.0 
2.910442502919e-03 2.419195128745e-03 0.0 
0.0 0.0 -9.162292537005e-04 
-1.720195429854e-03 7.985877951349e-04 0.0 
7.985877951349e-04 5.205169340213e-03 0.0 
0.0 0.0 -7.914980036671e-04 
-1.719905413863e-03 1.237364143320e-03 0.0 
1.237364143320e-03 6.165155044144e-03 0.0 
0.0 0.0 -9.214502702889e-04 
-6.210179595173e-04 -4.728660276610e-04 0.0 
-4.728660276610e-04 4.588006840987e-03 0.0 
0.0 0.0 -1.265403586923e-03 
-1.395878555712e-03 3.050861695832e-03 0.0 
3.050861695832e-03 5.954496201824e-03 0.0 
0.0 0.0 -1.117224974728e-03 
-1.665465805844e-03 2.334336493253e-03 0.0 
2.334336493253e-03 5.128095132681e-03 0.0 
0.0 0.0 -8.687609488834e-04 
-1.346991783092e-03 3.039323733030e-03 0.0 
3.039323733030e-03 4.548648496957e-03 0.0 
0.0 0.0 -9.141259787764e-04 
2.498396854009e-03 1.198516088911e-03 0.0 
1.198516088911e-03 -1.399925765526e-03 0.0 
0.0 0.0 -4.707733236356e-04 
1.968831457284e-04 -1.841720632066e-03 0.0 
-1.841720632066e-03 8.576900148433e-04 0.0 
0.0 0.0 -4.519599259593e-04 
1.596184388708e-03 2.912527136814e-03 0.0 
2.912527136814e-03 -2.859190939001e-04 0.0 
0.0 0.0 -5.615422692032e-04 
3.342051080177e-04 3.634224831363e-03 0.0 
3.634224831363e-03 1.769838707620e-03 0.0 
0.0 0.0 -9.017330638447e-04 
1.350991084574e-03 3.130179827696e-03 0.0 
3.130179827696e-03 2.729672728852e-04 0.0 
0.0 0.0 -6.959821531966e-04 
5.181840272176e-04 1.740426048580e-03 0.0 
1.740426048580e-03 4.204450595975e-04 0.0 
0.0 0.0 -4.022696086350e-04 
-1.537623298193e-03 1.946789295788e-04 0.0 
1.946789295788e-04 5.729068901156e-03 0.0 
0.0 0.0 -8.462285223656e-04 
1.561759615532e-04 -2.189651726713e-03 0.0 
-2.189651726713e-03 1.146850025796e-03 0.0 
0.0 0.0 -5.584397088639e-04 
1.820241129970e-03 2.972056139581e-03 0.0 
2.972056139581e-03 -3.351854464419e-04 0.0 
0.0 0.0 -6.364524357979e-04 
-1.341153861134e-03 -4.057244270456e-04 0.0 
-4.057244270456e-04 4.982459086358e-03 0.0 
0.0 0.0 -1.341153861134e-03 
9.256271036625e-04 1.500053370618e-03 0.0 
1.500053370618e-03 1.273019829082e-03 0.0 
0.0 0.0 -9.422772568906e-04 
-1.647307264160e-03 1.862922357847e-03 0.0 
1.862922357847e-03 4.824359254377e-03 0.0 
0.0 0.0 -8.054468608743e-04 
2.951539872400e-04 -9.116816188897e-05 0.0 
-9.116816188897e-05 1.187821972232e-03 0.0 
0.0 0.0 -3.103042898065e-04 
7.971140923123e-05 3.343947047482e-03 0.0 
3.343947047482e-03 1.995422628245e-03 0.0 
0.0 0.0 -8.893431589182e-04 
1.873943254827e-03 2.954249127679e-03 0.0 
2.954249127679e-03 -3.006422023954e-04 0.0 
0.0 0.0 -6.742718796133e-04 
-1.609808059559e-03 2.466698786463e-03 0.0 
2.466698786463e-03 5.115271177997e-03 0.0 
0.0 0.0 -8.940630110299e-04 
-1.355176868643e-03 3.602829940139e-03 0.0 
3.602829940139e-03 7.115897601981e-03 0.0 
0.0 0.0 -1.323832587333e-03 
-1.204260933556e-03 2.429327504665e-03 0.0 
2.429327504665e-03 4.034179858945e-03 0.0 
0.0 0.0 -8.669777983973e-04 
-1.147063666963e-03 3.130382852526e-03 0.0 
3.130382852526e-03 4.139734973133e-03 0.0 
0.0 0.0 -8.917420716958e-04 
-4.014841504774e-04 -2.920877032072e-03 0.0 
-2.920877032072e-03 2.692647303736e-03 0.0 
0.0 0.0 -9.819270656821e-04 
-1.644216929044e-03 2.295172595936e-03 0.0 
2.295172595936e-03 6.800207970354e-03 0.0 
0.0 0.0 -1.105258581891e-03 
2.154052283226e-04 -3.118779152528e-03 0.0 
-3.118779152528e-03 1.628210503259e-03 0.0 
0.0 0.0 -7.901210278208e-04 
-1.316497550801e-03 3.592083674646e-03 0.0 
3.592083674646e-03 6.907418394644e-03 0.0 
0.0 0.0 -1.322174839672e-03 
-1.340103718614e-03 3.152086803121e-03 0.0 
3.152086803121e-03 7.377926064128e-03 0.0 
0.0 0.0 -1.340103718614e-03 
-1.341028575724e-03 2.465513317577e-03 0.0 
2.465513317577e-03 8.006817596930e-03 0.0 
0.0 0.0 -1.341028575724e-03 
-1.338044909071e-03 2.820900205836e-03 0.0 
2.820900205836e-03 7.687427743330e-03 0.0 
0.0 0.0 -1.338044909071e-03 
-1.502118998928e-03 2.871852761975e-03 0.0 
2.871852761975e-03 4.986656915824e-03 0.0 
0.0 0.0 -9.244680137507e-04 
-1.717961893973e-03 2.025609505479e-03 0.0 
2.025609505479e-03 6.849693926195e-03 0.0 
0.0 0.0 -1.103002250422e-03 
-1.441498127645e-03 2.997575274703e-03 0.0 
2.997575274703e-03 6.385826432379e-03 0.0 
0.0 0.0 -1.155914796392e-03 
3.567381933022e-04 2.998203481649e-03 0.0 
2.998203481649e-03 1.342739046541e-03 0.0 
0.0 0.0 -7.283473885043e-04 
1.335922643098e-04 2.946545576970e-03 0.0 
2.946545576970e-03 1.651048719616e-03 0.0 
0.0 0.0 -7.648461359682e-04 
-5.579616973433e-04 -2.537817501247e-03 0.0 
-2.537817501247e-03 2.842838828880e-03 0.0 
0.0 0.0 -9.792330563728e-04 
-1.668326353393e-03 2.237680070997e-03 0.0 
2.237680070997e-03 6.867008378533e-03 0.0 
0.0 0.0 -1.131852245309e-03 
-1.231232325275e-03 3.483829197783e-03 0.0 
3.483829197783e-03 6.428087696954e-03 0.0 
0.0 0.0 -1.322440284024e-03 
-1.629405615007e-03 2.216510426988e-03 0.0 
2.216510426988e-03 7.107180567101e-03 0.0 
0.0 0.0 -1.141180801552e-03 
1.287843860462e-03 1.762496620991e-03 0.0 
1.762496620991e-03 4.118181214961e-04 0.0 
0.0 0.0 -7.284265636965e-04 
-1.709232452093e-03 1.946096254963e-03 0.0 
1.946096254963e-03 7.158440520652e-03 0.0 
0.0 0.0 -1.138864741757e-03 
-2.474149681312e-04 3.241320627208e-03 0.0 
3.241320627208e-03 3.249866169459e-03 0.0 
0.0 0.0 -9.903545940741e-04 
5.390850837396e-04 3.135204886366e-03 0.0 
3.135204886366e-03 1.184502769340e-03 0.0 
0.0 0.0 -7.386805084625e-04 
-2.903565977667e-04 2.791530756056e-03 0.0 
2.791530756056e-03 2.364850385229e-03 0.0 
0.0 0.0 -8.890687660554e-04 
1.802555558832e-03 3.001147534895e-03 0.0 
3.001147534895e-03 -4.575658841899e-04 0.0 
0.0 0.0 -5.764241462752e-04 
-1.445725615323e-03 1.812858751269e-03 0.0 
1.812858751269e-03 8.104070872614e-03 0.0 
0.0 0.0 -1.282213402295e-03 
5.637528850199e-04 2.798374850836e-03 0.0 
2.798374850836e-03 9.579403324455e-04 0.0 
0.0 0.0 -6.521542360566e-04 
-9.878773185600e-04 3.005495027809e-03 0.0 
3.005495027809e-03 5.183572772416e-03 0.0 
0.0 0.0 -1.230767059693e-03 
-5.402829230253e-04 -2.645980312191e-03 0.0 
-2.645980312191e-03 2.860421160958e-03 0.0 
0.0 0.0 -9.943449591140e-04 
1.769669881029e-03 -3.137855469582e-03 0.0 
-3.137855469582e-03 -3.291852005029e-04 0.0 
0.0 0.0 -6.173505773685e-04 
-9.286667060019e-04 -5.578005299265e-04 0.0 
-5.578005299265e-04 4.405534968834e-03 0.0 
0.0 0.0 -1.284312900220e-03 
1.520178245233e-03 2.880262458528e-03 0.0 
2.880262458528e-03 -9.597643010145e-05 0.0 
0.0 0.0 -6.103722064851e-04 
-1.341987455608e-03 3.278682198062e-03 0.0 
3.278682198062e-03 7.180670491988e-03 0.0 
0.0 0.0 -1.341987455608e-03 
-1.479381738464e-03 2.518547494800e-03 0.0 
2.518547494800e-03 7.585721855360e-03 0.0 
0.0 0.0 -1.282654109251e-03 
-6.562251040144e-04 3.476488520305e-03 0.0 
3.476488520305e-03 3.368345711390e-03 0.0 
0.0 0.0 -9.747411499392e-04 
2.825665296399e-05 -9.471346053823e-04 0.0 
-9.471346053823e-04 5.562669983103e-04 0.0 
0.0 0.0 -2.505101362604e-04 
-1.340954708392e-03 3.409829937737e-03 0.0 
3.409829937737e-03 6.752010148723e-03 0.0 
0.0 0.0 -1.340954708391e-03 
-8.893530910468e-04 2.080039302171e-04 0.0 
2.080039302171e-04 4.249386795326e-03 0.0 
0.0 0.0 -1.284661450484e-03 
2.094151919582e-03 -2.710389235349e-03 0.0 
-2.710389235349e-03 -4.177516275291e-04 0.0 
0.0 0.0 -7.184572680229e-04 
1.187697048236e-03 1.044937454993e-03 0.0 
1.044937454993e-03 6.336881744863e-04 0.0 
0.0 0.0 -7.805936668811e-04 
-1.022563228378e-03 2.126685754851e-03 0.0 
2.126685754851e-03 5.450229037892e-03 0.0 
0.0 0.0 -1.323014926434e-03 
0.0 0.0 0.0 
0.0 0.0 0.0 
0.0 0.0 0.0 
5.629949439262e-04 2.943398902906e-03 0.0 
2.943398902906e-03 1.042834511407e-03 0.0 
0.0 0.0 -6.882126237144e-04 
-9.611236283513e-04 3.382262119005e-03 0.0 
3.382262119005e-03 3.900518768528e-03 0.0 
0.0 0.0 -9.507003520820e-04 
-3.264045535916e-04 3.528503760233e-03 0.0 
3.528503760233e-03 2.824189618732e-03 0.0 
0.0 0.0 -1.009382277479e-03 
-8.072349097140e-04 3.285348527428e-03 0.0 
3.285348527428e-03 3.572080463846e-03 0.0 
0.0 0.0 -9.583016177293e-04 
1.577973122007e-03 2.940745778594e-03 0.0 
2.940745778594e-03 -1.562631387263e-04 0.0 
0.0 0.0 -6.093042785491e-04 
-1.341360672448e-03 3.349227255108e-03 0.0 
3.349227255108e-03 6.276206882279e-03 0.0 
0.0 0.0 -1.341360672448e-03 
2.936452016240e-03 1.405586798284e-03 0.0 
1.405586798284e-03 -1.170886952934e-03 0.0 
0.0 0.0 -7.566707414170e-04 
6.010236317608e-04 7.677500863631e-05 0.0 
7.677500863631e-05 -6.010236317608e-04 0.0 
0.0 0.0 0.0 
-1.410674428243e-03 -1.887614969753e-03 0.0 
-1.887614969753e-03 6.271959657533e-03 0.0 
0.0 0.0 -1.272354826527e-03 
6.614899321087e-05 -1.031236819356e-03 0.0 
-1.031236819356e-03 5.476349804252e-04 0.0 
0.0 0.0 -2.630502744155e-04 
-7.579795143834e-04 2.669538043242e-03 0.0 
2.669538043242e-03 3.232540244350e-03 0.0 
0.0 0.0 -9.235262116470e-04 
1.408180871100e-03 -2.447837261249e-03 0.0 
-2.447837261249e-03 -4.054811993359e-04 0.0 
0.0 0.0 -4.297284307560e-04 
-1.289231145457e-03 2.085970842819e-03 0.0 
2.085970842819e-03 4.096251684655e-03 0.0 
0.0 0.0 -8.281323822960e-04 
-9.265632325981e-04 2.208084020548e-04 0.0 
2.208084020548e-04 5.136068338207e-03 0.0 
0.0 0.0 -1.321823097425e-03 
-1.341255375116e-03 3.077672806554e-03 0.0 
3.077672806554e-03 5.842647393183e-03 0.0 
0.0 0.0 -1.341255375116e-03 
-1.444220396543e-03 2.772557237900e-03 0.0 
2.772557237900e-03 4.661509496866e-03 0.0 
0.0 0.0 -8.916520742786e-04 
1.049542071535e-03 -2.597397009894e-03 0.0 
-2.597397009894e-03 2.940040078369e-04 0.0 
0.0 0.0 -5.758054625880e-04 
3.025347595527e-04 1.047283111649e-04 0.0 
1.047283111649e-04 -3.025347595527e-04 0.0 
0.0 0.0 0.0 
1.083086267670e-03 -3.284229385575e-03 0.0 
-3.284229385575e-03 2.814197768567e-04 0.0 
0.0 0.0 -5.847883047970e-04 
-1.038610003698e-03 -2.337728934242e-03 0.0 
-2.337728934242e-03 4.541183857773e-03 0.0 
0.0 0.0 -1.121833217354e-03 
-1.742165347554e-03 9.878882661806e-04 0.0 
9.878882661806e-04 5.401825771171e-03 0.0 
0.0 0.0 -7.704300227928e-04 
-1.803256776378e-03 1.584392787159e-03 0.0 
1.584392787159e-03 5.170803389825e-03 0.0 
0.0 0.0 -8.109332722942e-04 
-1.342502730507e-03 2.572106331239e-03 0.0 
2.572106331239e-03 5.434857979280e-03 0.0 
0.0 0.0 -1.342502730507e-03 
-1.732554351108e-03 7.529304742537e-04 0.0 
7.529304742537e-04 5.461566678014e-03 0.0 
0.0 0.0 -7.720444664677e-04 
-1.484252812585e-03 2.496905312066e-03 0.0 
2.496905312066e-03 8.327686936920e-03 0.0 
0.0 0.0 -1.322852565091e-03 
-2.616390310425e-04 3.420254192840e-03 0.0 
3.420254192840e-03 3.046539849901e-03 0.0 
0.0 0.0 -1.020998643257e-03 
-1.702171015059e-03 1.025221701453e-03 0.0 
1.025221701453e-03 6.037527275999e-03 0.0 
0.0 0.0 -8.907448815977e-04 
4.435059004645e-04 2.367634267758e-03 0.0 
2.367634267758e-03 8.500300084059e-04 0.0 
0.0 0.0 -5.543725323730e-04 
9.902971440261e-04 1.854120232773e-03 0.0 
1.854120232773e-03 5.282487487715e-04 0.0 
0.0 0.0 -6.508053826275e-04 
2.181030243503e-03 2.087940198003e-03 0.0 
2.087940198003e-03 -6.964523607222e-04 0.0 
0.0 0.0 -6.362476640488e-04 
-1.340754991027e-03 1.822804665951e-03 0.0 
1.822804665951e-03 5.126572871134e-03 0.0 
0.0 0.0 -1.340754991027e-03 
-1.339984467612e-03 3.017885242806e-03 0.0 
3.017885242806e-03 7.530573259310e-03 0.0 
0.0 0.0 -1.339984467612e-03 
-1.340417744004e-03 2.627800699396e-03 0.0 
2.627800699396e-03 7.874468285687e-03 0.0 
0.0 0.0 -1.340417744004e-03 
1.663950741528e-04 -3.102222571978e-03 0.0 
-3.102222571978e-03 1.696065106834e-03 0.0 
0.0 0.0 -7.981972204229e-04 
-6.783966376360e-04 -2.229795002151e-03 0.0 
-2.229795002151e-03 2.989937542639e-03 0.0 
0.0 0.0 -9.906603878584e-04 
6.633751209167e-04 3.479464549828e-03 0.0 
3.479464549828e-03 1.235326207863e-03 0.0 
0.0 0.0 -8.137291409057e-04 
-1.800452847873e-04 -3.089059520932e-03 0.0 
-3.089059520932e-03 2.334973482046e-03 0.0 
0.0 0.0 -8.981573260837e-04 
-1.339627896631e-03 1.005258068188e-03 0.0 
1.005258068188e-03 4.944567484942e-03 0.0 
0.0 0.0 -1.339627896631e-03 
2.106481318219e-03 2.804312139354e-03 0.0 
2.804312139354e-03 -3.247815718152e-04 0.0 
0.0 0.0 -7.635856056017e-04 
2.753925008266e-03 -1.471183718442e-03 0.0 
-1.471183718442e-03 -1.118113294929e-03 0.0 
0.0 0.0 -7.010621628588e-04 
2.411027346534e-03 -2.022185411865e-03 0.0 
-2.022185411865e-03 -8.248269265831e-04 0.0 
0.0 0.0 -6.798001799788e-04 
-1.695040583491e-03 9.943495357559e-04 0.0 
9.943495357559e-04 6.306677945551e-03 0.0 
0.0 0.0 -9.279583942086e-04 
-1.067283559268e-03 -1.131551148477e-03 0.0 
-1.131551148477e-03 5.382018527302e-03 0.0 
0.0 0.0 -1.323537156312e-03 
4.718253126561e-04 -2.654545060497e-03 0.0 
-2.654545060497e-03 7.297491663584e-04 0.0 
0.0 0.0 -5.149604910062e-04 
-1.340775759057e-03 3.168705887179e-05 0.0 
3.168705887179e-05 4.893000414627e-03 0.0 
0.0 0.0 -1.340775759057e-03 
2.068072739009e-03 -2.533209175997e-03 0.0 
-2.533209175997e-03 -4.905385770438e-04 0.0 
0.0 0.0 -6.760860694135e-04 
-1.342877878941e-03 3.371101462632e-03 0.0 
3.371101462632e-03 6.986301559429e-03 0.0 
0.0 0.0 -1.342877878941e-03 
-1.502505102679e-03 2.723409331035e-03 0.0 
2.723409331035e-03 6.453774250835e-03 0.0 
0.0 0.0 -1.152765850879e-03 
4.995410750134e-04 -2.508167894462e-04 0.0 
-2.508167894462e-04 1.439641133543e-04 0.0 
0.0 0.0 -1.045622396246e-04 
7.611624550475e-04 2.811491361200e-03 0.0 
2.811491361200e-03 7.486160262995e-04 0.0 
0.0 0.0 -6.470479205773e-04 
-1.718973478826e-03 1.632227495642e-03 0.0 
1.632227495642e-03 7.402026443868e-03 0.0 
0.0 0.0 -1.146019594970e-03 
-1.341220131281e-03 3.403196875767e-03 0.0 
3.403196875767e-03 6.531514611794e-03 0.0 
0.0 0.0 -1.341220131281e-03 
-1.493257815958e-03 2.709508550359e-03 0.0 
2.709508550359e-03 5.031766487179e-03 0.0 
0.0 0.0 -9.220067723808e-04 
-1.371432860580e-04 3.167005571068e-03 0.0 
3.167005571068e-03 2.958438968348e-03 0.0 
0.0 0.0 -1.049000704964e-03 
1.363417131051e-03 2.771598718083e-03 0.0 
2.771598718083e-03 -2.175926074803e-04 0.0 
0.0 0.0 -4.910676529589e-04 
-4.822149847462e-04 -8.933705669704e-06 0.0 
-8.933705669704e-06 3.680115228026e-03 0.0 
0.0 0.0 -1.228682347183e-03 
1.589016691459e-03 -2.728398742501e-03 0.0 
-2.728398742501e-03 -1.477483424757e-04 0.0 
0.0 0.0 -6.176864352786e-04 
2.014961445712e-03 -2.490489286961e-03 0.0 
-2.490489286961e-03 -7.248651286365e-04 0.0 
0.0 0.0 -5.528984216039e-04 
6.740675851827e-05 -1.946268609011e-03 0.0 
-1.946268609011e-03 5.144006658537e-04 0.0 
0.0 0.0 -2.493460390166e-04 
-1.341079611575e-03 3.240452696934e-03 0.0 
3.240452696934e-03 6.054614633037e-03 0.0 
0.0 0.0 -1.341079611575e-03 
2.419438568119e-03 1.848358171578e-03 0.0 
1.848358171578e-03 -8.324259170898e-04 0.0 
0.0 0.0 -6.801482790127e-04 
-1.052268534161e-04 -1.626163501332e-03 0.0 
-1.626163501332e-03 3.065488155398e-03 0.0 
0.0 0.0 -1.110501492391e-03 
-1.743720672030e-03 5.076947702062e-04 0.0 
5.076947702062e-04 5.915487175230e-03 0.0 
0.0 0.0 -8.555322119248e-04 
6.419311454372e-04 -2.457777299007e-03 0.0 
-2.457777299007e-03 6.816602911272e-04 0.0 
0.0 0.0 -5.672534728133e-04 
2.432948694747e-03 -2.224719869907e-03 0.0 
-2.224719869907e-03 -1.006521097821e-03 0.0 
0.0 0.0 -6.113261129685e-04 
-1.391571865871e-03 2.947954310513e-03 0.0 
2.947954310513e-03 4.611783904251e-03 0.0 
0.0 0.0 -8.867075537039e-04 
-1.342259935407e-03 2.196586378398e-03 0.0 
2.196586378398e-03 5.267748778168e-03 0.0 
0.0 0.0 -1.342259935407e-03 
-8.685003091139e-04 -2.019621362732e-03 0.0 
-2.019621362732e-03 3.358195832711e-03 0.0 
0.0 0.0 -1.026543027222e-03 
-6.279763244928e-05 -2.831980191268e-03 0.0 
-2.831980191268e-03 2.234263021353e-03 0.0 
0.0 0.0 -9.306280238158e-04 
1.626113199364e-04 3.532469173109e-03 0.0 
3.532469173109e-03 1.975304410449e-03 0.0 
0.0 0.0 -9.162495987365e-04 
9.545056478258e-04 -2.197984859117e-03 0.0 
-2.197984859117e-03 2.830222850847e-04 0.0 
0.0 0.0 -5.303691141045e-04 
2.741947853495e-03 -1.576053757195e-03 0.0 
-1.576053757195e-03 -1.238751484203e-03 0.0 
0.0 0.0 -6.442270154112e-04 
2.055993336022e-04 -3.019147266732e-03 0.0 
-3.019147266732e-03 1.580796400243e-03 0.0 
0.0 0.0 -7.655981716482e-04 
-1.735594457478e-05 3.684409886977e-03 0.0 
3.684409886977e-03 2.338058889169e-03 0.0 
0.0 0.0 -9.525257740877e-04 
-6.815819430518e-04 3.271309776104e-03 0.0 
3.271309776104e-03 3.991806398053e-03 0.0 
0.0 0.0 -9.982497011217e-04 
7.359468455794e-04 1.655488137203e-03 0.0 
1.655488137203e-03 1.311171725172e-03 0.0 
0.0 0.0 -8.773365303219e-04 
4.616179257589e-04 3.326983553877e-03 0.0 
3.326983553877e-03 1.399682897410e-03 0.0 
0.0 0.0 -7.977003527865e-04 
-1.068767707281e-04 -3.106568222755e-03 0.0 
-3.106568222755e-03 2.185893574205e-03 0.0 
0.0 0.0 -8.910072014901e-04 
1.770168940932e-03 2.939268167283e-03 0.0 
2.939268167283e-03 -7.940642901588e-05 0.0 
0.0 0.0 -7.246125051071e-04 
-6.590777518814e-04 -2.312052235482e-03 0.0 
-2.312052235482e-03 2.981136073476e-03 0.0 
0.0 0.0 -9.951678521122e-04 
-9.129757635955e-05 3.002240536259e-03 0.0 
3.002240536259e-03 3.121089298537e-03 0.0 
0.0 0.0 -1.018204129641e-03 
1.890566440799e-03 1.226789186906e-03 0.0 
1.226789186906e-03 -8.288946358717e-04 0.0 
0.0 0.0 -4.550022021117e-04 
-9.478871216341e-04 -2.661712448175e-04 0.0 
-2.661712448175e-04 5.203816778040e-03 0.0 
0.0 0.0 -1.321929620191e-03 
-1.684709762555e-03 1.865268109453e-03 0.0 
1.865268109453e-03 7.458111656375e-03 0.0 
0.0 0.0 -1.174325249119e-03 
4.942655387039e-04 -2.660349188538e-03 0.0 
-2.660349188538e-03 9.600175774831e-04 0.0 
0.0 0.0 -6.232641926516e-04 
-1.341047338368e-03 5.012584263436e-04 0.0 
5.012584263436e-04 4.843287135669e-03 0.0 
0.0 0.0 -1.341047338368e-03 
-5.199572059754e-04 -1.240456273397e-05 0.0 
-1.240456273397e-05 4.514719369705e-03 0.0 
0.0 0.0 -1.266414110344e-03 
1.456677627038e-03 2.847158529750e-03 0.0 
2.847158529750e-03 -1.224358696167e-04 0.0 
0.0 0.0 -5.718178960378e-04 
3.073160228107e-04 -2.142796274570e-03 0.0 
-2.142796274570e-03 8.896681783000e-04 0.0 
0.0 0.0 -5.129932290474e-04 
-1.050487114865e-03 -1.427509562772e-03 0.0 
-1.427509562772e-03 5.540080609798e-03 0.0 
0.0 0.0 -1.323469717371e-03 
-1.667087300368e-03 2.181750680949e-03 0.0 
2.181750680949e-03 7.186411773731e-03 0.0 
0.0 0.0 -1.167157861819e-03 
1.716323073858e-03 -2.955825605783e-03 0.0 
-2.955825605783e-03 -9.287262183541e-05 0.0 
0.0 0.0 -6.957644794382e-04 
-1.341709311524e-03 -8.333733019742e-04 0.0 
-8.333733019742e-04 5.041051645130e-03 0.0 
0.0 0.0 -1.341709311524e-03 
-1.554347035982e-04 -3.091276428888e-03 0.0 
-3.091276428888e-03 2.271745765848e-03 0.0 
0.0 0.0 -9.069904552498e-04 
-8.856300375339e-05 3.015707065978e-03 0.0 
3.015707065978e-03 2.092630915718e-03 0.0 
0.0 0.0 -8.588862479847e-04 
-1.708652242928e-03 2.038029542744e-03 0.0 
2.038029542744e-03 5.155213329433e-03 0.0 
0.0 0.0 -8.408860858065e-04 
2.150251675539e-03 1.246957804337e-03 0.0 
1.246957804337e-03 -9.518176328646e-04 0.0 
0.0 0.0 -5.136145897175e-04 
4.280369650893e-04 -2.993089053083e-03 0.0 
-2.993089053083e-03 1.242185283195e-03 0.0 
0.0 0.0 -7.158095349792e-04 
1.005063584136e-03 -1.534038141676e-03 0.0 
-1.534038141676e-03 4.706218155617e-04 0.0 
0.0 0.0 -6.324365998706e-04 
-1.787330646013e-03 1.744437882435e-03 0.0 
1.744437882435e-03 6.165539261386e-03 0.0 
0.0 0.0 -9.721028620036e-04 
-5.830614128886e-04 2.963568587990e-03 0.0 
2.963568587990e-03 3.036456168777e-03 0.0 
0.0 0.0 -9.703272795031e-04 
5.013338592635e-04 2.022867758426e-03 0.0 
2.022867758426e-03 1.903789761340e-03 0.0 
0.0 0.0 -1.030767265973e-03 
-1.583428582628e-03 1.234393199571e-04 0.0 
1.234393199571e-04 6.348909220080e-03 0.0 
0.0 0.0 -8.839498032872e-04 
-1.538973880155e-04 -2.905891545860e-03 0.0 
-2.905891545860e-03 2.151085361499e-03 0.0 
0.0 0.0 -8.559377029216e-04 
9.606550472545e-04 1.198365472328e-03 0.0 
1.198365472328e-03 7.584169667694e-04 0.0 
0.0 0.0 -7.367451488674e-04 
1.240241290569e-03 -2.615402293113e-03 0.0 
-2.615402293113e-03 9.801779930628e-06 0.0 
0.0 0.0 -5.357327444998e-04 
-1.264139912559e-03 -2.295922563033e-03 0.0 
-2.295922563033e-03 4.258611210865e-03 0.0 
0.0 0.0 -1.003470032316e-03 
4.779492527782e-04 -1.976862769587e-04 0.0 
-1.976862769587e-04 3.079286874380e-05 0.0 
0.0 0.0 -9.731995102935e-05 
1.375001823881e-03 3.007557583602e-03 0.0 
3.007557583602e-03 2.077996425490e-04 0.0 
0.0 0.0 -6.783434856127e-04 
1.686675147585e-03 -2.826451651131e-03 0.0 
-2.826451651131e-03 -3.979102607463e-04 0.0 
0.0 0.0 -5.523278086452e-04 
-6.775751599431e-04 -2.656016194715e-03 0.0 
-2.656016194715e-03 3.173617743200e-03 0.0 
0.0 0.0 -1.041231529553e-03 
9.547448531119e-04 2.912205143476e-03 0.0 
2.912205143476e-03 5.651456179382e-04 0.0 
0.0 0.0 -6.513816304500e-04 
3.545197186364e-05 -2.683422917804e-03 0.0 
-2.683422917804e-03 2.222563700784e-03 0.0 
0.0 0.0 -9.350600278798e-04 
-1.737561363205e-03 5.251994903431e-04 0.0 
5.251994903431e-04 6.205644374021e-03 0.0 
0.0 0.0 -8.962969588583e-04 
1.356254452431e-03 -2.984093401581e-03 0.0 
-2.984093401581e-03 -2.215529665071e-05 0.0 
0.0 0.0 -5.717567810488e-04 
-1.341827844788e-03 -1.146584425421e-03 0.0 
-1.146584425421e-03 5.213236186647e-03 0.0 
0.0 0.0 -1.341827844788e-03 
-1.032358392854e-03 3.358744228303e-03 0.0 
3.358744228303e-03 3.981695232776e-03 0.0 
0.0 0.0 -8.921909746423e-04 
-9.403772787457e-04 -2.333509821859e-03 0.0 
-2.333509821859e-03 3.602948163807e-03 0.0 
0.0 0.0 -1.032584340947e-03 
-7.230784000767e-04 3.517969959091e-03 0.0 
3.517969959091e-03 3.446928309249e-03 0.0 
0.0 0.0 -9.025917034692e-04 
-6.743760556383e-04 -2.567033021564e-03 0.0 
-2.567033021564e-03 3.158224002336e-03 0.0 
0.0 0.0 -1.064506262870e-03 
0.0 0.0 0.0 
0.0 0.0 0.0 
0.0 0.0 0.0 
-1.792312889487e-03 1.741412585942e-03 0.0 
1.741412585942e-03 5.511837739733e-03 0.0 
0.0 0.0 -8.733545218784e-04 
-1.159018419121e-03 -6.757248724201e-04 0.0 
-6.757248724201e-04 3.679422689167e-03 0.0 
0.0 0.0 -9.437415894182e-04 
1.526598219851e-03 -2.022984547481e-04 0.0 
-2.022984547481e-04 -5.806947110268e-04 0.0 
0.0 0.0 -1.518789559795e-04 
-1.008983259281e-03 -2.022851433489e-03 0.0 
-2.022851433489e-03 3.664714944016e-03 0.0 
0.0 0.0 -1.031099917346e-03 
-1.552203916554e-04 -2.266492036209e-03 0.0 
-2.266492036209e-03 2.794636645768e-03 0.0 
0.0 0.0 -1.001254648526e-03 
-1.559997350991e-03 7.763984245468e-04 0.0 
7.763984245468e-04 7.736769108545e-03 0.0 
0.0 0.0 -1.146946825052e-03 
1.304436411006e-03 -1.537118457164e-03 0.0 
-1.537118457164e-03 -1.929375046108e-04 0.0 
0.0 0.0 -4.763566741695e-04 
1.141009119650e-03 -1.409930863555e-03 0.0 
-1.409930863555e-03 1.287642799873e-04 0.0 
0.0 0.0 -5.441885998444e-04 
-1.689284059370e-03 1.450746420627e-03 0.0 
1.450746420627e-03 4.831311448006e-03 0.0 
0.0 0.0 -7.833574767318e-04 
-1.686952509024e-03 5.790488882109e-04 0.0 
5.790488882109e-04 4.855993105087e-03 0.0 
0.0 0.0 -7.312625299844e-04 
-1.435530838734e-03 2.039856500826e-03 0.0 
2.039856500826e-03 7.934174766789e-03 0.0 
0.0 0.0 -1.286111585339e-03 
-3.846383815358e-04 3.631348853507e-03 0.0 
3.631348853507e-03 2.894402056622e-03 0.0 
0.0 0.0 -9.211198782815e-04 
2.563042352686e-03 -3.462434059620e-04 0.0 
-3.462434059620e-04 -8.334153675030e-04 0.0 
0.0 0.0 -9.050770260813e-05 
-2.801224181595e-06 -1.851492159178e-03 0.0 
-1.851492159178e-03 1.218501688618e-03 0.0 
0.0 0.0 -5.210144847585e-04 
8.331805258011e-05 -1.317049816552e-03 0.0 
-1.317049816552e-03 7.003703442878e-04 0.0 
0.0 0.0 -3.358664558005e-04 
1.821034446314e-04 -2.408967732496e-03 0.0 
-2.408967732496e-03 1.233113086777e-03 0.0 
0.0 0.0 -6.065213706036e-04 
-1.138435434649e-03 2.989604430891e-03 0.0 
2.989604430891e-03 5.462421315605e-03 0.0 
0.0 0.0 -1.134523071099e-03 
-1.613429135808e-03 4.247551468927e-04 0.0 
4.247551468927e-04 7.790174225159e-03 0.0 
0.0 0.0 -1.144649651339e-03 
-1.027154245499e-03 -2.035960934847e-03 0.0 
-2.035960934847e-03 4.492443968240e-03 0.0 
0.0 0.0 -1.087427768671e-03 
-2.215897922679e-04 -2.343741531637e-03 0.0 
-2.343741531637e-03 1.937473062545e-03 0.0 
0.0 0.0 -7.353785444044e-04 
-1.224434476437e-03 -2.373415610936e-03 0.0 
-2.373415610936e-03 4.259607832395e-03 0.0 
0.0 0.0 -1.074887456883e-03 
-2.765309671832e-04 -1.235730925308e-03 0.0 
-1.235730925308e-03 3.492398506195e-03 0.0 
0.0 0.0 -1.142106164841e-03 
1.609002123108e-03 9.641353836346e-05 0.0 
9.641353836346e-05 -1.014383706755e-03 0.0 
0.0 0.0 -2.548364641514e-04 
-1.185520630974e-03 -6.216129085547e-04 0.0 
-6.216129085547e-04 3.715832065426e-03 0.0 
0.0 0.0 -9.234434510542e-04 
-9.870309350746e-04 -2.949408640791e-04 0.0 
-2.949408640791e-04 3.127712701104e-03 0.0 
0.0 0.0 -8.176025220169e-04 
-1.158159835052e-03 -1.705545964426e-03 0.0 
-1.705545964426e-03 5.701758529228e-03 0.0 
0.0 0.0 -1.322396863610e-03 
-1.341641872583e-03 -1.478861783549e-03 0.0 
-1.478861783549e-03 5.355371918508e-03 0.0 
0.0 0.0 -1.341641872583e-03 
-1.283076775259e-03 -6.373143896461e-04 0.0 
-6.373143896461e-04 4.006265140635e-03 0.0 
0.0 0.0 -9.869148323457e-04 
-9.252167440016e-04 -2.284187084932e-03 0.0 
-2.284187084932e-03 3.604049524323e-03 0.0 
0.0 0.0 -1.082955583678e-03 
1.424947381447e-04 -3.218131506232e-03 0.0 
-3.218131506232e-03 1.808876759913e-03 0.0 
0.0 0.0 -8.363020705961e-04 
-2.858765317583e-04 -8.912097981478e-04 0.0 
-8.912097981478e-04 3.661087959600e-03 0.0 
0.0 0.0 -1.177278300149e-03 
-1.642185562706e-04 -1.468912040377e-03 0.0 
-1.468912040377e-03 1.269461247680e-03 0.0 
0.0 0.0 -4.736754391754e-04 
-2.865195494759e-04 -1.594101584254e-03 0.0 
-1.594101584254e-03 3.398007437901e-03 0.0 
0.0 0.0 -1.104707344597e-03 
9.194713961983e-04 -6.793234433339e-04 0.0 
-6.793234433339e-04 6.261768049846e-04 0.0 
0.0 0.0 -3.206774383567e-04 
-7.790564292393e-04 -2.283470906283e-03 0.0 
-2.283470906283e-03 3.292851518803e-03 0.0 
0.0 0.0 -1.077340752670e-03 
-5.608514076299e-04 -2.798496030794e-03 0.0 
-2.798496030794e-03 2.999147072071e-03 0.0 
0.0 0.0 -1.044983856189e-03 
1.138912068891e-03 -3.473598627530e-04 0.0 
-3.473598627530e-04 -1.413469007123e-04 0.0 
0.0 0.0 -2.684313900889e-04 
-1.253955737825e-03 -3.715260469387e-04 0.0 
-3.715260469387e-04 3.888476539148e-03 0.0 
0.0 0.0 -9.536442305595e-04 
-1.602308644549e-03 2.138646014206e-03 0.0 
2.138646014206e-03 7.398169050205e-03 0.0 
0.0 0.0 -1.176862138969e-03 
2.761299412783e-03 -2.184006917307e-04 0.0 
-2.184006917307e-04 -8.957163604378e-04 0.0 
0.0 0.0 -9.160000506328e-05 
-1.698158774402e-03 7.543543168281e-04 0.0 
7.543543168281e-04 4.798515189366e-03 0.0 
0.0 0.0 -7.322753781719e-04 
-1.694678419912e-03 8.983255451051e-04 0.0 
8.983255451051e-04 4.996965617242e-03 0.0 
0.0 0.0 -7.130472889423e-04 
9.905782610910e-04 -8.253624912090e-04 0.0 
-8.253624912090e-04 7.976802919736e-04 0.0 
0.0 0.0 -7.663965227419e-04 
-1.039035016572e-03 -2.144348817903e-04 0.0 
-2.144348817903e-04 3.210973696896e-03 0.0 
0.0 0.0 -7.829545016062e-04 
1.212299874062e-03 -2.903037830351e-03 0.0 
-2.903037830351e-03 2.395213764874e-04 0.0 
0.0 0.0 -6.222091073784e-04 
1.174115903652e-03 2.662474741674e-03 0.0 
2.662474741674e-03 2.969730930284e-04 0.0 
0.0 0.0 -6.304667128631e-04 
-1.289472189001e-03 -1.746360051319e-03 0.0 
-1.746360051319e-03 5.399223758463e-03 0.0 
0.0 0.0 -1.180895453064e-03 
-1.199251439186e-03 3.128969763373e-03 0.0 
3.128969763373e-03 5.740281679720e-03 0.0 
0.0 0.0 -1.286194385238e-03 
-1.685234284086e-03 7.030718583631e-04 0.0 
7.030718583631e-04 7.477737434154e-03 0.0 
0.0 0.0 -1.101088927253e-03 
5.511702260285e-04 2.711119680311e-03 0.0 
2.711119680311e-03 9.222763951361e-04 0.0 
0.0 0.0 -6.314771233563e-04 
-3.649363196540e-05 -1.210836942261e-03 0.0 
-1.210836942261e-03 8.486569891216e-04 0.0 
0.0 0.0 -3.480700102098e-04 
-1.004741383637e-03 2.553626350246e-03 0.0 
2.553626350246e-03 3.669626505377e-03 0.0 
0.0 0.0 -8.905302458185e-04 
-1.568290103670e-03 2.798930321494e-04 0.0 
2.798930321494e-04 4.936656992355e-03 0.0 
0.0 0.0 -7.345111139194e-04 
-1.542599483069e-03 2.307996019665e-04 0.0 
2.307996019665e-04 5.186209951631e-03 0.0 
0.0 0.0 -7.144802219086e-04 
1.697260921232e-03 -1.822504204338e-04 0.0 
-1.822504204338e-04 -6.526688675189e-04 0.0 
0.0 0.0 -1.584708362264e-04 
9.885439547911e-04 -4.650217645265e-04 0.0 
-4.650217645265e-04 -7.811083121430e-05 0.0 
0.0 0.0 -2.719350994485e-04 
3.764836072069e-04 -3.171144431772e-04 0.0 
-3.171144431772e-04 5.254813268562e-04 0.0 
0.0 0.0 -2.992029258896e-04 
-3.222613347251e-04 -1.717475984859e-03 0.0 
-1.717475984859e-03 1.786840537745e-03 0.0 
0.0 0.0 -6.276768012942e-04 
1.995445303676e-03 -3.544912217161e-04 0.0 
-3.544912217161e-04 -1.783707534186e-04 0.0 
0.0 0.0 -2.505695937184e-04 
-1.385796394707e-03 -3.802460944882e-04 0.0 
-3.802460944882e-04 4.246303149623e-03 0.0 
0.0 0.0 -1.004230634435e-03 
0.0 0.0 0.0 
0.0 0.0 0.0 
0.0 0.0 0.0 
-3.537348662354e-04 -2.028219451660e-03 0.0 
-2.028219451660e-03 2.045322960423e-03 0.0 
0.0 0.0 -7.249663260806e-04 
-1.566153664312e-03 2.377992970035e-04 0.0 
2.377992970035e-04 6.488131571459e-03 0.0 
0.0 0.0 -9.582560723523e-04 
-1.634454558496e-03 5.707793053276e-04 0.0 
5.707793053276e-04 5.108535752511e-03 0.0 
0.0 0.0 -7.120344407548e-04 
-1.255391157734e-03 2.956292385131e-03 0.0 
2.956292385131e-03 5.913112370001e-03 0.0 
0.0 0.0 -1.169483110168e-03 
-3.211066572615e-04 -2.624140315591e-03 0.0 
-2.624140315591e-03 2.858415319154e-03 0.0 
0.0 0.0 -9.641449249716e-04 
-1.553469395463e-03 1.980732768992e-04 0.0 
1.980732768992e-04 6.108450087988e-03 0.0 
0.0 0.0 -8.988447104697e-04 
-1.086829048493e-03 -4.298554506639e-05 0.0 
-4.298554506639e-05 3.376551179836e-03 0.0 
0.0 0.0 -8.404787427002e-04 
1.157325761144e-03 -4.144839602351e-04 0.0 
-4.144839602351e-04 5.556060787113e-04 0.0 
0.0 0.0 -3.489577299251e-04 
-1.340974968048e-03 1.141125960794e-03 0.0 
1.141125960794e-03 8.560634098268e-03 0.0 
0.0 0.0 -1.340974968048e-03 
-1.479514720207e-03 1.290754629394e-03 0.0 
1.290754629394e-03 8.817356864728e-03 0.0 
0.0 0.0 -1.320295381545e-03 
-1.658748233041e-03 8.637494445187e-04 0.0 
8.637494445187e-04 5.855760830743e-03 0.0 
0.0 0.0 -8.588387843224e-04 
-1.626246500550e-03 3.507062076516e-04 0.0 
3.507062076516e-04 4.917310602464e-03 0.0 
0.0 0.0 -7.326073368542e-04 
-1.101733211462e-03 -4.903419461906e-04 0.0 
-4.903419461906e-04 3.425201513199e-03 0.0 
0.0 0.0 -8.368382630048e-04 
-1.457935752510e-03 9.072104527732e-04 0.0 
9.072104527732e-04 8.880607743519e-03 0.0 
0.0 0.0 -1.322576402756e-03 
-2.087604691238e-04 -2.081308369903e-03 0.0 
-2.081308369903e-03 1.746392936312e-03 0.0 
0.0 0.0 -6.589853430805e-04 
-1.662826015092e-03 7.083533780780e-04 0.0 
7.083533780780e-04 5.042251775661e-03 0.0 
0.0 0.0 -7.125614225629e-04 
-1.628165374516e-03 4.707510309731e-04 0.0 
4.707510309731e-04 4.889560536843e-03 0.0 
0.0 0.0 -7.312775522649e-04 
-1.109436790681e-03 2.207974280543e-03 0.0 
2.207974280543e-03 3.753226225228e-03 0.0 
0.0 0.0 -8.460010047089e-04 
-1.341823989366e-03 2.274932854254e-03 0.0 
2.274932854254e-03 8.137856468635e-03 0.0 
0.0 0.0 -1.341823989366e-03 
-1.447499776368e-03 1.123885033130e-03 0.0 
1.123885033130e-03 8.849685221172e-03 0.0 
0.0 0.0 -1.322582685247e-03 
1.858413942133e-03 -4.468674671497e-04 0.0 
-4.468674671497e-04 -1.442261551490e-04 0.0 
0.0 0.0 -2.523401230232e-04 
1.933225188622e-03 -1.733881547272e-04 0.0 
-1.733881547272e-04 -7.561870514403e-04 0.0 
0.0 0.0 -1.563839533901e-04 
-1.406822219416e-04 -1.124602410666e-03 0.0 
-1.124602410666e-03 1.005262349108e-03 0.0 
0.0 0.0 -3.705343402141e-04 
-5.636260726475e-04 -2.890778252910e-03 0.0 
-2.890778252910e-03 3.024028366260e-03 0.0 
0.0 0.0 -1.029090130247e-03 
-1.836231348186e-03 -1.061046282737e-04 0.0 
-1.061046282737e-04 6.851957631603e-03 0.0 
0.0 0.0 -1.224669017856e-03 
0.0 0.0 0.0 
0.0 0.0 0.0 
0.0 0.0 0.0 
-1.578428037932e-03 -1.076945805976e-04 0.0 
-1.076945805976e-04 7.488341038297e-03 0.0 
0.0 0.0 -1.092518628634e-03 
-1.550925910831e-05 -1.170234142814e-04 0.0 
-1.170234142814e-04 1.067621659097e-04 0.0 
0.0 0.0 -3.910838862915e-05 
8.665365973905e-04 -1.142786771002e-03 0.0 
-1.142786771002e-03 9.419164366956e-04 0.0 
0.0 0.0 -7.750513003226e-04 
2.093383490481e-04 -3.500473738276e-04 0.0 
-3.500473738276e-04 8.081195732962e-06 0.0 
0.0 0.0 -9.317980490615e-05 
0.0 0.0 0.0 
0.0 0.0 0.0 
0.0 0.0 0.0 
8.379829542950e-04 -1.828387007204e-03 0.0 
-1.828387007204e-03 8.061078686980e-04 0.0 
0.0 0.0 -7.046103527113e-04 
-1.789860880868e-03 -9.343042948716e-04 0.0 
-9.343042948716e-04 6.450275194502e-03 0.0 
0.0 0.0 -1.192963836147e-03 
-1.590104708056e-03 6.107842018535e-05 0.0 
6.107842018535e-05 6.703688956183e-03 0.0 
0.0 0.0 -9.361271490834e-04 
-8.759783829009e-04 2.898559650342e-03 0.0 
2.898559650342e-03 3.532916901786e-03 0.0 
0.0 0.0 -9.106555839008e-04 
1.248462822196e-03 -2.813829483536e-04 0.0 
-2.813829483536e-04 -1.929931588244e-04 0.0 
0.0 0.0 -2.625419092021e-04 
-1.459678414727e-03 -2.058426133646e-03 0.0 
-2.058426133646e-03 4.704925736718e-03 0.0 
0.0 0.0 -1.075952622059e-03 
-1.337797817327e-03 3.504757910850e-04 0.0 
3.504757910850e-04 8.685617780919e-03 0.0 
0.0 0.0 -1.337797817327e-03 
-1.451734133111e-03 3.024014936646e-04 0.0 
3.024014936646e-04 8.945645325804e-03 0.0 
0.0 0.0 -1.322354755130e-03 
-1.599337559302e-03 4.517969448523e-04 0.0 
4.517969448523e-04 5.137060814106e-03 0.0 
0.0 0.0 -7.125764448434e-04 
8.243811469618e-04 -5.070143029738e-04 0.0 
-5.070143029738e-04 1.170642242664e-03 0.0 
0.0 0.0 -8.550100241253e-04 
-1.341607717199e-03 9.922961128721e-04 0.0 
9.922961128721e-04 8.617013640237e-03 0.0 
0.0 0.0 -1.341607717199e-03 
1.651597580356e-05 2.683416658655e-03 0.0 
2.683416658655e-03 3.024822145470e-03 0.0 
0.0 0.0 -1.046710270629e-03 
1.210451057929e-03 -1.943692124057e-04 0.0 
-1.943692124057e-04 4.706046126820e-04 0.0 
0.0 0.0 -3.531810144492e-04 
2.099767295814e-03 -2.484083841165e-04 0.0 
-2.484083841165e-04 -2.289154150212e-04 0.0 
0.0 0.0 -2.475227046456e-04 
1.335233375907e-03 -9.196830328825e-05 0.0 
-9.196830328825e-05 -2.038367509550e-04 0.0 
0.0 0.0 -2.481890828467e-04 
-1.206645058523e-03 -4.413417753443e-05 0.0 
-4.413417753443e-05 3.734312456454e-03 0.0 
0.0 0.0 -9.186759157619e-04 
-1.554661254855e-03 -1.173104092863e-03 0.0 
-1.173104092863e-03 7.206653129246e-03 0.0 
0.0 0.0 -1.322828574513e-03 
-1.468378470940e-03 -2.055954314762e-04 0.0 
-2.055954314762e-04 8.477100898234e-03 0.0 
0.0 0.0 -1.258329778789e-03 
2.187416576026e-03 -1.653808446854e-04 0.0 
-1.653808446854e-04 -8.676741714944e-04 0.0 
0.0 0.0 -1.587067154099e-04 
-1.371588137901e-03 -3.169762198632e-04 0.0 
-3.169762198632e-04 4.214800910036e-03 0.0 
0.0 0.0 -1.008438243783e-03 
-1.344798314370e-03 -8.279531255943e-04 0.0 
-8.279531255943e-04 7.026886665436e-03 0.0 
0.0 0.0 -1.344798314370e-03 
-1.564884777426e-03 -1.287545985866e-03 0.0 
-1.287545985866e-03 7.147060172158e-03 0.0 
0.0 0.0 -1.318785251170e-03 
-1.158469832793e-03 -1.923166980148e-03 0.0 
-1.923166980148e-03 5.883371209853e-03 0.0 
0.0 0.0 -1.321151187552e-03 
-1.585912391543e-03 2.691560132111e-04 0.0 
2.691560132111e-04 7.090908885405e-03 0.0 
0.0 0.0 -1.027148381742e-03 
-1.555187588006e-03 -1.971572702211e-04 0.0 
-1.971572702211e-04 7.705246922455e-03 0.0 
0.0 0.0 -1.125709525796e-03 
-1.338030260144e-03 -1.094386398329e-03 0.0 
-1.094386398329e-03 6.909148412757e-03 0.0 
0.0 0.0 -1.338030260144e-03 
-1.340754991027e-03 -1.372687681983e-03 0.0 
-1.372687681983e-03 6.806607219922e-03 0.0 
0.0 0.0 -1.340754991027e-03 
-1.561602649575e-03 2.480043620058e-04 0.0 
2.480043620058e-04 7.494608831512e-03 0.0 
0.0 0.0 -1.092518628634e-03 
3.307271248664e-03 4.314548185695e-05 0.0 
4.314548185695e-05 -1.214475185733e-03 0.0 
0.0 0.0 -8.755379438333e-05 
-1.478032168390e-03 1.489804673206e-04 0.0 
1.489804673206e-04 5.167022187345e-03 0.0 
0.0 0.0 -7.139539158865e-04 
-1.574977551316e-03 3.717997235828e-04 0.0 
3.717997235828e-04 5.188881553203e-03 0.0 
0.0 0.0 -7.133642253441e-04 
2.078295521971e-03 -1.511499007421e-04 0.0 
-1.511499007421e-04 -8.199563945998e-04 0.0 
0.0 0.0 -1.576675707606e-04 
-1.342313591240e-03 -1.872687525586e-03 0.0 
-1.872687525586e-03 6.355359522584e-03 0.0 
0.0 0.0 -1.342313591240e-03 
-1.269922737054e-03 -2.029167704155e-03 0.0 
-2.029167704155e-03 6.094262192879e-03 0.0 
0.0 0.0 -1.318355947622e-03 
-1.337959751097e-03 -1.908784167046e-03 0.0 
-1.908784167046e-03 5.900685640896e-03 0.0 
0.0 0.0 -1.337959751097e-03 
3.106621107953e-03 -1.497773368645e-04 0.0 
-1.497773368645e-04 -1.029211139497e-03 0.0 
0.0 0.0 -9.540963664560e-05 
2.941822019467e-03 -1.767432348869e-04 0.0 
-1.767432348869e-04 -9.568393427299e-04 0.0 
0.0 0.0 -9.747405510327e-05 
-1.340754991027e-03 -1.672627381109e-03 0.0 
-1.672627381109e-03 5.518495974516e-03 0.0 
0.0 0.0 -1.340754991027e-03 
-1.340396196526e-03 -1.852966983193e-03 0.0 
-1.852966983193e-03 5.697134399037e-03 0.0 
0.0 0.0 -1.340396196526e-03 
-1.600296610560e-03 -2.152006829150e-04 0.0 
-2.152006829150e-04 6.887323541576e-03 0.0 
0.0 0.0 -9.936726122374e-04 
-1.422222177314e-03 8.859389962602e-05 0.0 
8.859389962602e-05 5.179295465595e-03 0.0 
0.0 0.0 -7.124851972278e-04 
-1.571159218797e-03 -2.082021183410e-04 0.0 
-2.082021183410e-04 7.291178693471e-03 0.0 
0.0 0.0 -1.060142436171e-03 
-1.552782223510e-03 -2.129194587244e-04 0.0 
-2.129194587244e-04 6.002253842572e-03 0.0 
0.0 0.0 -8.626607521899e-04 
-1.382122713210e-03 3.570213775188e-05 0.0 
3.570213775188e-05 5.182667103943e-03 0.0 
0.0 0.0 -7.121912678902e-04 
2.259827960221e-03 -3.791885520061e-04 0.0 
-3.791885520061e-04 -6.773411335669e-04 0.0 
0.0 0.0 -9.442328267794e-05 
1.489465085535e-03 -3.873061726619e-04 0.0 
-3.873061726619e-04 -3.302723319640e-04 0.0 
0.0 0.0 -4.591167563965e-05 
1.195706273835e-03 -4.439423179226e-04 0.0 
-4.439423179226e-04 -2.457069974477e-04 0.0 
0.0 0.0 -4.589015575604e-05 
7.928883186884e-04 -4.308369996379e-04 0.0 
-4.308369996379e-04 -1.962835067220e-05 0.0 
0.0 0.0 -4.556578909549e-05 
-1.455576565641e-03 5.369324781880e-06 0.0 
5.369324781880e-06 4.421569252006e-03 0.0 
0.0 0.0 -1.025222297049e-03 
-1.326853145310e-03 -3.193870868211e-05 0.0 
-3.193870868211e-05 4.074529080795e-03 0.0 
0.0 0.0 -9.784754570978e-04 
3.643447720584e-04 -2.807478551813e-04 0.0 
-2.807478551813e-04 -8.302826669459e-05 0.0 
0.0 0.0 -1.159392125903e-04 
-1.882114812679e-03 5.257899597366e-05 0.0 
5.257899597366e-05 5.463849854237e-03 0.0 
0.0 0.0 -1.072123180932e-03 
1.624781745822e-04 -2.648253394118e-04 0.0 
-2.648253394118e-04 3.767456551543e-06 0.0 
0.0 0.0 -7.124812762874e-05 
-1.341471640605e-03 1.902532918980e-03 0.0 
1.902532918980e-03 8.304452194875e-03 0.0 
0.0 0.0 -1.341471640605e-03 
-1.340968685557e-03 8.342263842268e-04 0.0 
8.342263842268e-04 8.620360450522e-03 0.0 
0.0 0.0 -1.340968685557e-03 
-1.339320413496e-03 1.336323062728e-03 0.0 
1.336323062728e-03 8.515855351859e-03 0.0 
0.0 0.0 -1.339320413496e-03 
-5.175251243654e-04 1.147272255642e-05 0.0 
1.147272255642e-05 1.550881351190e-03 0.0 
0.0 0.0 -2.599136149544e-04 
-9.633323041400e-04 -3.549644401783e-05 0.0 
-3.549644401783e-05 2.981977788141e-03 0.0 
0.0 0.0 -7.340959586659e-04 
-1.337132911908e-03 6.510662741128e-04 0.0 
6.510662741128e-04 8.656607653519e-03 0.0 
0.0 0.0 -1.337132911908e-03 
-2.083032595708e-03 9.922266011855e-05 0.0 
9.922266011855e-05 6.472696883650e-03 0.0 
0.0 0.0 -1.124956933753e-03 
-1.344556937803e-03 5.003882733929e-04 0.0 
5.003882733929e-04 8.710429521741e-03 0.0 
0.0 0.0 -1.344556937803e-03 
-1.932677962729e-03 1.288201926386e-04 0.0 
1.288201926386e-04 6.746175248938e-03 0.0 
0.0 0.0 -1.192538251246e-03 
-1.740079752366e-03 1.547682996820e-04 0.0 
1.547682996820e-04 7.002368902305e-03 0.0 
0.0 0.0 -1.259905836238e-03 
-1.256318881540e-03 -3.058147318078e-04 0.0 
-3.058147318078e-04 3.889569585195e-03 0.0 
0.0 0.0 -9.521061186879e-04 
-1.479483252636e-03 7.231400883548e-04 0.0 
7.231400883548e-04 8.931379513718e-03 0.0 
0.0 0.0 -1.318101597465e-03 
-1.454407492241e-03 7.329644933787e-04 0.0 
7.329644933787e-04 8.932547234701e-03 0.0 
0.0 0.0 -1.321689849711e-03 
-1.996720130669e-03 -4.240856891719e-04 0.0 
-4.240856891719e-04 6.546271744836e-03 0.0 
0.0 0.0 -1.157495185000e-03 
-1.833092771074e-03 -4.338479580684e-04 0.0 
-4.338479580684e-04 6.845712330688e-03 0.0 
0.0 0.0 -1.225777420818e-03 
-1.841879665554e-03 -1.392809369192e-03 0.0 
-1.392809369192e-03 5.462425115064e-03 0.0 
0.0 0.0 -1.076967794221e-03 
0.0 0.0 0.0 
0.0 0.0 0.0 
0.0 0.0 0.0 
-8.795889895974e-04 -1.952925740306e-03 0.0 
-1.952925740306e-03 3.376145193665e-03 0.0 
0.0 0.0 -1.039304039601e-03 
1.660434101197e-03 -6.141622579472e-04 0.0 
-6.141622579472e-04 -6.719522836332e-05 0.0 
0.0 0.0 -2.442944474907e-04 
-1.378694188408e-03 -2.097012646119e-03 0.0 
-2.097012646119e-03 5.460269496084e-03 0.0 
0.0 0.0 -1.177819030284e-03 
-7.813950936845e-04 -2.358745935075e-03 0.0 
-2.358745935075e-03 3.287112188259e-03 0.0 
0.0 0.0 -1.040987640873e-03 
-1.809630590335e-03 -1.291578548695e-03 0.0 
-1.291578548695e-03 5.821414157847e-03 0.0 
0.0 0.0 -1.099016898379e-03 
-2.060296257065e-04 -1.796631504213e-03 0.0 
-1.796631504213e-03 1.564117229874e-03 0.0 
0.0 0.0 -5.820375446434e-04 
4.475341314438e-05 -9.010547106959e-04 0.0 
-9.010547106959e-04 6.723802247933e-04 0.0 
0.0 0.0 -2.733874678612e-04 
-1.819661686397e-03 -1.463949205523e-03 0.0 
-1.463949205523e-03 6.215728401457e-03 0.0 
0.0 0.0 -1.161668299909e-03 
-1.009350816753e-03 -1.981157607315e-03 0.0 
-1.981157607315e-03 3.679610224835e-03 0.0 
0.0 0.0 -1.056886766371e-03 
-1.124597673924e-03 -3.416283390981e-04 0.0 
-3.416283390981e-04 3.530274889455e-03 0.0 
0.0 0.0 -8.978673291013e-04 
-1.908614693689e-03 -1.553426855284e-03 0.0 
-1.553426855284e-03 5.883638228136e-03 0.0 
0.0 0.0 -1.096102707776e-03 
-1.506564574904e-03 4.784902240182e-04 0.0 
4.784902240182e-04 7.990398295391e-03 0.0 
0.0 0.0 -1.188907866872e-03 
-1.145966443117e-03 -2.688887835076e-04 0.0 
-2.688887835076e-04 3.559257817850e-03 0.0 
0.0 0.0 -8.802182425544e-04 
-2.343808151550e-04 -2.448482601409e-03 0.0 
-2.448482601409e-03 2.867036480139e-03 0.0 
0.0 0.0 -1.035646790376e-03 
-9.500506080825e-04 -2.724089328098e-03 0.0 
-2.724089328098e-03 3.674446532369e-03 0.0 
0.0 0.0 -9.625389225288e-04 
-1.856114660532e-03 -1.247587492440e-03 0.0 
-1.247587492440e-03 5.444374226428e-03 0.0 
0.0 0.0 -1.042884296030e-03 
-2.003615679542e-03 -9.107189773551e-04 0.0 
-9.107189773551e-04 5.760788445208e-03 0.0 
0.0 0.0 -1.050199500156e-03 
3.015162384708e-03 1.478491521065e-03 0.0 
1.478491521065e-03 -1.420788746949e-03 0.0 
0.0 0.0 -6.833029876111e-04 
-7.703338813803e-04 2.711642704622e-03 0.0 
2.711642704622e-03 3.268676482316e-03 0.0 
0.0 0.0 -9.206815977879e-04 
8.952220710028e-04 3.337500451005e-03 0.0 
3.337500451005e-03 9.018971507738e-04 0.0 
0.0 0.0 -7.701939521900e-04 
-1.492273682533e-03 -1.948749897048e-03 0.0 
-1.948749897048e-03 4.700056634630e-03 0.0 
0.0 0.0 -1.018483763552e-03 
-1.953152701418e-03 -1.266064436280e-03 0.0 
-1.266064436280e-03 6.190905664489e-03 0.0 
0.0 0.0 -1.125100902632e-03 
-2.130434678919e-03 -5.674193057818e-04 0.0 
-5.674193057818e-04 6.039060582820e-03 0.0 
0.0 0.0 -1.053755873404e-03 
1.981272582958e-04 -2.339075750409e-03 0.0 
-2.339075750409e-03 1.164667172993e-03 0.0 
0.0 0.0 -5.840547562666e-04 
-1.516698384373e-03 7.243684231909e-04 0.0 
7.243684231909e-04 7.963201592157e-03 0.0 
0.0 0.0 -1.183514100502e-03 
-1.571889609711e-03 6.492262438020e-04 0.0 
6.492262438020e-04 7.577660240319e-03 0.0 
0.0 0.0 -1.117084069417e-03 
-1.526943038589e-03 4.067391407097e-04 0.0 
4.067391407097e-04 5.686565415721e-03 0.0 
0.0 0.0 -8.110481619253e-04 
-1.474195239190e-03 -2.107699134124e-03 0.0 
-2.107699134124e-03 4.674985602820e-03 0.0 
0.0 0.0 -1.001070066037e-03 
-1.687869148980e-03 -1.597447162641e-03 0.0 
-1.597447162641e-03 5.094192157887e-03 0.0 
0.0 0.0 -1.032102790996e-03 
-1.559878786953e-03 1.186239496982e-04 0.0 
1.186239496982e-04 8.091883647163e-03 0.0 
0.0 0.0 -1.185362187646e-03 
-1.553576411269e-03 5.639076835034e-04 0.0 
5.639076835034e-04 7.828849217298e-03 0.0 
0.0 0.0 -1.150972777267e-03 
-5.736846005059e-04 -3.010470759541e-03 0.0 
-3.010470759541e-03 3.112745496219e-03 0.0 
0.0 0.0 -1.058777908313e-03 
-1.827264969184e-03 -1.207689843267e-03 0.0 
-1.207689843267e-03 6.491929530035e-03 0.0 
0.0 0.0 -1.190872049285e-03 
-1.617401302618e-03 1.036699389917e-03 0.0 
1.036699389917e-03 7.425262889637e-03 0.0 
0.0 0.0 -1.103416240745e-03 
-2.113993614968e-03 -7.222808743220e-04 0.0 
-7.222808743220e-04 6.023476369147e-03 0.0 
0.0 0.0 -1.069496670503e-03 
-1.471914821471e-03 -1.998353424490e-03 0.0 
-1.998353424490e-03 5.883536090439e-03 0.0 
0.0 0.0 -1.210017230578e-03 
-1.575272729869e-03 3.494544289054e-04 0.0 
3.494544289054e-04 8.019533452472e-03 0.0 
0.0 0.0 -1.181737430652e-03 
-1.652502708926e-03 2.520535947120e-04 0.0 
2.520535947120e-04 7.001595806507e-03 0.0 
0.0 0.0 -1.011817915138e-03 
-3.838894113269e-04 -2.804191833148e-03 0.0 
-2.804191833148e-03 2.874279057775e-03 0.0 
0.0 0.0 -9.985655989919e-04 
-6.304965187655e-04 -7.604202958905e-04 0.0 
-7.604202958905e-04 2.203620271365e-03 0.0 
0.0 0.0 -6.656342390725e-04 
4.047615641515e-04 -2.474054827037e-03 0.0 
-2.474054827037e-03 9.613198754716e-04 0.0 
0.0 0.0 -5.854634741242e-04 
2.836227978939e-05 -1.580599960261e-03 0.0 
-1.580599960261e-03 9.832792497712e-04 0.0 
0.0 0.0 -4.149592254337e-04 
1.034548557929e-04 -1.227500156599e-03 0.0 
-1.227500156599e-03 6.126727267546e-04 0.0 
0.0 0.0 -3.069118210918e-04 
-1.577352812428e-03 2.114313367924e-04 0.0 
2.114313367924e-04 7.845695102100e-03 0.0 
0.0 0.0 -1.150998037120e-03 
-1.900941556448e-03 -7.041406832224e-04 0.0 
-7.041406832224e-04 6.386638876857e-03 0.0 
0.0 0.0 -1.156839719840e-03 
6.843292428348e-05 -1.144232504345e-03 0.0 
-1.144232504345e-03 6.143886100226e-04 0.0 
0.0 0.0 -2.926378004169e-04 
-1.601987702258e-03 2.442990824200e-03 0.0 
2.442990824200e-03 6.852419756780e-03 0.0 
0.0 0.0 -1.160298666437e-03 
-1.543111448516e-03 4.596328783708e-04 0.0 
4.596328783708e-04 5.853297686999e-03 0.0 
0.0 0.0 -8.436798659344e-04 
-1.824750470194e-03 -1.859013687658e-03 0.0 
-1.859013687658e-03 5.532595994557e-03 0.0 
0.0 0.0 -1.067477449466e-03 
-2.006499161308e-03 -7.976010001953e-04 0.0 
-7.976010001953e-04 6.083504909474e-03 0.0 
0.0 0.0 -1.090430023688e-03 
7.833829666557e-04 -2.711290744461e-03 0.0 
-2.711290744461e-03 6.776524641225e-04 0.0 
0.0 0.0 -6.261580417621e-04 
-2.076799610215e-03 -1.031710463461e-03 0.0 
-1.031710463461e-03 6.135351760274e-03 0.0 
0.0 0.0 -1.087955833448e-03 
-1.557514890525e-03 -6.173462151110e-05 0.0 
-6.173462151110e-05 5.695796094032e-03 0.0 
0.0 0.0 -8.100176300978e-04 
8.750615862245e-04 9.176848780839e-04 0.0 
9.176848780839e-04 1.438408062181e-03 0.0 
0.0 0.0 -9.914869921737e-04 
-1.497791782641e-03 -1.444847597853e-03 0.0 
-1.444847597853e-03 6.204442023908e-03 0.0 
0.0 0.0 -1.242964905849e-03 
-6.875629852487e-04 -4.240155203853e-04 0.0 
-4.240155203853e-04 2.190912803371e-03 0.0 
0.0 0.0 -5.658909553065e-04 
-1.268098618658e-03 -2.126035490962e-03 0.0 
-2.126035490962e-03 5.495926708526e-03 0.0 
0.0 0.0 -1.215045542354e-03 
-1.631557581403e-03 2.235766335083e-04 0.0 
2.235766335083e-04 7.237605270102e-03 0.0 
0.0 0.0 -1.048288725887e-03 
-7.383595785151e-04 -6.377031037024e-04 0.0 
-6.377031037024e-04 2.446869421887e-03 0.0 
0.0 0.0 -6.818911139857e-04 
3.993077738021e-04 -2.419206884214e-03 0.0 
-2.419206884214e-03 9.348823657586e-04 0.0 
0.0 0.0 -5.717957740974e-04 
-1.500476059484e-03 -8.906484908892e-04 0.0 
-8.906484908892e-04 4.589149281530e-03 0.0 
0.0 0.0 -1.044847128380e-03 
-1.630418366467e-03 6.661053165545e-04 0.0 
6.661053165545e-04 6.481746764143e-03 0.0 
0.0 0.0 -9.409807611877e-04 
-5.756498552716e-04 -2.159817615522e-03 0.0 
-2.159817615522e-03 2.678873720584e-03 0.0 
0.0 0.0 -9.013816565627e-04 
-1.610525300296e-03 1.600914995101e-04 0.0 
1.600914995101e-04 7.460282061065e-03 0.0 
0.0 0.0 -1.085119818393e-03 
-1.626505474320e-03 1.193898643633e-04 0.0 
1.193898643633e-04 6.796479922044e-03 0.0 
0.0 0.0 -9.816794289629e-04 
-1.168002604940e-03 -1.979309092588e-03 0.0 
-1.979309092588e-03 4.001814082530e-03 0.0 
0.0 0.0 -1.032510638845e-03 
-1.993224441762e-03 -1.056137829821e-03 0.0 
-1.056137829821e-03 5.774090597717e-03 0.0 
0.0 0.0 -1.075584385303e-03 
-2.021709392423e-03 -1.349459280440e-03 0.0 
-1.349459280440e-03 5.860171390496e-03 0.0 
0.0 0.0 -1.066391945090e-03 
-1.595291763312e-03 5.874023300959e-04 0.0 
5.874023300959e-04 7.178060268656e-03 0.0 
0.0 0.0 -1.050681058959e-03 
-5.082515002275e-04 -8.941420093747e-04 0.0 
-8.941420093747e-04 1.798316205834e-03 0.0 
0.0 0.0 -5.009000172756e-04 
-1.206852124203e-03 -1.671075112969e-03 0.0 
-1.671075112969e-03 4.019505130445e-03 0.0 
0.0 0.0 -1.029746919386e-03 
-5.152753143586e-05 2.170825683475e-03 0.0 
2.170825683475e-03 3.140726951459e-03 0.0 
0.0 0.0 -1.141128458404e-03 
-1.641668485544e-03 3.431501301840e-04 0.0 
3.431501301840e-04 7.404941610079e-03 0.0 
0.0 0.0 -1.078198857115e-03 
-1.057951637287e-03 -1.671343146736e-03 0.0 
-1.671343146736e-03 3.677031607098e-03 0.0 
0.0 0.0 -1.017599913258e-03 
-8.954401304147e-04 -2.800206404235e-03 0.0 
-2.800206404235e-03 3.674164100142e-03 0.0 
0.0 0.0 -1.058318663232e-03 
-1.115312546428e-03 -2.189534952593e-03 0.0 
-2.189534952593e-03 5.045014028914e-03 0.0 
0.0 0.0 -1.187586327529e-03 
-1.596801678993e-03 6.045917028781e-04 0.0 
6.045917028781e-04 6.950727632054e-03 0.0 
0.0 0.0 -1.013969106439e-03 
2.322873706387e-04 -1.368679716301e-04 0.0 
-1.368679716301e-04 -2.322873706387e-04 0.0 
0.0 0.0 0.0 
4.726741315202e-05 -1.330898926681e-03 0.0 
-1.330898926681e-03 8.674614564573e-04 0.0 
0.0 0.0 -2.916872467244e-04 
2.273358372470e-03 1.445761220817e-05 0.0 
1.445761220817e-05 -1.234043607805e-03 0.0 
0.0 0.0 -4.454206134279e-04 
-1.880676767284e-03 -9.969975945957e-04 0.0 
-9.969975945957e-04 6.131847364448e-03 0.0 
0.0 0.0 -1.127837695838e-03 
-1.619604464873e-03 6.374782176385e-04 0.0 
6.374782176385e-04 6.719807393941e-03 0.0 
0.0 0.0 -9.775003154318e-04 
-1.665473239862e-03 -8.814240019008e-04 0.0 
-8.814240019008e-04 4.990171794499e-03 0.0 
0.0 0.0 -1.065326950858e-03 
-1.596762474986e-03 5.442334346395e-04 0.0 
5.442334346395e-04 6.065464133813e-03 0.0 
0.0 0.0 -8.745614812816e-04 
-3.748877525410e-04 -1.800985621523e-03 0.0 
-1.800985621523e-03 3.574605346147e-03 0.0 
0.0 0.0 -1.139196670502e-03 
-1.359206623324e-03 -1.598338811102e-03 0.0 
-1.598338811102e-03 4.356288718259e-03 0.0 
0.0 0.0 -1.038619054332e-03 
-1.952425401121e-03 -1.122489104774e-03 0.0 
-1.122489104774e-03 5.808139918506e-03 0.0 
0.0 0.0 -1.061632825506e-03 
-7.352512267089e-04 -7.174892847169e-04 0.0 
-7.174892847169e-04 2.324934696345e-03 0.0 
0.0 0.0 -5.540246046759e-04 
-1.437645385880e-03 -1.599317358972e-03 0.0 
-1.599317358972e-03 5.870614125847e-03 0.0 
0.0 0.0 -1.211531131004e-03 
-1.154210490817e-03 -1.954082935906e-03 0.0 
-1.954082935906e-03 4.005717739264e-03 0.0 
0.0 0.0 -1.074148950826e-03 
-8.379192553434e-04 -5.906240485017e-04 0.0 
-5.906240485017e-04 2.576604047046e-03 0.0 
0.0 0.0 -5.876558844704e-04 
-1.197102623790e-03 -1.637680359765e-03 0.0 
-1.637680359765e-03 4.017415051808e-03 0.0 
0.0 0.0 -1.056762485630e-03 
-7.509293429896e-04 -1.933738058068e-03 0.0 
-1.933738058068e-03 3.044668356527e-03 0.0 
0.0 0.0 -9.830310058020e-04 
-3.848069222800e-04 -1.987035085230e-03 0.0 
-1.987035085230e-03 2.096507399408e-03 0.0 
0.0 0.0 -7.335859187690e-04 
-1.641529108376e-03 -8.260601691015e-04 0.0 
-8.260601691015e-04 4.922455749525e-03 0.0 
0.0 0.0 -1.057704792895e-03 
1.274028603033e-03 -1.869459937269e-04 0.0 
-1.869459937269e-04 -4.728594485301e-04 0.0 
0.0 0.0 -1.484808277242e-04 
8.391344234421e-04 -3.183235339587e-04 0.0 
-3.183235339587e-04 -2.967630892776e-04 0.0 
0.0 0.0 -1.070543391422e-04 
-1.665019363331e-03 -1.732448119605e-03 0.0 
-1.732448119605e-03 5.107282910853e-03 0.0 
0.0 0.0 -1.076850574752e-03 
-6.443609575616e-04 -8.027982188953e-04 0.0 
-8.027982188953e-04 2.093114862673e-03 0.0 
0.0 0.0 -5.127475950200e-04 
-1.433152566994e-03 -2.256582062865e-03 0.0 
-2.256582062865e-03 4.678524487026e-03 0.0 
0.0 0.0 -1.065643708224e-03 
-1.181624258185e-03 -2.541209283503e-03 0.0 
-2.541209283503e-03 4.198630913141e-03 0.0 
0.0 0.0 -1.061543848411e-03 
-2.864899867882e-04 -2.872572545388e-03 0.0 
-2.872572545388e-03 2.406784440249e-03 0.0 
0.0 0.0 -9.086976229117e-04 
1.281208818910e-03 -3.086935772070e-03 0.0 
-3.086935772070e-03 3.369465702636e-04 0.0 
0.0 0.0 -6.934951667885e-04 
-1.645375116221e-03 6.411920099951e-04 0.0 
6.411920099951e-04 7.711017833911e-03 0.0 
0.0 0.0 -1.137719822027e-03 
1.154207816654e-03 1.867319367673e-03 0.0 
1.867319367673e-03 -6.876363112737e-04 0.0 
0.0 0.0 -1.999592165914e-04 
-9.249733248304e-04 -1.654130041636e-03 0.0 
-1.654130041636e-03 3.362873241434e-03 0.0 
0.0 0.0 -9.992710862841e-04 
-3.877098979375e-04 -1.380494157509e-03 0.0 
-1.380494157509e-03 3.663297430763e-03 0.0 
0.0 0.0 -1.175533656463e-03 
-5.174404311479e-04 -5.539878075327e-04 0.0 
-5.539878075327e-04 1.742776399261e-03 0.0 
0.0 0.0 -4.908139796285e-04 
-1.654366313170e-03 2.025707585884e-04 0.0 
2.025707585884e-04 6.355277344232e-03 0.0 
0.0 0.0 -9.088859120638e-04 
-1.608026372927e-03 7.066471578212e-05 0.0 
7.066471578212e-05 5.908321987661e-03 0.0 
0.0 0.0 -8.416286270284e-04 
-1.832935889570e-04 -1.554120033244e-03 0.0 
-1.554120033244e-03 1.379295739965e-03 0.0 
0.0 0.0 -5.125723504322e-04 
-9.249495539582e-04 -2.182927448984e-03 0.0 
-2.182927448984e-03 4.540217093715e-03 0.0 
0.0 0.0 -1.158722036769e-03 
-1.708983070523e-03 5.831805314674e-04 0.0 
5.831805314674e-04 7.093076428562e-03 0.0 
0.0 0.0 -1.034898561726e-03 
-5.347835094169e-04 -8.712026877687e-04 0.0 
-8.712026877687e-04 1.955284966163e-03 0.0 
0.0 0.0 -6.087863386054e-04 
-1.641053002078e-03 8.278210871732e-04 0.0 
8.278210871732e-04 7.844844353227e-03 0.0 
0.0 0.0 -1.166520446339e-03 
-1.573669309360e-03 1.135775076811e-03 0.0 
1.135775076811e-03 7.785651679837e-03 0.0 
0.0 0.0 -1.169001632583e-03 
-5.801197933913e-04 -1.186925299187e-03 0.0 
-1.186925299187e-03 2.194197512368e-03 0.0 
0.0 0.0 -6.784273028471e-04 
3.325860372313e-04 2.756630050232e-03 0.0 
2.756630050232e-03 1.228114910237e-03 0.0 
0.0 0.0 -6.688718346291e-04 
-3.593200341485e-04 -1.692198470874e-03 0.0 
-1.692198470874e-03 1.863660251544e-03 0.0 
0.0 0.0 -6.447172360267e-04 
-1.851327153153e-03 -1.651837749691e-03 0.0 
-1.651837749691e-03 5.510234686298e-03 0.0 
0.0 0.0 -1.068438311093e-03 
-1.517049278155e-03 -1.208152311661e-03 0.0 
-1.208152311661e-03 4.665351215207e-03 0.0 
0.0 0.0 -1.047608655120e-03 
-1.588271255534e-03 2.440442444252e-03 0.0 
2.440442444252e-03 7.130284191767e-03 0.0 
0.0 0.0 -1.169529464977e-03 
-1.586290284398e-03 9.796528348583e-04 0.0 
9.796528348583e-04 7.658587432112e-03 0.0 
0.0 0.0 -1.140030709108e-03 
-1.655646109898e-03 -1.957177626158e-03 0.0 
-1.957177626158e-03 5.116194479746e-03 0.0 
0.0 0.0 -1.068248785331e-03 
-1.685997880852e-03 -1.784608356716e-03 0.0 
-1.784608356716e-03 5.105111501202e-03 0.0 
0.0 0.0 -1.017402529519e-03 
-2.876771207717e-04 -1.389411797297e-03 0.0 
-1.389411797297e-03 1.511875759344e-03 0.0 
0.0 0.0 -5.246565593881e-04 
-1.860731135260e-03 -1.457489852606e-03 0.0 
-1.457489852606e-03 5.487326218288e-03 0.0 
0.0 0.0 -1.032853941699e-03 
-1.642797758815e-03 9.181312676492e-04 0.0 
9.181312676492e-04 7.041840567815e-03 0.0 
0.0 0.0 -1.037144748481e-03 
-1.515109443870e-03 -1.227447560286e-03 0.0 
-1.227447560286e-03 4.684685552436e-03 0.0 
0.0 0.0 -1.069204617036e-03 
-1.671620005891e-03 2.929392441870e-04 0.0 
2.929392441870e-04 6.771202525829e-03 0.0 
0.0 0.0 -9.752741834902e-04 
-1.678948556331e-03 5.367956015661e-04 0.0 
5.367956015661e-04 7.330127940856e-03 0.0 
0.0 0.0 -1.071415751597e-03 
2.313268375330e-03 1.796314023182e-03 0.0 
1.796314023182e-03 -1.074261141593e-03 0.0 
0.0 0.0 -5.310031001729e-04 
-1.592584348350e-03 8.322792606474e-04 0.0 
8.322792606474e-04 7.512035850087e-03 0.0 
0.0 0.0 -1.110258267496e-03 
-1.248028584087e-03 -1.336863044777e-03 0.0 
-1.336863044777e-03 4.037984938667e-03 0.0 
0.0 0.0 -1.014964823884e-03 
-1.349668852610e-03 -1.596461481346e-03 0.0 
-1.596461481346e-03 4.366516516387e-03 0.0 
0.0 0.0 -1.071455489612e-03 
-8.215746796524e-04 -1.528227033612e-03 0.0 
-1.528227033612e-03 3.070718427055e-03 0.0 
0.0 0.0 -9.608678829247e-04 
1.835549677296e-04 -2.809528380429e-03 0.0 
-2.809528380429e-03 1.483313829287e-03 0.0 
0.0 0.0 -7.143723415785e-04 
-1.633555633710e-03 7.702002767988e-04 0.0 
7.702002767988e-04 6.885994191198e-03 0.0 
0.0 0.0 -1.007339817349e-03 
3.076530191659e-04 -3.054269635980e-03 0.0 
-3.054269635980e-03 1.447807107602e-03 0.0 
0.0 0.0 -7.523400543292e-04 
-5.051265774841e-04 -1.582649049219e-03 0.0 
-1.582649049219e-03 2.186388830496e-03 0.0 
0.0 0.0 -7.205409655765e-04 
-1.167533049478e-04 -1.421228658134e-03 0.0 
-1.421228658134e-03 1.178987498042e-03 0.0 
0.0 0.0 -4.201231086673e-04 
-1.691347074083e-03 4.318386709728e-04 0.0 
4.318386709728e-04 6.937090811669e-03 0.0 
0.0 0.0 -1.005115000480e-03 
-4.635122803593e-04 -1.604799167025e-03 0.0 
-1.604799167025e-03 2.085354868508e-03 0.0 
0.0 0.0 -6.950753949209e-04 
-1.191515342284e-03 -1.717007076640e-03 0.0 
-1.717007076640e-03 5.423834924642e-03 0.0 
0.0 0.0 -1.218716866995e-03 
-1.611990725284e-03 7.358230951730e-04 0.0 
7.358230951730e-04 7.120198208464e-03 0.0 
0.0 0.0 -1.043883448597e-03 
-1.702982719558e-03 -1.584997506959e-03 0.0 
-1.584997506959e-03 5.470541578607e-03 0.0 
0.0 0.0 -1.070373463590e-03 
-9.109045738307e-04 -2.286339166372e-04 0.0 
-2.286339166372e-04 4.268441463060e-03 0.0 
0.0 0.0 -1.284729618418e-03 
-1.071268175159e-03 -1.648454023553e-03 0.0 
-1.648454023553e-03 3.707169372543e-03 0.0 
0.0 0.0 -1.023311028316e-03 
-5.174967158518e-04 -1.184771327579e-03 0.0 
-1.184771327579e-03 2.030619627748e-03 0.0 
0.0 0.0 -6.484812479557e-04 
-2.326317737538e-04 -1.038651026586e-03 0.0 
-1.038651026586e-03 1.174275035768e-03 0.0 
0.0 0.0 -4.035613980062e-04 
-1.410090236189e-03 -2.406400776569e-03 0.0 
-2.406400776569e-03 4.648410275236e-03 0.0 
0.0 0.0 -1.051259780966e-03 
-1.600848466290e-03 5.345976904083e-04 0.0 
5.345976904083e-04 6.550294708413e-03 0.0 
0.0 0.0 -9.473489374553e-04 
-8.717253142324e-05 -9.933700925620e-04 0.0 
-9.933700925620e-04 8.344671106644e-04 0.0 
0.0 0.0 -3.202691053891e-04 
-6.027995719924e-04 -2.107392599842e-03 0.0 
-2.107392599842e-03 2.722751826872e-03 0.0 
0.0 0.0 -9.085509663768e-04 
-7.199860598078e-04 -4.341095348245e-04 0.0 
-4.341095348245e-04 2.121552428607e-03 0.0 
0.0 0.0 -4.196057652059e-04 
-1.682938822042e-03 3.318724932828e-04 0.0 
3.318724932828e-04 6.532037136807e-03 0.0 
0.0 0.0 -9.387834224271e-04 
-7.776326742692e-04 -1.884645157224e-03 0.0 
-1.884645157224e-03 3.094899202807e-03 0.0 
0.0 0.0 -9.909213861921e-04 
-1.231039957355e-03 -2.426325464904e-03 0.0 
-2.426325464904e-03 4.199347214172e-03 0.0 
0.0 0.0 -9.819879942351e-04 
-8.554599545912e-04 -1.459966539243e-03 0.0 
-1.459966539243e-03 3.093994812612e-03 0.0 
0.0 0.0 -9.237817853494e-04 
-1.614515104562e-03 2.789174945577e-04 0.0 
2.789174945577e-04 7.633843682432e-03 0.0 
0.0 0.0 -1.114809527198e-03 
-5.165996464755e-04 -1.902435422896e-03 0.0 
-1.902435422896e-03 2.384778332934e-03 0.0 
0.0 0.0 -8.006480084822e-04 
-1.128557246388e-03 -2.713813412197e-03 0.0 
-2.713813412197e-03 4.096504171839e-03 0.0 
0.0 0.0 -1.021386065992e-03 
3.769531236008e-04 -2.410295298791e-03 0.0 
-2.410295298791e-03 9.611755011410e-04 0.0 
0.0 0.0 -5.734836963179e-04 
-1.146759310470e-03 -2.656955500371e-03 0.0 
-2.656955500371e-03 4.139056916818e-03 0.0 
0.0 0.0 -1.043150860743e-03 
-1.375457983811e-03 -1.244246825682e-03 0.0 
-1.244246825682e-03 4.353109699875e-03 0.0 
0.0 0.0 -1.054662228279e-03 
-1.554003148348e-03 -1.878419659560e-03 0.0 
-1.878419659560e-03 5.069341272683e-03 0.0 
0.0 0.0 -1.041555045145e-03 
3.002499616426e-03 -7.287809856288e-04 0.0 
-7.287809856288e-04 -1.352929250409e-03 0.0 
0.0 0.0 -7.069587282928e-04 
-6.177242885591e-04 -4.890935474393e-04 0.0 
-4.890935474393e-04 2.000133674606e-03 0.0 
0.0 0.0 -5.285791946032e-04 
-1.609261505607e-03 9.637114852810e-05 0.0 
9.637114852810e-05 6.165456359686e-03 0.0 
0.0 0.0 -8.787268422831e-04 
6.987156508361e-04 -1.946712657170e-03 0.0 
-1.946712657170e-03 1.033985256572e-03 0.0 
0.0 0.0 -7.425861031749e-04 
3.405430775163e-04 3.191948666083e-03 0.0 
3.191948666083e-03 1.485409776068e-03 0.0 
0.0 0.0 -7.825512229649e-04 
-1.644262011324e-03 1.659911649759e-04 0.0 
1.659911649759e-04 6.584724351472e-03 0.0 
0.0 0.0 -9.453210152248e-04 
6.455202986104e-04 -2.635854245695e-03 0.0 
-2.635854245695e-03 6.894465372206e-04 0.0 
0.0 0.0 -5.721286439276e-04 
-1.681255032869e-03 9.721382689111e-04 0.0 
9.721382689111e-04 6.557103597372e-03 0.0 
0.0 0.0 -9.642804585795e-04 
-6.124308423891e-04 -5.450173225678e-04 0.0 
-5.450173225678e-04 1.850421424375e-03 0.0 
0.0 0.0 -3.816933993452e-04 
-1.231036729784e-03 -2.253664933021e-03 0.0 
-2.253664933021e-03 5.042416419642e-03 0.0 
0.0 0.0 -1.150402778756e-03 
7.350617248358e-04 -1.287476273638e-03 0.0 
-1.287476273638e-03 1.272883254993e-03 0.0 
0.0 0.0 -8.605478484982e-04 
6.223710608225e-04 1.356379083397e-03 0.0 
1.356379083397e-03 1.985099964088e-03 0.0 
0.0 0.0 -1.037051012011e-03 
-1.598102879926e-03 7.448720335872e-04 0.0 
7.448720335872e-04 8.095744984387e-03 0.0 
0.0 0.0 -1.204463612412e-03 
8.919152436733e-05 -3.143989424638e-03 0.0 
-3.143989424638e-03 1.851557330956e-03 0.0 
0.0 0.0 -8.317495094241e-04 
-4.309306607764e-04 -9.183848167176e-04 0.0 
-9.183848167176e-04 1.661245254261e-03 0.0 
0.0 0.0 -5.272776829218e-04 
-5.215676815475e-04 -3.050968300431e-03 0.0 
-3.050968300431e-03 3.002352665044e-03 0.0 
0.0 0.0 -1.027200950222e-03 
-1.049023862644e-03 -1.741518653201e-03 0.0 
-1.741518653201e-03 4.976635689622e-03 0.0 
0.0 0.0 -1.189963100592e-03 
9.320234363391e-04 -2.596047537173e-03 0.0 
-2.596047537173e-03 3.625727901238e-04 0.0 
0.0 0.0 -5.548269541984e-04 
-1.645253786717e-03 -2.142300707641e-03 0.0 
-2.142300707641e-03 5.116342603387e-03 0.0 
0.0 0.0 -1.056575865346e-03 
-1.668373394945e-03 3.866502142135e-04 0.0 
3.866502142135e-04 7.172333763355e-03 0.0 
0.0 0.0 -1.041631482750e-03 
1.707610751817e-03 -3.111302323774e-03 0.0 
-3.111302323774e-03 2.006678016111e-05 0.0 
0.0 0.0 -7.404332279907e-04 
-8.518987020310e-04 -2.879189791171e-03 0.0 
-2.879189791171e-03 3.589652711545e-03 0.0 
0.0 0.0 -1.034177093206e-03 
-1.689258382171e-03 3.631400807220e-04 0.0 
3.631400807220e-04 6.026727173804e-03 0.0 
0.0 0.0 -8.663127257150e-04 
-8.305596344540e-04 -9.136388392921e-04 0.0 
-9.136388392921e-04 2.720781083117e-03 0.0 
0.0 0.0 -7.057144296542e-04 
-4.174774710502e-04 -2.264727665933e-03 0.0 
-2.264727665933e-03 2.338052704739e-03 0.0 
0.0 0.0 -8.231036715810e-04 
1.803968687695e-04 3.742029911528e-03 0.0 
3.742029911528e-03 2.055326787370e-03 0.0 
0.0 0.0 -9.358934819731e-04 
-1.362318107691e-03 -2.168484734475e-03 0.0 
-2.168484734475e-03 4.618346883937e-03 0.0 
0.0 0.0 -1.012809740122e-03 
-6.445707195621e-05 3.204089462648e-03 0.0 
3.204089462648e-03 2.166873657449e-03 0.0 
0.0 0.0 -9.010356794969e-04 
5.513709198924e-04 3.609450072054e-03 0.0 
3.609450072054e-03 1.451733722049e-03 0.0 
0.0 0.0 -8.584734179747e-04 
-1.663785911262e-03 9.479908707512e-04 0.0 
9.479908707512e-04 6.801753296704e-03 0.0 
0.0 0.0 -1.000670320419e-03 
-1.603261119446e-03 5.580378966873e-04 0.0 
5.580378966873e-04 6.304876685805e-03 0.0 
0.0 0.0 -9.110000341593e-04 
-1.665053571431e-03 8.222814637678e-04 0.0 
8.222814637678e-04 6.156291516455e-03 0.0 
0.0 0.0 -8.984003255416e-04 
-1.378097458895e-03 -1.307048665384e-03 0.0 
-1.307048665384e-03 4.348190678149e-03 0.0 
0.0 0.0 -1.034446146726e-03 
-6.901682956972e-04 -2.185652284413e-03 0.0 
-2.185652284413e-03 4.019713840668e-03 0.0 
0.0 0.0 -1.130631056169e-03 
-1.834308716731e-04 -3.140526153133e-03 0.0 
-3.140526153133e-03 2.359250978041e-03 0.0 
0.0 0.0 -9.324943313007e-04 
-1.664409897791e-03 2.283299940873e-04 0.0 
2.283299940873e-04 6.118881933301e-03 0.0 
0.0 0.0 -8.720525204519e-04 
-1.540055594527e-03 2.603535571495e-03 0.0 
2.603535571495e-03 6.865325717395e-03 0.0 
0.0 0.0 -1.193584144721e-03 
3.472050528190e-04 1.692564590117e-03 0.0 
1.692564590117e-03 2.541247573186e-03 0.0 
0.0 0.0 -1.073433710836e-03 
-1.128039575521e-03 -2.445102979842e-03 0.0 
-2.445102979842e-03 4.119062361786e-03 0.0 
0.0 0.0 -9.841343610905e-04 
-1.618130106290e-03 8.767059940841e-04 0.0 
8.767059940841e-04 7.278368023729e-03 0.0 
0.0 0.0 -1.073677668998e-03 
-6.910390954277e-05 -2.799918663238e-03 0.0 
-2.799918663238e-03 1.917780934052e-03 0.0 
0.0 0.0 -7.922901533612e-04 
-2.515921695526e-04 -2.585539987467e-03 0.0 
-2.585539987467e-03 2.152735873912e-03 0.0 
0.0 0.0 -8.147758732969e-04 
-3.310614028043e-04 -1.379924337061e-03 0.0 
-1.379924337061e-03 1.616149347076e-03 0.0 
0.0 0.0 -5.507519761165e-04 
-5.011752582021e-04 -3.030712813107e-03 0.0 
-3.030712813107e-03 2.924383664169e-03 0.0 
0.0 0.0 -9.894786617912e-04 
-4.694395913292e-04 -2.445221033123e-03 0.0 
-2.445221033123e-03 2.569902493715e-03 0.0 
0.0 0.0 -9.001983867369e-04 
-1.710187933828e-03 4.633984892961e-04 0.0 
4.633984892961e-04 6.694041267773e-03 0.0 
0.0 0.0 -9.686535345556e-04 
-1.726289188827e-03 4.896054940225e-04 0.0 
4.896054940225e-04 6.449117765340e-03 0.0 
0.0 0.0 -9.322463471790e-04 
2.416944889244e-03 5.439879453653e-04 0.0 
5.439879453653e-04 -1.208818724836e-03 0.0 
0.0 0.0 -5.177683561747e-04 
-1.928901237433e-04 -2.408049599402e-03 0.0 
-2.408049599402e-03 1.916746904624e-03 0.0 
0.0 0.0 -7.387957632348e-04 
2.990366271950e-03 1.613745370932e-03 0.0 
1.613745370932e-03 -1.371577636674e-03 0.0 
0.0 0.0 -6.937665579755e-04 
-3.910486537430e-04 -2.315216698545e-03 0.0 
-2.315216698545e-03 2.304304739270e-03 0.0 
0.0 0.0 -8.199668937971e-04 
-2.230223782308e-04 -2.682222528879e-03 0.0 
-2.682222528879e-03 2.152181418268e-03 0.0 
0.0 0.0 -8.267824457303e-04 
-4.073029906979e-04 -1.294483440297e-03 0.0 
-1.294483440297e-03 1.772331589387e-03 0.0 
0.0 0.0 -5.850122565809e-04 
-4.258807302887e-04 -2.144389728424e-03 0.0 
-2.144389728424e-03 3.478718025925e-03 0.0 
0.0 0.0 -1.101849228969e-03 
4.193172772845e-04 -3.233569204744e-03 0.0 
-3.233569204744e-03 1.400177349689e-03 0.0 
0.0 0.0 -7.797834115600e-04 
-1.646879822787e-03 4.813878958504e-04 0.0 
4.813878958504e-04 7.564621706005e-03 0.0 
0.0 0.0 -1.107989045227e-03 
6.164328486864e-04 -3.141645067701e-03 0.0 
-3.141645067701e-03 1.094713369857e-03 0.0 
0.0 0.0 -7.333483793757e-04 
-5.352671715167e-04 -2.920481306985e-03 0.0 
-2.920481306985e-03 2.976534494236e-03 0.0 
0.0 0.0 -9.268471029392e-04 
3.090740504692e-05 -3.263078096127e-03 0.0 
-3.263078096127e-03 2.029516789361e-03 0.0 
0.0 0.0 -8.830389404604e-04 
1.224821345307e-03 3.216271527602e-03 0.0 
3.216271527602e-03 4.534564749945e-04 0.0 
0.0 0.0 -7.192619229864e-04 
-4.591680976874e-04 -1.267727629031e-03 0.0 
-1.267727629031e-03 1.902437159688e-03 0.0 
0.0 0.0 -6.185438837147e-04 
-8.295759423418e-04 -1.747729159177e-03 0.0 
-1.747729159177e-03 4.457598420487e-03 0.0 
0.0 0.0 -1.161691925552e-03 
-8.640451209017e-04 -2.074084677624e-03 0.0 
-2.074084677624e-03 4.658509439049e-03 0.0 
0.0 0.0 -1.198716319349e-03 
-6.013355258858e-04 3.714306523016e-03 0.0 
3.714306523016e-03 3.360817493125e-03 0.0 
0.0 0.0 -9.650368815299e-04 
-1.923559704036e-05 -2.994572033542e-03 0.0 
-2.994572033542e-03 1.948727475502e-03 0.0 
0.0 0.0 -8.269250907692e-04 
-2.503696762219e-04 -3.166835997765e-03 0.0 
-3.166835997765e-03 2.485701371906e-03 0.0 
0.0 0.0 -9.354962741733e-04 
-1.647815013080e-03 8.021683468908e-04 0.0 
8.021683468908e-04 6.643407279142e-03 0.0 
0.0 0.0 -9.708520278613e-04 
-3.181114656463e-04 -2.713015915343e-03 0.0 
-2.713015915343e-03 2.377429006136e-03 0.0 
0.0 0.0 -8.825646602100e-04 
7.116670481849e-04 3.351796189116e-03 0.0 
3.351796189116e-03 1.105566406541e-03 0.0 
0.0 0.0 -7.788143377395e-04 
-5.501781971430e-04 -1.884487968291e-03 0.0 
-1.884487968291e-03 2.464549120431e-03 0.0 
0.0 0.0 -8.204446814089e-04 
9.957483789486e-04 -2.931560812442e-03 0.0 
-2.931560812442e-03 3.486105119444e-04 0.0 
0.0 0.0 -5.761538103827e-04 
1.170702144068e-04 -2.917551374595e-03 0.0 
-2.917551374595e-03 1.660101911363e-03 0.0 
0.0 0.0 -7.616451967584e-04 
-5.960830469200e-04 -1.478493121431e-03 0.0 
-1.478493121431e-03 2.390521820873e-03 0.0 
0.0 0.0 -7.690451888369e-04 
-7.193147455851e-04 -1.069003876046e-03 0.0 
-1.069003876046e-03 2.479314286133e-03 0.0 
0.0 0.0 -6.849754419779e-04 
-1.850126680382e-05 -3.140240111362e-03 0.0 
-3.140240111362e-03 2.040450553655e-03 0.0 
0.0 0.0 -8.665496943648e-04 
-8.517286139436e-04 -2.699031265188e-03 0.0 
-2.699031265188e-03 3.572094775893e-03 0.0 
0.0 0.0 -9.554846610150e-04 
-9.258628841067e-04 3.334973100130e-03 0.0 
3.334973100130e-03 4.800766489173e-03 0.0 
0.0 0.0 -1.128610778606e-03 
1.795476015728e-03 -3.745896555992e-04 0.0 
-3.745896555992e-04 -4.681407310308e-04 0.0 
0.0 0.0 -1.007271482096e-04 
1.477477984761e-03 -2.160820890410e-03 0.0 
-2.160820890410e-03 -1.640262078733e-04 0.0 
0.0 0.0 -5.629079043802e-04 
9.457248714060e-04 -2.859194649623e-03 0.0 
-2.859194649623e-03 6.047505636496e-04 0.0 
0.0 0.0 -6.644894721667e-04 
2.064739481844e-04 -3.194226446081e-03 0.0 
-3.194226446081e-03 1.689929388459e-03 0.0 
0.0 0.0 -8.127442871328e-04 
-1.656928892650e-03 8.151295774597e-04 0.0 
8.151295774597e-04 6.399838907814e-03 0.0 
0.0 0.0 -9.344164207832e-04 
2.545948249673e-04 -3.270064507394e-03 0.0 
-3.270064507394e-03 1.662466157556e-03 0.0 
0.0 0.0 -8.215975639385e-04 
-6.717590179400e-04 -1.743398916895e-03 0.0 
-1.743398916895e-03 2.730040439290e-03 0.0 
0.0 0.0 -8.821206091502e-04 
2.940147133768e-04 -2.953116785718e-03 0.0 
-2.953116785718e-03 1.404914365559e-03 0.0 
0.0 0.0 -7.281124624012e-04 
-1.597640344519e-03 6.950049643667e-04 0.0 
6.950049643667e-04 7.352823299798e-03 0.0 
0.0 0.0 -1.080452943103e-03 
-7.063133806754e-04 -1.717335593378e-03 0.0 
-1.717335593378e-03 2.816704678048e-03 0.0 
0.0 0.0 -9.044534131596e-04 
-1.993759384210e-04 -8.715145545495e-04 0.0 
-8.715145545495e-04 1.025473523807e-03 0.0 
0.0 0.0 -3.540418223084e-04 
-3.396899465816e-04 -1.001666654583e-03 0.0 
-1.001666654583e-03 1.438762041900e-03 0.0 
0.0 0.0 -4.710308979937e-04 
8.199892085619e-04 -2.799788621547e-03 0.0 
-2.799788621547e-03 6.522727846800e-04 0.0 
0.0 0.0 -6.309694256751e-04 
9.078868863825e-06 -2.738074417405e-03 0.0 
-2.738074417405e-03 1.733216879781e-03 0.0 
0.0 0.0 -7.466981779905e-04 
1.103409613190e-03 -2.545332485906e-03 0.0 
-2.545332485906e-03 3.291592924430e-04 0.0 
0.0 0.0 -6.139581024141e-04 
4.609298661722e-04 -2.917080397583e-03 0.0 
-2.917080397583e-03 1.153463791195e-03 0.0 
0.0 0.0 -6.918829960147e-04 
6.174604848126e-04 -2.601794133831e-03 0.0 
-2.601794133831e-03 7.903429974379e-04 0.0 
0.0 0.0 -6.033443495359e-04 
-4.149645807323e-04 -9.518115957765e-04 0.0 
-9.518115957765e-04 1.570452979312e-03 0.0 
0.0 0.0 -4.579617190245e-04 
-1.800428115941e-03 6.964731656622e-04 0.0 
6.964731656622e-04 6.067707299324e-03 0.0 
0.0 0.0 -8.885078876198e-04 
-6.431842488821e-04 -1.481881899324e-03 0.0 
-1.481881899324e-03 2.527966751562e-03 0.0 
0.0 0.0 -8.077639297199e-04 
-3.542476587942e-04 -1.933324559496e-03 0.0 
-1.933324559496e-03 3.366073220136e-03 0.0 
0.0 0.0 -1.067401112627e-03 
-7.301428169590e-04 3.365159558875e-03 0.0 
3.365159558875e-03 4.241956460408e-03 0.0 
0.0 0.0 -1.093380752811e-03 
-1.742519381031e-03 2.013539484841e-03 0.0 
2.013539484841e-03 5.514346305573e-03 0.0 
0.0 0.0 -9.013836717722e-04 
-1.638703746775e-03 1.447396884762e-03 0.0 
1.447396884762e-03 7.437681461836e-03 0.0 
0.0 0.0 -1.126084317643e-03 
-1.069717058735e-03 3.316002143618e-03 0.0 
3.316002143618e-03 5.313047036020e-03 0.0 
0.0 0.0 -1.164310864388e-03 
2.494431731371e-03 1.270414999422e-03 0.0 
1.270414999422e-03 -1.135062232485e-03 0.0 
0.0 0.0 -5.825869280942e-04 
-6.518857880869e-04 3.512796865886e-03 0.0 
3.512796865886e-03 3.785510000148e-03 0.0 
0.0 0.0 -1.029042339204e-03 
9.845026743479e-04 -3.000223110364e-03 0.0 
-3.000223110364e-03 4.820355227438e-04 0.0 
0.0 0.0 -6.285163701822e-04 
9.169108146707e-06 -3.021931346183e-03 0.0 
-3.021931346183e-03 1.914436153364e-03 0.0 
0.0 0.0 -8.244022549332e-04 
1.935620549985e-03 2.666280335606e-03 0.0 
2.666280335606e-03 -6.114645168814e-04 0.0 
0.0 0.0 -5.674954427585e-04 
2.434658683002e-03 -2.349214516508e-03 0.0 
-2.349214516508e-03 -7.291186468832e-04 0.0 
0.0 0.0 -7.309457297651e-04 
8.115117363057e-04 -2.741951264447e-03 0.0 
-2.741951264447e-03 6.655581968644e-04 0.0 
0.0 0.0 -6.330299713586e-04 
-4.450599208505e-04 -2.552111804523e-03 0.0 
-2.552111804523e-03 2.573524769895e-03 0.0 
0.0 0.0 -9.121992210190e-04 
7.181167573208e-04 -2.648058741041e-03 0.0 
-2.648058741041e-03 7.077719066917e-04 0.0 
0.0 0.0 -6.110951417196e-04 
8.603807904587e-04 -2.481932762305e-03 0.0 
-2.481932762305e-03 4.907815371097e-04 0.0 
0.0 0.0 -5.790695689579e-04 
-7.220048660239e-04 -1.343093892557e-03 0.0 
-1.343093892557e-03 2.702939106315e-03 0.0 
0.0 0.0 -8.489718172674e-04 
4.166245934909e-04 -3.209488587121e-03 0.0 
-3.209488587121e-03 1.389160896237e-03 0.0 
0.0 0.0 -7.739080670262e-04 
1.094305293400e-03 -2.135240774913e-03 0.0 
-2.135240774913e-03 1.298780956037e-04 0.0 
0.0 0.0 -5.246500238586e-04 
1.735397459642e-03 -1.790668401916e-03 0.0 
-1.790668401916e-03 -5.241960348096e-04 0.0 
0.0 0.0 -5.190863249281e-04 
-2.953118235534e-05 -2.621242279383e-03 0.0 
-2.621242279383e-03 1.729246141722e-03 0.0 
0.0 0.0 -7.284492682998e-04 
9.068086297483e-04 -1.885631159827e-04 0.0 
-1.885631159827e-04 1.202081875786e-03 0.0 
0.0 0.0 -9.038102166577e-04 
-1.735518635242e-03 6.223275928078e-04 0.0 
6.223275928078e-04 6.851645939463e-03 0.0 
0.0 0.0 -9.984673180475e-04 
2.290762220203e-03 -1.318712250617e-03 0.0 
-1.318712250617e-03 -1.027744525883e-03 0.0 
0.0 0.0 -5.412932975660e-04 
-5.654229652914e-04 -1.684995955007e-03 0.0 
-1.684995955007e-03 3.940963543082e-03 0.0 
0.0 0.0 -1.133495712197e-03 
1.398246767020e-03 -3.216441844472e-03 0.0 
-3.216441844472e-03 9.154783719246e-05 0.0 
0.0 0.0 -6.384834018056e-04 
-5.648051924757e-04 -1.107091868774e-03 0.0 
-1.107091868774e-03 4.182104582450e-03 0.0 
0.0 0.0 -1.208505026952e-03 
7.869283801720e-04 -2.957311971993e-03 0.0 
-2.957311971993e-03 8.055017795032e-04 0.0 
0.0 0.0 -6.824700684322e-04 
-1.163518298392e-03 3.423968427013e-03 0.0 
3.423968427013e-03 5.864548636599e-03 0.0 
0.0 0.0 -1.203459118631e-03 
-1.226888468028e-03 3.131439724330e-03 0.0 
3.131439724330e-03 4.473148429932e-03 0.0 
0.0 0.0 -9.144069900286e-04 
8.146311757364e-04 -2.866044643526e-03 0.0 
-2.866044643526e-03 7.279520038073e-04 0.0 
0.0 0.0 -6.611070769473e-04 
-1.669436221743e-03 2.273068641771e-03 0.0 
2.273068641771e-03 5.485810747731e-03 0.0 
0.0 0.0 -9.292863832265e-04 
-1.634774651159e-03 1.926043724267e-03 0.0 
1.926043724267e-03 7.350223961808e-03 0.0 
0.0 0.0 -1.148369591821e-03 
9.266283371582e-04 -2.700818447501e-03 0.0 
-2.700818447501e-03 5.423083712425e-04 0.0 
0.0 0.0 -6.295443036003e-04 
1.446287545932e-03 3.073556646394e-03 0.0 
3.073556646394e-03 1.275065551695e-04 0.0 
0.0 0.0 -6.744831861864e-04 
-1.574055992192e-03 2.506613091125e-03 0.0 
2.506613091125e-03 5.429733742182e-03 0.0 
0.0 0.0 -9.572423940436e-04 
2.774777350088e-04 3.373231360524e-03 0.0 
3.373231360524e-03 1.692140773898e-03 0.0 
0.0 0.0 -8.441222181028e-04 
6.686313295052e-04 -2.714647588195e-03 0.0 
-2.714647588195e-03 7.978373867195e-04 0.0 
0.0 0.0 -6.284865926677e-04 
-1.493705396886e-03 1.751261100369e-03 0.0 
1.751261100369e-03 8.145178326217e-03 0.0 
0.0 0.0 -1.259077240559e-03 
2.909241618845e-04 -2.201062680806e-03 0.0 
-2.201062680806e-03 9.491865650592e-04 0.0 
0.0 0.0 -5.314760258330e-04 
-1.393014638960e-04 7.789838351986e-04 0.0 
7.789838351986e-04 3.592179503210e-03 0.0 
0.0 0.0 -1.194426649262e-03 
-1.554233915862e-03 9.163364700516e-04 0.0 
9.163364700516e-04 7.887220632938e-03 0.0 
0.0 0.0 -1.175981821618e-03 
7.026255322913e-04 -6.834983021250e-04 0.0 
-6.834983021250e-04 1.598542050998e-03 0.0 
0.0 0.0 -9.862146785524e-04 
-1.631602720906e-03 6.968439340323e-04 0.0 
6.968439340323e-04 6.226177705545e-03 0.0 
0.0 0.0 -9.041796124736e-04 
-1.724067531766e-03 9.331717393615e-04 0.0 
9.331717393615e-04 7.373782435820e-03 0.0 
0.0 0.0 -1.094228678348e-03 
1.385482593825e-03 -2.030831099799e-03 0.0 
-2.030831099799e-03 -2.112692183438e-04 0.0 
0.0 0.0 -5.032343037776e-04 
1.999660538583e-03 5.238969397191e-04 0.0 
5.238969397191e-04 -8.881969286874e-04 0.0 
0.0 0.0 -4.763415470983e-04 
-1.569811974871e-03 1.587727422304e-03 0.0 
1.587727422304e-03 7.784527269149e-03 0.0 
0.0 0.0 -1.191782302182e-03 
-9.330696091187e-04 -2.330125100931e-03 0.0 
-2.330125100931e-03 4.026828994110e-03 0.0 
0.0 0.0 -1.021464098896e-03 
-1.750430558126e-03 7.997395592586e-04 0.0 
7.997395592586e-04 6.994945578504e-03 0.0 
0.0 0.0 -1.028225029406e-03 
5.898974709842e-04 -1.490603234069e-03 0.0 
-1.490603234069e-03 1.573546015772e-03 0.0 
0.0 0.0 -9.271900657525e-04 
1.226199290364e-03 -3.133713578343e-03 0.0 
-3.133713578343e-03 4.720804484946e-04 0.0 
0.0 0.0 -7.278341737966e-04 
-1.755813224466e-03 9.900590192067e-04 0.0 
9.900590192067e-04 7.121505765451e-03 0.0 
0.0 0.0 -1.057861461704e-03 
-1.020230912339e-03 3.255501544884e-03 0.0 
3.255501544884e-03 5.845285965923e-03 0.0 
0.0 0.0 -1.268085107495e-03 
-8.098027228146e-04 -1.517662878241e-03 0.0 
-1.517662878241e-03 4.547334409745e-03 0.0 
0.0 0.0 -1.202195648613e-03 
7.610076650519e-05 -3.235453866840e-03 0.0 
-3.235453866840e-03 1.932455716982e-03 0.0 
0.0 0.0 -8.608099214947e-04 
-1.689275270792e-03 3.359122450795e-04 0.0 
3.359122450795e-04 6.273459191033e-03 0.0 
0.0 0.0 -9.020111041354e-04 
-1.632588233776e-03 6.974904632293e-04 0.0 
6.974904632293e-04 5.987209936235e-03 0.0 
0.0 0.0 -8.677534307045e-04 
6.088392128265e-04 -2.822537476632e-03 0.0 
-2.822537476632e-03 9.202084504230e-04 0.0 
0.0 0.0 -6.553061413926e-04 
-6.443122983676e-04 -2.499706879338e-03 0.0 
-2.499706879338e-03 3.462729029903e-03 0.0 
0.0 0.0 -9.927925938929e-04 
-4.755079025855e-04 -2.238751106190e-03 0.0 
-2.238751106190e-03 3.389731406328e-03 0.0 
0.0 0.0 -1.030113165296e-03 
-2.437047899643e-04 -1.231397142334e-03 0.0 
-1.231397142334e-03 1.345917923955e-03 0.0 
0.0 0.0 -4.426674065645e-04 
2.847402133071e-03 1.832321194303e-03 0.0 
1.832321194303e-03 -1.311219245011e-03 0.0 
0.0 0.0 -6.583640948828e-04 
2.391065633377e-03 -7.030644689003e-04 0.0 
-7.030644689003e-04 -1.190042454993e-03 0.0 
0.0 0.0 -5.147242193072e-04 
1.968235762107e-03 -1.858343853594e-03 0.0 
-1.858343853594e-03 -8.473461408074e-04 0.0 
0.0 0.0 -4.803812662710e-04 
7.235144373202e-04 3.006853977664e-03 0.0 
3.006853977664e-03 8.982936940798e-04 0.0 
0.0 0.0 -6.950606277428e-04 
-1.594047644543e-03 1.198778980109e-03 0.0 
1.198778980109e-03 8.076345274144e-03 0.0 
0.0 0.0 -1.225426844749e-03 
-1.544957883650e-03 2.714187828761e-03 0.0 
2.714187828761e-03 6.803087963728e-03 0.0 
0.0 0.0 -1.162686153705e-03 
-1.603786220280e-03 5.743670581703e-04 0.0 
5.743670581703e-04 7.933574954986e-03 0.0 
0.0 0.0 -1.173632101657e-03 
-3.176362262569e-04 3.157680560962e-03 0.0 
3.157680560962e-03 2.644961507973e-03 0.0 
0.0 0.0 -9.922833334649e-04 
-1.686655624371e-03 1.762581410411e-03 0.0 
1.762581410411e-03 7.001695775819e-03 0.0 
0.0 0.0 -1.082713561900e-03 
-8.312311815285e-04 -2.893135141048e-03 0.0 
-2.893135141048e-03 3.527094208899e-03 0.0 
0.0 0.0 -1.005652543148e-03 
-1.566323459329e-03 1.337573114455e-03 0.0 
1.337573114455e-03 7.933955714899e-03 0.0 
0.0 0.0 -1.198415070424e-03 
-1.781797660459e-03 1.042297273604e-03 0.0 
1.042297273604e-03 6.860193468522e-03 0.0 
0.0 0.0 -1.021631336281e-03 
1.651541321597e-04 -3.069309819670e-03 0.0 
-3.069309819670e-03 1.677218775847e-03 0.0 
0.0 0.0 -7.895883891459e-04 
2.729895556258e-03 -3.816222067231e-05 0.0 
-3.816222067231e-05 -1.329892949249e-03 0.0 
0.0 0.0 -6.000011172896e-04 
-1.678629276342e-03 1.301261135869e-03 0.0 
1.301261135869e-03 7.071604861536e-03 0.0 
0.0 0.0 -1.060111126929e-03 
-1.674561038714e-03 1.060445620383e-03 0.0 
1.060445620383e-03 7.740408073351e-03 0.0 
0.0 0.0 -1.160283895044e-03 
-1.648358362413e-03 1.080960708592e-03 0.0 
1.080960708592e-03 7.188263314287e-03 0.0 
0.0 0.0 -1.066842251349e-03 
-1.675485628863e-03 1.117801916471e-03 0.0 
1.117801916471e-03 6.945334177936e-03 0.0 
0.0 0.0 -1.030428295937e-03 
-9.047694827226e-04 -1.891564198184e-03 0.0 
-1.891564198184e-03 4.463027696646e-03 0.0 
0.0 0.0 -1.124756152480e-03 
-3.636288725449e-05 1.185092302766e-03 0.0 
1.185092302766e-03 3.361330425582e-03 0.0 
0.0 0.0 -1.167530213646e-03 
-6.417903686716e-04 -1.936633603608e-03 0.0 
-1.936633603608e-03 3.924941189051e-03 0.0 
0.0 0.0 -1.096139997395e-03 
-6.252750457425e-04 -2.981929184320e-03 0.0 
-2.981929184320e-03 3.101913023538e-03 0.0 
0.0 0.0 -9.455690924112e-04 
-9.133871784712e-04 2.307173197510e-03 0.0 
2.307173197510e-03 3.388339270904e-03 0.0 
0.0 0.0 -8.706649152390e-04 
5.857890875911e-04 -1.165024071922e-04 0.0 
-1.165024071922e-04 1.961403903997e-03 0.0 
0.0 0.0 -1.057160997780e-03 
-1.717096850446e-03 1.897490647652e-03 0.0 
1.897490647652e-03 6.421227655064e-03 0.0 
0.0 0.0 -1.010795753303e-03 
-6.313703935138e-04 -1.096821766549e-03 0.0 
-1.096821766549e-03 2.333660856895e-03 0.0 
0.0 0.0 -7.295530557346e-04 
2.168606455157e-03 -1.381490462849e-03 0.0 
-1.381490462849e-03 -1.049895932277e-03 0.0 
0.0 0.0 -4.794473669488e-04 
1.521212506514e-03 -1.320220071534e-03 0.0 
-1.320220071534e-03 -4.274634539344e-04 0.0 
0.0 0.0 -4.687495939627e-04 
1.466355838383e-03 4.602651966615e-04 0.0 
4.602651966615e-04 -3.624189179880e-05 0.0 
0.0 0.0 -6.129059771076e-04 
2.718390450017e-03 -6.950340879152e-04 0.0 
-6.950340879152e-04 -1.327258381844e-03 0.0 
0.0 0.0 -5.961994577885e-04 
2.586833026508e-03 -8.035069926998e-04 0.0 
-8.035069926998e-04 -1.237368745637e-03 0.0 
0.0 0.0 -5.783418346592e-04 
1.064335855090e-03 3.871345564871e-04 0.0 
3.871345564871e-04 8.878223967010e-04 0.0 
0.0 0.0 -8.366392507678e-04 
-8.479776809358e-04 2.867626528881e-03 0.0 
2.867626528881e-03 3.485177703647e-03 0.0 
0.0 0.0 -9.312627088267e-04 
-1.048673303190e-04 -3.229543423404e-03 0.0 
-3.229543423404e-03 2.260338218225e-03 0.0 
0.0 0.0 -9.237732376742e-04 
-1.787010102696e-03 8.860662194747e-04 0.0 
8.860662194747e-04 6.472161902549e-03 0.0 
0.0 0.0 -9.556638187253e-04 
-1.534511977861e-03 4.226734842399e-04 0.0 
4.226734842399e-04 5.386267654424e-03 0.0 
0.0 0.0 -7.638029664831e-04 
2.694004404959e-04 1.692225150283e-03 0.0 
1.692225150283e-03 6.665564429896e-04 0.0 
0.0 0.0 -4.011243786367e-04 
-2.485044760616e-04 -3.138222606519e-03 0.0 
-3.138222606519e-03 2.491915244985e-03 0.0 
0.0 0.0 -9.614617581102e-04 
5.241395104488e-04 -3.820643100564e-04 0.0 
-3.820643100564e-04 1.948070463321e-03 0.0 
0.0 0.0 -1.051835763028e-03 
-1.541512456067e-03 2.665389691955e-03 0.0 
2.665389691955e-03 7.146978989113e-03 0.0 
0.0 0.0 -1.196871286280e-03 
2.182111420875e-03 6.070828475979e-04 0.0 
6.070828475979e-04 -1.164368423359e-03 0.0 
0.0 0.0 -4.361755703639e-04 
-3.379696423289e-04 -3.147707957552e-03 0.0 
-3.147707957552e-03 2.662191701970e-03 0.0 
0.0 0.0 -9.747355338013e-04 
-1.758283285419e-03 6.606645787396e-04 0.0 
6.606645787396e-04 6.605527542412e-03 0.0 
0.0 0.0 -9.620958722923e-04 
2.572595780151e-04 1.907531255629e-03 0.0 
1.907531255629e-03 8.125007966372e-04 0.0 
0.0 0.0 -4.584687319938e-04 
7.215561543482e-04 7.088538436549e-05 0.0 
7.088538436549e-05 1.489224739350e-03 0.0 
0.0 0.0 -9.474775258706e-04 
1.699588376700e-03 -2.701395224992e-04 0.0 
-2.701395224992e-04 -6.431195081869e-04 0.0 
0.0 0.0 -4.527723722201e-04 
-1.123050040693e-03 2.722320328238e-03 0.0 
2.722320328238e-03 3.963607121214e-03 0.0 
0.0 0.0 -8.880452441695e-04 
-6.861996964777e-04 -2.718033399413e-03 0.0 
-2.718033399413e-03 3.467552900927e-03 0.0 
0.0 0.0 -1.027225276160e-03 
2.084513055480e-03 -2.969236307345e-03 0.0 
-2.969236307345e-03 -6.426223811324e-04 0.0 
0.0 0.0 -6.179531461491e-04 
-5.320903479306e-04 -2.451811030805e-03 0.0 
-2.451811030805e-03 3.446359028726e-03 0.0 
0.0 0.0 -1.064556537081e-03 
-5.475761825290e-04 -1.405154027486e-03 0.0 
-1.405154027486e-03 4.014926747039e-03 0.0 
0.0 0.0 -1.170878753521e-03 
8.694157167214e-04 5.959603823475e-04 0.0 
5.959603823475e-04 1.083517633446e-03 0.0 
0.0 0.0 -8.369714357860e-04 
-1.720938074938e-03 7.528205405103e-04 0.0 
7.528205405103e-04 7.239876321155e-03 0.0 
0.0 0.0 -1.064574987933e-03 
-2.581275539260e-04 2.774157829489e-03 0.0 
2.774157829489e-03 3.637568838645e-03 0.0 
0.0 0.0 -1.082686220397e-03 
-6.278749381159e-04 -1.931446236287e-03 0.0 
-1.931446236287e-03 4.088424354687e-03 0.0 
0.0 0.0 -1.168035910845e-03 
7.662032872175e-05 1.799978139758e-03 0.0 
1.799978139758e-03 1.016865245771e-03 0.0 
0.0 0.0 -4.686366747828e-04 
-1.772766923136e-03 8.481702159287e-04 0.0 
8.481702159287e-04 6.740907635403e-03 0.0 
0.0 0.0 -9.919185416031e-04 
-2.292199257427e-04 1.889849914101e-03 0.0 
1.889849914101e-03 3.718845686110e-03 0.0 
0.0 0.0 -1.173906618061e-03 
-1.648981142695e-03 1.259232254070e-03 0.0 
1.259232254070e-03 7.322595481216e-03 0.0 
0.0 0.0 -1.096489272820e-03 
1.160861635041e-03 6.400460397782e-04 0.0 
6.400460397782e-04 2.605650516831e-04 0.0 
0.0 0.0 -6.091828657388e-04 
2.574979574883e-03 -1.390903072999e-04 0.0 
-1.390903072999e-04 -1.282434716650e-03 0.0 
0.0 0.0 -5.539477963855e-04 
-1.116067155649e-03 -2.250326754200e-03 0.0 
-2.250326754200e-03 3.947993630682e-03 0.0 
0.0 0.0 -1.025516461270e-03 
1.249937303602e-03 3.552940721610e-04 0.0 
3.552940721610e-04 -1.039148958258e-03 0.0 
0.0 0.0 -9.033786229012e-05 
-1.613458135024e-03 1.210057674443e-03 0.0 
1.210057674443e-03 7.562124248112e-03 0.0 
0.0 0.0 -1.132911322290e-03 
-7.377235371559e-04 -9.591054036843e-04 0.0 
-9.591054036843e-04 2.612387194917e-03 0.0 
0.0 0.0 -8.013069569330e-04 
-1.500810255742e-04 1.675008285432e-03 0.0 
1.675008285432e-03 1.366929482546e-03 0.0 
0.0 0.0 -5.215064815592e-04 
-3.658200529699e-04 3.020199158602e-03 0.0 
3.020199158602e-03 3.713742958922e-03 0.0 
0.0 0.0 -1.054483161448e-03 
-1.538001914897e-03 1.084053552084e-03 0.0 
1.084053552084e-03 8.041309965801e-03 0.0 
0.0 0.0 -1.206783194404e-03 
1.727844094968e-03 -3.343181964838e-03 0.0 
-3.343181964838e-03 -2.401420928011e-04 0.0 
0.0 0.0 -6.375865723574e-04 
-2.167964077171e-04 3.747756050696e-03 0.0 
3.747756050696e-03 2.648111889763e-03 0.0 
0.0 0.0 -9.072936044704e-04 
-1.701887886532e-03 1.344630388867e-03 0.0 
1.344630388867e-03 6.812020791196e-03 0.0 
0.0 0.0 -1.023814440555e-03 
-4.458873681724e-04 -2.966430795108e-03 0.0 
-2.966430795108e-03 2.822625691825e-03 0.0 
0.0 0.0 -1.018602138708e-03 
2.635787731545e-03 -1.799593391660e-03 0.0 
-1.799593391660e-03 -1.225014149329e-03 0.0 
0.0 0.0 -6.046172495213e-04 
1.631098457746e-03 2.876803562451e-03 0.0 
2.876803562451e-03 -2.192512757881e-04 0.0 
0.0 0.0 -6.050773636963e-04 
9.159182720240e-04 -2.840057079041e-03 0.0 
-2.840057079041e-03 6.236111220924e-04 0.0 
0.0 0.0 -6.597983117642e-04 
1.988952410622e-03 -2.773207495313e-03 0.0 
-2.773207495313e-03 -3.142881963505e-04 0.0 
0.0 0.0 -7.177132346876e-04 
1.648220485470e-03 -3.321848158051e-03 0.0 
-3.321848158051e-03 2.024080431041e-04 0.0 
0.0 0.0 -7.931265122463e-04 
1.705098340266e-03 6.558868029328e-04 0.0 
6.558868029328e-04 -6.969008095806e-04 0.0 
0.0 0.0 -4.320846560080e-04 
-1.468520801646e-03 2.285525207987e-03 0.0 
2.285525207987e-03 8.442456052557e-03 0.0 
0.0 0.0 -1.324146187826e-03 
-3.956257745020e-04 1.730887625779e-03 0.0 
1.730887625779e-03 1.977050055323e-03 0.0 
0.0 0.0 -6.777532632091e-04 
-1.125863067977e-03 -1.827974217199e-03 0.0 
-1.827974217199e-03 4.964930907455e-03 0.0 
0.0 0.0 -1.153422328581e-03 
2.868285214674e-03 1.352379803766e-03 0.0 
1.352379803766e-03 -1.299848991907e-03 0.0 
0.0 0.0 -6.721869526143e-04 
-1.802402553613e-03 1.096854962503e-03 0.0 
1.096854962503e-03 6.595527473872e-03 0.0 
0.0 0.0 -9.856407671940e-04 
1.971085959338e-03 3.239399902758e-04 0.0 
3.239399902758e-04 -1.217941390756e-03 0.0 
0.0 0.0 -3.227762436777e-04 
-6.307118357170e-04 -1.642290149673e-03 0.0 
-1.642290149673e-03 4.191316448183e-03 0.0 
0.0 0.0 -1.206759618350e-03 
1.281188306004e-03 -3.309115169896e-03 0.0 
-3.309115169896e-03 2.482805933930e-04 0.0 
0.0 0.0 -6.554866711701e-04 
-8.580919722624e-04 -1.141606507875e-03 0.0 
-1.141606507875e-03 3.004910753851e-03 0.0 
0.0 0.0 -8.925927511852e-04 
6.775973206905e-04 1.090261256499e-03 0.0 
1.090261256499e-03 1.554850184539e-03 0.0 
0.0 0.0 -9.567632165269e-04 
9.810193940895e-04 -2.270636417532e-03 0.0 
-2.270636417532e-03 2.960510298287e-04 0.0 
0.0 0.0 -5.473158959649e-04 
3.899080625908e-05 1.591876067608e-03 0.0 
1.591876067608e-03 3.206945282166e-03 0.0 
0.0 0.0 -1.139062866688e-03 
6.623861865506e-04 3.094490503078e-03 0.0 
3.094490503078e-03 1.014638708619e-03 0.0 
0.0 0.0 -7.187249550728e-04 
-1.786253758345e-03 1.560633333520e-03 0.0 
1.560633333520e-03 6.766601134335e-03 0.0 
0.0 0.0 -1.044446328659e-03 
-2.152386475275e-04 1.351101504798e-03 0.0 
1.351101504798e-03 3.486323150058e-03 0.0 
0.0 0.0 -1.198892520503e-03 
-1.697142570711e-03 1.154161816812e-03 0.0 
1.154161816812e-03 6.693519511439e-03 0.0 
0.0 0.0 -9.940794652285e-04 
-1.618144651602e-03 2.389450829648e-03 0.0 
2.389450829648e-03 7.197343605865e-03 0.0 
0.0 0.0 -1.194784139986e-03 
-1.753520328123e-03 1.193661618907e-03 0.0 
1.193661618907e-03 7.230580119665e-03 0.0 
0.0 0.0 -1.087318097122e-03 
-1.742396685637e-03 1.406428765971e-03 0.0 
1.406428765971e-03 7.327343743658e-03 0.0 
0.0 0.0 -1.116677092124e-03 
2.275785242891e-03 2.632435729676e-03 0.0 
2.632435729676e-03 -9.199828087608e-04 0.0 
0.0 0.0 -5.810581860557e-04 
-1.241644556097e-03 -1.898381689041e-03 0.0 
-1.898381689041e-03 4.975895501890e-03 0.0 
0.0 0.0 -1.115908039155e-03 
-1.698919862003e-03 1.546534393052e-03 0.0 
1.546534393052e-03 6.917732160494e-03 0.0 
0.0 0.0 -1.053364550114e-03 
1.868987763194e-03 2.227953552638e-03 0.0 
2.227953552638e-03 -6.775743179747e-04 0.0 
0.0 0.0 -5.106057622367e-04 
-6.587012442941e-04 1.777273701504e-03 0.0 
1.777273701504e-03 2.655555522869e-03 0.0 
0.0 0.0 -8.209451439681e-04 
-3.975005523331e-04 1.166939029163e-03 0.0 
1.166939029163e-03 4.024011475053e-03 0.0 
0.0 0.0 -1.232292820449e-03 
2.869313435600e-03 1.110657499061e-03 0.0 
1.110657499061e-03 -1.453214644336e-03 0.0 
0.0 0.0 -6.068994819702e-04 
-7.856974671747e-04 -1.309919738143e-03 0.0 
-1.309919738143e-03 2.807619278170e-03 0.0 
0.0 0.0 -8.201145810434e-04 
1.968962910781e-04 1.862464300239e-03 0.0 
1.862464300239e-03 2.595514694035e-03 0.0 
0.0 0.0 -1.105063927110e-03 
-7.017846764740e-04 -1.435456886112e-05 0.0 
-1.435456886112e-05 1.960630528106e-03 0.0 
0.0 0.0 -3.231071520192e-04 
7.474966936510e-04 3.481240265895e-03 0.0 
3.481240265895e-03 1.138823329650e-03 0.0 
0.0 0.0 -8.084228671290e-04 
5.678040040528e-04 5.673257875062e-04 0.0 
5.673257875062e-04 1.874262662432e-03 0.0 
0.0 0.0 -1.046599999922e-03 
-1.677286885825e-03 1.562425953110e-03 0.0 
1.562425953110e-03 7.659770185164e-03 0.0 
0.0 0.0 -1.181155146799e-03 
-1.652320647354e-03 1.808826218554e-03 0.0 
1.808826218554e-03 7.744329424571e-03 0.0 
0.0 0.0 -1.210943746944e-03 
7.584470326040e-04 3.628423669224e-04 0.0 
3.628423669224e-04 1.668047544981e-03 0.0 
0.0 0.0 -1.028825005900e-03 
-1.718024774256e-03 1.129889074764e-03 0.0 
1.129889074764e-03 7.489751701523e-03 0.0 
0.0 0.0 -1.123737208958e-03 
2.593889195352e-03 1.856767809109e-03 0.0 
1.856767809109e-03 -1.126153271608e-03 0.0 
0.0 0.0 -6.290296816045e-04 
-7.519765885532e-04 3.109043581873e-03 0.0 
3.109043581873e-03 4.411738950076e-03 0.0 
0.0 0.0 -1.062452857821e-03 
-9.715076255527e-04 1.639125050494e-03 0.0 
1.639125050494e-03 3.248586274010e-03 0.0 
0.0 0.0 -7.769695025612e-04 
-1.390466882155e-03 3.112822277327e-03 0.0 
3.112822277327e-03 6.316045090648e-03 0.0 
0.0 0.0 -1.181751882508e-03 
-1.269001708520e-03 1.478688136927e-03 0.0 
1.478688136927e-03 3.854232216412e-03 0.0 
0.0 0.0 -7.538120163098e-04 
-1.420223830458e-03 1.391784125232e-03 0.0 
1.391784125232e-03 4.161040048690e-03 0.0 
0.0 0.0 -7.332406657775e-04 
2.298674918512e-03 1.220061250636e-03 0.0 
1.220061250636e-03 -1.173783310071e-03 0.0 
0.0 0.0 -4.820964036177e-04 
-1.557422700527e-03 1.363360327043e-03 0.0 
1.363360327043e-03 4.471575651466e-03 0.0 
0.0 0.0 -7.361032999402e-04 
6.913968744153e-04 3.249644441005e-03 0.0 
3.249644441005e-03 1.296623038176e-03 0.0 
0.0 0.0 -8.520085339679e-04 
1.718973007646e-03 2.924390266821e-03 0.0 
2.924390266821e-03 -1.924867080381e-04 0.0 
0.0 0.0 -6.542084141176e-04 
2.210348991445e-03 -8.088378780929e-04 0.0 
-8.088378780929e-04 -1.123482344713e-03 0.0 
0.0 0.0 -4.657999914567e-04 
2.497491272241e-03 -1.532773257142e-03 0.0 
-1.532773257142e-03 -1.081083643723e-03 0.0 
0.0 0.0 -6.070318407937e-04 
2.586887755130e-03 6.094796342036e-04 0.0 
6.094796342036e-04 -1.311719394663e-03 0.0 
0.0 0.0 -5.465007259145e-04 
-1.601167176657e-03 1.396089815657e-03 0.0 
1.396089815657e-03 7.688892179250e-03 0.0 
0.0 0.0 -1.162517914204e-03 
-1.471528092625e-03 3.001207936412e-03 0.0 
3.001207936412e-03 6.831752371077e-03 0.0 
0.0 0.0 -1.195263893373e-03 
-1.182311321110e-03 -2.133379308242e-03 0.0 
-2.133379308242e-03 4.544787139884e-03 0.0 
0.0 0.0 -1.050100468764e-03 
-1.223721568856e-04 1.745261046552e-03 0.0 
1.745261046552e-03 3.281782845900e-03 0.0 
0.0 0.0 -1.170266998156e-03 
1.214604030940e-03 -2.155562007462e-03 0.0 
-2.155562007462e-03 9.364629533619e-05 0.0 
0.0 0.0 -5.606787112612e-04 
-1.656719624483e-03 1.711448335042e-03 0.0 
1.711448335042e-03 7.275839845738e-03 0.0 
0.0 0.0 -1.119019617531e-03 
2.359890878457e-03 -4.267964440931e-05 0.0 
-4.267964440931e-05 -1.248439169515e-03 0.0 
0.0 0.0 -4.763364466896e-04 
-1.407406798469e-03 -1.723847992245e-03 0.0 
-1.723847992245e-03 5.419782439974e-03 0.0 
0.0 0.0 -1.144395376583e-03 
-1.671654625585e-03 1.497806515934e-03 0.0 
1.497806515934e-03 7.180003972529e-03 0.0 
0.0 0.0 -1.089631904438e-03 
-1.769810542863e-03 1.479525562214e-03 0.0 
1.479525562214e-03 7.051291447038e-03 0.0 
0.0 0.0 -1.080451501872e-03 
1.020279383885e-03 1.759819708792e-05 0.0 
1.759819708792e-05 6.806225927368e-04 0.0 
0.0 0.0 -7.289579899807e-04 
2.670406423032e-03 1.253518595181e-03 0.0 
1.253518595181e-03 -1.265788156022e-03 0.0 
0.0 0.0 -6.019792572900e-04 
-8.493845713370e-04 3.018177913519e-03 0.0 
3.018177913519e-03 4.847344094450e-03 0.0 
0.0 0.0 -1.126038590206e-03 
-1.241437732375e-03 3.272568664608e-03 0.0 
3.272568664608e-03 4.414773958175e-03 0.0 
0.0 0.0 -9.324202963083e-04 
2.392506853527e-03 -2.638222039722e-03 0.0 
-2.638222039722e-03 -9.888506330534e-04 0.0 
0.0 0.0 -6.015669516317e-04 
2.802892214258e-03 -1.137304662585e-05 0.0 
-1.137304662585e-05 -1.333498735436e-03 0.0 
0.0 0.0 -6.297400623524e-04 
7.949185057270e-04 2.716848624173e-03 0.0 
2.716848624173e-03 6.207904953631e-04 0.0 
0.0 0.0 -6.067324290386e-04 
-1.563287978713e-04 3.620132007229e-03 0.0 
3.620132007229e-03 2.581411168791e-03 0.0 
0.0 0.0 -1.015946800258e-03 
-1.534351365184e-03 -1.516799222336e-03 0.0 
-1.516799222336e-03 5.828494836448e-03 0.0 
0.0 0.0 -1.173545322487e-03 
-1.782237154873e-03 1.254534813549e-03 0.0 
1.254534813549e-03 6.967044995053e-03 0.0 
0.0 0.0 -1.051102540299e-03 
2.754613032243e-03 5.835371394657e-04 0.0 
5.835371394657e-04 -1.282545286099e-03 0.0 
0.0 0.0 -6.308861769187e-04 
-6.435068013720e-04 3.480233123954e-03 0.0 
3.480233123954e-03 3.600985193807e-03 0.0 
0.0 0.0 -9.344940742331e-04 
3.980809440766e-04 1.365381173478e-04 0.0 
1.365381173478e-04 2.266784517746e-03 0.0 
0.0 0.0 -1.088599101970e-03 
-1.685240832100e-03 8.774447861184e-04 0.0 
8.774447861184e-04 7.615424303421e-03 0.0 
0.0 0.0 -1.130578931274e-03 
-1.056611405718e-03 3.085021790290e-03 0.0 
3.085021790290e-03 5.374856941272e-03 0.0 
0.0 0.0 -1.160781586281e-03 
-1.731537587415e-03 1.425159992310e-03 0.0 
1.425159992310e-03 6.282505969900e-03 0.0 
0.0 0.0 -9.517943393003e-04 
-1.629224858150e-05 -1.008868814593e-03 0.0 
-1.008868814593e-03 2.976796140904e-03 0.0 
0.0 0.0 -1.113435711030e-03 
2.175710495241e-03 -1.797462906061e-04 0.0 
-1.797462906061e-04 -1.087187483949e-03 0.0 
0.0 0.0 -4.665098619825e-04 
3.691792219411e-04 -5.499254361333e-04 0.0 
-5.499254361333e-04 2.333255494325e-03 0.0 
0.0 0.0 -1.086118700983e-03 
6.267430188437e-04 3.216016004345e-03 0.0 
3.216016004345e-03 1.125673463038e-03 0.0 
0.0 0.0 -7.510356350920e-04 
-1.659468944553e-03 1.282087032836e-03 0.0 
1.282087032836e-03 7.843512833905e-03 0.0 
0.0 0.0 -1.188704642750e-03 
-1.184759635984e-03 3.039469531493e-03 0.0 
3.039469531493e-03 5.917915895918e-03 0.0 
0.0 0.0 -1.200489323427e-03 
1.397717749359e-03 -3.084135371350e-05 0.0 
-3.084135371350e-05 -2.483823730722e-04 0.0 
0.0 0.0 -4.925723041230e-04 
2.632145634489e-03 2.594608975648e-04 0.0 
2.594608975648e-04 -1.433557919304e-03 0.0 
0.0 0.0 -5.136804493649e-04 
-3.195071874590e-04 2.949770132737e-03 0.0 
2.949770132737e-03 3.519559910754e-03 0.0 
0.0 0.0 -1.113685640909e-03 
5.151939740245e-04 3.610223291188e-03 0.0 
3.610223291188e-03 1.499767463066e-03 0.0 
0.0 0.0 -8.635549016102e-04 
2.789061016644e-03 1.329285031073e-03 0.0 
1.329285031073e-03 -1.174648499198e-03 0.0 
0.0 0.0 -6.918910789057e-04 
1.203480951529e-03 -2.452700069764e-04 0.0 
-2.452700069764e-04 3.890277914199e-04 0.0 
0.0 0.0 -6.825037469782e-04 
-1.401752245562e-04 -2.049705526548e-03 0.0 
-2.049705526548e-03 2.929158581755e-03 0.0 
0.0 0.0 -1.072977024862e-03 
2.580288745065e-03 -9.059416529247e-04 0.0 
-9.059416529247e-04 -1.319309692526e-03 0.0 
0.0 0.0 -5.404195939453e-04 
1.923073746863e-03 -4.525221159699e-05 0.0 
-4.525221159699e-05 -9.232494801660e-04 0.0 
0.0 0.0 -4.284961142987e-04 
-1.564398244357e-03 2.691343570358e-03 0.0 
2.691343570358e-03 5.384100406286e-03 0.0 
0.0 0.0 -9.596127204057e-04 
-1.615413359891e-03 -1.869412921893e-03 0.0 
-1.869412921893e-03 5.891470981236e-03 0.0 
0.0 0.0 -1.170838755190e-03 
-1.469366754309e-03 2.906743993666e-03 0.0 
2.906743993666e-03 5.300260062947e-03 0.0 
0.0 0.0 -9.876491701490e-04 
-3.947067001148e-04 3.217756852044e-03 0.0 
3.217756852044e-03 3.568382132428e-03 0.0 
0.0 0.0 -1.085374163265e-03 
-1.640677092253e-03 2.445403796559e-03 0.0 
2.445403796559e-03 5.441088956569e-03 0.0 
0.0 0.0 -9.316602363005e-04 
-1.740388366318e-03 1.924888427331e-03 0.0 
1.924888427331e-03 5.465143202308e-03 0.0 
0.0 0.0 -8.756372412555e-04 
-1.133390563237e-03 3.456670762875e-03 0.0 
3.456670762875e-03 4.264491800942e-03 0.0 
0.0 0.0 -9.452931837154e-04 
1.258865816682e-04 1.427076262396e-03 0.0 
1.427076262396e-03 2.787339061218e-03 0.0 
0.0 0.0 -1.133505030480e-03 
-1.184151913809e-03 -2.442035502192e-03 0.0 
-2.442035502192e-03 4.566403913145e-03 0.0 
0.0 0.0 -1.084522140297e-03 
-1.719906891250e-03 1.595024504340e-03 0.0 
1.595024504340e-03 6.646342255881e-03 0.0 
0.0 0.0 -1.017300281410e-03 
-1.572744207127e-03 2.077724400643e-03 0.0 
2.077724400643e-03 7.699948884985e-03 0.0 
0.0 0.0 -1.212886757924e-03 
-1.697994519952e-03 2.183604815945e-03 0.0 
2.183604815945e-03 5.469670954577e-03 0.0 
0.0 0.0 -9.037302385344e-04 
3.109518991990e-03 7.142103845853e-04 0.0 
7.142103845853e-04 -1.355577660133e-03 0.0 
0.0 0.0 -7.516891422245e-04 
-4.615783183021e-04 2.634115171252e-03 0.0 
2.634115171252e-03 4.171995570701e-03 0.0 
0.0 0.0 -1.146733564437e-03 
-1.623397737588e-03 9.830618757014e-04 0.0 
9.830618757014e-04 7.977997106224e-03 0.0 
0.0 0.0 -1.196744929305e-03 
1.210285564886e-03 2.794819533997e-03 0.0 
2.794819533997e-03 2.142507881916e-04 0.0 
0.0 0.0 -6.105155798904e-04 
7.664634744893e-04 3.055447408668e-03 0.0 
3.055447408668e-03 8.799111198642e-04 0.0 
0.0 0.0 -7.055891118657e-04 
3.026285545234e-03 6.479754984525e-04 0.0 
6.479754984525e-04 -1.309294928286e-03 0.0 
0.0 0.0 -7.358531215491e-04 
-1.707025994169e-03 1.825045050910e-03 0.0 
1.825045050910e-03 6.718430060264e-03 0.0 
0.0 0.0 -1.046609947212e-03 
1.285120213061e-04 3.160317099540e-03 0.0 
3.160317099540e-03 1.795393702842e-03 0.0 
0.0 0.0 -8.245310246350e-04 
6.213466678406e-04 3.150191375349e-03 0.0 
3.150191375349e-03 1.093887972575e-03 0.0 
0.0 0.0 -7.351005601782e-04 
1.723951590445e-04 3.402388421843e-03 0.0 
3.402388421843e-03 1.876640106691e-03 0.0 
0.0 0.0 -8.781579710297e-04 
4.568820957443e-04 1.515113560259e-03 0.0 
1.515113560259e-03 2.072520192967e-03 0.0 
0.0 0.0 -1.068254633495e-03 
-7.126619732765e-04 2.634214240334e-03 0.0 
2.634214240334e-03 4.664743447894e-03 0.0 
0.0 0.0 -1.211228670573e-03 
2.874495408011e-03 -1.147543994212e-04 0.0 
-1.147543994212e-04 -1.321663854737e-03 0.0 
0.0 0.0 -6.654992371173e-04 
1.333222057608e-03 -6.083160362555e-04 0.0 
-6.083160362555e-04 -1.046303648964e-03 0.0 
0.0 0.0 -1.229650322759e-04 
-1.560287505520e-03 2.397443585750e-03 0.0 
2.397443585750e-03 7.445606798374e-03 0.0 
0.0 0.0 -1.207184308065e-03 
-1.227743039735e-04 3.216961996269e-03 0.0 
3.216961996269e-03 2.287126095753e-03 0.0 
0.0 0.0 -9.275793393341e-04 
1.407399929741e-03 -1.790726840241e-03 0.0 
-1.790726840241e-03 -2.123508212015e-04 0.0 
0.0 0.0 -5.121639036598e-04 
-5.005943122338e-04 2.854917982027e-03 0.0 
2.854917982027e-03 4.092431792890e-03 0.0 
0.0 0.0 -1.177925372349e-03 
-1.802105864534e-03 1.325377431051e-03 0.0 
1.325377431051e-03 6.693893706785e-03 0.0 
0.0 0.0 -1.015069748350e-03 
-9.552400268193e-04 -2.590206578427e-03 0.0 
-2.590206578427e-03 4.033946220946e-03 0.0 
0.0 0.0 -1.055879354346e-03 
2.213755167184e-03 2.540569608467e-03 0.0 
2.540569608467e-03 -6.561328527755e-04 0.0 
0.0 0.0 -6.675524204610e-04 
8.596589765025e-04 -2.241190996513e-04 0.0 
-2.241190996513e-04 -8.596589765025e-04 0.0 
0.0 0.0 0.0 
-1.695761363760e-03 -1.692827267884e-03 0.0 
-1.692827267884e-03 6.306533924159e-03 0.0 
0.0 0.0 -1.202131160132e-03 
-2.109701725838e-06 3.652134540712e-03 0.0 
3.652134540712e-03 2.337584034461e-03 0.0 
0.0 0.0 -1.000917571172e-03 
6.440987285096e-04 1.846403855810e-03 0.0 
1.846403855810e-03 1.851485320469e-03 0.0 
0.0 0.0 -1.007142642412e-03 
-8.363103258721e-04 3.298399834443e-03 0.0 
3.298399834443e-03 4.744308506763e-03 0.0 
0.0 0.0 -1.157822513452e-03 
0.0 0.0 0.0 
0.0 0.0 0.0 
0.0 0.0 0.0 
-7.671375815713e-04 -2.153381723597e-03 0.0 
-2.153381723597e-03 3.958636255064e-03 0.0 
0.0 0.0 -1.058763633038e-03 
2.277342632696e-03 2.678034488429e-03 0.0 
2.678034488429e-03 -4.950023667951e-04 0.0 
0.0 0.0 -7.638601139576e-04 
-1.817865112225e-03 1.160846124058e-03 0.0 
1.160846124058e-03 6.325027627169e-03 0.0 
0.0 0.0 -9.498437721210e-04 
-6.483445776371e-04 -2.910728448364e-03 0.0 
-2.910728448364e-03 3.240421631363e-03 0.0 
0.0 0.0 -1.081826897668e-03 
2.882336660409e-03 6.507094583248e-04 0.0 
6.507094583248e-04 -1.354897536976e-03 0.0 
0.0 0.0 -6.546167671857e-04 
-1.512905320875e-03 -2.064322058959e-03 0.0 
-2.064322058959e-03 5.485314435598e-03 0.0 
0.0 0.0 -1.141635569211e-03 
5.629634582603e-04 3.291314317230e-03 0.0 
3.291314317230e-03 1.247171813043e-03 0.0 
0.0 0.0 -7.757722591300e-04 
3.097498388755e-03 7.515594805802e-04 0.0 
7.515594805802e-04 -1.504351798864e-03 0.0 
0.0 0.0 -6.827771099535e-04 
-3.950988348044e-04 3.677355835862e-03 0.0 
3.677355835862e-03 3.018937195948e-03 0.0 
0.0 0.0 -8.989548790023e-04 
1.227636575782e-03 -1.512351808794e-03 0.0 
-1.512351808794e-03 -1.085715777594e-03 0.0 
0.0 0.0 -6.082319922330e-05 
-5.120566939223e-04 3.175912523353e-03 0.0 
3.175912523353e-03 3.844622698218e-03 0.0 
0.0 0.0 -1.026417656363e-03 
5.399418997976e-04 8.396772710701e-04 0.0 
8.396772710701e-04 2.161243029461e-03 0.0 
0.0 0.0 -1.065496432940e-03 
-1.316213487934e-03 3.030027547422e-03 0.0 
3.030027547422e-03 6.243260056489e-03 0.0 
0.0 0.0 -1.233600908384e-03 
-6.242951805065e-04 3.006743678072e-03 0.0 
3.006743678072e-03 4.303063931573e-03 0.0 
0.0 0.0 -1.090749533212e-03 
3.026627229701e-03 -6.016138979488e-05 0.0 
-6.016138979488e-05 -1.354975115356e-03 0.0 
0.0 0.0 -7.164223347191e-04 
-1.354858739815e-03 -2.484739121398e-03 0.0 
-2.484739121398e-03 4.613680447839e-03 0.0 
0.0 0.0 -1.047231727503e-03 
-1.514361396418e-03 1.521820591863e-03 0.0 
1.521820591863e-03 8.031763007479e-03 0.0 
0.0 0.0 -1.228155452712e-03 
-7.050516080877e-04 1.545847486976e-03 0.0 
1.545847486976e-03 4.498069063216e-03 0.0 
0.0 0.0 -1.267145247477e-03 
2.943450069451e-04 1.256402020470e-03 0.0 
1.256402020470e-03 2.679722888331e-03 0.0 
0.0 0.0 -1.102242875413e-03 
2.428652697383e-03 1.957638321578e-03 0.0 
1.957638321578e-03 -9.445444981417e-04 0.0 
0.0 0.0 -6.360463711034e-04 
-4.362885790870e-04 3.400866484877e-03 0.0 
3.400866484877e-03 3.416922100764e-03 0.0 
0.0 0.0 -9.624716764950e-04 
-1.751273191057e-03 -1.178364827428e-03 0.0 
-1.178364827428e-03 6.153449964232e-03 0.0 
0.0 0.0 -1.164316760544e-03 
-1.510592316959e-03 -9.050842607301e-04 0.0 
-9.050842607301e-04 4.622892738446e-03 0.0 
0.0 0.0 -1.053897668350e-03 
-5.098353463404e-04 3.384769362386e-03 0.0 
3.384769362386e-03 3.650364032255e-03 0.0 
0.0 0.0 -1.057196955382e-03 
-1.719373888211e-03 1.382981273232e-03 0.0 
1.382981273232e-03 6.550039956498e-03 0.0 
0.0 0.0 -9.877098122506e-04 
-1.368682583039e-03 -2.262414624365e-03 0.0 
-2.262414624365e-03 5.045630347078e-03 0.0 
0.0 0.0 -1.112977059762e-03 
-8.018931633473e-04 -2.405053121667e-03 0.0 
-2.405053121667e-03 4.002834443873e-03 0.0 
0.0 0.0 -1.093234982489e-03 
-1.439791436846e-03 3.326807682738e-05 0.0 
3.326807682738e-05 4.943594407769e-03 0.0 
0.0 0.0 -7.313513689239e-04 
-1.427152505588e-03 6.033982237060e-05 0.0 
6.033982237060e-05 4.941916582327e-03 0.0 
0.0 0.0 -7.310574395863e-04 
-1.640756721107e-03 2.340459270020e-03 0.0 
2.340459270020e-03 5.815255979654e-03 0.0 
0.0 0.0 -9.927888931628e-04 
-4.210846566685e-04 3.601854565047e-03 0.0 
3.601854565047e-03 3.185506434217e-03 0.0 
0.0 0.0 -9.930598132463e-04 
-9.560102716365e-04 -2.664544190492e-03 0.0 
-2.664544190492e-03 3.772312719303e-03 0.0 
0.0 0.0 -1.075560717398e-03 
-1.206510850392e-03 3.047967158976e-03 0.0 
3.047967158976e-03 4.800933324251e-03 0.0 
0.0 0.0 -9.775429604617e-04 
9.349897265997e-04 2.908831422528e-03 0.0 
2.908831422528e-03 6.057047016785e-04 0.0 
0.0 0.0 -6.602976121192e-04 
-2.228664070200e-04 -2.583623366081e-04 0.0 
-2.583623366081e-04 3.335250712245e-03 0.0 
0.0 0.0 -1.180288150054e-03 
2.187201504106e-03 2.288354873068e-03 0.0 
2.288354873068e-03 -8.791309691096e-04 0.0 
0.0 0.0 -5.606016578557e-04 
-1.487430872272e-03 2.032395386043e-03 0.0 
2.032395386043e-03 8.531052034659e-03 0.0 
0.0 0.0 -1.323793839065e-03 
-1.724651487443e-03 1.733577269253e-03 0.0 
1.733577269253e-03 5.152685708698e-03 0.0 
0.0 0.0 -8.119939454945e-04 
9.559001502051e-04 3.301449321883e-03 0.0 
3.301449321883e-03 8.023167039533e-04 0.0 
0.0 0.0 -7.535215089250e-04 
-6.923989162598e-04 -2.921867110632e-03 0.0 
-2.921867110632e-03 3.238107663680e-03 0.0 
0.0 0.0 -9.778014170609e-04 
2.952487269304e-03 8.767188776773e-04 0.0 
8.767188776773e-04 -1.231732878316e-03 0.0 
0.0 0.0 -7.374661675664e-04 
-1.449260709310e-04 -3.081657457247e-03 0.0 
-3.081657457247e-03 2.244720614764e-03 0.0 
0.0 0.0 -8.999119473571e-04 
-2.467797576170e-04 3.715212164584e-03 0.0 
3.715212164584e-03 2.738719973416e-03 0.0 
0.0 0.0 -9.758126512751e-04 
-5.058945486498e-04 3.618733188483e-03 0.0 
3.618733188483e-03 3.154888480052e-03 0.0 
0.0 0.0 -9.833357802921e-04 
-1.733759676165e-03 1.654794489536e-03 0.0 
1.654794489536e-03 6.367451579884e-03 0.0 
0.0 0.0 -9.814596669550e-04 
-1.124005872780e-03 3.379084100680e-03 0.0 
3.379084100680e-03 4.616783585522e-03 0.0 
0.0 0.0 -1.008022096355e-03 
-1.207720735867e-03 2.984451381318e-03 0.0 
2.984451381318e-03 5.147076662744e-03 0.0 
0.0 0.0 -1.040850218070e-03 
2.462504755941e-04 -3.466601191775e-04 0.0 
-3.466601191775e-04 1.225957598323e-03 0.0 
0.0 0.0 -3.048810613884e-04 
-2.528363505661e-04 -3.115888982409e-03 0.0 
-3.115888982409e-03 2.486992936593e-03 0.0 
0.0 0.0 -9.574956797260e-04 
-1.072167557266e-04 3.402438706717e-03 0.0 
3.402438706717e-03 2.375040834749e-03 0.0 
0.0 0.0 -9.719246052952e-04 
-1.390405142798e-03 3.085939311603e-03 0.0 
3.085939311603e-03 4.874750960273e-03 0.0 
0.0 0.0 -9.521954671713e-04 
-1.463685875107e-03 2.723658434378e-03 0.0 
2.723658434378e-03 5.354618705334e-03 0.0 
0.0 0.0 -9.850634846466e-04 
6.151608619474e-06 9.602693822456e-04 0.0 
9.602693822456e-04 3.003172333009e-03 0.0 
0.0 0.0 -1.160108757481e-03 
-7.116028528234e-04 -3.542186094007e-05 0.0 
-3.542186094007e-05 2.109496799795e-03 0.0 
0.0 0.0 -4.489418961951e-04 
2.420991236615e-03 -1.793290854156e-03 0.0 
-1.793290854156e-03 -1.206914640352e-03 0.0 
0.0 0.0 -5.203185412556e-04 
3.220195077698e-04 3.501557464345e-03 0.0 
3.501557464345e-03 1.705209014718e-03 0.0 
0.0 0.0 -8.688122239235e-04 
-2.823129498517e-04 -2.964277233818e-03 0.0 
-2.964277233818e-03 2.454860756862e-03 0.0 
0.0 0.0 -9.310919172903e-04 
-1.415275034250e-03 1.292164494452e-03 0.0 
1.292164494452e-03 4.167269738145e-03 0.0 
0.0 0.0 -7.665650418521e-04 
-1.567864091306e-03 1.226683465556e-03 0.0 
1.226683465556e-03 4.493286725470e-03 0.0 
0.0 0.0 -7.530137074853e-04 
-1.810136366687e-03 1.412997826384e-03 0.0 
1.412997826384e-03 6.411444835685e-03 0.0 
0.0 0.0 -9.793492904611e-04 
2.087664328359e-03 2.568536785539e-03 0.0 
2.568536785539e-03 -3.889452908062e-04 0.0 
0.0 0.0 -7.280224446655e-04 
-7.741376345699e-04 -2.792621548151e-03 0.0 
-2.792621548151e-03 3.378364177398e-03 0.0 
0.0 0.0 -1.004244986112e-03 
4.531124457367e-04 -1.076750210340e-03 0.0 
-1.076750210340e-03 2.037967656610e-03 0.0 
0.0 0.0 -1.049209916622e-03 
2.297209205504e-03 -5.483206442365e-04 0.0 
-5.483206442365e-04 -1.311033635610e-03 0.0 
0.0 0.0 -4.226466728115e-04 
-1.149618319309e-03 2.959992214286e-03 0.0 
2.959992214286e-03 5.456359281312e-03 0.0 
0.0 0.0 -1.285586381397e-03 
-1.702357103576e-03 1.352649744862e-03 0.0 
1.352649744862e-03 7.576949821791e-03 0.0 
0.0 0.0 -1.152455342817e-03 
-8.320143767109e-04 -2.543685297260e-03 0.0 
-2.543685297260e-03 3.497707295059e-03 0.0 
0.0 0.0 -1.095064427584e-03 
-1.386779618523e-03 -1.910481505052e-03 0.0 
-1.910481505052e-03 5.018049845752e-03 0.0 
0.0 0.0 -1.078722419643e-03 
2.229975894309e-04 -4.489617714331e-04 0.0 
-4.489617714331e-04 5.979694486616e-04 0.0 
0.0 0.0 -2.949115613585e-04 
4.540170595140e-04 -1.645489130381e-03 0.0 
-1.645489130381e-03 1.801582255490e-03 0.0 
0.0 0.0 -9.666854207159e-04 
-6.035540888641e-05 3.789347029411e-03 0.0 
3.789347029411e-03 2.399475313532e-03 0.0 
0.0 0.0 -8.867106850074e-04 
4.160484422948e-04 -3.622442174599e-04 0.0 
-3.622442174599e-04 5.441875866839e-04 0.0 
0.0 0.0 -3.067690066256e-04 
-1.619412582140e-03 1.641534764462e-03 0.0 
1.641534764462e-03 7.530266774085e-03 0.0 
0.0 0.0 -1.154859126927e-03 
1.948099663815e-03 -7.569421743857e-04 0.0 
-7.569421743857e-04 -1.147440738389e-03 0.0 
0.0 0.0 -3.431395394681e-04 
-1.356737557429e-03 2.911706860265e-03 0.0 
2.911706860265e-03 4.923580709307e-03 0.0 
0.0 0.0 -9.496453321265e-04 
-5.843331771905e-04 3.664260117298e-03 0.0 
3.664260117298e-03 3.237703376181e-03 0.0 
0.0 0.0 -8.924259012440e-04 
1.585702125321e-03 -1.745985882028e-03 0.0 
-1.745985882028e-03 -4.551642142342e-04 0.0 
0.0 0.0 -4.845162476086e-04 
3.886198775371e-04 -2.656776709997e-03 0.0 
-2.656776709997e-03 1.521016158266e-03 0.0 
0.0 0.0 -8.184154439158e-04 
-1.604458387616e-03 1.854152015569e-03 0.0 
1.854152015569e-03 7.626319442818e-03 0.0 
0.0 0.0 -1.182898372388e-03 
1.911502030331e-04 -2.214449408558e-03 0.0 
-2.214449408558e-03 2.167051973238e-03 0.0 
0.0 0.0 -9.716005391690e-04 
4.578213256305e-04 3.411459955915e-03 0.0 
3.411459955915e-03 1.456160682634e-03 0.0 
0.0 0.0 -8.202780035418e-04 
3.627077773465e-04 3.714478666179e-03 0.0 
3.714478666179e-03 1.773296424289e-03 0.0 
0.0 0.0 -9.111404029742e-04 
1.874131474266e-04 1.317598379107e-03 0.0 
1.317598379107e-03 5.481764939296e-04 0.0 
0.0 0.0 -3.152527034384e-04 
1.643748758810e-03 -4.204231761426e-04 0.0 
-4.204231761426e-04 -1.117599327178e-03 0.0 
0.0 0.0 -2.254926135565e-04 
-5.203694144565e-04 2.878386602619e-03 0.0 
2.878386602619e-03 4.197902991695e-03 0.0 
0.0 0.0 -1.118331045454e-03 
-1.809983628728e-03 1.593568509076e-03 0.0 
1.593568509076e-03 5.817131701425e-03 0.0 
0.0 0.0 -9.085367473448e-04 
-5.577334774044e-04 3.082426156906e-03 0.0 
3.082426156906e-03 4.104685153811e-03 0.0 
0.0 0.0 -1.148691026115e-03 
1.974680470733e-03 2.873021825660e-03 0.0 
2.873021825660e-03 -4.940617528099e-04 0.0 
0.0 0.0 -6.345508791099e-04 
-1.588961869452e-03 2.584393938582e-03 0.0 
2.584393938582e-03 6.455891274831e-03 0.0 
0.0 0.0 -1.097950598811e-03 
-7.723714131083e-04 2.927319470345e-03 0.0 
2.927319470345e-03 4.791549148204e-03 0.0 
0.0 0.0 -1.155407764312e-03 
-1.528620740983e-03 1.641090201076e-03 0.0 
1.641090201076e-03 4.483124494598e-03 0.0 
0.0 0.0 -7.696970057192e-04 
-6.364037100851e-04 3.205127351833e-03 0.0 
3.205127351833e-03 4.133031580390e-03 0.0 
0.0 0.0 -1.120992621467e-03 
-1.531289715330e-03 -2.235814658200e-03 0.0 
-2.235814658200e-03 5.083560864057e-03 0.0 
0.0 0.0 -1.075946734593e-03 
-1.542078502361e-04 3.681831680089e-03 0.0 
3.681831680089e-03 2.560354402538e-03 0.0 
0.0 0.0 -9.606735922745e-04 
-4.462082875552e-04 -3.056851139717e-03 0.0 
-3.056851139717e-03 2.847631123845e-03 0.0 
0.0 0.0 -1.006543408955e-03 
-3.390473984761e-04 -3.081268501996e-03 0.0 
-3.081268501996e-03 2.650937052075e-03 0.0 
0.0 0.0 -9.908098515424e-04 
-1.654766843293e-03 2.110154288789e-03 0.0 
2.110154288789e-03 7.526175185133e-03 0.0 
0.0 0.0 -1.204704583718e-03 
6.478121330843e-04 -2.891464683005e-03 0.0 
-2.891464683005e-03 9.158033438757e-04 0.0 
0.0 0.0 -6.701209186971e-04 
-3.674328541616e-04 3.694790859021e-03 0.0 
3.694790859021e-03 2.941360548218e-03 0.0 
0.0 0.0 -9.833476869619e-04 
1.512914527637e-03 2.270095044354e-03 0.0 
2.270095044354e-03 -2.495167818894e-04 0.0 
0.0 0.0 -5.414561767490e-04 
-4.689248235341e-05 -1.859495784931e-03 0.0 
-1.859495784931e-03 2.784842397476e-03 0.0 
0.0 0.0 -1.038364586984e-03 
1.508518420493e-03 2.943740230317e-03 0.0 
2.943740230317e-03 4.760392635737e-05 0.0 
0.0 0.0 -6.669095772216e-04 
3.102345530720e-03 7.378269526544e-05 0.0 
7.378269526544e-05 -1.464469892876e-03 0.0 
0.0 0.0 -7.019467019332e-04 
1.507578771505e-03 -7.604032194635e-04 0.0 
-7.604032194635e-04 -4.928220476776e-04 0.0 
0.0 0.0 -4.348957387830e-04 
3.148975456484e-03 8.306636056168e-04 0.0 
8.306636056168e-04 -1.496370463473e-03 0.0 
0.0 0.0 -7.082592827190e-04 
-1.261991141926e-03 3.267444165813e-03 0.0 
3.267444165813e-03 4.752384958846e-03 0.0 
0.0 0.0 -9.799122972177e-04 
3.123536661893e-03 -9.721135346994e-05 0.0 
-9.721135346994e-05 -1.405927083563e-03 0.0 
0.0 0.0 -7.361183907127e-04 
-1.047249439091e-03 3.250277679615e-03 0.0 
3.250277679615e-03 4.315763371752e-03 0.0 
0.0 0.0 -9.420580210740e-04 
1.883489007768e-04 8.010579783403e-04 0.0 
8.010579783403e-04 2.876523535355e-03 0.0 
0.0 0.0 -1.130549445556e-03 
3.588863471818e-04 1.014874640691e-03 0.0 
1.014874640691e-03 2.306525440664e-03 0.0 
0.0 0.0 -1.096529089934e-03 
1.700464822711e-03 2.598856322658e-03 0.0 
2.598856322658e-03 -4.407098144151e-04 0.0 
0.0 0.0 -5.398950035552e-04 
-1.732708782740e-03 1.731245879395e-03 0.0 
1.731245879395e-03 6.071080868846e-03 0.0 
0.0 0.0 -9.460253849645e-04 
-1.548270655095e-03 -1.671057713006e-03 0.0 
-1.671057713006e-03 5.446327602559e-03 0.0 
0.0 0.0 -1.107441567342e-03 
-1.667313564664e-03 -1.981097125204e-03 0.0 
-1.981097125204e-03 5.509726630970e-03 0.0 
0.0 0.0 -1.104747680386e-03 
1.318532451431e-03 2.199681040646e-03 0.0 
2.199681040646e-03 -1.454539841179e-04 0.0 
0.0 0.0 -5.027479145627e-04 
-9.715008187727e-04 3.547635970715e-03 0.0 
3.547635970715e-03 4.097719530490e-03 0.0 
0.0 0.0 -9.724793438395e-04 
-1.624312607657e-03 -1.275879739373e-03 0.0 
-1.275879739373e-03 6.206545711786e-03 0.0 
0.0 0.0 -1.205818386895e-03 
-2.985133365854e-04 2.525233875689e-03 0.0 
2.525233875689e-03 2.218258876373e-03 0.0 
0.0 0.0 -8.227480884806e-04 
-1.021411894397e-03 -2.472960565398e-03 0.0 
-2.472960565398e-03 3.861949643739e-03 0.0 
0.0 0.0 -1.085013296808e-03 
1.242793848756e-04 1.186515148645e-03 0.0 
1.186515148645e-03 5.554989300674e-04 0.0 
0.0 0.0 -2.913335635470e-04 
-1.667346094177e-03 -1.424810251550e-03 0.0 
-1.424810251550e-03 5.825346578498e-03 0.0 
0.0 0.0 -1.136235114959e-03 
3.019668846566e-03 9.582089678435e-04 0.0 
9.582089678435e-04 -1.448201355488e-03 0.0 
0.0 0.0 -6.734860676048e-04 
-1.578302787965e-03 -5.539699262797e-04 0.0 
-5.539699262797e-04 4.756261434844e-03 0.0 
0.0 0.0 -1.057437106069e-03 
4.911868189057e-04 2.542757255714e-03 0.0 
2.542757255714e-03 1.777357060087e-03 0.0 
0.0 0.0 -9.722330909969e-04 
-1.811529723315e-03 1.498050121893e-03 0.0 
1.498050121893e-03 6.116522056800e-03 0.0 
0.0 0.0 -9.438854677472e-04 
-1.729248363348e-03 1.804686593249e-03 0.0 
1.804686593249e-03 5.771244996451e-03 0.0 
0.0 0.0 -9.108073647307e-04 
1.218753398279e-04 3.628872757319e-03 0.0 
3.628872757319e-03 2.104833384723e-03 0.0 
0.0 0.0 -9.543037390934e-04 
-1.106695794268e-03 1.517581520969e-03 0.0 
1.517581520969e-03 3.539684992285e-03 0.0 
0.0 0.0 -7.963586959451e-04 
-1.268797780777e-03 1.437345509075e-03 0.0 
1.437345509075e-03 3.867869279896e-03 0.0 
0.0 0.0 -7.758011671882e-04 
-1.764900971931e-03 -1.718354051601e-03 0.0 
-1.718354051601e-03 5.889801463908e-03 0.0 
0.0 0.0 -1.133400347077e-03 
2.569249843707e-04 -2.786570784076e-03 0.0 
-2.786570784076e-03 1.556740733674e-03 0.0 
0.0 0.0 -7.772853077335e-04 
1.174175751745e-03 -1.803885435246e-03 0.0 
-1.803885435246e-03 -1.174563587325e-05 0.0 
0.0 0.0 -4.981843353734e-04 
5.912929398665e-04 -9.060768193030e-04 0.0 
-9.060768193030e-04 1.727113514221e-03 0.0 
0.0 0.0 -9.936027660373e-04 
2.016096735556e-03 -6.850330429382e-04 0.0 
-6.850330429382e-04 -9.758089702167e-04 0.0 
0.0 0.0 -4.458376137168e-04 
3.081197548797e-03 7.466969370712e-04 0.0 
7.466969370712e-04 -1.300129295292e-03 0.0 
0.0 0.0 -7.633149657881e-04 
-1.128831614242e-03 1.542551351037e-03 0.0 
1.542551351037e-03 3.551129300523e-03 0.0 
0.0 0.0 -7.520787537531e-04 
-1.821423928511e-03 1.474632635918e-03 0.0 
1.474632635918e-03 5.487726439764e-03 0.0 
0.0 0.0 -8.442294783838e-04 
-1.409406014707e-03 4.528826506854e-05 0.0 
4.528826506854e-05 5.214877225355e-03 0.0 
0.0 0.0 -7.121995050294e-04 
4.077287179479e-04 3.674953038794e-04 0.0 
3.674953038794e-04 2.393170375530e-03 0.0 
0.0 0.0 -1.093598669875e-03 
1.997342351340e-03 2.504018622736e-03 0.0 
2.504018622736e-03 -5.807467309884e-04 0.0 
0.0 0.0 -6.071124087219e-04 
-4.482284720357e-04 1.652414080391e-03 0.0 
1.652414080391e-03 3.958656300163e-03 0.0 
0.0 0.0 -1.233571955743e-03 
-2.022662331208e-03 -4.627058437959e-04 0.0 
-4.627058437959e-04 6.332672682848e-03 0.0 
0.0 0.0 -1.121177773779e-03 
1.798099945912e-03 -8.661440026173e-04 0.0 
-8.661440026173e-04 -7.288088564904e-04 0.0 
0.0 0.0 -4.582676097521e-04 
-1.524985310237e-03 -1.822620195545e-03 0.0 
-1.822620195545e-03 6.245562815238e-03 0.0 
0.0 0.0 -1.241472629463e-03 
3.003131752772e-03 -8.623198735716e-04 0.0 
-8.623198735716e-04 -1.396381984480e-03 0.0 
0.0 0.0 -6.886070435535e-04 
-3.779034990216e-04 2.052169755275e-03 0.0 
2.052169755275e-03 3.788846745744e-03 0.0 
0.0 0.0 -1.204482468497e-03 
1.415534273829e-04 3.636591431357e-03 0.0 
3.636591431357e-03 2.169944347150e-03 0.0 
0.0 0.0 -8.910665706739e-04 
8.940143763455e-06 3.422262264522e-03 0.0 
3.422262264522e-03 2.416052284656e-03 0.0 
0.0 0.0 -9.848034212814e-04 
-1.370477965762e-04 -1.170123439274e-03 0.0 
-1.170123439274e-03 3.214973093205e-03 0.0 
0.0 0.0 -1.146785027167e-03 
3.884013163081e-04 -2.855323367017e-03 0.0 
-2.855323367017e-03 1.211719834243e-03 0.0 
0.0 0.0 -6.857662073788e-04 
-7.129927410741e-04 3.670079492291e-03 0.0 
3.670079492291e-03 3.538541594785e-03 0.0 
0.0 0.0 -9.649174008510e-04 
1.717035050200e-03 -1.344860437860e-03 0.0 
-1.344860437860e-03 -6.217055712217e-04 0.0 
0.0 0.0 -4.694269195620e-04 
-8.587679122771e-04 3.481313587749e-03 0.0 
3.481313587749e-03 3.794469535060e-03 0.0 
0.0 0.0 -9.065670216064e-04 
1.889810402813e-03 2.899509189946e-03 0.0 
2.899509189946e-03 -2.152817456685e-04 0.0 
0.0 0.0 -7.176551387762e-04 
1.428912843794e-04 3.126816861625e-03 0.0 
3.126816861625e-03 2.356543378173e-03 0.0 
0.0 0.0 -1.013229387512e-03 
1.943775632291e-03 -1.286497408609e-03 0.0 
-1.286497408609e-03 -8.334086717492e-04 0.0 
0.0 0.0 -4.758715545177e-04 
-1.000337791729e-03 -2.628959420428e-03 0.0 
-2.628959420428e-03 3.773462867951e-03 0.0 
0.0 0.0 -9.886579807222e-04 
-8.325357311160e-04 3.547635505547e-03 0.0 
3.547635505547e-03 3.716995785029e-03 0.0 
0.0 0.0 -9.612835620876e-04 
2.687167972919e-04 1.795311194676e-03 0.0 
1.795311194676e-03 1.563575924244e-04 0.0 
0.0 0.0 -1.821747384498e-04 
1.057813883420e-03 2.534506278338e-03 0.0 
2.534506278338e-03 3.175156107454e-04 0.0 
0.0 0.0 -5.894269260710e-04 
4.651919044669e-04 1.924261843739e-03 0.0 
1.924261843739e-03 5.725607713308e-04 0.0 
0.0 0.0 -4.447511467704e-04 
-3.371303889653e-04 -7.500919376923e-04 0.0 
-7.500919376923e-04 1.299829984783e-03 0.0 
0.0 0.0 -4.040777003935e-04 
-1.056371726126e-03 -2.468497531733e-03 0.0 
-2.468497531733e-03 3.865104933196e-03 0.0 
0.0 0.0 -1.010653628765e-03 
-9.607789536056e-04 3.048565223821e-03 0.0 
3.048565223821e-03 4.940644900743e-03 0.0 
0.0 0.0 -1.098354823938e-03 
-1.707850550320e-03 2.055402839425e-03 0.0 
2.055402839425e-03 5.786469608898e-03 0.0 
0.0 0.0 -9.387552692591e-04 
-7.756723233026e-04 1.730094175383e-03 0.0 
1.730094175383e-03 2.916527936956e-03 0.0 
0.0 0.0 -8.497951325312e-04 
-1.342322198460e-03 2.098270725376e-03 0.0 
2.098270725376e-03 8.248661573518e-03 0.0 
0.0 0.0 -1.342322198460e-03 
-1.446733950914e-04 1.800044837366e-03 0.0 
1.800044837366e-03 2.248956504332e-04 0.0 
0.0 0.0 -3.438096657507e-05 
-9.510393810217e-04 1.672687846132e-03 0.0 
1.672687846132e-03 3.246503304730e-03 0.0 
0.0 0.0 -8.134098498104e-04 
1.098475143763e-03 -2.031876221816e-03 0.0 
-2.031876221816e-03 1.166483383452e-04 0.0 
0.0 0.0 -5.207672066180e-04 
-1.089976521784e-03 -2.234801732660e-03 0.0 
-2.234801732660e-03 3.943897982090e-03 0.0 
0.0 0.0 -1.084767721667e-03 
-1.111038172895e-03 2.200189741588e-03 0.0 
2.200189741588e-03 3.768833115442e-03 0.0 
0.0 0.0 -8.610308207870e-04 
2.262464148868e-03 -1.945012542063e-03 0.0 
-1.945012542063e-03 -8.191237484730e-04 0.0 
0.0 0.0 -6.185744573122e-04 
5.761048584873e-04 -2.775225325336e-03 0.0 
-2.775225325336e-03 9.303736926873e-04 0.0 
0.0 0.0 -6.456336647891e-04 
-1.625181255020e-04 3.528619970826e-03 0.0 
3.528619970826e-03 2.809301514261e-03 0.0 
0.0 0.0 -9.266779469803e-04 
7.488835648315e-04 2.251240740231e-03 0.0 
2.251240740231e-03 1.162555029076e-03 0.0 
0.0 0.0 -8.191879688175e-04 
-1.329752805185e-03 3.181517598016e-03 0.0 
3.181517598016e-03 5.907007101231e-03 0.0 
0.0 0.0 -1.144302277022e-03 
1.946489244002e-03 2.821542424935e-03 0.0 
2.821542424935e-03 -8.035545710095e-04 0.0 
0.0 0.0 -4.898291455683e-04 
-8.586335344055e-04 -2.592060326530e-03 0.0 
-2.592060326530e-03 3.501562453949e-03 0.0 
0.0 0.0 -1.023226067289e-03 
-1.335563518602e-03 -1.880041070522e-03 0.0 
-1.880041070522e-03 4.351195601973e-03 0.0 
0.0 0.0 -1.033071644556e-03 
-2.022124363338e-05 -2.395587679301e-03 0.0 
-2.395587679301e-03 1.567846091858e-03 0.0 
0.0 0.0 -6.632677920962e-04 
-1.674900766220e-03 1.599025443535e-03 0.0 
1.599025443535e-03 4.804084785627e-03 0.0 
0.0 0.0 -7.663799295492e-04 
-1.769874274313e-03 1.858383186956e-03 0.0 
1.858383186956e-03 5.835930784600e-03 0.0 
0.0 0.0 -9.362314798257e-04 
-2.069835677089e-03 -4.002455476683e-04 0.0 
-4.002455476683e-04 5.909495734486e-03 0.0 
0.0 0.0 -1.073191215027e-03 
1.059197299257e-03 -5.440939611188e-04 0.0 
-5.440939611188e-04 5.670737881280e-04 0.0 
0.0 0.0 -3.365581251930e-04 
0.0 0.0 0.0 
0.0 0.0 0.0 
0.0 0.0 0.0 
-4.602170046064e-05 -1.936536183988e-03 0.0 
-1.936536183988e-03 1.323038368316e-03 0.0 
0.0 0.0 -5.472928576524e-04 
-1.313750205869e-03 -1.893362186714e-03 0.0 
-1.893362186714e-03 4.351424993746e-03 0.0 
0.0 0.0 -1.080662880999e-03 
2.816321063082e-03 -8.334388727588e-04 0.0 
-8.334388727588e-04 -1.272649618703e-03 0.0 
0.0 0.0 -6.615734761625e-04 
2.373065583622e-03 -2.080956134851e-03 0.0 
-2.080956134851e-03 -1.010649277428e-03 0.0 
0.0 0.0 -5.838927026542e-04 
2.954183213689e-03 -8.930251278497e-04 0.0 
-8.930251278497e-04 -1.356411275311e-03 0.0 
0.0 0.0 -6.847594021618e-04 
-1.301232695251e-03 -2.116378151629e-03 0.0 
-2.116378151629e-03 4.314126103213e-03 0.0 
0.0 0.0 -1.020860678390e-03 
-1.603005468093e-03 2.550878726920e-03 0.0 
2.550878726920e-03 5.754736739264e-03 0.0 
0.0 0.0 -9.956198530692e-04 
-1.518941795168e-03 -1.499106977263e-03 0.0 
-1.499106977263e-03 4.706029179031e-03 0.0 
0.0 0.0 -1.043188517862e-03 
2.974270505683e-03 -1.234815007946e-05 0.0 
-1.234815007946e-05 -1.384428534307e-03 0.0 
0.0 0.0 -6.813608448753e-04 
-8.631645989931e-04 3.291242542591e-03 0.0 
3.291242542591e-03 4.149472146392e-03 0.0 
0.0 0.0 -9.699423737970e-04 
-1.666656418554e-03 8.515973861887e-04 0.0 
8.515973861887e-04 5.656067677278e-03 0.0 
0.0 0.0 -8.236220363599e-04 
2.293852952879e-04 2.317534078424e-03 0.0 
2.317534078424e-03 2.464619361077e-03 0.0 
0.0 0.0 -1.076197569190e-03 
-1.503911657480e-03 -1.536228813635e-03 0.0 
-1.536228813635e-03 4.713514709764e-03 0.0 
0.0 0.0 -1.079735805607e-03 
-1.269594224654e-03 -2.151916428327e-03 0.0 
-2.151916428327e-03 4.311241093571e-03 0.0 
0.0 0.0 -1.081849276551e-03 
-4.912617181252e-04 1.776659374520e-03 0.0 
1.776659374520e-03 2.250419150674e-03 0.0 
0.0 0.0 -7.539246139495e-04 
2.432965561316e-03 -1.404722775878e-03 0.0 
-1.404722775878e-03 -1.097996306609e-03 0.0 
0.0 0.0 -5.721296805886e-04 
-1.672927313923e-03 -1.115371020166e-03 0.0 
-1.115371020166e-03 5.017856732658e-03 0.0 
0.0 0.0 -1.052805964859e-03 
-1.580075754320e-03 2.157353104837e-04 0.0 
2.157353104837e-04 6.692661968395e-03 0.0 
0.0 0.0 -9.615701295830e-04 
-1.562907036777e-03 2.120583330649e-04 0.0 
2.120583330649e-04 6.337987109484e-03 0.0 
0.0 0.0 -8.972249362023e-04 
-6.223529423683e-04 1.809817658288e-03 0.0 
1.809817658288e-03 2.623397927817e-03 0.0 
0.0 0.0 -8.575907080495e-04 
-1.509705893005e-03 -1.747591078712e-03 0.0 
-1.747591078712e-03 4.715855182949e-03 0.0 
0.0 0.0 -1.032785096058e-03 
1.569414128809e-03 -2.550888608895e-03 0.0 
-2.550888608895e-03 -3.370499251341e-04 0.0 
0.0 0.0 -5.281560872893e-04 
8.209882341614e-04 2.381580320664e-03 0.0 
2.381580320664e-03 4.553315452112e-04 0.0 
0.0 0.0 -5.469941911596e-04 
-2.931643961127e-04 1.527189756473e-03 0.0 
1.527189756473e-03 3.869126548266e-03 0.0 
0.0 0.0 -1.202908440308e-03 
1.382596818972e-04 -2.070148021774e-03 0.0 
-2.070148021774e-03 1.091658495820e-03 0.0 
0.0 0.0 -5.271077904503e-04 
1.398235426833e-03 -2.548773596058e-03 0.0 
-2.548773596058e-03 -7.584749764511e-05 0.0 
0.0 0.0 -5.667376839375e-04 
1.254646909069e-03 2.484629242297e-03 0.0 
2.484629242297e-03 3.513264158718e-04 0.0 
0.0 0.0 -6.882742821176e-04 
-8.245697505670e-04 1.707333830662e-03 0.0 
1.707333830662e-03 2.953610139157e-03 0.0 
0.0 0.0 -7.843752346430e-04 
-1.666758732331e-03 -1.174236117568e-03 0.0 
-1.174236117568e-03 5.037001804565e-03 0.0 
0.0 0.0 -1.079856008588e-03 
-9.244628747481e-04 -1.936309255703e-04 0.0 
-1.936309255703e-04 2.822852214519e-03 0.0 
0.0 0.0 -6.624393034254e-04 
-1.781970376818e-03 1.286452196401e-03 0.0 
1.286452196401e-03 5.020731578576e-03 0.0 
0.0 0.0 -7.824198048058e-04 
-1.484587749919e-03 -1.812874826371e-03 0.0 
-1.812874826371e-03 4.718401123365e-03 0.0 
0.0 0.0 -1.081372135754e-03 
1.084769609676e-03 -2.051097269290e-03 0.0 
-2.051097269290e-03 1.328211131767e-04 0.0 
0.0 0.0 -5.218245955084e-04 
-7.383188819978e-04 -2.755351396555e-03 0.0 
-2.755351396555e-03 3.375108004806e-03 0.0 
0.0 0.0 -1.093992571453e-03 
0.0 0.0 0.0 
0.0 0.0 0.0 
0.0 0.0 0.0 
-1.585395185030e-03 -8.733622601649e-05 0.0 
-8.733622601649e-05 7.915806537563e-03 0.0 
0.0 0.0 -1.152567315725e-03 
1.675271907871e-03 -2.177617042757e-03 0.0 
-2.177617042757e-03 -5.173898653476e-04 0.0 
0.0 0.0 -4.962351610816e-04 
3.706447397785e-05 2.070351060898e-04 0.0 
2.070351060898e-04 3.044600736775e-03 0.0 
0.0 0.0 -1.154039482800e-03 
2.069033457779e-04 2.961881208612e-03 0.0 
2.961881208612e-03 2.494592241471e-03 0.0 
0.0 0.0 -9.821191134873e-04 
-1.685773855788e-03 -1.377399783606e-03 0.0 
-1.377399783606e-03 5.070521373149e-03 0.0 
0.0 0.0 -1.044398856648e-03 
-1.669266621470e-03 -1.454184032041e-03 0.0 
-1.454184032041e-03 5.079788696568e-03 0.0 
0.0 0.0 -1.081576243284e-03 
2.914990553637e-03 -7.685843879532e-04 0.0 
-7.685843879532e-04 -1.358389786941e-03 0.0 
0.0 0.0 -6.671146142982e-04 
1.578300081431e-04 -1.839580637340e-03 0.0 
-1.839580637340e-03 9.146826550122e-04 0.0 
0.0 0.0 -4.596482842094e-04 
5.655633450819e-04 1.634462446329e-03 0.0 
1.634462446329e-03 -4.353216112412e-04 0.0 
0.0 0.0 -5.581788593170e-05 
-1.838374468884e-03 -1.008357892208e-03 0.0 
-1.008357892208e-03 5.389548205880e-03 0.0 
0.0 0.0 -1.053342186814e-03 
-7.735429255110e-05 -5.938829985412e-04 0.0 
-5.938829985412e-04 3.207515001155e-03 0.0 
0.0 0.0 -1.148056181429e-03 
8.407270435530e-04 -2.401906140793e-03 0.0 
-2.401906140793e-03 4.680800088294e-04 0.0 
0.0 0.0 -5.609173081639e-04 
-8.059519139880e-04 3.569609752867e-03 0.0 
3.569609752867e-03 3.937575205409e-03 0.0 
0.0 0.0 -1.000702849114e-03 
-1.423128099077e-04 2.434671484328e-03 0.0 
2.434671484328e-03 1.829214520191e-03 0.0 
0.0 0.0 -7.229578758357e-04 
-1.050409536978e-03 3.126628093613e-03 0.0 
3.126628093613e-03 4.667808075339e-03 0.0 
0.0 0.0 -1.005614027492e-03 
-9.737300203529e-04 -1.654439195094e-03 0.0 
-1.654439195094e-03 5.294537233988e-03 0.0 
0.0 0.0 -1.266534580134e-03 
0.0 0.0 0.0 
0.0 0.0 0.0 
0.0 0.0 0.0 
-1.341620833825e-03 1.946460220436e-04 0.0 
1.946460220436e-04 8.726655578502e-03 0.0 
0.0 0.0 -1.341620833825e-03 
-1.340051318819e-03 -5.222823624513e-04 0.0 
-5.222823624513e-04 7.102242080382e-03 0.0 
0.0 0.0 -1.340051318819e-03 
-1.487218295656e-03 -1.877140319118e-04 0.0 
-1.877140319118e-04 5.546795712007e-03 0.0 
0.0 0.0 -7.955197795907e-04 
9.332368058577e-04 -2.323240235713e-03 0.0 
-2.323240235713e-03 3.557999178189e-04 0.0 
0.0 0.0 -5.524443101471e-04 
4.489255113100e-05 3.284657334475e-03 0.0 
3.284657334475e-03 2.631811467132e-03 0.0 
0.0 0.0 -9.543595451431e-04 
3.058132153657e-03 -1.043711929510e-04 0.0 
-1.043711929510e-04 -1.411540431284e-03 0.0 
0.0 0.0 -7.056821667315e-04 
-3.299569164523e-05 -1.162968038586e-03 0.0 
-1.162968038586e-03 1.091173189700e-03 0.0 
0.0 0.0 -3.090400745732e-04 
-2.987633103808e-05 1.448737637593e-03 0.0 
1.448737637593e-03 4.607872875098e-04 0.0 
0.0 0.0 -1.846761242021e-04 
-1.574977123889e-03 5.363765110094e-04 0.0 
5.363765110094e-04 8.165141429638e-03 0.0 
0.0 0.0 -1.209499414335e-03 
-1.716498366635e-03 2.104119454666e-03 0.0 
2.104119454666e-03 5.843034081691e-03 0.0 
0.0 0.0 -9.648175333861e-04 
-1.733356707705e-03 1.154742806149e-03 0.0 
1.154742806149e-03 4.860119042041e-03 0.0 
0.0 0.0 -7.487175554447e-04 
-1.114495707937e-03 3.137897512820e-03 0.0 
3.137897512820e-03 5.995042437661e-03 0.0 
0.0 0.0 -1.323661129950e-03 
-8.127251142362e-04 -1.412537566310e-04 0.0 
-1.412537566310e-04 2.411308652960e-03 0.0 
0.0 0.0 -5.128881373376e-04 
-1.119968701545e-03 2.850061398458e-03 0.0 
2.850061398458e-03 5.775097260118e-03 0.0 
0.0 0.0 -1.324908485340e-03 
-1.665581242751e-03 2.319761122546e-03 0.0 
2.319761122546e-03 5.793099015745e-03 0.0 
0.0 0.0 -9.670422101491e-04 
5.568715715285e-04 -2.770077582360e-03 0.0 
-2.770077582360e-03 9.496266440003e-04 0.0 
0.0 0.0 -6.456420923695e-04 
2.161043505782e-04 3.547732125549e-03 0.0 
3.547732125549e-03 1.898015910390e-03 0.0 
0.0 0.0 -9.060515404150e-04 
9.950905598312e-04 -2.671652170698e-03 0.0 
-2.671652170698e-03 4.709180402517e-04 0.0 
0.0 0.0 -6.282894000355e-04 
6.980021611784e-04 2.329704923171e-03 0.0 
2.329704923171e-03 5.591408928334e-04 0.0 
0.0 0.0 -5.387755945765e-04 
7.505691487916e-04 -2.806175756815e-03 0.0 
-2.806175756815e-03 7.604579484207e-04 0.0 
0.0 0.0 -6.475830416624e-04 
-1.523404584578e-03 2.773030803061e-03 0.0 
2.773030803061e-03 5.696563371559e-03 0.0 
0.0 0.0 -1.023749757194e-03 
-1.948666597127e-03 -9.778535476886e-04 0.0 
-9.778535476886e-04 6.429483775968e-03 0.0 
0.0 0.0 -1.155390781228e-03 
1.789573321784e-03 -2.334741346390e-03 0.0 
-2.334741346390e-03 -4.865776105569e-04 0.0 
0.0 0.0 -5.584267333832e-04 
-9.825735489597e-04 3.435129640079e-03 0.0 
3.435129640079e-03 4.478995622056e-03 0.0 
0.0 0.0 -1.036271578259e-03 
0.0 0.0 0.0 
0.0 0.0 0.0 
0.0 0.0 0.0 
2.596759179503e-03 -1.389222099922e-03 0.0 
-1.389222099922e-03 -1.085257982110e-03 0.0 
0.0 0.0 -6.477862274541e-04 
-1.710970656604e-03 2.103685284721e-03 0.0 
2.103685284721e-03 6.525687664567e-03 0.0 
0.0 0.0 -1.066385360782e-03 
2.404574348015e-04 -2.949261258943e-03 0.0 
-2.949261258943e-03 1.482737397066e-03 0.0 
0.0 0.0 -7.385120708004e-04 
6.388802882870e-04 -2.505035958296e-03 0.0 
-2.505035958296e-03 7.105369687538e-04 0.0 
0.0 0.0 -5.783216815889e-04 
3.613031293431e-04 3.302322730047e-03 0.0 
3.302322730047e-03 1.977511413847e-03 0.0 
0.0 0.0 -9.187611816440e-04 
1.834377336541e-03 -2.869898485884e-03 0.0 
-2.869898485884e-03 -1.676988345135e-04 0.0 
0.0 0.0 -7.142907865831e-04 
-2.603602936992e-04 1.802957872284e-03 0.0 
1.802957872284e-03 1.690888390106e-03 0.0 
0.0 0.0 -6.130834698885e-04 
-3.766094290651e-04 1.893748037744e-03 0.0 
1.893748037744e-03 2.022328291586e-03 0.0 
0.0 0.0 -7.053080839374e-04 
2.569187355972e-04 -2.744654995445e-03 0.0 
-2.744654995445e-03 1.329889881086e-03 0.0 
0.0 0.0 -6.800608357214e-04 
9.113223760588e-04 -2.364957113740e-03 0.0 
-2.364957113740e-03 3.924099138829e-04 0.0 
0.0 0.0 -5.587424099750e-04 
1.417197887517e-03 2.585133621544e-03 0.0 
2.585133621544e-03 -7.607709962934e-05 0.0 
0.0 0.0 -5.747660519518e-04 
-8.949493316928e-04 3.143090586373e-03 0.0 
3.143090586373e-03 4.528621917534e-03 0.0 
0.0 0.0 -1.033897369924e-03 
-1.400349245868e-03 3.030732209316e-03 0.0 
3.030732209316e-03 6.703483299750e-03 0.0 
0.0 0.0 -1.224260864640e-03 
-5.253406665386e-04 1.775908047208e-03 0.0 
1.775908047208e-03 2.340968666104e-03 0.0 
0.0 0.0 -7.781262855279e-04 
-1.583002963210e-03 -1.557788336479e-04 0.0 
-1.557788336479e-04 7.086569384723e-03 0.0 
0.0 0.0 -1.028620860735e-03 
-1.145284533028e-03 3.268026662313e-03 0.0 
3.268026662313e-03 5.700409497196e-03 0.0 
0.0 0.0 -1.228414553209e-03 
3.124385303303e-03 -1.108728093105e-05 0.0 
-1.108728093105e-05 -1.500119221682e-03 0.0 
0.0 0.0 -6.961140349804e-04 
5.697530012785e-04 2.144073309248e-03 0.0 
2.144073309248e-03 5.848519704173e-04 0.0 
0.0 0.0 -4.948307021553e-04 
-2.816210062748e-04 2.601627525948e-03 0.0 
2.601627525948e-03 2.228068929511e-03 0.0 
0.0 0.0 -8.341919671012e-04 
8.341721467740e-04 -2.510433576068e-03 0.0 
-2.510433576068e-03 5.276394565767e-04 0.0 
0.0 0.0 -5.836335442932e-04 
-1.247042165843e-03 3.250100918931e-03 0.0 
3.250100918931e-03 5.099970820779e-03 0.0 
0.0 0.0 -1.043024347135e-03 
1.027519968218e-03 -2.380813166548e-03 0.0 
-2.380813166548e-03 3.112209895361e-04 0.0 
0.0 0.0 -5.737461247516e-04 
1.268606586028e-03 2.037384257040e-03 0.0 
2.037384257040e-03 -4.121339973903e-04 0.0 
0.0 0.0 -3.670596808449e-04 
5.930292221715e-04 -2.622911752925e-03 0.0 
-2.622911752925e-03 8.838728538733e-04 0.0 
0.0 0.0 -6.329580325906e-04 
5.486710723125e-04 2.332384511628e-03 0.0 
2.332384511628e-03 7.102378801027e-04 0.0 
0.0 0.0 -5.395324081779e-04 
1.682768200706e-03 2.516609952748e-03 0.0 
2.516609952748e-03 -2.542264434373e-04 0.0 
0.0 0.0 -6.122321816867e-04 
7.358023053180e-04 -2.505051408807e-03 0.0 
-2.505051408807e-03 7.718123993888e-04 0.0 
0.0 0.0 -6.461205877315e-04 
2.812366509539e-04 3.418056531118e-03 0.0 
3.418056531118e-03 1.761992896829e-03 0.0 
0.0 0.0 -8.756698061928e-04 
-1.585509504414e-03 6.854986193214e-05 0.0 
6.854986193214e-05 6.515313053331e-03 0.0 
0.0 0.0 -9.494079867578e-04 
1.950119496099e-04 -2.582141659643e-03 0.0 
-2.582141659643e-03 1.322040652856e-03 0.0 
0.0 0.0 -6.501654010570e-04 
9.460441418101e-04 2.468386529063e-03 0.0 
2.468386529063e-03 3.152412733386e-04 0.0 
0.0 0.0 -5.405508922066e-04 
5.243693270813e-04 -2.069869324487e-03 0.0 
-2.069869324487e-03 1.498209352589e-03 0.0 
0.0 0.0 -8.668194341442e-04 
3.838921855015e-04 2.277447822888e-03 0.0 
2.277447822888e-03 8.700555358996e-04 0.0 
0.0 0.0 -5.374061663147e-04 
0.0 0.0 0.0 
0.0 0.0 0.0 
0.0 0.0 0.0 
-1.483198277618e-03 2.721071498371e-04 0.0 
2.721071498371e-04 8.165740664983e-03 0.0 
0.0 0.0 -1.223389224544e-03 
-1.535254932215e-03 2.717190120097e-04 0.0 
2.717190120097e-04 7.854733745092e-03 0.0 
0.0 0.0 -1.157435638217e-03 
1.714590457335e-06 -7.115369139069e-04 0.0 
-7.115369139069e-04 4.515715516867e-04 0.0 
0.0 0.0 -1.942654894903e-04 
3.878432463794e-04 -2.223127307783e-03 0.0 
-2.223127307783e-03 1.630928175518e-03 0.0 
0.0 0.0 -8.651877522419e-04 
-2.798740380973e-05 -2.159694096595e-03 0.0 
-2.159694096595e-03 1.431561792510e-03 0.0 
0.0 0.0 -6.015318808715e-04 
-1.829025907462e-04 -2.119639284792e-03 0.0 
-2.119639284792e-03 1.714857895665e-03 0.0 
0.0 0.0 -6.565522735366e-04 
-1.017733219917e-03 3.364025437069e-03 0.0 
3.364025437069e-03 4.897256146699e-03 0.0 
0.0 0.0 -1.100737838324e-03 
5.257552207879e-04 2.875144563505e-03 0.0 
2.875144563505e-03 1.853285664374e-03 0.0 
0.0 0.0 -9.467522836136e-04 
-8.497134643687e-04 3.433349612216e-03 0.0 
3.433349612216e-03 4.357788075562e-03 0.0 
0.0 0.0 -1.064854740548e-03 
2.203223739880e-03 -1.975974349915e-03 0.0 
-1.975974349915e-03 -9.232686555069e-04 0.0 
0.0 0.0 -5.485521790173e-04 
-1.446388010227e-03 1.342323327112e-04 0.0 
1.342323327112e-04 5.217166277606e-03 0.0 
0.0 0.0 -7.105917616147e-04 
-1.197543499266e-03 -1.810608894436e-03 0.0 
-1.810608894436e-03 5.325302062837e-03 0.0 
0.0 0.0 -1.281538364137e-03 
-1.726353625323e-04 -1.807145954026e-03 0.0 
-1.807145954026e-03 1.497715714659e-03 0.0 
0.0 0.0 -5.678915794829e-04 
2.222123337372e-04 -1.923483587620e-05 0.0 
-1.923483587620e-05 2.651456288210e-03 0.0 
0.0 0.0 -1.121221582973e-03 
1.156875498320e-03 3.056207622502e-03 0.0 
3.056207622502e-03 4.647886417546e-04 0.0 
0.0 0.0 -6.949989171746e-04 
-5.424671300971e-04 -2.887281693977e-04 0.0 
-2.887281693977e-04 1.675559050033e-03 0.0 
0.0 0.0 -3.973267919445e-04 
-1.360155763593e-03 3.097514486866e-03 0.0 
3.097514486866e-03 5.194571229381e-03 0.0 
0.0 0.0 -1.015166614560e-03 
2.718308302872e-03 -7.221702226311e-04 0.0 
-7.221702226311e-04 -1.243788694723e-03 0.0 
0.0 0.0 -6.319369749211e-04 
2.871950510200e-04 -2.057705951039e-03 0.0 
-2.057705951039e-03 8.654869691646e-04 0.0 
0.0 0.0 -4.940065800791e-04 
2.698077562336e-03 -1.426914000199e-03 0.0 
-1.426914000199e-03 -1.126048004927e-03 0.0 
0.0 0.0 -6.737269531753e-04 
-2.035172389928e-03 5.681521720379e-05 0.0 
5.681521720379e-05 5.818689376235e-03 0.0 
0.0 0.0 -1.069816800183e-03 
-1.547603731344e-03 2.557965682965e-03 0.0 
2.557965682965e-03 5.760856088478e-03 0.0 
0.0 0.0 -1.020980360542e-03 
3.535477644423e-04 -2.409077986448e-03 0.0 
-2.409077986448e-03 9.968391477695e-04 0.0 
0.0 0.0 -5.787372480908e-04 
-1.638049386592e-03 -5.261620418510e-04 0.0 
-5.261620418510e-04 4.881654597217e-03 0.0 
0.0 0.0 -1.045407985144e-03 
-1.131069213092e-03 3.339054972024e-03 0.0 
3.339054972024e-03 5.004170711216e-03 0.0 
0.0 0.0 -1.071782534217e-03 
7.849170986353e-05 2.002784816892e-03 0.0 
2.002784816892e-03 3.087471277383e-03 0.0 
0.0 0.0 -1.109893377180e-03 
5.081300325286e-04 -2.843687144981e-03 0.0 
-2.843687144981e-03 1.050709009186e-03 0.0 
0.0 0.0 -6.680738750205e-04 
-8.485846460072e-04 -2.429092323345e-04 0.0 
-2.429092323345e-04 2.701937249489e-03 0.0 
0.0 0.0 -7.163733244607e-04 
1.054276666128e-03 2.747625866901e-03 0.0 
2.747625866901e-03 4.044819373952e-04 0.0 
0.0 0.0 -6.251822586527e-04 
-1.556582639800e-03 -2.026954580916e-04 0.0 
-2.026954580916e-04 6.435079901625e-03 0.0 
0.0 0.0 -9.278975173457e-04 
6.306613738133e-04 -2.843431008643e-03 0.0 
-2.843431008643e-03 9.087558385051e-04 0.0 
0.0 0.0 -6.597502338507e-04 
-1.151665732863e-03 3.368799827368e-03 0.0 
3.368799827368e-03 6.118948746046e-03 0.0 
0.0 0.0 -1.269179263064e-03 
-1.428509069589e-03 2.793670889960e-03 0.0 
2.793670889960e-03 7.317810969107e-03 0.0 
0.0 0.0 -1.281197857596e-03 
-1.509195270466e-03 -1.457985023921e-04 0.0 
-1.457985023921e-04 5.771603983327e-03 0.0 
0.0 0.0 -8.387747867703e-04 
-1.581495188537e-03 1.397540288099e-03 0.0 
1.397540288099e-03 8.227342162666e-03 0.0 
0.0 0.0 -1.255037608383e-03 
-1.367281596907e-03 3.139996712098e-03 0.0 
3.139996712098e-03 6.951432883282e-03 0.0 
0.0 0.0 -1.285499913836e-03 
2.109542503114e-03 -1.930775448323e-03 0.0 
-1.930775448323e-03 -7.849211290522e-04 0.0 
0.0 0.0 -5.676948745980e-04 
1.380801218232e-03 -2.351235301793e-03 0.0 
-2.351235301793e-03 -1.698746639676e-04 0.0 
0.0 0.0 -5.189685232560e-04 
-5.757297583633e-04 4.366962327414e-04 0.0 
4.366962327414e-04 4.537400147680e-03 0.0 
0.0 0.0 -1.265535665854e-03 
0.0 0.0 0.0 
0.0 0.0 0.0 
0.0 0.0 0.0 
-8.394320087675e-04 -3.205840844428e-05 0.0 
-3.205840844428e-05 2.565992005118e-03 0.0 
0.0 0.0 -6.072167217314e-04 
-1.628413269992e-03 -1.673586948164e-04 0.0 
-1.673586948164e-04 4.868895534125e-03 0.0 
0.0 0.0 -1.067827858613e-03 
4.161330338528e-04 -2.673128765629e-03 0.0 
-2.673128765629e-03 1.065048131365e-03 0.0 
0.0 0.0 -6.347919279505e-04 
1.927385449734e-03 -2.370761864729e-03 0.0 
-2.370761864729e-03 -5.075034197406e-04 0.0 
0.0 0.0 -6.085208699972e-04 
-3.171269370445e-05 1.814506539183e-03 0.0 
1.814506539183e-03 1.218095740662e-03 0.0 
0.0 0.0 -5.084498772674e-04 
-1.067456340534e-04 1.927365287384e-03 0.0 
1.927365287384e-03 1.436121596143e-03 0.0 
0.0 0.0 -5.697325551813e-04 
-1.696184299969e-03 4.188758800933e-04 0.0 
4.188758800933e-04 5.835163577314e-03 0.0 
0.0 0.0 -8.290026594306e-04 
2.687649412673e-03 -1.534651648036e-03 0.0 
-1.534651648036e-03 -1.236375441606e-03 0.0 
0.0 0.0 -6.219745590288e-04 
-8.374689021838e-04 -7.956683833314e-04 0.0 
-7.956683833314e-04 2.821114433129e-03 0.0 
0.0 0.0 -8.100060677168e-04 
-5.763887782379e-05 2.884104717794e-03 0.0 
2.884104717794e-03 2.960925031656e-03 0.0 
0.0 0.0 -1.077832113627e-03 
-1.357626258592e-03 -2.064052997114e-03 0.0 
-2.064052997114e-03 6.484172296954e-03 0.0 
0.0 0.0 -1.324978758543e-03 
-1.316853930481e-03 -2.171233133158e-03 0.0 
-2.171233133158e-03 6.262828385778e-03 0.0 
0.0 0.0 -1.320624918399e-03 
1.210545566472e-03 -2.440771907645e-03 0.0 
-2.440771907645e-03 2.098806390541e-04 0.0 
0.0 0.0 -6.087540880828e-04 
-1.669792706879e-03 7.585625911679e-04 0.0 
7.585625911679e-04 5.225921064138e-03 0.0 
0.0 0.0 -7.877541558771e-04 
0.0 0.0 0.0 
0.0 0.0 0.0 
0.0 0.0 0.0 
1.526705898496e-04 1.832423170921e-03 0.0 
1.832423170921e-03 9.162592996274e-04 0.0 
0.0 0.0 -4.581128097759e-04 
1.694782762505e-03 -3.278967534484e-03 0.0 
-3.278967534484e-03 -3.718783773796e-04 0.0 
0.0 0.0 -5.669590221966e-04 
7.211551457005e-05 1.826082030850e-03 0.0 
1.826082030850e-03 1.040988995356e-03 0.0 
0.0 0.0 -4.770447899684e-04 
8.520859723696e-04 2.702963814911e-03 0.0 
2.702963814911e-03 1.160586394610e-03 0.0 
0.0 0.0 -8.625738715628e-04 
1.049602008115e-03 -2.610080274348e-03 0.0 
-2.610080274348e-03 3.535904184599e-04 0.0 
0.0 0.0 -6.013681828177e-04 
1.924226435236e-03 -2.386188926630e-03 0.0 
-2.386188926630e-03 -7.021276801158e-04 0.0 
0.0 0.0 -5.237566093371e-04 
8.906199206854e-04 -2.335912402002e-03 0.0 
-2.335912402002e-03 -6.441539282859e-04 0.0 
0.0 0.0 -1.056282824569e-04 
-1.518150307999e-03 2.180517986998e-04 0.0 
2.180517986998e-04 7.814279060755e-03 0.0 
0.0 0.0 -1.176327079312e-03 
1.081599261770e-03 -2.356565631716e-03 0.0 
-2.356565631716e-03 1.958644745057e-04 0.0 
0.0 0.0 -5.474844584040e-04 
-1.503838573524e-03 8.537407365334e-04 0.0 
8.537407365334e-04 8.091641180223e-03 0.0 
0.0 0.0 -1.212957849656e-03 
-1.563004608103e-03 1.345074243690e-04 0.0 
1.345074243690e-04 7.574721874408e-03 0.0 
0.0 0.0 -1.117460450001e-03 
-1.452677521913e-03 3.546154927313e-04 0.0 
3.546154927313e-04 8.989483437301e-03 0.0 
0.0 0.0 -1.319418651152e-03 
-1.573682658163e-03 -6.434523803718e-04 0.0 
-6.434523803718e-04 7.311749488072e-03 0.0 
0.0 0.0 -1.324849633189e-03 
-1.522640732825e-03 1.776300828802e-04 0.0 
1.776300828802e-04 5.910709247101e-03 0.0 
0.0 0.0 -8.315138651140e-04 
8.069897163257e-04 -2.530526196753e-03 0.0 
-2.530526196753e-03 5.619735093356e-04 0.0 
0.0 0.0 -5.866985252834e-04 
-2.779641202251e-04 1.703949019227e-03 0.0 
1.703949019227e-03 1.672572981451e-03 0.0 
0.0 0.0 -5.976895119538e-04 
7.490285409449e-04 -3.064892262470e-03 0.0 
-3.064892262470e-03 9.033898181147e-04 0.0 
0.0 0.0 -7.081792967398e-04 
-1.343328350294e-03 -1.797161006887e-03 0.0 
-1.797161006887e-03 6.496235434020e-03 0.0 
0.0 0.0 -1.343328350294e-03 
1.770851489837e-04 1.574613937019e-03 0.0 
1.574613937019e-03 7.197174740553e-04 0.0 
0.0 0.0 -3.843439813024e-04 
1.884365055557e-04 1.730723292298e-03 0.0 
1.730723292298e-03 7.999529513160e-04 0.0 
0.0 0.0 -4.235954815164e-04 
5.120454739847e-05 4.425631252095e-04 0.0 
4.425631252095e-04 3.081010907522e-03 0.0 
0.0 0.0 -1.156027955174e-03 
-1.600063486753e-03 4.454182285367e-04 0.0 
4.454182285367e-04 5.553533901810e-03 0.0 
0.0 0.0 -7.715229432315e-04 
-1.496300168116e-03 6.368230222668e-04 0.0 
6.368230222668e-04 8.172597464420e-03 0.0 
0.0 0.0 -1.219279742240e-03 
-1.079188820050e-03 3.032068943539e-03 0.0 
3.032068943539e-03 5.044159493797e-03 0.0 
0.0 0.0 -1.069611963270e-03 
-3.125996649260e-04 2.376006221788e-03 0.0 
2.376006221788e-03 3.643123644996e-03 0.0 
0.0 0.0 -1.175036385391e-03 
-1.440706362563e-03 2.765679407787e-03 0.0 
2.765679407787e-03 6.040073424197e-03 0.0 
0.0 0.0 -1.113576918908e-03 
-1.533426048517e-03 3.483355765343e-04 0.0 
3.483355765343e-04 5.830518730214e-03 0.0 
0.0 0.0 -8.542750875040e-04 
4.145616627609e-04 -2.510686493370e-03 0.0 
-2.510686493370e-03 9.700386978898e-04 0.0 
0.0 0.0 -5.934001545646e-04 
5.188237827814e-04 -2.738227656747e-03 0.0 
-2.738227656747e-03 9.760172721955e-04 0.0 
0.0 0.0 -6.406461664186e-04 
-1.559322814184e-03 2.985337068608e-04 0.0 
2.985337068608e-04 6.828450389527e-03 0.0 
0.0 0.0 -9.963059934037e-04 
-1.981024320875e-04 2.157190390334e-03 0.0 
2.157190390334e-03 3.614846179737e-03 0.0 
0.0 0.0 -1.142506377625e-03 
-1.686833987170e-03 9.535938984725e-04 0.0 
9.535938984725e-04 4.721621554871e-03 0.0 
0.0 0.0 -7.386355146563e-04 
-1.463703012742e-03 6.266658719779e-05 0.0 
6.266658719779e-05 5.604963867248e-03 0.0 
0.0 0.0 -7.676068998053e-04 
-1.515549186513e-03 3.697674288865e-05 0.0 
3.697674288865e-05 5.930448629907e-03 0.0 
0.0 0.0 -8.242303029217e-04 
-1.592254304502e-03 -3.437592554212e-05 0.0 
-3.437592554212e-05 6.006274404460e-03 0.0 
0.0 0.0 -8.467401457521e-04 
1.475757754276e-03 -1.289294546505e-03 0.0 
-1.289294546505e-03 -9.417009757612e-04 0.0 
0.0 0.0 -2.288814765064e-04 
2.490964718879e-04 -2.584180670905e-03 0.0 
-2.584180670905e-03 1.241456993708e-03 0.0 
0.0 0.0 -6.388086281126e-04 
-1.524289002589e-03 1.055576054381e-03 0.0 
1.055576054381e-03 8.572679794113e-03 0.0 
0.0 0.0 -1.269310366786e-03 
-1.609154575879e-03 5.927002029432e-05 0.0 
5.927002029432e-05 6.380922986421e-03 0.0 
0.0 0.0 -9.150577043801e-04 
-9.099437829954e-04 1.617518349232e-03 0.0 
1.617518349232e-03 4.661075676102e-03 0.0 
0.0 0.0 -1.295322057178e-03 
-1.481137119135e-03 2.911611220647e-03 0.0 
2.911611220647e-03 6.859531798370e-03 0.0 
0.0 0.0 -1.215577547940e-03 
-1.339321083005e-03 2.882096422564e-03 0.0 
2.882096422564e-03 5.250850385045e-03 0.0 
0.0 0.0 -1.012565562176e-03 
-1.640900346179e-03 1.517631824607e-03 0.0 
1.517631824607e-03 7.910833663920e-03 0.0 
0.0 0.0 -1.214907066889e-03 
-1.059540956040e-03 -1.334979029727e-03 0.0 
-1.334979029727e-03 3.594823103032e-03 0.0 
0.0 0.0 -9.974489174931e-04 
-1.013156646554e-03 -1.368118382081e-03 0.0 
-1.368118382081e-03 3.447232281497e-03 0.0 
0.0 0.0 -9.464646038184e-04 
-1.053605941392e-03 -1.657375267239e-03 0.0 
-1.657375267239e-03 4.938505543447e-03 0.0 
0.0 0.0 -1.226851238141e-03 
0.0 0.0 0.0 
0.0 0.0 0.0 
0.0 0.0 0.0 
-9.591830860426e-04 -2.723797524876e-04 0.0 
-2.723797524876e-04 2.822378765221e-03 0.0 
0.0 0.0 -5.777536677209e-04 
-1.342405754833e-03 2.832331701177e-03 0.0 
2.832331701177e-03 5.623065616304e-03 0.0 
0.0 0.0 -1.342405754833e-03 
-1.232108481340e-04 -4.438827698639e-05 0.0 
-4.438827698639e-05 1.111663342237e-03 0.0 
0.0 0.0 -2.724401835525e-04 
-1.475085458698e-03 8.547838585484e-05 0.0 
8.547838585484e-05 5.344445388578e-03 0.0 
0.0 0.0 -7.870118106326e-04 
-3.041907190684e-04 -2.929338759418e-04 0.0 
-2.929338759418e-04 3.995006628254e-03 0.0 
0.0 0.0 -1.213461936786e-03 
-7.635875139996e-06 -1.081722019394e-03 0.0 
-1.081722019394e-03 7.060070926500e-04 0.0 
0.0 0.0 -2.993019503614e-04 
1.505773719545e-03 -8.263394782763e-04 0.0 
-8.263394782763e-04 -6.336254798976e-05 0.0 
0.0 0.0 -2.382422751898e-04 
-1.473393185853e-03 1.353598964677e-03 0.0 
1.353598964677e-03 8.746165970417e-03 0.0 
0.0 0.0 -1.324389858384e-03 
-1.521392000938e-03 2.912474066464e-04 0.0 
2.912474066464e-04 4.940937614450e-03 0.0 
0.0 0.0 -7.294542769151e-04 
-1.503978704987e-03 1.473877310897e-03 0.0 
1.473877310897e-03 8.344062810088e-03 0.0 
0.0 0.0 -1.261418349269e-03 
-5.327298325037e-04 3.575837178235e-04 0.0 
3.575837178235e-04 3.642687559217e-03 0.0 
0.0 0.0 -1.231858344535e-03 
-1.518533849991e-03 1.071472041001e-04 0.0 
1.071472041001e-04 4.942575461076e-03 0.0 
0.0 0.0 -7.289279708929e-04 
0.0 0.0 0.0 
0.0 0.0 0.0 
0.0 0.0 0.0 
-1.422405127371e-03 1.531540875437e-04 0.0 
1.531540875437e-04 8.427070743481e-03 0.0 
0.0 0.0 -1.284140717545e-03 
-3.551011727049e-04 -7.009671051649e-04 0.0 
-7.009671051649e-04 1.319322733909e-03 0.0 
0.0 0.0 -3.479328688591e-04 
-1.509662464093e-03 1.187111297047e-03 0.0 
1.187111297047e-03 8.089981201651e-03 0.0 
0.0 0.0 -1.232184317627e-03 
-1.343095105526e-03 -1.540983607491e-03 0.0 
-1.540983607491e-03 6.702452530061e-03 0.0 
0.0 0.0 -1.343095105526e-03 
-1.554707611052e-03 2.562602135152e-03 0.0 
2.562602135152e-03 7.111310188225e-03 0.0 
0.0 0.0 -1.225700354592e-03 
2.173759747286e-03 -1.419935824116e-03 0.0 
-1.419935824116e-03 -1.114841162711e-03 0.0 
0.0 0.0 -4.538222505322e-04 
-1.741082427331e-03 1.054953553281e-03 0.0 
1.054953553281e-03 5.737463170789e-03 0.0 
0.0 0.0 -8.279144014868e-04 
-1.224194647146e-03 -9.467109309958e-04 0.0 
-9.467109309958e-04 3.877522353974e-03 0.0 
0.0 0.0 -9.630043323905e-04 
6.517046530341e-05 2.327281681424e-03 0.0 
2.327281681424e-03 2.984838930141e-03 0.0 
0.0 0.0 -1.077599360682e-03 
-1.012701747737e-03 1.623436123670e-03 0.0 
1.623436123670e-03 5.329514602195e-03 0.0 
0.0 0.0 -1.326997735404e-03 
-1.585109039191e-03 2.780588406276e-04 0.0 
2.780588406276e-04 7.347999637207e-03 0.0 
0.0 0.0 -1.061614915164e-03 
-1.008710860855e-03 1.312542642731e-03 0.0 
1.312542642731e-03 5.209194240256e-03 0.0 
0.0 0.0 -1.325870641008e-03 
3.673422327950e-04 -3.776124720398e-04 0.0 
-3.776124720398e-04 -3.673422327950e-04 0.0 
0.0 0.0 0.0 
-1.430003464036e-03 -1.969193470792e-03 0.0 
-1.969193470792e-03 6.388366935774e-03 0.0 
0.0 0.0 -1.277656510522e-03 
2.370305391374e-03 -2.562363361486e-03 0.0 
-2.562363361486e-03 -6.166549384612e-04 0.0 
0.0 0.0 -7.515644798196e-04 
-3.100324176095e-04 -2.408320728402e-04 0.0 
-2.408320728402e-04 1.151728361162e-03 0.0 
0.0 0.0 -2.782378078114e-04 
-7.322007537650e-04 -9.555468943118e-04 0.0 
-9.555468943118e-04 4.734669521016e-03 0.0 
0.0 0.0 -1.270335377537e-03 
-1.575122942683e-03 2.171152972729e-03 0.0 
2.171152972729e-03 8.127111917130e-03 0.0 
0.0 0.0 -1.270603359501e-03 
-1.496692965649e-03 1.319095711312e-03 0.0 
1.319095711312e-03 8.369617950368e-03 0.0 
0.0 0.0 -1.289850838753e-03 
-1.498527200318e-03 3.689228571039e-04 0.0 
3.689228571039e-04 5.398355138859e-03 0.0 
0.0 0.0 -7.762633204683e-04 
-1.744558354744e-03 1.631310676350e-03 0.0 
1.631310676350e-03 5.391746306119e-03 0.0 
0.0 0.0 -8.489529362435e-04 
7.301121496963e-04 2.437654514774e-03 0.0 
2.437654514774e-03 5.848010967936e-04 0.0 
0.0 0.0 -5.635342484957e-04 
-1.427601509624e-03 3.175353375607e-03 0.0 
3.175353375607e-03 7.125136039489e-03 0.0 
0.0 0.0 -1.273041473476e-03 
-1.038080719471e-03 -6.334570087308e-04 0.0 
-6.334570087308e-04 3.329140480764e-03 0.0 
0.0 0.0 -8.764843149172e-04 
1.193441318594e-03 2.328942464463e-03 0.0 
2.328942464463e-03 3.040131158427e-05 0.0 
0.0 0.0 -5.245039843621e-04 
-2.118585962265e-05 2.523859735457e-03 0.0 
2.523859735457e-03 3.050030047244e-03 0.0 
0.0 0.0 -1.110141529071e-03 
-1.425138137322e-03 6.470798395339e-05 0.0 
6.470798395339e-05 5.179988142805e-03 0.0 
0.0 0.0 -7.096328662732e-04 
-1.517585115342e-03 2.260614719474e-03 0.0 
2.260614719474e-03 7.684999531697e-03 0.0 
0.0 0.0 -1.237729719596e-03 
-1.422593477448e-03 -1.670334611249e-04 0.0 
-1.670334611249e-04 8.888807101193e-03 0.0 
0.0 0.0 -1.321509982054e-03 
-1.343732204276e-03 1.010834953933e-04 0.0 
1.010834953933e-04 8.744729451207e-03 0.0 
0.0 0.0 -1.343732204276e-03 
3.369232126492e-03 1.693280559230e-04 0.0 
1.693280559230e-04 -1.155841201236e-03 0.0 
0.0 0.0 -6.603666768414e-05 
2.499766675984e-03 -2.952033461878e-04 0.0 
-2.952033461878e-04 -9.796559826583e-04 0.0 
0.0 0.0 -1.532902690118e-04 
-1.416942128620e-03 -1.624029676109e-04 0.0 
-1.624029676109e-04 5.054688992973e-03 0.0 
0.0 0.0 -7.318233512793e-04 
-1.419792893404e-03 3.183177604522e-05 0.0 
3.183177604522e-05 5.196638347434e-03 0.0 
0.0 0.0 -7.096011290571e-04 
-1.343732204276e-03 -2.406936037715e-04 0.0 
-2.406936037715e-04 7.113693032304e-03 0.0 
0.0 0.0 -1.343732204276e-03 
-1.562203585825e-03 1.305016391806e-04 0.0 
1.305016391806e-04 7.294302504235e-03 0.0 
0.0 0.0 -1.321509982054e-03 
2.262811037578e-03 -4.868403071367e-05 0.0 
-4.868403071367e-05 -4.447467837794e-04 0.0 
0.0 0.0 -2.434615908245e-04 
0.0 0.0 0.0 
0.0 0.0 0.0 
0.0 0.0 0.0 
-1.642313907969e-03 -1.143113511814e-03 0.0 
-1.143113511814e-03 6.403076283141e-03 0.0 
0.0 0.0 -1.230181737024e-03 
-7.148794360532e-04 3.164508669310e-03 0.0 
3.164508669310e-03 4.742447412984e-03 0.0 
0.0 0.0 -1.209364118140e-03 
-5.258157990741e-04 -7.879783393280e-04 0.0 
-7.879783393280e-04 1.688623542397e-03 0.0 
0.0 0.0 -3.144533898553e-04 
-1.351136438279e-03 -1.975186179308e-03 0.0 
-1.975186179308e-03 5.772523348463e-03 0.0 
0.0 0.0 -1.240191881334e-03 
-1.731554632553e-03 -2.342398403810e-04 0.0 
-2.342398403810e-04 5.123990276158e-03 0.0 
0.0 0.0 -1.081029080859e-03 
-1.535845139517e-03 -3.312382585291e-04 0.0 
-3.312382585291e-04 4.629162629476e-03 0.0 
0.0 0.0 -1.039595904837e-03 
-1.612928706957e-03 3.113730006726e-04 0.0 
3.113730006726e-04 6.721792739589e-03 0.0 
0.0 0.0 -9.400782610458e-04 
1.101421061084e-03 -2.909512193680e-03 0.0 
-2.909512193680e-03 4.457906368086e-04 0.0 
0.0 0.0 -6.630907276683e-04 
3.131506035800e-04 2.556520147165e-03 0.0 
2.556520147165e-03 2.414585707981e-03 0.0 
0.0 0.0 -1.011657465016e-03 
-1.177300482134e-05 -1.092061392265e-03 0.0 
-1.092061392265e-03 1.284900459222e-03 0.0 
0.0 0.0 -3.097963217911e-04 
-1.220126007134e-03 -1.262020264430e-03 0.0 
-1.262020264430e-03 3.977099482089e-03 0.0 
0.0 0.0 -1.029451436826e-03 
-1.346849968967e-03 3.153673073291e-03 0.0 
3.153673073291e-03 6.593026306646e-03 0.0 
0.0 0.0 -1.240519096027e-03 
-1.527894889398e-03 -1.936018657920e-04 0.0 
-1.936018657920e-04 8.104261702945e-03 0.0 
0.0 0.0 -1.191726112421e-03 
-1.479396360357e-03 -2.989971596189e-04 0.0 
-2.989971596189e-04 4.503238817139e-03 0.0 
0.0 0.0 -1.046336039097e-03 
-1.560842421660e-03 -8.540456832086e-05 0.0 
-8.540456832086e-05 6.232717148515e-03 0.0 
0.0 0.0 -8.745659502648e-04 
-9.955423334814e-04 3.339003162247e-03 0.0 
3.339003162247e-03 5.559555520798e-03 0.0 
0.0 0.0 -1.217119345309e-03 
-1.351529115626e-03 2.876362203055e-03 0.0 
2.876362203055e-03 5.976398005188e-03 0.0 
0.0 0.0 -1.140944809982e-03 
-1.341013158963e-03 2.862888668155e-03 0.0 
2.862888668155e-03 5.603065071307e-03 0.0 
0.0 0.0 -1.076426999079e-03 
-1.492882998354e-03 1.325735461083e-04 0.0 
1.325735461083e-04 4.933841446090e-03 0.0 
0.0 0.0 -7.312123441678e-04 
6.172998628868e-04 2.362607397547e-03 0.0 
2.362607397547e-03 1.812787626421e-03 0.0 
0.0 0.0 -9.763781674015e-04 
-1.502422605285e-03 2.514513612527e-03 0.0 
2.514513612527e-03 7.380594194812e-03 0.0 
0.0 0.0 -1.231404929774e-03 
-8.003792871297e-04 -5.108965880218e-04 0.0 
-5.108965880218e-04 2.603757424793e-03 0.0 
0.0 0.0 -7.107894383394e-04 
1.779720377328e-04 -1.298870854502e-03 0.0 
-1.298870854502e-03 4.337348693579e-04 0.0 
0.0 0.0 -1.164291272224e-04 
-9.970216092610e-04 3.010797291644e-03 0.0 
3.010797291644e-03 5.249606407737e-03 0.0 
0.0 0.0 -1.185975225609e-03 
2.191734593223e-04 5.610847358595e-04 0.0 
5.610847358595e-04 2.599656196276e-03 0.0 
0.0 0.0 -1.123538223191e-03 
1.172927684885e-03 -2.889497196016e-03 0.0 
-2.889497196016e-03 3.300442381492e-04 0.0 
0.0 0.0 -6.441308241577e-04 
-1.607945126080e-03 -1.740082688204e-05 0.0 
-1.740082688204e-05 7.004832338719e-03 0.0 
0.0 0.0 -9.893338170986e-04 
-1.512467681835e-03 -1.269144618606e-03 0.0 
-1.269144618606e-03 6.614649124568e-03 0.0 
0.0 0.0 -1.282739585886e-03 
-7.843923001707e-04 3.075094105696e-03 0.0 
3.075094105696e-03 4.595487038338e-03 0.0 
0.0 0.0 -1.182073443778e-03 
-8.715817867822e-04 3.121670101447e-03 0.0 
3.121670101447e-03 5.293578095492e-03 0.0 
0.0 0.0 -1.215129606110e-03 
-1.899421587696e-03 -4.002758172017e-04 0.0 
-4.002758172017e-04 5.518204821451e-03 0.0 
0.0 0.0 -1.079026350805e-03 
0.0 0.0 0.0 
0.0 0.0 0.0 
0.0 0.0 0.0 
-4.777114925537e-05 1.704067356774e-03 0.0 
1.704067356774e-03 1.178107469511e-03 0.0 
0.0 0.0 -4.844298515380e-04 
4.263341666864e-04 2.474607686413e-03 0.0 
2.474607686413e-03 9.338852604604e-04 0.0 
0.0 0.0 -5.829511830629e-04 
-1.721178049984e-03 1.085378291777e-03 0.0 
1.085378291777e-03 5.473315709064e-03 0.0 
0.0 0.0 -8.471429939415e-04 
4.228609678746e-04 3.021260051708e-03 0.0 
3.021260051708e-03 1.732467119469e-03 0.0 
0.0 0.0 -9.237120374330e-04 
-1.533799557255e-03 6.728038073689e-04 0.0 
6.728038073689e-04 8.237501439824e-03 0.0 
0.0 0.0 -1.236541257690e-03 
-8.719226860915e-04 7.267313533335e-04 0.0 
7.267313533335e-04 4.230245890387e-03 0.0 
0.0 0.0 -1.282325209426e-03 
2.964520960670e-04 -1.978928276592e-03 0.0 
-1.978928276592e-03 8.042557840210e-04 0.0 
0.0 0.0 -4.717319486092e-04 
1.319048487483e-04 -1.576566321261e-03 0.0 
-1.576566321261e-03 7.886992305850e-04 0.0 
0.0 0.0 -3.945446054286e-04 
1.817673251283e-04 1.876543985894e-03 0.0 
1.876543985894e-03 9.002005847285e-04 0.0 
0.0 0.0 -4.637005327958e-04 
-1.570049742763e-03 5.369425789645e-04 0.0 
5.369425789645e-04 6.963270594615e-03 0.0 
0.0 0.0 -1.019242131223e-03 
-9.308723645065e-04 -1.101236884891e-03 0.0 
-1.101236884891e-03 3.096386949501e-03 0.0 
0.0 0.0 -8.257845680531e-04 
-1.587305306336e-03 1.706805244546e-03 0.0 
1.706805244546e-03 7.938189703079e-03 0.0 
0.0 0.0 -1.241298427557e-03 
-4.566804084497e-04 -4.114264182866e-04 0.0 
-4.114264182866e-04 1.625098335496e-03 0.0 
0.0 0.0 -2.728146851408e-04 
-4.193612778590e-04 8.066391699243e-04 0.0 
8.066391699243e-04 3.619638834416e-03 0.0 
0.0 0.0 -1.221152601860e-03 
-1.613149922033e-03 6.729604599103e-04 0.0 
6.729604599103e-04 5.730913827298e-03 0.0 
0.0 0.0 -8.343732341398e-04 
-9.805029045404e-04 2.320290812643e-03 0.0 
2.320290812643e-03 4.821535310315e-03 0.0 
0.0 0.0 -1.286815605725e-03 
-1.972178768770e-04 2.471490219589e-03 0.0 
2.471490219589e-03 3.599121568157e-03 0.0 
0.0 0.0 -1.111121968474e-03 
-1.760642934702e-03 1.153303269584e-03 0.0 
1.153303269584e-03 5.427908306702e-03 0.0 
0.0 0.0 -8.465141837044e-04 
-8.764965121591e-04 -1.556039561585e-03 0.0 
-1.556039561585e-03 5.086777567782e-03 0.0 
0.0 0.0 -1.269142588751e-03 
-1.551933899349e-03 2.142615053803e-03 0.0 
2.142615053803e-03 8.208999000424e-03 0.0 
0.0 0.0 -1.272727265576e-03 
-1.482418812719e-03 2.636741981307e-04 0.0 
2.636741981307e-04 8.672320582664e-03 0.0 
0.0 0.0 -1.271339345674e-03 
2.794840770511e-04 1.877110949586e-03 0.0 
1.877110949586e-03 7.644572491491e-04 0.0 
0.0 0.0 -4.474034255144e-04 
-1.548384254494e-03 1.778472603870e-03 0.0 
1.778472603870e-03 7.853183226647e-03 0.0 
0.0 0.0 -1.218309553141e-03 
-1.238984078819e-03 3.237221125149e-03 0.0 
3.237221125149e-03 5.979697278194e-03 0.0 
0.0 0.0 -1.286645293131e-03 
-2.338452424877e-04 4.838955254747e-04 0.0 
4.838955254747e-04 3.810277403162e-03 0.0 
0.0 0.0 -1.211735819529e-03 
-2.641749654371e-04 2.730651329854e-03 0.0 
2.730651329854e-03 3.539043083142e-03 0.0 
0.0 0.0 -1.143254064081e-03 
-1.342665167303e-03 -1.913201158816e-03 0.0 
-1.913201158816e-03 6.140194887135e-03 0.0 
0.0 0.0 -1.342665167303e-03 
-1.336562494305e-03 3.148621666370e-03 0.0 
3.148621666370e-03 5.546558025077e-03 0.0 
0.0 0.0 -1.079065255302e-03 
0.0 0.0 0.0 
0.0 0.0 0.0 
0.0 0.0 0.0 
1.128782554056e-03 2.722430850094e-03 0.0 
2.722430850094e-03 3.671628183846e-04 0.0 
0.0 0.0 -6.411194453319e-04 
-1.438782275937e-03 2.878593628370e-03 0.0 
2.878593628370e-03 6.406037302073e-03 0.0 
0.0 0.0 -1.176936364471e-03 
-1.717609899646e-03 1.241798828460e-03 0.0 
1.241798828460e-03 5.908300544731e-03 0.0 
0.0 0.0 -8.884613587993e-04 
-1.780913372705e-03 -9.535977727778e-04 0.0 
-9.535977727778e-04 6.697114639858e-03 0.0 
0.0 0.0 -1.221994126432e-03 
-4.533386727007e-04 2.366129578243e-03 0.0 
2.366129578243e-03 4.141621556580e-03 0.0 
0.0 0.0 -1.177009544428e-03 
-1.321487320261e-03 -1.869174225829e-03 0.0 
-1.869174225829e-03 5.949052928407e-03 0.0 
0.0 0.0 -1.292249833993e-03 
-1.557982079132e-03 5.560473992337e-04 0.0 
5.560473992337e-04 7.430714466144e-03 0.0 
0.0 0.0 -1.085521458831e-03 
-9.906508321286e-04 2.010874064209e-03 0.0 
2.010874064209e-03 4.656220140669e-03 0.0 
0.0 0.0 -1.288973456333e-03 
-8.669493969727e-04 -1.781456295850e-03 0.0 
-1.781456295850e-03 4.656567585957e-03 0.0 
0.0 0.0 -1.233322439334e-03 
-8.389834207113e-04 -1.353105162080e-03 0.0 
-1.353105162080e-03 4.612963758963e-03 0.0 
0.0 0.0 -1.235043566395e-03 
-1.060688043098e-03 -7.830630523890e-04 0.0 
-7.830630523890e-04 3.332470677800e-03 0.0 
0.0 0.0 -8.113697483009e-04 
-1.399514092732e-03 -1.981208132211e-03 0.0 
-1.981208132211e-03 6.677395424695e-03 0.0 
0.0 0.0 -1.325641941534e-03 
-1.659266455691e-03 6.538953700681e-04 0.0 
6.538953700681e-04 5.459969626810e-03 0.0 
0.0 0.0 -7.662153309038e-04 
-1.522339522893e-03 2.785636433653e-04 0.0 
2.785636433653e-04 8.220976080768e-03 0.0 
0.0 0.0 -1.217406395242e-03 
2.069000998586e-04 -1.834555044401e-03 0.0 
-1.834555044401e-03 8.418202147660e-04 0.0 
0.0 0.0 -4.494515634106e-04 
-1.554320641115e-03 9.540049576088e-05 0.0 
9.540049576088e-05 8.023345832809e-03 0.0 
0.0 0.0 -1.163202487293e-03 
-1.605625159736e-03 1.859754007895e-04 0.0 
1.859754007895e-04 7.063048343461e-03 0.0 
0.0 0.0 -9.926133712568e-04 
1.071864880333e-03 1.610051896133e-04 0.0 
1.610051896133e-04 5.200375252643e-04 0.0 
0.0 0.0 -3.474471837849e-04 
1.832184275694e-03 -1.682280732148e-03 0.0 
-1.682280732148e-03 -1.155510517394e-03 0.0 
0.0 0.0 -2.900030392716e-04 
-1.244256880666e-03 3.271621003319e-03 0.0 
3.271621003319e-03 5.486132487448e-03 0.0 
0.0 0.0 -1.107581195644e-03 
-1.451044372397e-03 1.126612148562e-03 0.0 
1.126612148562e-03 8.289352558878e-03 0.0 
0.0 0.0 -1.285368862661e-03 
-1.527299749628e-03 6.691441746447e-05 0.0 
6.691441746447e-05 8.328526928916e-03 0.0 
0.0 0.0 -1.223917301752e-03 
-6.542601835067e-04 2.123935983624e-03 0.0 
2.123935983624e-03 4.536265029875e-03 0.0 
0.0 0.0 -1.264779455601e-03 
-1.569067467187e-03 4.931081965661e-04 0.0 
4.931081965661e-04 6.107235089411e-03 0.0 
0.0 0.0 -8.807565902733e-04 
9.036251718301e-04 -7.928332989266e-04 0.0 
-7.928332989266e-04 8.196583140466e-05 0.0 
0.0 0.0 -1.521090440113e-04 
0.0 0.0 0.0 
0.0 0.0 0.0 
0.0 0.0 0.0 
1.535104090838e-04 -8.781412906566e-04 0.0 
-8.781412906566e-04 3.080308650687e-04 0.0 
0.0 0.0 -1.564070233212e-04 
2.353484151011e-04 -2.169776398881e-03 0.0 
-2.169776398881e-03 1.011611602068e-03 0.0 
0.0 0.0 -5.344114359296e-04 
2.633423299085e-05 1.474208818434e-03 0.0 
1.474208818434e-03 -2.633423299084e-05 0.0 
0.0 0.0 0.0 
-1.313634282752e-03 -1.068658817985e-03 0.0 
-1.068658817985e-03 4.125079470398e-03 0.0 
0.0 0.0 -9.906016899089e-04 
-1.765538454854e-03 -6.603659762189e-04 0.0 
-6.603659762189e-04 6.689629757519e-03 0.0 
0.0 0.0 -1.222305993939e-03 
-1.487013992754e-03 2.874720261212e-03 0.0 
2.874720261212e-03 7.173251573241e-03 0.0 
0.0 0.0 -1.222833113937e-03 
-1.810465878115e-03 1.368618358307e-03 0.0 
1.368618358307e-03 5.754603684206e-03 0.0 
0.0 0.0 -8.826313165011e-04 
-9.427899726930e-04 -1.641697169279e-03 0.0 
-1.641697169279e-03 3.388954329502e-03 0.0 
0.0 0.0 -9.886704355714e-04 
-1.052300381815e-03 -2.069501750766e-03 0.0 
-2.069501750766e-03 5.090082794775e-03 0.0 
0.0 0.0 -1.221067908166e-03 
-3.450149565899e-04 -4.408348736528e-04 0.0 
-4.408348736528e-04 3.924699322023e-03 0.0 
0.0 0.0 -1.208702654310e-03 
-8.170914780341e-04 2.664423274710e-03 0.0 
2.664423274710e-03 5.146096323449e-03 0.0 
0.0 0.0 -1.272252409145e-03 
-1.123992376730e-03 3.068252591852e-03 0.0 
3.068252591852e-03 5.507273388894e-03 0.0 
0.0 0.0 -1.237422270938e-03 
-1.253834785736e-03 3.291285599942e-03 0.0 
3.291285599942e-03 5.877546624236e-03 0.0 
0.0 0.0 -1.171232062679e-03 
5.704301253037e-05 -1.249012332624e-03 0.0 
-1.249012332624e-03 7.024151054082e-04 0.0 
0.0 0.0 -3.254820505451e-04 
0.0 0.0 0.0 
0.0 0.0 0.0 
0.0 0.0 0.0 
-1.712539485778e-03 -1.411450056388e-03 0.0 
-1.411450056388e-03 6.539673002672e-03 0.0 
0.0 0.0 -1.223662873675e-03 
4.574946163465e-04 -1.248756071680e-04 0.0 
-1.248756071680e-04 4.764925333501e-04 0.0 
0.0 0.0 -3.004112795925e-04 
4.253951230566e-04 3.287859358848e-05 0.0 
3.287859358848e-05 7.852927410903e-04 0.0 
0.0 0.0 -3.059539021820e-04 
3.569372191111e-04 1.397839525162e-03 0.0 
1.397839525162e-03 1.545362028711e-04 0.0 
0.0 0.0 -2.192028951352e-04 
1.631271963867e-04 -1.346040378322e-03 0.0 
-1.346040378322e-03 7.094587977712e-04 0.0 
0.0 0.0 -2.452105594499e-04 
-1.114394941751e-03 -1.506329218264e-03 0.0 
-1.506329218264e-03 4.944157592562e-03 0.0 
0.0 0.0 -1.288571152055e-03 
-1.352715823829e-03 3.152231925611e-03 0.0 
3.152231925611e-03 6.563761337094e-03 0.0 
0.0 0.0 -1.290113636706e-03 
-1.510579169811e-03 9.854603377599e-04 0.0 
9.854603377599e-04 8.241359475843e-03 0.0 
0.0 0.0 -1.236907757659e-03 
-1.086519748050e-03 2.592005204986e-03 0.0 
2.592005204986e-03 5.044458595201e-03 0.0 
0.0 0.0 -1.292605224168e-03 
-2.276922230483e-04 -7.087333384445e-04 0.0 
-7.087333384445e-04 3.411401019740e-03 0.0 
0.0 0.0 -1.176879138244e-03 
-1.566246162816e-03 5.074519573883e-04 0.0 
5.074519573883e-04 6.374166084480e-03 0.0 
0.0 0.0 -9.170130443517e-04 
-1.345069444888e-03 1.513726926191e-03 0.0 
1.513726926191e-03 8.492915807412e-03 0.0 
0.0 0.0 -1.345069444888e-03 
1.877003485193e-03 -3.080309129991e-03 0.0 
-3.080309129991e-03 -5.962554255729e-04 0.0 
0.0 0.0 -5.488920255517e-04 
-1.475350828104e-03 1.976985984706e-04 0.0 
1.976985984706e-04 5.152730599786e-03 0.0 
0.0 0.0 -7.083073883397e-04 
7.042658253586e-04 -2.920094682842e-03 0.0 
-2.920094682842e-03 7.774626018425e-04 0.0 
0.0 0.0 -6.350264688005e-04 
7.675081391674e-04 -5.290525383807e-04 0.0 
-5.290525383807e-04 -3.861513785839e-05 0.0 
0.0 0.0 -2.518608130650e-04 
-1.493015975364e-03 -1.542117778823e-03 0.0 
-1.542117778823e-03 7.001843856807e-03 0.0 
0.0 0.0 -1.323850096553e-03 
-1.762927026530e-03 1.105745086140e-03 0.0 
1.105745086140e-03 5.347670343178e-03 0.0 
0.0 0.0 -7.731261162940e-04 
3.059071642176e-04 -4.769524246547e-04 0.0 
-4.769524246547e-04 1.116375202047e-03 0.0 
0.0 0.0 -3.136165521777e-04 
-1.289952526759e-03 -6.554530809443e-04 0.0 
-6.554530809443e-04 4.022238421528e-03 0.0 
0.0 0.0 -9.854929843998e-04 
-1.353447502636e-03 3.372255620603e-03 0.0 
3.372255620603e-03 6.903608554072e-03 0.0 
0.0 0.0 -1.276804206569e-03 
-1.580153705301e-03 9.463034913401e-04 0.0 
9.463034913401e-04 8.179177676168e-03 0.0 
0.0 0.0 -1.228616961883e-03 
-1.459295938370e-03 2.235750315535e-03 0.0 
2.235750315535e-03 7.840317348904e-03 0.0 
0.0 0.0 -1.289666537713e-03 
-1.042366719392e-03 -4.130279661277e-04 0.0 
-4.130279661277e-04 3.166645294064e-03 0.0 
0.0 0.0 -7.209785830746e-04 
0.0 0.0 0.0 
0.0 0.0 0.0 
0.0 0.0 0.0 
-1.330660736049e-03 -2.112854558462e-03 0.0 
-2.112854558462e-03 6.026587435622e-03 0.0 
0.0 0.0 -1.273144391159e-03 
-1.420679226607e-03 1.845062484055e-04 0.0 
1.845062484055e-04 8.984274218415e-03 0.0 
0.0 0.0 -1.325353038101e-03 
-1.599270300318e-03 -4.031472723049e-04 0.0 
-4.031472723049e-04 7.370420628954e-03 0.0 
0.0 0.0 -1.323783523096e-03 
-1.454892267765e-03 1.410388417337e-04 0.0 
1.410388417337e-04 5.404570969644e-03 0.0 
0.0 0.0 -7.673431308700e-04 
-5.798667066363e-04 -4.017993081382e-04 0.0 
-4.017993081382e-04 3.786051546347e-03 0.0 
0.0 0.0 -1.231867668451e-03 
-2.703199839151e-04 -3.327091265360e-04 0.0 
-3.327091265360e-04 1.134795808800e-03 0.0 
0.0 0.0 -2.923189298614e-04 
-1.540435464510e-03 1.974801601423e-03 0.0 
1.974801601423e-03 7.945053936292e-03 0.0 
0.0 0.0 -1.241575510934e-03 
7.093719106213e-04 -6.473525039570e-04 0.0 
-6.473525039570e-04 -6.146240833121e-06 0.0 
0.0 0.0 -2.201278046225e-04 
-1.035309467580e-03 -9.652751717972e-04 0.0 
-9.652751717972e-04 4.607784315543e-03 0.0 
0.0 0.0 -1.290713494763e-03 
-1.546892534215e-03 2.536580836788e-03 0.0 
2.536580836788e-03 7.963102419275e-03 0.0 
0.0 0.0 -1.268585396830e-03 
0.0 0.0 0.0 
0.0 0.0 0.0 
0.0 0.0 0.0 
-7.125328406643e-04 2.854381537959e-03 0.0 
2.854381537959e-03 4.690081759982e-03 0.0 
0.0 0.0 -1.178018281593e-03 
-1.581615712652e-03 6.406846432010e-05 0.0 
6.406846432010e-05 7.204958832163e-03 0.0 
0.0 0.0 -1.053859681778e-03 
-1.422126824857e-03 8.354035890497e-04 0.0 
8.354035890497e-04 8.383690559568e-03 0.0 
0.0 0.0 -1.289687241943e-03 
-1.346242744377e-03 1.394088556631e-03 0.0 
1.394088556631e-03 5.074174046536e-03 0.0 
0.0 0.0 -1.346242744377e-03 
-1.579226085277e-03 -2.236352472968e-04 0.0 
-2.236352472968e-04 6.673772320033e-03 0.0 
0.0 0.0 -9.627310317561e-04 
-1.352695242601e-03 3.190608641684e-03 0.0 
3.190608641684e-03 6.804006829943e-03 0.0 
0.0 0.0 -1.292510612804e-03 
-1.606507542629e-03 2.038310361331e-03 0.0 
2.038310361331e-03 7.743565210436e-03 0.0 
0.0 0.0 -1.236507170568e-03 
-1.568883613753e-03 1.757297800362e-04 0.0 
1.757297800362e-04 6.816128580048e-03 0.0 
0.0 0.0 -1.009625451247e-03 
-1.338198193755e-03 3.094920805743e-03 0.0 
3.094920805743e-03 6.452958212167e-03 0.0 
0.0 0.0 -1.247605899893e-03 
-1.069270980668e-03 -8.397930297141e-04 0.0 
-8.397930297141e-04 3.454365731416e-03 0.0 
0.0 0.0 -9.078723690805e-04 
-1.462959848022e-03 3.355807606363e-05 0.0 
3.355807606363e-05 4.925884328863e-03 0.0 
0.0 0.0 -7.287847301676e-04 
-7.853622933110e-04 2.799478897718e-03 0.0 
2.799478897718e-03 4.730479437110e-03 0.0 
0.0 0.0 -1.239219007812e-03 
-1.427801408329e-03 2.279610176079e-04 0.0 
2.279610176079e-04 8.599854493521e-03 0.0 
0.0 0.0 -1.286506427510e-03 
2.364174244584e-03 -3.920966346370e-05 0.0 
-3.920966346370e-05 -9.416422440926e-04 0.0 
0.0 0.0 -1.658991634594e-04 
-1.429614866782e-03 7.018012440351e-05 0.0 
7.018012440351e-05 4.945453144079e-03 0.0 
0.0 0.0 -7.284590636140e-04 
-1.619941162379e-03 -3.710140945832e-04 0.0 
-3.710140945832e-04 7.072586371596e-03 0.0 
0.0 0.0 -1.288082484959e-03 
-4.257310582937e-04 -7.375837559217e-04 0.0 
-7.375837559217e-04 1.550072552707e-03 0.0 
0.0 0.0 -4.679105978332e-04 
-2.651775118790e-04 1.741696615315e-04 0.0 
1.741696615315e-04 3.934086569527e-03 0.0 
0.0 0.0 -1.213252366005e-03 
-1.592381110183e-03 2.367463417435e-03 0.0 
2.367463417435e-03 7.496929060090e-03 0.0 
0.0 0.0 -1.225943235494e-03 
-1.523630465134e-03 6.434168762766e-04 0.0 
6.434168762766e-04 8.597347826225e-03 0.0 
0.0 0.0 -1.269037835114e-03 
-5.242932188711e-04 -5.062352980044e-04 0.0 
-5.062352980044e-04 1.580681758625e-03 0.0 
0.0 0.0 -3.173190315717e-04 
9.435665947915e-04 2.759812172338e-03 0.0 
2.759812172338e-03 -2.448701844830e-04 0.0 
0.0 0.0 -2.994413187036e-04 
-1.588603004086e-03 1.309858719882e-04 0.0 
1.309858719882e-04 4.764403352260e-03 0.0 
0.0 0.0 -1.056762885644e-03 
-1.577119311605e-03 2.587547752196e-04 0.0 
2.587547752196e-04 7.701946830658e-03 0.0 
0.0 0.0 -1.120841203304e-03 
0.0 0.0 0.0 
0.0 0.0 0.0 
0.0 0.0 0.0 
-1.448426484907e-03 1.878765382125e-03 0.0 
1.878765382125e-03 8.065670326291e-03 0.0 
0.0 0.0 -1.292233508669e-03 
-1.560868544091e-03 1.573692905966e-04 0.0 
1.573692905966e-04 6.444251121821e-03 0.0 
0.0 0.0 -9.501928138396e-04 
9.548640501235e-04 -2.932790788742e-03 0.0 
-2.932790788742e-03 4.477362362625e-04 0.0 
0.0 0.0 -6.011144084512e-04 
-1.577095330701e-03 2.356135282763e-04 0.0 
2.356135282763e-04 6.152695530289e-03 0.0 
0.0 0.0 -9.030544305944e-04 
-9.123359041244e-04 2.767752077309e-03 0.0 
2.767752077309e-03 5.381455446983e-03 0.0 
0.0 0.0 -1.271643562581e-03 
-1.672772992247e-03 -3.658378199310e-04 0.0 
-3.658378199310e-04 4.968645958279e-03 0.0 
0.0 0.0 -1.058796759180e-03 
-3.125631391636e-04 2.718841698241e-03 0.0 
2.718841698241e-03 3.125631391636e-04 0.0 
0.0 0.0 0.0 
-9.352736057356e-04 -8.421943932676e-04 0.0 
-8.421943932676e-04 3.140704490616e-03 0.0 
0.0 0.0 -9.009998304000e-04 
-1.402484368002e-03 -1.042823096176e-03 0.0 
-1.042823096176e-03 4.352884265014e-03 0.0 
0.0 0.0 -1.017945853013e-03 
-1.735012846972e-03 1.716303062956e-04 0.0 
1.716303062956e-04 5.112807218002e-03 0.0 
0.0 0.0 -1.063010248388e-03 
-5.677318458841e-04 1.906245464939e-03 0.0 
1.906245464939e-03 4.337997414081e-03 0.0 
0.0 0.0 -1.232780192057e-03 
-1.357670205510e-03 -6.381368347671e-04 0.0 
-6.381368347671e-04 4.227863364473e-03 0.0 
0.0 0.0 -1.035743023508e-03 
-1.479273144233e-03 -6.656278634480e-04 0.0 
-6.656278634480e-04 4.508927527854e-03 0.0 
0.0 0.0 -1.032702936181e-03 
1.040523643933e-04 -1.090937755128e-03 0.0 
-1.090937755128e-03 5.650850241542e-04 0.0 
0.0 0.0 -2.287174616664e-04 
-1.350567245042e-03 -1.731169106789e-03 0.0 
-1.731169106789e-03 5.793216621325e-03 0.0 
0.0 0.0 -1.240629869904e-03 
-1.027503594671e-03 3.327843857872e-03 0.0 
3.327843857872e-03 5.261023074075e-03 0.0 
0.0 0.0 -1.186362110037e-03 
1.189612951575e-03 2.308398015229e-03 0.0 
2.308398015229e-03 -4.894900924091e-04 0.0 
0.0 0.0 -3.000526539282e-04 
-1.387676757457e-03 4.952672058335e-05 0.0 
4.952672058335e-05 8.504316401028e-03 0.0 
0.0 0.0 -1.290349483557e-03 
-1.582576424774e-03 -1.560547969950e-04 0.0 
-1.560547969950e-04 7.007946096611e-03 0.0 
0.0 0.0 -1.290356026000e-03 
-1.460183445125e-03 -1.247594329356e-04 0.0 
-1.247594329356e-04 5.521441348557e-03 0.0 
0.0 0.0 -7.639788432047e-04 
-1.578918019610e-03 1.294379469898e-04 0.0 
1.294379469898e-04 6.639288700401e-03 0.0 
0.0 0.0 -9.358343396975e-04 
-1.420511664925e-03 -7.103380260756e-04 0.0 
-7.103380260756e-04 4.349288440906e-03 0.0 
0.0 0.0 -1.005720210571e-03 
-1.359175063422e-03 -8.855188390870e-04 0.0 
-8.855188390870e-04 4.258136974865e-03 0.0 
0.0 0.0 -1.040482674164e-03 
-1.527056262754e-03 -5.709073839489e-04 0.0 
-5.709073839489e-04 4.609671028000e-03 0.0 
0.0 0.0 -1.028873814706e-03 
-1.501496450629e-04 5.539703397871e-04 0.0 
5.539703397871e-04 3.298271412421e-03 0.0 
0.0 0.0 -1.180929064624e-03 
7.927858436439e-04 -3.045537929079e-03 0.0 
-3.045537929079e-03 8.494276970912e-04 0.0 
0.0 0.0 -7.038058031722e-04 
-1.116381248406e-03 3.165697137737e-03 0.0 
3.165697137737e-03 5.872062490069e-03 0.0 
0.0 0.0 -1.217816617926e-03 
-1.516247589342e-03 1.508277039824e-04 0.0 
1.508277039824e-04 5.685216966324e-03 0.0 
0.0 0.0 -8.376728236383e-04 
-1.571303365585e-03 1.703335586913e-03 0.0 
1.703335586913e-03 8.300700874157e-03 0.0 
0.0 0.0 -1.272153791098e-03 
-1.928595014899e-04 9.704790717135e-05 0.0 
9.704790717135e-05 3.265405422004e-03 0.0 
0.0 0.0 -1.181257232468e-03 
-1.580055462922e-03 1.466056733213e-04 0.0 
1.466056733213e-04 6.354105997974e-03 0.0 
0.0 0.0 -8.902468719968e-04 
-1.338698042931e-03 3.178297097849e-03 0.0 
3.178297097849e-03 6.247787653213e-03 0.0 
0.0 0.0 -1.201032862555e-03 
-6.620052052400e-04 2.218466919512e-03 0.0 
2.218466919512e-03 4.229615591751e-03 0.0 
0.0 0.0 -1.236767197193e-03 
-7.541183664370e-04 2.280565164163e-03 0.0 
2.280565164163e-03 4.995952357256e-03 0.0 
0.0 0.0 -1.270271405117e-03 
1.293451072768e-04 1.010666469426e-03 0.0 
1.010666469426e-03 -1.293451072768e-04 0.0 
0.0 0.0 0.0 
-1.368734881355e-03 2.988428396573e-03 0.0 
2.988428396573e-03 6.291274088760e-03 0.0 
0.0 0.0 -1.198686027802e-03 
-1.300476394130e-03 3.433743793017e-03 0.0 
3.433743793017e-03 6.406654162985e-03 0.0 
0.0 0.0 -1.227078865044e-03 
7.248957313196e-04 -1.043101674158e-03 0.0 
-1.043101674158e-03 5.245352296454e-04 0.0 
0.0 0.0 -2.668574800815e-04 
-1.256459332456e-03 -8.842282026345e-04 0.0 
-8.842282026345e-04 4.000740750754e-03 0.0 
0.0 0.0 -1.019774149770e-03 
0.0 0.0 0.0 
0.0 0.0 0.0 
0.0 0.0 0.0 
-1.414281382184e-03 3.115423266543e-03 0.0 
3.115423266543e-03 6.751118296047e-03 0.0 
0.0 0.0 -1.230789928679e-03 
-1.054441290555e-03 -1.060399512644e-04 0.0 
-1.060399512644e-04 3.174442276916e-03 0.0 
0.0 0.0 -4.711111111111e-04 
-9.755270099610e-04 -1.952460710779e-05 0.0 
-1.952460710779e-05 3.352199228394e-03 0.0 
0.0 0.0 -4.488888888889e-04 
-1.057199720646e-03 -6.628466702925e-05 0.0 
-6.628466702925e-05 3.038898740510e-03 0.0 
0.0 0.0 -4.711111111111e-04 
-9.777400934430e-04 -1.091555938379e-04 0.0 
-1.091555938379e-04 3.340691704280e-03 0.0 
0.0 0.0 -4.488888888889e-04 
-1.063155427674e-03 -8.985841896749e-05 0.0 
-8.985841896749e-05 3.031383342538e-03 0.0 
0.0 0.0 -4.711111111111e-04 
-9.824799286931e-04 -1.393428267415e-04 0.0 
-1.393428267415e-04 3.339683266468e-03 0.0 
0.0 0.0 -4.488888888889e-04 
-1.073307870603e-03 -1.145055690525e-04 0.0 
-1.145055690525e-04 3.031741938321e-03 0.0 
0.0 0.0 -4.711111111111e-04 
-9.898779257340e-04 -1.643666591562e-04 0.0 
-1.643666591562e-04 3.339619340617e-03 0.0 
0.0 0.0 -4.488888888889e-04 
-1.086323477342e-03 -1.363877390947e-04 0.0 
-1.363877390947e-04 3.033165334032e-03 0.0 
0.0 0.0 -4.711111111111e-04 
-9.998925141734e-04 -1.855881002644e-04 0.0 
-1.855881002644e-04 3.339705936799e-03 0.0 
0.0 0.0 -4.488888888889e-04 
-1.096406818734e-03 -1.532318205826e-04 0.0 
-1.532318205826e-04 3.033255551597e-03 0.0 
0.0 0.0 -4.730783955673e-04 
-1.012777399154e-03 -2.017536892965e-04 0.0 
-2.017536892965e-04 3.339844219624e-03 0.0 
0.0 0.0 -4.488888888889e-04 
-1.090664367884e-03 -1.644430523049e-04 0.0 
-1.644430523049e-04 3.027933117942e-03 0.0 
0.0 0.0 -4.808618943584e-04 
-1.028301113362e-03 -2.114471527184e-04 0.0 
-2.114471527184e-04 3.338551741007e-03 0.0 
0.0 0.0 -4.488888888889e-04 
-1.083736580133e-03 -1.666451993329e-04 0.0 
-1.666451993329e-04 3.020843768517e-03 0.0 
0.0 0.0 -4.898707554272e-04 
-1.046943436856e-03 -2.106797342195e-04 0.0 
-2.106797342195e-04 3.335962166517e-03 0.0 
0.0 0.0 -4.488888888889e-04 
-7.831296468648e-04 1.319072651067e-03 0.0 
1.319072651067e-03 2.747172324488e-03 0.0 
0.0 0.0 -7.609479695289e-04 
-1.075855056023e-03 -1.563532757849e-04 0.0 
-1.563532757849e-04 3.012345218943e-03 0.0 
0.0 0.0 -5.000242388326e-04 
-1.069747672987e-03 -1.955783713019e-04 0.0 
-1.955783713019e-04 3.333029570668e-03 0.0 
0.0 0.0 -4.488888888889e-04 
-7.248550649329e-04 1.406358254198e-03 0.0 
1.406358254198e-03 2.595476185353e-03 0.0 
0.0 0.0 -7.137751583000e-04 
-1.066434352541e-03 -1.316180070833e-04 0.0 
-1.316180070833e-04 3.002197182527e-03 0.0 
0.0 0.0 -5.124314741735e-04 
-1.097598068092e-03 -1.637972448482e-04 0.0 
-1.637972448482e-04 3.329403421166e-03 0.0 
0.0 0.0 -4.488888888889e-04 
-7.533669482919e-04 1.204166970056e-03 0.0 
1.204166970056e-03 2.642836543444e-03 0.0 
0.0 0.0 -7.468747930895e-04 
-1.055416203304e-03 -9.203251338284e-05 0.0 
-9.203251338284e-05 2.990073804986e-03 0.0 
0.0 0.0 -5.267381924031e-04 
-1.130750834273e-03 -1.116921931994e-04 0.0 
-1.116921931994e-04 3.323665525655e-03 0.0 
0.0 0.0 -4.488888888889e-04 
-1.042171778077e-03 -3.455033738422e-05 0.0 
-3.455033738422e-05 2.974699293394e-03 0.0 
0.0 0.0 -5.428660870381e-04 
-1.169484212689e-03 -3.358102239734e-05 0.0 
-3.358102239734e-05 3.314256616847e-03 0.0 
0.0 0.0 -4.488888888889e-04 
-1.025316934061e-03 4.498860631349e-05 0.0 
4.498860631349e-05 2.954024136839e-03 0.0 
0.0 0.0 -5.614484225926e-04 
-1.214143038317e-03 7.887627576123e-05 0.0 
7.887627576123e-05 3.298257734444e-03 0.0 
0.0 0.0 -4.488888888889e-04 
-7.199346667002e-04 1.548959497082e-03 0.0 
1.548959497082e-03 2.702620874801e-03 0.0 
0.0 0.0 -7.999777769487e-04 
-1.005056088549e-03 1.605680175197e-04 0.0 
1.605680175197e-04 2.928996212084e-03 0.0 
0.0 0.0 -5.816817243943e-04 
-1.194628629214e-03 2.284813269436e-04 0.0 
2.284813269436e-04 3.262807979926e-03 0.0 
0.0 0.0 -4.714398725188e-04 
-9.770701467258e-04 2.900797214075e-04 0.0 
2.900797214075e-04 2.895539247012e-03 0.0 
0.0 0.0 -6.084761808760e-04 
-1.150691492803e-03 4.112920914748e-04 0.0 
4.112920914748e-04 3.201011145854e-03 0.0 
0.0 0.0 -5.031356658855e-04 
-1.102080003132e-03 6.314047135334e-04 0.0 
6.314047135334e-04 3.144102696047e-03 0.0 
0.0 0.0 -5.414573098104e-04 
-9.427914102034e-04 4.734021578769e-04 0.0 
4.734021578769e-04 2.854814901825e-03 0.0 
0.0 0.0 -6.353729821390e-04 
-1.011724826405e-03 8.872743635075e-04 0.0 
8.872743635075e-04 3.016176770478e-03 0.0 
0.0 0.0 -5.911070349773e-04 
-8.910802690226e-04 6.354474711150e-04 0.0 
6.354474711150e-04 2.790560843145e-03 0.0 
0.0 0.0 -6.750826519681e-04 
-9.261251575016e-04 1.192686017243e-03 0.0 
1.192686017243e-03 2.932735209306e-03 0.0 
0.0 0.0 -6.517013890130e-04 
-8.336613140921e-04 9.428984709957e-04 0.0 
9.428984709957e-04 2.722476745029e-03 0.0 
0.0 0.0 -6.953468723645e-04 
-6.621235621594e-04 1.380067784258e-03 0.0 
1.380067784258e-03 2.522649702098e-03 0.0 
0.0 0.0 -7.866296476698e-04 
-9.573633010252e-04 -3.758595971567e-04 0.0 
-3.758595971567e-04 3.138492562280e-03 0.0 
0.0 0.0 -4.600000000000e-04 
-1.070084496450e-03 3.260967853827e-04 0.0 
3.260967853827e-04 3.340817972329e-03 0.0 
0.0 0.0 -4.600000000000e-04 
-9.651871795266e-04 -5.955810820259e-05 0.0 
-5.955810820259e-05 3.169772296161e-03 0.0 
0.0 0.0 -4.377777777778e-04 
-1.064380492171e-03 2.392363188093e-05 0.0 
2.392363188093e-05 3.297778316814e-03 0.0 
0.0 0.0 -4.822222222222e-04 
-5.704666912088e-04 1.617849901649e-03 0.0 
1.617849901649e-03 2.384447177274e-03 0.0 
0.0 0.0 -7.774202083136e-04 
-1.098885735000e-03 -9.932841691003e-05 0.0 
-9.932841691003e-05 3.711008544298e-03 0.0 
0.0 0.0 -5.155555555556e-04 
-1.168462067443e-03 -8.558937578339e-06 0.0 
-8.558937578339e-06 3.528865523027e-03 0.0 
0.0 0.0 -5.377777777778e-04 
-1.101644165090e-03 -4.995934151532e-05 0.0 
-4.995934151532e-05 3.841935165134e-03 0.0 
0.0 0.0 -5.155555555556e-04 
-1.170694924485e-03 -8.717992149991e-05 0.0 
-8.717992149991e-05 3.536462684656e-03 0.0 
0.0 0.0 -5.377777777778e-04 
-1.107599872119e-03 -6.223086959302e-05 0.0 
-6.223086959302e-05 3.845472707205e-03 0.0 
0.0 0.0 -5.155555555556e-04 
-1.181271355677e-03 -1.042178337503e-04 0.0 
-1.042178337503e-04 3.538247230035e-03 0.0 
0.0 0.0 -5.377777777778e-04 
-1.117752315047e-03 -7.784351567095e-05 0.0 
-7.784351567095e-05 3.846307941154e-03 0.0 
0.0 0.0 -5.155555555556e-04 
-1.192658306015e-03 -1.193867036393e-04 0.0 
-1.193867036393e-04 3.539182551016e-03 0.0 
0.0 0.0 -5.377777777778e-04 
-1.130767921787e-03 -8.794783012842e-05 0.0 
-8.794783012842e-05 3.845743987908e-03 0.0 
0.0 0.0 -5.155555555556e-04 
-1.210173940783e-03 -1.287275247693e-04 0.0 
-1.287275247693e-04 3.541285429521e-03 0.0 
0.0 0.0 -5.377777777778e-04 
-1.147405946802e-03 -9.309166024428e-05 0.0 
-9.309166024428e-05 3.846138881089e-03 0.0 
0.0 0.0 -5.155555555556e-04 
-1.230284092040e-03 -1.329076598989e-04 0.0 
-1.329076598989e-04 3.543463507866e-03 0.0 
0.0 0.0 -5.377777777778e-04 
-1.167594603574e-03 -9.130051004344e-05 0.0 
-9.130051004344e-05 3.846054057724e-03 0.0 
0.0 0.0 -5.155555555556e-04 
-1.257222365411e-03 -1.323215631345e-04 0.0 
-1.323215631345e-04 3.545265649495e-03 0.0 
0.0 0.0 -5.377777777778e-04 
-1.190679714427e-03 -8.065933747456e-05 0.0 
-8.065933747456e-05 3.844271498324e-03 0.0 
0.0 0.0 -5.155555555556e-04 
-1.072061725773e-03 1.181075520675e-03 0.0 
1.181075520675e-03 3.333527226650e-03 0.0 
0.0 0.0 -7.283378183804e-04 
-1.281962566836e-03 -1.205561474005e-04 0.0 
-1.205561474005e-04 3.543719900527e-03 0.0 
0.0 0.0 -5.377777777778e-04 
-1.019291723586e-03 1.089044048788e-03 0.0 
1.089044048788e-03 3.195052180348e-03 0.0 
0.0 0.0 -7.244127351333e-04 
-1.216630828162e-03 -5.217094280109e-05 0.0 
-5.217094280109e-05 3.837261921334e-03 0.0 
0.0 0.0 -5.155555555556e-04 
-1.278612193971e-03 -8.527996152039e-05 0.0 
-8.527996152039e-05 3.532526708308e-03 0.0 
0.0 0.0 -5.485944179258e-04 
-1.248566532597e-03 -8.063337581444e-06 0.0 
-8.063337581444e-06 3.832196745573e-03 0.0 
0.0 0.0 -5.155555555556e-04 
-1.265136211354e-03 -3.710354583219e-05 0.0 
-3.710354583219e-05 3.516310959499e-03 0.0 
0.0 0.0 -5.642304945314e-04 
-1.285253076073e-03 5.378705676948e-05 0.0 
5.378705676948e-05 3.825167274507e-03 0.0 
0.0 0.0 -5.155555555556e-04 
-1.249016317751e-03 2.783290865771e-05 0.0 
2.783290865771e-05 3.495315634217e-03 0.0 
0.0 0.0 -5.808897987891e-04 
-1.009506465037e-03 1.312718317251e-03 0.0 
1.312718317251e-03 3.173615454217e-03 0.0 
0.0 0.0 -6.840081157839e-04 
-1.325793724936e-03 1.409910150458e-04 0.0 
1.409910150458e-04 3.811895021444e-03 0.0 
0.0 0.0 -5.155555555556e-04 
-1.228491986619e-03 1.177167741922e-04 0.0 
1.177167741922e-04 3.467495695501e-03 0.0 
0.0 0.0 -6.000309252581e-04 
-1.370873242614e-03 2.586300978522e-04 0.0 
2.586300978522e-04 3.792690245387e-03 0.0 
0.0 0.0 -5.155555555556e-04 
-1.200813378474e-03 2.299684609271e-04 0.0 
2.299684609271e-04 3.428363493249e-03 0.0 
0.0 0.0 -6.226598288582e-04 
-1.373356089150e-03 4.171425679384e-04 0.0 
4.171425679384e-04 3.744750078480e-03 0.0 
0.0 0.0 -5.289384626357e-04 
-1.172212083606e-03 4.058181090915e-04 0.0 
4.058181090915e-04 3.389456744915e-03 0.0 
0.0 0.0 -6.422847164987e-04 
-1.331867317601e-03 6.009358889080e-04 0.0 
6.009358889080e-04 3.691337826045e-03 0.0 
0.0 0.0 -5.597688379707e-04 
-1.124375463142e-03 5.598543092856e-04 0.0 
5.598543092856e-04 3.325139889709e-03 0.0 
0.0 0.0 -6.782083763712e-04 
-1.081971884868e-03 8.414092324740e-04 0.0 
8.414092324740e-04 3.267902520726e-03 0.0 
0.0 0.0 -6.895475544463e-04 
-1.262668952542e-03 8.256947026051e-04 0.0 
8.256947026051e-04 3.589844959231e-03 0.0 
0.0 0.0 -5.971186907353e-04 
-1.015537556123e-03 1.423057567146e-03 0.0 
1.423057567146e-03 3.272421342693e-03 0.0 
0.0 0.0 -7.495201701545e-04 
-1.195815340391e-03 1.081747061634e-03 0.0 
1.081747061634e-03 3.513584158614e-03 0.0 
0.0 0.0 -6.415873553655e-04 
-9.227522449622e-04 1.272927656652e-03 0.0 
1.272927656652e-03 3.024546989958e-03 0.0 
0.0 0.0 -7.380105449967e-04 
-1.189132313752e-03 -3.719683768529e-04 0.0 
-3.719683768529e-04 3.742930454027e-03 0.0 
0.0 0.0 -5.266666666667e-04 
-1.078621173226e-03 3.329266509439e-04 0.0 
3.329266509439e-04 3.544627002251e-03 0.0 
0.0 0.0 -5.266666666667e-04 
-1.179143088157e-03 -5.341908987877e-05 0.0 
-5.341908987877e-05 3.711783890135e-03 0.0 
0.0 0.0 -5.488888888889e-04 
-1.086602714393e-03 2.829903387263e-05 0.0 
2.829903387263e-05 3.587438639290e-03 0.0 
0.0 0.0 -5.044444444444e-04 
-8.701615349701e-04 1.534050088586e-03 0.0 
1.534050088586e-03 2.982960737759e-03 0.0 
0.0 0.0 -7.564843357160e-04 
-1.281957485101e-03 -9.385206070326e-05 0.0 
-9.385206070326e-05 4.159171467776e-03 0.0 
0.0 0.0 -6.044444444444e-04 
-1.212906511887e-03 8.437755052735e-06 0.0 
8.437755052735e-06 4.332528287739e-03 0.0 
0.0 0.0 -5.822222222222e-04 
-1.270813931325e-03 -4.040562334661e-05 0.0 
-4.040562334661e-05 4.018667514915e-03 0.0 
0.0 0.0 -6.044444444444e-04 
-1.215139368930e-03 -5.723684032478e-05 0.0 
-5.723684032478e-05 4.317315307501e-03 0.0 
0.0 0.0 -5.822222222222e-04 
-1.281549970565e-03 -2.783058806924e-05 0.0 
-2.783058806924e-05 4.009142892880e-03 0.0 
0.0 0.0 -6.044444444444e-04 
-1.225715800122e-03 -5.846153113734e-05 0.0 
-5.846153113734e-05 4.321112834897e-03 0.0 
0.0 0.0 -5.822222222222e-04 
-1.299500121220e-03 -3.892246035712e-05 0.0 
-3.892246035712e-05 4.013014100261e-03 0.0 
0.0 0.0 -6.044444444444e-04 
-1.237102750459e-03 -6.373558927260e-05 0.0 
-6.373558927260e-05 4.316061582639e-03 0.0 
0.0 0.0 -5.822222222222e-04 
-1.310225087603e-03 -3.096991785550e-05 0.0 
-3.096991785550e-05 4.010869733645e-03 0.0 
0.0 0.0 -6.044444444444e-04 
-1.254618385227e-03 -5.449007521454e-05 0.0 
-5.449007521454e-05 4.318709008563e-03 0.0 
0.0 0.0 -5.822222222222e-04 
-1.336238080201e-03 -2.665442879324e-05 0.0 
-2.665442879324e-05 4.014359818630e-03 0.0 
0.0 0.0 -6.044444444444e-04 
-1.274728536484e-03 -4.422787035067e-05 0.0 
-4.422787035067e-05 4.314650827642e-03 0.0 
0.0 0.0 -5.822222222222e-04 
-1.357159993559e-03 -4.580559540248e-06 0.0 
-4.580559540248e-06 4.014254519705e-03 0.0 
0.0 0.0 -6.044444444444e-04 
-1.347537318405e-03 1.010824294751e-03 0.0 
1.010824294751e-03 3.920037731601e-03 0.0 
0.0 0.0 -7.117109445114e-04 
-1.301666809856e-03 -2.047408919469e-05 0.0 
-2.047408919469e-05 4.318063477050e-03 0.0 
0.0 0.0 -5.822222222222e-04 
-1.391706891411e-03 2.751450344882e-06 0.0 
2.751450344882e-06 4.016171820733e-03 0.0 
0.0 0.0 -6.044444444444e-04 
-1.286495538148e-03 1.141604132091e-03 0.0 
1.141604132091e-03 3.755942445139e-03 0.0 
0.0 0.0 -6.690433100420e-04 
-1.326407011280e-03 6.045508856538e-06 0.0 
6.045508856538e-06 4.301570573764e-03 0.0 
0.0 0.0 -5.822222222222e-04 
-1.418163902024e-03 5.346625199558e-05 0.0 
5.346625199558e-05 4.007884251177e-03 0.0 
0.0 0.0 -6.044444444444e-04 
-1.269919325548e-03 9.693842664938e-04 0.0 
9.693842664938e-04 3.741904716454e-03 0.0 
0.0 0.0 -7.168342214570e-04 
-1.359108424707e-03 6.264265058965e-05 0.0 
6.264265058965e-05 4.294165002256e-03 0.0 
0.0 0.0 -5.822222222222e-04 
-1.457002779349e-03 1.155195072583e-04 0.0 
1.155195072583e-04 4.005151940014e-03 0.0 
0.0 0.0 -6.044444444444e-04 
-1.397754652771e-03 1.342537055091e-04 0.0 
1.342537055091e-04 4.286646401950e-03 0.0 
0.0 0.0 -5.822222222222e-04 
-1.439433466702e-03 1.791245333921e-04 0.0 
1.791245333921e-04 3.981926727275e-03 0.0 
0.0 0.0 -6.212763874705e-04 
-1.437165891528e-03 2.256325768342e-04 0.0 
2.256325768342e-04 4.266187057435e-03 0.0 
0.0 0.0 -5.822222222222e-04 
-1.294521127295e-03 1.255121558487e-03 0.0 
1.255121558487e-03 3.846810996671e-03 0.0 
0.0 0.0 -7.256046805931e-04 
-1.416692839753e-03 2.731618170809e-04 0.0 
2.731618170809e-04 3.949147984694e-03 0.0 
0.0 0.0 -6.388990248527e-04 
-1.480404564063e-03 3.507234002411e-04 0.0 
3.507234002411e-04 4.240406141116e-03 0.0 
0.0 0.0 -5.822222222222e-04 
-1.527971474499e-03 5.064010242542e-04 0.0 
5.064010242542e-04 4.210902708310e-03 0.0 
0.0 0.0 -5.822222222222e-04 
-1.387518079071e-03 3.943188623073e-04 0.0 
3.943188623073e-04 3.907645916582e-03 0.0 
0.0 0.0 -6.603292536270e-04 
-1.489199031895e-03 7.040012771420e-04 0.0 
7.040012771420e-04 4.109006438777e-03 0.0 
0.0 0.0 -6.048139398938e-04 
-1.345551405801e-03 5.089205632429e-04 0.0 
5.089205632429e-04 3.844893580165e-03 0.0 
0.0 0.0 -6.886802823100e-04 
-1.449968692027e-03 9.453817318756e-04 0.0 
9.453817318756e-04 4.074908376766e-03 0.0 
0.0 0.0 -6.381145674715e-04 
-1.311416027678e-03 7.842300283395e-04 0.0 
7.842300283395e-04 3.792994805538e-03 0.0 
0.0 0.0 -6.930958846255e-04 
-1.191921020040e-03 1.114101255005e-03 0.0 
1.114101255005e-03 3.585331380848e-03 0.0 
0.0 0.0 -7.187225406772e-04 
-1.177806506474e-03 -3.598193330075e-04 0.0 
-3.598193330075e-04 4.111442480075e-03 0.0 
0.0 0.0 -5.933333333333e-04 
-1.298614317116e-03 3.518912234694e-04 0.0 
3.518912234694e-04 4.327861140627e-03 0.0 
0.0 0.0 -5.933333333333e-04 
-1.201365310379e-03 -4.039072614176e-05 0.0 
-4.039072614176e-05 4.155647570895e-03 0.0 
0.0 0.0 -5.711111111111e-04 
-1.277329052135e-03 4.889702624734e-05 0.0 
4.889702624734e-05 4.269846773222e-03 0.0 
0.0 0.0 -6.155555555555e-04 
-1.165172176686e-03 1.355369621706e-03 0.0 
1.355369621706e-03 3.569481016305e-03 0.0 
0.0 0.0 -7.239602392282e-04 
-1.326401929546e-03 -1.098251756258e-04 0.0 
-1.098251756258e-04 4.716210200324e-03 0.0 
0.0 0.0 -6.488888888889e-04 
-1.341042556431e-03 -1.497445551792e-05 0.0 
-1.497445551792e-05 4.487654478362e-03 0.0 
0.0 0.0 -6.711111111111e-04 
-1.315258375770e-03 -3.279398266088e-06 0.0 
-3.279398266088e-06 4.798065319814e-03 0.0 
0.0 0.0 -6.488888888889e-04 
-1.368317620788e-03 -1.903812859008e-05 0.0 
-1.903812859008e-05 4.498221230458e-03 0.0 
0.0 0.0 -6.711111111111e-04 
-1.325994415009e-03 1.380554954630e-05 0.0 
1.380554954630e-05 4.806277874424e-03 0.0 
0.0 0.0 -6.488888888889e-04 
-1.380848091197e-03 -1.506252807686e-07 0.0 
-1.506252807686e-07 4.508257602630e-03 0.0 
0.0 0.0 -6.711111111111e-04 
-1.343944565664e-03 7.917736370567e-06 0.0 
7.917736370567e-06 4.818216293294e-03 0.0 
0.0 0.0 -6.488888888889e-04 
-1.386616382160e-03 -2.067760603014e-05 0.0 
-2.067760603014e-05 4.497592293928e-03 0.0 
0.0 0.0 -6.711111111111e-04 
-1.354669532048e-03 3.875023501283e-05 0.0 
3.875023501283e-05 4.799753708961e-03 0.0 
0.0 0.0 -6.488888888889e-04 
-1.406907359723e-03 3.160898061574e-05 0.0 
3.160898061574e-05 4.503118169212e-03 0.0 
0.0 0.0 -6.711111111111e-04 
-1.380682524645e-03 5.561565498039e-05 0.0 
5.561565498039e-05 4.809868159536e-03 0.0 
0.0 0.0 -6.488888888889e-04 
-1.435189363615e-03 3.130270196416e-05 0.0 
3.130270196416e-05 4.499809120004e-03 0.0 
0.0 0.0 -6.711111111111e-04 
-1.611535782568e-03 8.671279044143e-04 0.0 
8.671279044143e-04 4.506015908724e-03 0.0 
0.0 0.0 -7.049993574243e-04 
-1.401604438003e-03 9.330713447470e-05 0.0 
9.330713447470e-05 4.797672975585e-03 0.0 
0.0 0.0 -6.488888888889e-04 
-1.512351284449e-03 8.656230693377e-04 0.0 
8.656230693377e-04 4.297202840087e-03 0.0 
0.0 0.0 -7.256265952625e-04 
-1.438154550875e-03 9.647646109404e-05 0.0 
9.647646109404e-05 4.497364060681e-03 0.0 
0.0 0.0 -6.711111111111e-04 
-1.436151335856e-03 1.358395788754e-04 0.0 
1.358395788754e-04 4.800332653133e-03 0.0 
0.0 0.0 -6.488888888889e-04 
-1.499230372271e-03 1.062721523167e-04 0.0 
1.062721523167e-04 4.489570327750e-03 0.0 
0.0 0.0 -6.711111111111e-04 
-1.462608346469e-03 2.027818769099e-04 0.0 
2.027818769099e-04 4.774125764298e-03 0.0 
0.0 0.0 -6.488888888889e-04 
-1.532724437083e-03 1.968943510655e-04 0.0 
1.968943510655e-04 4.482722825432e-03 0.0 
0.0 0.0 -6.711111111111e-04 
-1.501447223794e-03 2.766209172912e-04 0.0 
2.766209172912e-04 4.769601642763e-03 0.0 
0.0 0.0 -6.488888888889e-04 
-1.557872225570e-03 2.720774980370e-04 0.0 
2.720774980370e-04 4.471068660141e-03 0.0 
0.0 0.0 -6.711111111111e-04 
-1.549932705829e-03 1.034482702559e-03 0.0 
1.034482702559e-03 4.338594692453e-03 0.0 
0.0 0.0 -6.619668726724e-04 
-1.539964497909e-03 3.703806189017e-04 0.0 
3.703806189017e-04 4.750827424066e-03 0.0 
0.0 0.0 -6.488888888889e-04 
-1.593531228853e-03 3.628458802930e-04 0.0 
3.628458802930e-04 4.447964373288e-03 0.0 
0.0 0.0 -6.711111111111e-04 
-1.575889340432e-03 4.997462669703e-04 0.0 
4.997462669703e-04 4.711328261492e-03 0.0 
0.0 0.0 -6.488888888889e-04 
-1.590906187641e-03 5.071802277050e-04 0.0 
5.071802277050e-04 4.406658573059e-03 0.0 
0.0 0.0 -6.802731460288e-04 
-1.553155722451e-03 6.861757538348e-04 0.0 
6.861757538348e-04 4.351637703117e-03 0.0 
0.0 0.0 -7.011174395038e-04 
-1.617910879156e-03 6.689844391721e-04 0.0 
6.689844391721e-04 4.669016158580e-03 0.0 
0.0 0.0 -6.488888888889e-04 
-1.669910948397e-03 8.547088690357e-04 0.0 
8.547088690357e-04 4.635783510319e-03 0.0 
0.0 0.0 -6.488888888889e-04 
-1.565389776433e-03 1.113185015486e-03 0.0 
1.113185015486e-03 4.431052665958e-03 0.0 
0.0 0.0 -7.101757656324e-04 
-1.445746577220e-03 9.960480725557e-04 0.0 
9.960480725557e-04 4.140494100543e-03 0.0 
0.0 0.0 -7.083488828164e-04 
-1.382040473179e-03 -3.190058038896e-04 0.0 
-3.190058038896e-04 4.672355147485e-03 0.0 
0.0 0.0 -6.600000000000e-04 
-1.311697345882e-03 3.879464369525e-04 0.0 
3.879464369525e-04 4.545991971317e-03 0.0 
0.0 0.0 -6.600000000000e-04 
-1.392413986569e-03 1.825900643476e-05 0.0 
1.825900643476e-05 4.677427317752e-03 0.0 
0.0 0.0 -6.822222222222e-04 
-1.299551274357e-03 6.542939229750e-05 0.0 
6.542939229750e-05 4.553563985542e-03 0.0 
0.0 0.0 -6.377777777778e-04 
-1.453247710607e-03 1.192137069286e-03 0.0 
1.192137069286e-03 4.178885573169e-03 0.0 
0.0 0.0 -7.047837856643e-04 

SCALARS element_materi_plasti_kappa_shear float
LOOKUP_TABLE default
2.638449368411e-03
2.307880314974e-03
5.668059790692e-03
5.685840565928e-03
3.968724762264e-03
2.227775623384e-03
3.926609063437e-03
2.603981897009e-03
3.959861142706e-03
5.676159459017e-03
3.789460879762e-03
2.166184027025e-03
4.891618303360e-03
4.239593676266e-03
4.915486508882e-03
5.763080812267e-03
3.957109970888e-03
9.864085158713e-05
1.385502992053e-03
1.310811347843e-03
5.684919687706e-03
2.668003560693e-03
2.830444855211e-03
2.887992383095e-03
4.492952651090e-03
3.999825579596e-03
3.772973464484e-03
4.950933107395e-03
4.446798420902e-03
3.154878546999e-03
2.756846244610e-03
9.905717093618e-04
5.968283596401e-03
4.581378283716e-03
4.439297578914e-03
4.887177070447e-03
5.091662130986e-03
3.236750732307e-03
3.615750744496e-03
3.662711387174e-03
3.132788783305e-03
4.003574433579e-03
2.231218125306e-03
3.619781891395e-03
5.614862315127e-03
2.308537538977e-03
2.567928975722e-03
5.479464518158e-03
8.195853011298e-04
4.082692105509e-03
3.028705324844e-03
1.800022130003e-03
3.293726347817e-03
2.963783223813e-03
5.752538416863e-03
2.317662380795e-03
1.680471960424e-03
4.591779384906e-03
1.282089538117e-03
5.743217870912e-03
0.0
3.970806248155e-03
2.953445704213e-03
3.287038662097e-03
4.914099357777e-03
2.824966036789e-03
0.0
5.862902570517e-03
2.620748184046e-03
5.405750626231e-03
4.123083578977e-03
5.868967824668e-03
4.513723255217e-03
9.779064778028e-04
2.287061364591e-03
5.715984257660e-03
5.955190373470e-03
2.225229681789e-03
8.958780141002e-04
2.309523210765e-03
2.623606725785e-03
3.807044789785e-03
2.701030844542e-03
2.283651859930e-03
4.111166650998e-03
4.102179279090e-03
4.228241446566e-03
4.546798255786e-03
5.028716670229e-03
3.901152697752e-03
6.549433232100e-04
3.920650833441e-03
4.955587413478e-03
5.010029682247e-03
6.082587846612e-03
3.583046306489e-03
3.812238424463e-03
4.309414704673e-03
4.319293153851e-03
3.152072117772e-03
3.806820599516e-03
4.894923453038e-03
2.752080048091e-03
3.649256563451e-03
2.864912835823e-03
2.832888651383e-03
4.791522079347e-03
5.257296183678e-03
6.216847982975e-04
4.789762209254e-03
4.946970942302e-03
1.455853485302e-03
3.116660414769e-03
3.646713869330e-03
2.740266031467e-03
2.565730635348e-03
3.111248311779e-03
4.481696809263e-03
4.267994674223e-03
2.744319843462e-03
2.256121814009e-03
4.028535080126e-03
5.125478964429e-03
2.884095006377e-03
1.634010763882e-03
3.343960081378e-03
2.825136596843e-03
3.200895695618e-03
5.840634446844e-03
3.049581698772e-03
3.964814282569e-03
5.700506446746e-03
3.554006587530e-03
3.223480759992e-03
4.236959910874e-03
4.935732901856e-03
4.220142662913e-03
3.782725374417e-03
3.633905000164e-03
3.434454553281e-03
5.667308756995e-03
5.731127569311e-03
4.159105326719e-03
4.705255006089e-03
3.527054415499e-03
3.060528253236e-03
3.807578355912e-03
3.078773552032e-03
3.873095872756e-03
3.370616847934e-03
7.627933793163e-04
4.106841682748e-03
9.591787070335e-04
3.491582586837e-03
3.620903548599e-03
2.658320563693e-03
4.383820681644e-03
2.313821533157e-03
3.280595579104e-03
3.781797064791e-03
3.239934934191e-03
4.666843953081e-03
1.844128017672e-03
4.751176865938e-03
3.949884846235e-03
4.988018486650e-03
3.771577015596e-03
2.896598297230e-03
3.483459645253e-03
3.893786270809e-03
2.298745108616e-03
3.272701774280e-03
4.841674106423e-03
3.900979634001e-03
3.037833255544e-03
3.320787467051e-03
5.050201609921e-03
3.079663805871e-03
4.649906474497e-03
5.561012058297e-03
2.890227526471e-03
2.943961554453e-03
2.210045688094e-03
3.349611072643e-03
2.235768342795e-03
3.804052174663e-03
3.255583921612e-03
5.686869579948e-03
5.039238049397e-03
4.717478710770e-03
2.309621426061e-03
3.143595662693e-03
5.111000880600e-03
0.0
3.256985193650e-03
2.315875762829e-03
1.186781807755e-03
5.879212306885e-03
4.749545806609e-03
3.205712272384e-03
1.923895110586e-03
4.248611553850e-03
4.390119912627e-03
3.260852054243e-03
2.726046229142e-03
3.866905638561e-03
4.085059299403e-03
4.849847065370e-03
4.084848891733e-03
3.788784052669e-03
2.384045379571e-03
4.854751456170e-03
0.0
2.534886222220e-03
2.875294506275e-03
3.926615174907e-03
5.120800106263e-03
2.883704576323e-03
2.560806566150e-03
3.780927287153e-03
3.250336732161e-03
2.904934106925e-03
9.744138873205e-04
5.002746784696e-03
1.187677453753e-03
9.712234474307e-04
2.285555067131e-03
2.450408811608e-03
5.091607850684e-03
2.428262004319e-03
2.774880105580e-03
3.779138720656e-03
1.803156298713e-03
1.957999132830e-03
3.924614645831e-03
4.859013116494e-03
0.0
3.040676180201e-03
3.206874618957e-03
3.130650380996e-03
2.062644621155e-03
4.885442700903e-03
4.892149880117e-03
3.059373875750e-03
2.149562808967e-03
4.104130610049e-03
4.011618650566e-03
4.856263363195e-03
4.079661242982e-03
3.170623979729e-03
2.775910294641e-03
4.348640566437e-03
6.080884502444e-03
4.012120085899e-03
2.651654117440e-03
4.174160396721e-03
2.772644652466e-03
4.114504492513e-03
3.290795862291e-03
2.811701725688e-03
3.471873507376e-03
5.142731837040e-03
4.219310466071e-03
2.711805464269e-03
5.231202940207e-03
4.958047196859e-03
4.103438709337e-03
4.637764333400e-03
2.438306330947e-03
4.211956383520e-03
3.365372856234e-03
2.450675261700e-03
2.887962119562e-03
3.878533253387e-03
2.940597055344e-03
2.728683675051e-03
4.958207544710e-03
0.0
4.231308200600e-03
3.120397780434e-03
3.113605546756e-03
2.278736831083e-03
4.503373325418e-03
1.884659263120e-03
3.120901491325e-03
2.297614029118e-03
4.243041167150e-03
4.240307436026e-03
1.373936041198e-03
2.435310679187e-03
3.155120820171e-03
3.003223930663e-03
4.798301013803e-03
3.306297059748e-03
2.985321424422e-03
3.188763902837e-03
1.370686704752e-03
3.117506418936e-03
2.564683140303e-03
6.161779301333e-03
6.171298087031e-03
3.871585823704e-03
3.224089549692e-03
3.155590452933e-03
4.317766949050e-03
3.003359536048e-03
2.608662778043e-03
3.938150114373e-03
5.859163444552e-03
3.214653691530e-03
2.969191311487e-03
2.861811173678e-03
3.768586856653e-03
3.337633072254e-03
4.030230270756e-03
2.035757012657e-03
1.094219009940e-03
3.031075150381e-03
2.930652641428e-03
4.078338297131e-03
6.100030670434e-03
3.051206385844e-03
1.821620188347e-03
2.861790791984e-03
4.656042724998e-03
2.349687270255e-03
2.816498775574e-03
4.525435709533e-03
5.833892866330e-03
2.486522419677e-03
6.151276113808e-03
4.485990906698e-03
4.856089461195e-03
2.611916462935e-03
3.799226166888e-03
4.210806094155e-03
4.343507042611e-03
3.883342781648e-03
5.453648402860e-03
4.408884898377e-03
3.954238356753e-03
2.946932738359e-03
2.126147916000e-03
3.626304909236e-03
2.828752624356e-03
3.908082809323e-03
3.189022324685e-03
2.979438473071e-03
5.107150669262e-03
3.057133034874e-03
3.948493172096e-03
1.767047002602e-03
3.219295742043e-03
4.649421512783e-03
3.423567528206e-03
2.373751734207e-03
2.784414744251e-03
2.725624955031e-03
2.452240531365e-03
5.184269692729e-03
4.210892199139e-03
3.195156139090e-03
3.675464466287e-03
3.719198240263e-03
3.156300643646e-03
5.270722120896e-03
4.951030620452e-03
2.791959147438e-03
3.435291521076e-03
2.714045320190e-03
2.771808396209e-03
4.119259232477e-03
1.360400106286e-03
3.400766620885e-03
5.356429761657e-03
2.456112603846e-03
3.687823897699e-03
4.067889866897e-03
3.485977458347e-03
6.171877983723e-03
6.194847258957e-03
5.749913356992e-03
3.020677987419e-03
5.279204517925e-03
2.613300540084e-03
2.741755212613e-03
2.004260055720e-03
3.406978849626e-03
3.842950909138e-03
4.513278632072e-03
3.244307823644e-03
5.163355495152e-03
4.386423237292e-03
4.476099206042e-03
2.391474383936e-03
1.955161698588e-03
3.217570021580e-03
3.872368428504e-03
3.338770506916e-03
1.812371568338e-03
4.015486225802e-03
2.355558185554e-03
3.278219706871e-03
3.673414290175e-03
1.915648292058e-03
3.981389866812e-03
1.053059668761e-03
3.652003582868e-03
3.330842304649e-03
4.441446771420e-03
6.067281547840e-03
3.807583682193e-03
4.322942112553e-03
3.526145110671e-03
5.255189385440e-03
3.347041718801e-03
5.955073764805e-03
5.938883086238e-03
5.933478345374e-03
5.925413924026e-03
4.598269985990e-03
5.190485547386e-03
5.356291838170e-03
3.172127365247e-03
3.189545386338e-03
3.291257441844e-03
5.278332870253e-03
5.650465782490e-03
5.386391458906e-03
2.086314033400e-03
5.331196890249e-03
3.953887606243e-03
3.284431480345e-03
3.285128967487e-03
3.301125392640e-03
5.759722545496e-03
2.921518703947e-03
4.716770599090e-03
3.382244159206e-03
3.419989620685e-03
3.235774226863e-03
3.108654577361e-03
5.912838273886e-03
5.757913193712e-03
4.236288878953e-03
1.032336198831e-03
5.784372647958e-03
3.094301216638e-03
3.133163714027e-03
1.473651489525e-03
4.377992282328e-03
0.0
3.076087156915e-03
4.393331777553e-03
4.078214650418e-03
4.173061940919e-03
3.172673925433e-03
5.528089032988e-03
2.695300704482e-03
6.061028079687e-04
4.784301089445e-03
1.109397696731e-03
3.558631343330e-03
2.671343080510e-03
3.641731318210e-03
3.626491229388e-03
5.164773912347e-03
4.369311817321e-03
2.723039152115e-03
3.202065681838e-04
3.393270163090e-03
4.000013488580e-03
3.998607249003e-03
4.091967694103e-03
4.682585152391e-03
3.977798602140e-03
6.148717226547e-03
4.046693637694e-03
4.375476627736e-03
2.475463655856e-03
2.038113747758e-03
2.665603733635e-03
4.155084444683e-03
5.944456476497e-03
5.933805245862e-03
3.347496143322e-03
3.141954240646e-03
3.636565096111e-03
3.524861024850e-03
3.764870203374e-03
3.214228737877e-03
2.609429685079e-03
2.752166065871e-03
4.525635562498e-03
3.964553113648e-03
2.737089484301e-03
3.599211839311e-03
2.982464518279e-03
5.872767812274e-03
5.256518196814e-03
6.948896764315e-04
2.926992632798e-03
5.363068251323e-03
5.678180438031e-03
4.516604651069e-03
3.800290162266e-03
2.959233318371e-03
2.645089123398e-03
2.991327947613e-03
2.961565605678e-03
1.984606166548e-03
5.360282778703e-03
2.617597906633e-03
2.719354908298e-03
4.219904639673e-03
2.558238552366e-03
2.945805251787e-03
4.447306010212e-03
4.403301426083e-03
3.203880338452e-03
3.270240138625e-03
3.822758874253e-03
2.320351021533e-03
2.695647363228e-03
3.241179321446e-03
4.055854335950e-03
4.302137120783e-03
2.006945487216e-03
3.504931263533e-03
3.493889225164e-03
3.226663955409e-03
3.195012242961e-03
3.705694372684e-03
2.015330950654e-03
3.674094389629e-03
5.465741692551e-03
2.782005441388e-03
3.605540778520e-03
3.144508273297e-03
3.122849437202e-03
2.256333325417e-03
4.140151503650e-03
5.431033007288e-03
3.225301536712e-03
3.778146397866e-03
3.509424093333e-03
3.382045560242e-03
4.257156002915e-03
2.174643724136e-03
3.150567633663e-03
1.746587665763e-03
4.710220312248e-03
3.696882214136e-03
2.499260062840e-03
4.393497597306e-03
3.304371545067e-03
1.515148851359e-03
2.794723090240e-03
3.870525163770e-03
5.202539231559e-04
3.198860063348e-03
3.122843769625e-03
3.536839909767e-03
3.054969112373e-03
3.133169061378e-03
4.394974799046e-03
3.171453652514e-03
3.954441890249e-03
4.408365611267e-03
3.531054572272e-03
4.293331672903e-03
3.469160005882e-03
0.0
4.342827187450e-03
2.815733446127e-03
1.169868182888e-03
3.377528405656e-03
3.017950135559e-03
5.309388747160e-03
1.836141118027e-03
1.645439494872e-03
3.818624685672e-03
3.581263554169e-03
5.741565943865e-03
4.177684629919e-03
1.850928756814e-03
2.067405024286e-03
1.416744999512e-03
2.579714406710e-03
4.842819569639e-03
5.316030625827e-03
3.796388360631e-03
2.739477237490e-03
3.923275296672e-03
2.756654641123e-03
1.368956117904e-03
2.826459377296e-03
2.346887089609e-03
4.356557030682e-03
4.139689611657e-03
3.039564492647e-03
3.507425817395e-03
3.484969287982e-03
2.724837710706e-03
1.738579034053e-03
2.880004918018e-03
1.059860394561e-03
3.342988300000e-03
3.564932177344e-03
9.012381607526e-04
2.910014888118e-03
5.510045432400e-03
1.959702749170e-03
3.585704259986e-03
3.723526099815e-03
1.268716263999e-03
2.392889037010e-03
3.063515298584e-03
2.813209111348e-03
4.210048530920e-03
5.103573185464e-03
5.177892081959e-03
2.829945348819e-03
1.363451425510e-03
3.691969532227e-03
3.550626997966e-03
3.676511325993e-03
1.285478420515e-03
8.537344141222e-04
7.845181071081e-04
2.162938812804e-03
1.377340432524e-03
3.170219899797e-03
0.0
2.524870915773e-03
4.491269867148e-03
3.700282617022e-03
5.066161758073e-03
3.327949804502e-03
4.251884330892e-03
2.509212341416e-03
1.018037242248e-03
5.829475890603e-03
6.039028528119e-03
4.216434674855e-03
3.565489033799e-03
2.587498848121e-03
5.999263223227e-03
2.442752516004e-03
3.696609549568e-03
3.563907472710e-03
3.514699694935e-03
5.927065042664e-03
6.015277257663e-03
1.330400211541e-03
1.449907591737e-03
1.344592241943e-03
3.643608196866e-03
4.850396606121e-03
0.0
5.101358492196e-03
1.409139728971e-04
1.499124232117e-03
3.824208957472e-04
0.0
2.029814193675e-03
4.688865864911e-03
4.611649624508e-03
3.864254668426e-03
9.306078872588e-04
4.020589784949e-03
5.797624803762e-03
5.973591106953e-03
3.688007304244e-03
1.196237126604e-03
5.834612071299e-03
3.414725027011e-03
9.671159728271e-04
1.409744689688e-03
9.368666534769e-04
2.773625038877e-03
5.128733981852e-03
5.686078140094e-03
1.614169892137e-03
3.141780048589e-03
4.903795419049e-03
5.124707089311e-03
4.540751789241e-03
4.863760003676e-03
5.230664655895e-03
4.885659315087e-03
4.900079095049e-03
5.104618843216e-03
2.371313285604e-03
3.639130252576e-03
3.700407251155e-03
1.543007074285e-03
4.822691056273e-03
4.723797952646e-03
4.594502443142e-03
2.187658065542e-03
2.078158679153e-03
4.298928970353e-03
4.465695048772e-03
4.739825188448e-03
3.625004239622e-03
4.980074041723e-03
4.182381661481e-03
3.612530889479e-03
1.648586597975e-03
1.078919747717e-03
9.715320649564e-04
8.189522588763e-04
3.276017880373e-03
3.023112973762e-03
3.897742298982e-04
4.028126407989e-03
2.904706458492e-04
5.885086834910e-03
5.811364703112e-03
5.844706076157e-03
1.127270833140e-03
2.214903500655e-03
5.806505327904e-03
4.688671280238e-03
5.826774921975e-03
4.813055851057e-03
4.917144813202e-03
2.903322035183e-03
6.008349193016e-03
6.003877113261e-03
4.727827648335e-03
4.864305038441e-03
4.249335747199e-03
0.0
3.175859147544e-03
1.259325279811e-03
4.420798695160e-03
3.384638883793e-03
4.409067033902e-03
2.131043982543e-03
1.108023222196e-03
4.695482135487e-03
3.365831542969e-03
2.646631452456e-03
4.556588175849e-03
5.414895944389e-03
2.656831201839e-03
3.200576911771e-03
3.816886599349e-03
4.190899904542e-03
4.331300515814e-03
2.822232598008e-03
3.605666078604e-03
3.473782743791e-03
3.959311659394e-03
4.657481856823e-03
4.474738788930e-03
2.497721918515e-03
5.428170056435e-03
5.196932708230e-03
3.994972095663e-03
4.018877418988e-03
4.067532001752e-03
5.468828346424e-03
5.334434594670e-03
3.777218885507e-03
4.785229386991e-03
5.183640898652e-03
4.486085823949e-03
4.626918442455e-03
5.440760853048e-03
4.828731435924e-03
3.492214324912e-03
1.813629337524e-03
2.595415623828e-03
1.751915947168e-03
1.311389193297e-03
5.325791288567e-03
4.638904880307e-03
1.232072997821e-03
5.349220756651e-03
4.109200150890e-03
4.453473742339e-03
4.501290464753e-03
2.822661026846e-03
4.600361826760e-03
3.989940508894e-03
1.568365711787e-03
4.607579259789e-03
1.682217231393e-03
4.433060704539e-03
4.965853579252e-03
1.931234771425e-03
2.536905363929e-03
3.506959235330e-03
4.546823231474e-03
2.929878446617e-03
5.094658413771e-03
4.689487714454e-03
3.549548679273e-03
4.373859018118e-03
4.508144441649e-03
4.950601638813e-03
1.602271484754e-03
3.405781233643e-03
3.108775469077e-03
5.079843116042e-03
3.194307102305e-03
3.880531337843e-03
4.194530845224e-03
4.813687637528e-03
2.696113206384e-04
1.541456333067e-03
1.874707634932e-03
4.535680067079e-03
4.684102630711e-03
3.785681380179e-03
4.265606377495e-03
3.105476038775e-03
3.587079011170e-03
4.392674845493e-03
1.860767443432e-03
4.452816754116e-03
3.543702289538e-03
1.992785431315e-03
3.392397121739e-03
2.975423009005e-03
2.515877789845e-03
3.725661475431e-03
9.890849693237e-04
7.121019429699e-04
4.132428392348e-03
1.740140079302e-03
4.103577769620e-03
3.987009557526e-03
3.370047699069e-03
3.248806400505e-03
5.300420175180e-03
2.104285098992e-03
2.995450123017e-03
2.940527097191e-03
1.410651741479e-03
4.429529881649e-03
4.136718757980e-03
1.859816294009e-03
3.894261520894e-03
4.933477745413e-03
1.699722713993e-03
5.408694418047e-03
5.411197824938e-03
2.017061567542e-03
2.915404601559e-03
2.179306637539e-03
4.367605250964e-03
3.647788208579e-03
5.489535749250e-03
5.304729192866e-03
4.231498250214e-03
4.146491013705e-03
1.780674243216e-03
4.280532226645e-03
4.934868325194e-03
3.669316609231e-03
4.695546322833e-03
5.063717161736e-03
2.645489529404e-03
5.190164349716e-03
3.272404207533e-03
3.596661715041e-03
2.751844944681e-03
3.019000093276e-03
4.810385432176e-03
3.246422704326e-03
2.264566458407e-03
1.689403800147e-03
4.815225778648e-03
2.226110953632e-03
4.194754128453e-03
4.940895878954e-03
4.276223362944e-03
3.112253213804e-03
3.202020562987e-03
1.919623832173e-03
1.352217145348e-03
4.164633130640e-03
4.560658305418e-03
1.177128837243e-03
2.915068821861e-03
1.620327168500e-03
4.555465457416e-03
2.973416926450e-03
3.909810264466e-03
2.724408296497e-03
5.208767427969e-03
2.593619795372e-03
4.035142549939e-03
2.532928249258e-03
4.024142569854e-03
3.450900747862e-03
4.136123601672e-03
2.485244761370e-03
1.564757219021e-03
4.294495704809e-03
2.163488820880e-03
3.387401299419e-03
4.565662359774e-03
2.738581822716e-03
4.665942928302e-03
1.465348703278e-03
4.246327033609e-03
1.699623542301e-03
2.032350589391e-03
5.536974569683e-03
3.426908671018e-03
1.540384123315e-03
3.758577465195e-03
3.927524684089e-03
2.715033437353e-03
4.314845763778e-03
4.948351979472e-03
3.360890771607e-03
3.891846381777e-03
4.252820554628e-03
2.212724349773e-03
2.843833598180e-03
4.035789724436e-03
3.996131275531e-03
3.575096828484e-03
3.792627721388e-03
4.802343365754e-03
4.415034608388e-03
4.389129640424e-03
3.467263775260e-03
3.595494986516e-03
3.583279255749e-03
4.289394557029e-03
5.421975200704e-03
2.486182053314e-03
3.861488826342e-03
5.063142224082e-03
3.131891392016e-03
3.028041098227e-03
1.823938140991e-03
3.705908196928e-03
3.091369410019e-03
4.675935954995e-03
4.534875968551e-03
2.056161555857e-03
2.786655864968e-03
2.873165513745e-03
2.868546210609e-03
3.110365765296e-03
1.843618803568e-03
3.272992134604e-03
3.412916071715e-03
5.192089283469e-03
3.281566540745e-03
3.626240938450e-03
3.586985508785e-03
3.409305181201e-03
1.897398460282e-03
3.604818096321e-03
3.888630237913e-03
4.421922450971e-03
3.317485446496e-03
3.647674555787e-03
4.673336337087e-03
3.224252799485e-03
3.496064654626e-03
2.622358304585e-03
3.055333394029e-03
3.164663825952e-03
2.311141121049e-03
2.125313783725e-03
3.477924834306e-03
3.736945563828e-03
4.738585916755e-03
1.315321289851e-03
2.446620192041e-03
2.982448329977e-03
3.433203482514e-03
4.531582693643e-03
3.499304588405e-03
2.673974497719e-03
3.139905464341e-03
5.072747806473e-03
2.707809154280e-03
1.166214898562e-03
1.463299212712e-03
2.914504388254e-03
3.018723201689e-03
2.686713935682e-03
3.062407380188e-03
2.712109552951e-03
1.499659389839e-03
4.359635542217e-03
2.393958649680e-03
3.066798902882e-03
4.495652146628e-03
4.450791082476e-03
5.300178894970e-03
4.977951589195e-03
2.397146190700e-03
4.416844529747e-03
3.119400395624e-03
3.332129797491e-03
3.122426360325e-03
2.988793531740e-03
2.855846187293e-03
3.177000482072e-03
2.756193394154e-03
2.592075865469e-03
2.421633066575e-03
3.387402253471e-03
2.293172573691e-03
2.277057048855e-03
2.911114260278e-03
1.155684839829e-03
4.799837983891e-03
2.295247612437e-03
3.251041652365e-03
3.393599796704e-03
3.145369302234e-03
3.078086569887e-03
5.318104494318e-03
4.480500477960e-03
2.985180505105e-03
4.544225245269e-03
5.407567982517e-03
2.819844426375e-03
3.291868619470e-03
4.617460502529e-03
3.604719748764e-03
2.828319211558e-03
5.770682299556e-03
2.324148480044e-03
2.632797394299e-03
5.423157329672e-03
1.479799231386e-03
4.397525855562e-03
5.165585481732e-03
2.315901153844e-03
1.693562376470e-03
5.527898528543e-03
3.711930513200e-03
4.919552001560e-03
1.951673982838e-03
3.287761322063e-03
5.034502267977e-03
5.186304779390e-03
3.552693579741e-03
3.534005249318e-03
4.400555289825e-03
4.253543167516e-03
2.943285220908e-03
3.519756308427e-03
3.287722794547e-03
1.604761110599e-03
2.916005013921e-03
2.089170602373e-03
2.495795305072e-03
3.131259226377e-03
5.609482615871e-03
5.438909998859e-03
5.417054799902e-03
3.703317504642e-03
5.161557093516e-03
3.868518273720e-03
5.545650970965e-03
4.897334775276e-03
3.311771604762e-03
2.197730088428e-03
5.053606803532e-03
5.398699092692e-03
5.059342313408e-03
4.930251969398e-03
3.686756924755e-03
2.638215958256e-03
3.385656639266e-03
3.735595459470e-03
3.380928897864e-03
1.515738106098e-03
4.891642251277e-03
2.057605305164e-03
2.303129579541e-03
1.798145096306e-03
1.202338881616e-03
2.291547627481e-03
2.255519192117e-03
1.119365171026e-03
3.821601090175e-03
3.628201443266e-03
4.633003595104e-03
3.816334825167e-03
1.776186669795e-03
3.629386261877e-03
1.548469868944e-03
5.595449219484e-03
1.931840670526e-03
3.698695061029e-03
4.663243438870e-03
2.011134684472e-03
1.247841792706e-03
1.362382450494e-03
3.956724378172e-03
3.694573121702e-03
3.378959753737e-03
3.476784983087e-03
3.160808567775e-03
1.209468731441e-03
5.051259765074e-03
3.748618971867e-03
3.477272273897e-03
1.950538792296e-03
4.782003339930e-03
3.210604208947e-03
5.183136400848e-03
1.092245890419e-03
2.105066893939e-03
3.669072015162e-03
1.206486766565e-03
5.304264296023e-03
2.175618363556e-03
1.951041802013e-03
3.970362899570e-03
5.544534571255e-03
3.589900622387e-03
4.195224401096e-03
4.919263556773e-03
3.618574329088e-03
2.771490720799e-03
3.147261186436e-03
2.962169357454e-03
3.142630492045e-03
3.544072557654e-03
1.522290315328e-03
6.123405621243e-03
2.263220382989e-03
3.970342460406e-03
2.658927723359e-03
4.758938700212e-03
1.696532885482e-03
3.388847263524e-03
3.457624531915e-03
2.514428578240e-03
1.677345446119e-03
2.396212171814e-03
2.754267880200e-03
3.227262210638e-03
4.988779509347e-03
2.815825285194e-03
4.795644255112e-03
5.516289922385e-03
5.146103467286e-03
5.257081820144e-03
3.182071023712e-03
4.029201795451e-03
5.042361025696e-03
2.756595180964e-03
2.647290714061e-03
3.056301189697e-03
2.572569436643e-03
2.462008023465e-03
2.644345930535e-03
1.440401882729e-03
3.630426804566e-03
1.569273956402e-03
5.480811851792e-03
5.602378623592e-03
1.419199509514e-03
5.275547562051e-03
2.804242796237e-03
4.372719245337e-03
2.891727352859e-03
5.381895938702e-03
3.185020396507e-03
3.346610583280e-03
2.289654001474e-03
3.542499471540e-03
3.433320806316e-03
3.266208049096e-03
2.035076047681e-03
2.493404353718e-03
2.201070291381e-03
5.424319885087e-03
5.590129291020e-03
3.903582702292e-03
2.909258766393e-03
2.335058945798e-03
5.293513921390e-03
1.953817967391e-03
4.234737884749e-03
5.172652995614e-03
5.124227989435e-03
9.277188622566e-04
2.506898590902e-03
4.525242961084e-03
4.563239763712e-03
3.241690536946e-03
2.241320889606e-03
2.833288907621e-03
4.078547169666e-03
4.419169055791e-03
5.013620306272e-03
2.282293485652e-03
4.307804809555e-03
1.686847443505e-03
5.290274890223e-03
4.851002717086e-03
4.643175649224e-03
2.345179317856e-03
1.807172178817e-03
1.801948734361e-03
3.359707236442e-03
5.507142592636e-03
5.108003363980e-03
1.046447068849e-03
2.179901417413e-03
3.852336584430e-03
3.800392508022e-03
2.586138136504e-03
9.771895354138e-04
2.930181311238e-03
2.283701537404e-03
1.568412579387e-03
4.696631355627e-03
4.607881037575e-03
4.766072203044e-03
4.081754060291e-03
4.603369163212e-03
4.379957173959e-03
4.618906992019e-03
2.458376662123e-03
4.098638148539e-03
4.907202475208e-03
5.648784616652e-03
4.495095601971e-03
2.548434779706e-03
3.912793135380e-03
5.512760513766e-03
3.001262042829e-03
3.180884923332e-03
2.468543689254e-03
5.028337068141e-03
3.427253910037e-03
3.290153938343e-03
3.675470650321e-03
2.182285102727e-03
4.189801390205e-03
2.291578316535e-03
1.349449754861e-03
5.636015473331e-03
3.625895958899e-03
2.103450277768e-03
4.046287823861e-03
4.878000002137e-03
3.895798009600e-03
3.114017949884e-03
8.889497729122e-04
4.793301523209e-03
4.034143798685e-03
2.338495865229e-03
4.679004096829e-03
0.0
3.545292720195e-03
3.183419108901e-03
4.620052298240e-03
3.760015126243e-03
2.393922234819e-03
4.445933361572e-03
3.448409215898e-03
2.584776922099e-03
4.250432662385e-03
1.906468634271e-03
4.153126910283e-03
1.818802017300e-03
5.293743423829e-03
4.239353654533e-03
2.394815569185e-03
4.179465517636e-03
5.639919064863e-03
3.534684727708e-03
2.288195308190e-03
2.779857412875e-03
4.157293753941e-03
4.559059439739e-03
3.534808419225e-03
4.252606570727e-03
4.782120039691e-03
4.278791894662e-03
3.738223600894e-03
3.499074933205e-03
3.494139593801e-03
4.747419654542e-03
4.255099070675e-03
3.839964885528e-03
4.569340265878e-03
3.056246348132e-03
2.393304954355e-03
2.930480403413e-03
6.086851266750e-03
4.117844399000e-03
3.455995573439e-03
3.753400023371e-03
2.472071372363e-03
3.491628202087e-03
4.204348122107e-03
4.268597776756e-03
4.772004198945e-03
4.710233733702e-03
4.692963440339e-03
1.106720622824e-03
3.608330547153e-03
3.820362875112e-03
4.664326353529e-03
4.680096484355e-03
2.352584026883e-03
1.558884795758e-03
2.654480659437e-03
3.731003145245e-03
3.466490700851e-03
3.315280051285e-03
3.510786059953e-03
4.741445271794e-03
3.000739119005e-03
3.725942709322e-03
1.882186228005e-03
1.989209782105e-03
4.859365221654e-03
5.378791863780e-03
3.622412790060e-03
4.086298431898e-03
8.788451117360e-04
2.150327118180e-03
4.157073371539e-03
8.318441689136e-04
5.408814910997e-03
1.796994317519e-03
4.563827465076e-03
4.326693611244e-03
2.179157756358e-03
2.902957421488e-03
5.531946144864e-03
2.724274636976e-03
3.597238446451e-03
3.949741788311e-03
1.387126890400e-03
1.483538630366e-03
4.094562523506e-03
4.462003929120e-03
4.216899447097e-03
3.250175486718e-03
5.197689124532e-03
4.432557972304e-03
3.662154238880e-03
4.324815174578e-03
4.318493610634e-03
4.118093824424e-03
3.698739609380e-03
3.642170033284e-03
5.589231027012e-03
3.013506558343e-03
4.255186571382e-03
2.631728022376e-03
2.719221655027e-03
3.230635052549e-03
2.472264286779e-03
1.402294089302e-03
2.643957478187e-03
4.711133417206e-03
2.471516709082e-03
4.468472658716e-03
2.193648896864e-03
1.986292001410e-03
2.990854761195e-03
4.632153164590e-03
4.258818863725e-03
4.455822626565e-03
2.409857783535e-03
4.599243387348e-03
4.586353591898e-03
3.003262797050e-03
3.764237663719e-03
1.259809435264e-03
4.417137978971e-03
2.598861938414e-03
3.559924899756e-03
2.891071441809e-03
4.599295072823e-03
4.492928374407e-03
3.946747793921e-03
3.008453656814e-03
3.177730900320e-03
4.583213391973e-03
3.022048143241e-03
1.998492614778e-03
1.639620437187e-03
1.813972294795e-03
2.527763030566e-03
3.023198208948e-03
4.233192300425e-03
3.640278608643e-03
1.787168974819e-03
3.020737013717e-03
3.250114505745e-03
4.609207531696e-03
1.720484110792e-03
4.768807741004e-03
2.542365269620e-03
3.372604860332e-03
3.955992186008e-03
3.843149938690e-03
2.565660421796e-03
3.009689123218e-03
4.457896627465e-03
1.960918397589e-03
4.405903501378e-03
3.240600366134e-03
3.564971743917e-03
2.068612722327e-03
3.806478467456e-03
4.436879848710e-03
1.816133218611e-03
2.713220334332e-03
2.003794310319e-03
1.222241799405e-03
3.754040591865e-03
4.602132618812e-03
4.606753680845e-03
2.762317310720e-03
5.921576080326e-03
1.815757574158e-03
2.912859680010e-03
2.189495913324e-03
3.665001844436e-03
3.520328983887e-03
2.638881836419e-03
2.895778659108e-03
4.043104173156e-03
2.482129023893e-03
5.209900433282e-03
3.214049017557e-03
3.647482495706e-03
3.710983494359e-03
2.656638786889e-03
3.855170451250e-03
4.566671673770e-03
4.366198307929e-03
1.028648459849e-03
0.0
2.165054714133e-03
3.723014921691e-03
2.395137752120e-03
2.817631679997e-03
2.513976997857e-03
3.806732758052e-03
4.815158278389e-03
3.775227130307e-03
2.362468453277e-03
4.403407743042e-03
4.096150277746e-03
2.928708125507e-03
3.798202669823e-03
3.830814983830e-03
2.434166470534e-03
2.429201062824e-03
3.861528244714e-03
4.613156150105e-03
4.387204249011e-03
2.657070979426e-03
3.880643775732e-03
2.837716406776e-03
2.485420115051e-03
3.105685387870e-03
2.225639351650e-03
2.780093807568e-03
2.725707991279e-03
2.761000011738e-03
3.893879650775e-03
2.100922071665e-03
3.891918480221e-03
3.915697350990e-03
2.204461836540e-03
3.709703770702e-03
0.0
5.365652246451e-03
2.578069340872e-03
2.173697461019e-03
3.448943280228e-03
3.975644968851e-03
4.011347503912e-03
2.443864926480e-03
1.964861984032e-03
1.711666579155e-03
4.092079591951e-03
2.346058795579e-03
2.509223878502e-03
4.534649018568e-03
2.777991002642e-03
4.537667482143e-03
4.058891197805e-03
0.0
5.816180050420e-03
4.902062641942e-03
3.881412651745e-03
2.440978645024e-03
3.770170632493e-03
2.426839343308e-03
1.518214254580e-03
1.505631870126e-03
5.546974744787e-03
4.665874526858e-03
3.739497969649e-03
5.215858982210e-03
1.786753972791e-03
4.945218504881e-03
4.727704294311e-03
2.892091425302e-03
3.818142524302e-03
2.797163094051e-03
2.426438530921e-03
2.920765910813e-03
4.893505897122e-03
4.727405870860e-03
2.743689612102e-03
4.673515583297e-03
0.0
2.485522009972e-03
5.040677103797e-03
3.152365298128e-03
2.607652291814e-03
3.607194230213e-03
3.172614263735e-03
2.188759691854e-03
2.409032827129e-03
2.923122928886e-03
2.479690312005e-03
2.876821812237e-03
4.465612370866e-03
5.532694685970e-03
2.480976938953e-03
4.855765288150e-03
5.147151796070e-03
2.491148219769e-03
2.231684133508e-03
3.071159247528e-03
2.618928641937e-03
4.855263855775e-03
2.512300808846e-03
2.262013899534e-03
2.743671721340e-03
2.429414246353e-03
2.905151765398e-03
2.632275217683e-03
3.664855587076e-03
4.505149016415e-03
2.765225984554e-03
2.582205512883e-03
2.386883807025e-03
2.387003191431e-03
0.0
5.504082384171e-03
5.322543550804e-03
7.848135277644e-04
2.549500333694e-03
2.400638059406e-03
2.463285382783e-03
4.810923744731e-03
3.198165242386e-03
4.606096513073e-03
2.664651155853e-03
3.655834997024e-03
4.200689173686e-03
2.113752298900e-03
1.912300493824e-03
3.255578082472e-03
1.273953511854e-03
4.816843425833e-03
2.290848895151e-03
2.168710725122e-03
2.559244781557e-03
4.283416494899e-03
4.812195502839e-03
2.539570789041e-03
3.643462494389e-03
4.855540140174e-03
2.948190669232e-03
2.976334480875e-03
2.027418807040e-03
2.926129920543e-03
4.448255544290e-03
2.964508539853e-03
5.409142776678e-03
5.734258886474e-03
4.026664295728e-03
5.743896818908e-03
5.718569705541e-03
2.582070465025e-03
2.595631204153e-03
3.199953522585e-03
0.0
1.902903777885e-03
3.604210869196e-03
2.807391870645e-03
2.804874001204e-03
2.021751019950e-03
2.194943763957e-03
4.142001498770e-03
2.644769460266e-03
2.249798190126e-03
3.567736017229e-03
4.967219196927e-03
4.886134841971e-03
2.605300666506e-03
3.828525680063e-03
0.0
1.957535475967e-03
3.521502279004e-03
1.981252673420e-03
2.924275991023e-03
2.745952613108e-03
2.849229022871e-03
2.462891224688e-03
5.296655538006e-03
2.503533226713e-03
5.524289484905e-03
5.153625615526e-03
6.001172921191e-03
5.100455085510e-03
4.110540018138e-03
2.637651237191e-03
2.100855566225e-03
3.191285649529e-03
4.869911819268e-03
1.668585154639e-03
1.835666317314e-03
2.227285640186e-03
3.938213713365e-03
5.540832376998e-03
4.655361428653e-03
3.499491474384e-03
5.052024159388e-03
4.084593475503e-03
2.632811007746e-03
2.862235179152e-03
4.698107313135e-03
3.316215251475e-03
3.587892556505e-03
3.896233695222e-03
4.114095616366e-03
4.188562373750e-03
1.799506149793e-03
2.750045215379e-03
5.853261315327e-03
4.426727944562e-03
3.704988570506e-03
5.563415471233e-03
4.701176930839e-03
5.605287308872e-03
2.984653430048e-03
2.899269361477e-03
3.882189993689e-03
0.0
2.099672330588e-03
4.918810832529e-03
9.297763855901e-04
3.755397294441e-03
2.797405890751e-03
1.199320246670e-03
1.287155906031e-03
6.012085979982e-03
3.536739645719e-03
5.807206894269e-03
2.659927490576e-03
3.526193540084e-03
0.0
5.649183673557e-03
1.226889212049e-03
5.591486415216e-03
4.894034742833e-03
5.539486036354e-03
2.262943268428e-03
4.213950339262e-03
3.025007021002e-03
3.131326445098e-03
4.091554630855e-03
5.020955983920e-03
3.911662398283e-03
5.268125805587e-04
4.885085777727e-03
3.118765135349e-03
9.712620635747e-04
3.457233058136e-03
5.927711436663e-03
5.789822867449e-03
3.808569037443e-03
4.215889140078e-03
2.538577934307e-03
5.833806765854e-03
2.555830622428e-03
2.490656388983e-03
3.320251670345e-03
3.625198829927e-03
5.701509361268e-03
5.926679449314e-03
5.825453120953e-03
2.375146025770e-03
1.855020722498e-03
3.558870854792e-03
3.632521599668e-03
4.888825416704e-03
5.046946971520e-03
1.549964253441e-03
0.0
4.672705056340e-03
4.574124372469e-03
1.492817307624e-03
4.534041151919e-03
3.791507055834e-03
3.441092852532e-03
4.640515334488e-03
3.044493888229e-03
3.085586377938e-03
1.541679909506e-03
3.205964040354e-03
5.539122948349e-03
5.470096428524e-03
3.349468659420e-03
4.316012489498e-03
5.096328403816e-03
5.066889044332e-03
4.866255092984e-03
3.513811278074e-03
2.745903881909e-03
5.643353601341e-03
2.006177374357e-03
1.336548591570e-03
4.740994586223e-03
1.967258917603e-03
3.030928276529e-03
4.804010908766e-03
4.798192704978e-03
4.457553134226e-03
4.812474116929e-03
4.086135366692e-03
0.0
1.909648872290e-03
2.592269180864e-03
4.073105943506e-03
3.300295154598e-03
5.598216389854e-03
3.155889343856e-03
2.080876808324e-03
1.684831239890e-03
1.996726710914e-03
4.805748266782e-03
2.545899529970e-03
5.665640345273e-03
1.260613380941e-03
2.717034335033e-03
4.089865816188e-03
4.150741350700e-03
3.513862819322e-03
4.079622705219e-03
3.886731369533e-03
5.955413447924e-03
5.808855366257e-03
1.973720843828e-03
5.623880488313e-03
5.288178170346e-03
2.706065533823e-03
3.694588255657e-03
4.724906017287e-03
5.013738577708e-03
0.0
2.864341795004e-03
5.304542939534e-03
4.364446428508e-03
4.836626331640e-03
3.730875922937e-03
4.587318565965e-03
5.089225402943e-03
3.906899070662e-03
3.750017617315e-03
3.537069004234e-03
2.588839608145e-03
5.047138554197e-03
3.933020823055e-03
5.546377694027e-03
1.946527573604e-03
5.421130664064e-03
4.841192871563e-03
9.322091538505e-04
2.293274876912e-03
5.049998438284e-03
5.689077263393e-03
5.605137768792e-03
3.830427027326e-03
4.275713481985e-03
1.034452648196e-03
0.0
9.165803274728e-04
2.306330849804e-03
1.474463862581e-03
3.232809435929e-03
4.778427176324e-03
5.703044928894e-03
4.347082166528e-03
3.002796748421e-03
4.148995897399e-03
2.783709893463e-03
4.463871432644e-03
4.932249577077e-03
5.252682971647e-03
1.354054557860e-03
0.0
4.840119537013e-03
7.233031137748e-04
8.681517225348e-04
1.435436843906e-03
1.472272678795e-03
3.855676984439e-03
5.537407312308e-03
5.639733232520e-03
4.436603250530e-03
2.523558595448e-03
4.438054910322e-03
5.878210086007e-03
3.406643456978e-03
3.631025882734e-03
3.027978513677e-03
7.658097359086e-04
5.095377053932e-03
4.007087122991e-03
1.117452099742e-03
3.054154399225e-03
5.821463871987e-03
5.616162225123e-03
5.771476761292e-03
2.378943900085e-03
0.0
4.729401298327e-03
5.982820025955e-03
5.116893597155e-03
3.780141864939e-03
2.757852932878e-03
1.016540728646e-03
5.742488357776e-03
8.130160899770e-04
3.471132188594e-03
5.976997195660e-03
0.0
4.334445045259e-03
4.928068088589e-03
5.685262055675e-03
3.960311455775e-03
4.602685966077e-03
5.674047741207e-03
5.673486810091e-03
4.691284669015e-03
5.438753250395e-03
2.700307817537e-03
3.496149835990e-03
4.345309502369e-03
5.753633298066e-03
1.736380299792e-03
3.496568385412e-03
4.939582600280e-03
1.368820282863e-03
2.744988563961e-03
5.663738979535e-03
5.807014388648e-03
1.265820552801e-03
2.857699370651e-03
3.526860356291e-03
5.236929301907e-03
0.0
5.763265201970e-03
4.458722862593e-03
3.044071100787e-03
4.287981028573e-03
4.654162068594e-03
3.688235848984e-03
2.736846924864e-03
2.490177180056e-03
3.382376733098e-03
3.778484931935e-03
3.590372836895e-03
3.200278276933e-03
3.401617339723e-03
1.200485253478e-03
4.444142389629e-03
4.959617724818e-03
2.494216693804e-03
5.683473093287e-03
4.880068419397e-03
3.847676400356e-03
4.572298701193e-03
3.295609289569e-03
3.277091984412e-03
3.455826167072e-03
2.410347476307e-03
3.171270214627e-03
5.151777217512e-03
3.979240728433e-03
5.867901631608e-03
2.336872728529e-03
4.397657744471e-03
5.380026001316e-03
3.734283041451e-03
4.159349955921e-03
1.018917914231e-03
5.297615537063e-03
5.603907969465e-03
1.200386500765e-03
3.098141903975e-03
0.0
5.607338238193e-03
2.294241220172e-03
2.361395076424e-03
2.216154836749e-03
2.357998710852e-03
2.214786627200e-03
2.360635211121e-03
2.219711824722e-03
2.364744831697e-03
2.226366150586e-03
2.369804074944e-03
2.231513212677e-03
2.375640653335e-03
2.228923351831e-03
2.381109275559e-03
2.224559756434e-03
2.386033807545e-03
2.422469400763e-03
2.218422108439e-03
2.391036236924e-03
2.374971160047e-03
2.210476424915e-03
2.396373502810e-03
2.299438040081e-03
2.200919367465e-03
2.401866583409e-03
2.189558096147e-03
2.408015076602e-03
2.176427520762e-03
2.416119866827e-03
2.529299764460e-03
2.165470136003e-03
2.403108141081e-03
2.157002805424e-03
2.383705627598e-03
2.391643415084e-03
2.161881467416e-03
2.385265248373e-03
2.161580518042e-03
2.461344384578e-03
2.224151981452e-03
2.329225280218e-03
2.266428057819e-03
2.412209071277e-03
2.251360739942e-03
2.368514859645e-03
2.397094801283e-03
2.626734283379e-03
2.549531866633e-03
2.701394005823e-03
2.556134915907e-03
2.705711491278e-03
2.561480290484e-03
2.710065989537e-03
2.566655120162e-03
2.714513451666e-03
2.574446997273e-03
2.720634103997e-03
2.582981102361e-03
2.727498271816e-03
2.593510788275e-03
2.734155989720e-03
2.720163723611e-03
2.600860379507e-03
2.592487705640e-03
2.738512044037e-03
2.594197665573e-03
2.746355183321e-03
2.582395027498e-03
2.755844196279e-03
2.568241209878e-03
2.671612935326e-03
2.765816059205e-03
2.551965904305e-03
2.779576565079e-03
2.532839083947e-03
2.775383251297e-03
2.527604753952e-03
2.770901703469e-03
2.513452816674e-03
2.549007397530e-03
2.757146576703e-03
2.792368389522e-03
2.792016082909e-03
2.565612625475e-03
2.702582909373e-03
2.546878826374e-03
2.661103818204e-03
2.547347738664e-03
2.675904247711e-03
2.966754512287e-03
3.036028368872e-03
2.881134676313e-03
3.028579513069e-03
2.879228433618e-03
3.034375088800e-03
2.887788164751e-03
3.035458784700e-03
2.890186158662e-03
3.042779342889e-03
2.901207661542e-03
3.047179815419e-03
2.908355221936e-03
3.047821965847e-03
3.058166228224e-03
2.921616972915e-03
2.977904379741e-03
3.057220798405e-03
2.926740671622e-03
2.913842577925e-03
3.065010864165e-03
2.940817269049e-03
3.076565577618e-03
2.928097216781e-03
3.084144842026e-03
3.085339738652e-03
2.912475768239e-03
3.096508582135e-03
3.118274552756e-03
2.897323094266e-03
3.090734832649e-03
2.871686253460e-03
3.129388617912e-03
2.894029482055e-03
2.858270663078e-03
2.922028373713e-03
3.085335394846e-03
2.928220263468e-03
3.030143154684e-03
2.945827770339e-03
3.312321515307e-03
3.189480759148e-03
3.353757832105e-03
3.204854301679e-03
3.362122923095e-03
3.214839365167e-03
3.375029482880e-03
3.210761067781e-03
3.368277685235e-03
3.220984354806e-03
3.383169786334e-03
3.228836678226e-03
3.413512167486e-03
3.384151656869e-03
3.268396400584e-03
3.229750214111e-03
3.398976425987e-03
3.246842334506e-03
3.396439375541e-03
3.258900424221e-03
3.412527509879e-03
3.266513004898e-03
3.338906532064e-03
3.424132635284e-03
3.274787641877e-03
3.430715204795e-03
3.271602579017e-03
3.264657004864e-03
3.450357719823e-03
3.490825941533e-03
3.429189117639e-03
3.194103659451e-03
3.322189248393e-03
3.233743975656e-03
3.318513455877e-03
3.206052030725e-03
3.282745160465e-03

SCALARS element_materi_plasti_phimob float
LOOKUP_TABLE default
1.996065969821e+01
1.750882632218e+01
1.947701123500e+01
1.849238916290e+01
1.016787443432e+01
2.414663277737e+01
1.030493198256e+01
2.046101898787e+01
1.034593947482e+01
1.845555911214e+01
1.949025459776e+01
1.972960698524e+01
2.080216524100e+01
1.188292041368e+01
2.070677882014e+01
1.878498911570e+01
9.532258511105e+00
2.638201485900e+01
1.599717840722e+01
1.026583908604e+01
1.842210696562e+01
1.082991145965e+01
1.271971742858e+01
2.202001517239e+01
1.351749031839e+01
1.969760401441e+01
7.197546781873e+00
2.152691054087e+01
1.359068711097e+01
2.190832531158e+01
1.877258091236e+01
-2.312319815341e+01
1.928255395481e+01
2.089128572450e+01
2.121694277592e+01
2.088277286916e+01
2.081111240058e+01
2.181423758976e+01
7.632847367534e+00
7.779172626134e+00
1.009758846957e+01
2.106794767357e+01
2.179917552847e+01
7.104286343953e+00
1.812409450313e+01
2.018821859086e+01
2.127373384569e+01
1.826469614460e+01
1.807099646539e+01
1.092392955877e+01
1.220872892992e+01
1.456811819453e+01
2.104874879915e+01
7.521755073256e+00
1.907163396657e+01
1.555703737805e+01
1.295724919375e+01
2.097570006789e+01
8.518712063651e+00
1.876308901257e+01
1.120514489275e+01
2.197607225186e+01
1.918575223208e+01
2.061448964132e+01
2.083090361046e+01
9.304966907816e+00
1.576715289629e+01
1.936563112263e+01
9.778187336126e+00
2.057020142796e+01
1.985092814935e+01
1.955519520286e+01
2.120266701048e+01
-1.271624659367e+01
1.583267085112e+01
1.854271689290e+01
1.899629225023e+01
2.190765543094e+01
7.622856969896e+00
2.254458207573e+01
1.066610518195e+01
9.435638734667e+00
1.545503423610e+01
1.583257968397e+01
1.144135433076e+01
1.148124477360e+01
1.992883153556e+01
2.089481679215e+01
1.789864436625e+01
1.003517034850e+01
-1.887647956812e+01
9.757971837386e+00
1.640782927943e+01
1.615458883328e+01
1.918799037870e+01
2.138872184587e+01
9.289175277852e+00
2.153274089222e+01
1.346088452268e+01
1.761867608455e+01
8.915380519208e+00
2.076379369813e+01
2.308448159209e+01
2.185273560664e+01
2.193552755315e+01
1.633549565803e+01
2.085901517954e+01
1.699873158447e+01
2.265627842621e+01
2.070176590588e+01
1.766170186179e+01
-2.626347233478e+01
2.277454210353e+01
8.613246300535e+00
1.743528738945e+01
1.938404362743e+01
1.897482418069e+01
2.104171767240e+01
1.288250729164e+01
2.129879304658e+01
6.957153711896e+00
9.892354138644e+00
1.712436448519e+01
2.034070981507e+01
2.597425508938e+01
8.214358802203e+00
1.735951339067e+01
5.328901516928e+00
1.888558817608e+01
2.376350597428e+01
1.969723399634e+01
1.852046599330e+01
1.571619381901e+01
8.748765190804e+00
2.139433099027e+01
2.078315483991e+01
2.021779261250e+01
1.560735395966e+01
2.174242585762e+01
1.409315649384e+01
1.871638159357e+01
2.046397989488e+01
1.183025298650e+01
1.503828022061e+01
1.512971083444e+01
5.956492637170e+00
1.659287803789e+01
2.249848587338e+01
9.456569722140e+00
2.312209347398e+01
-2.064781071466e+01
1.144156707760e+01
1.100966714677e+01
8.273783612013e+00
2.116238373896e+01
2.248118629816e+01
2.052269088304e+01
1.977572857440e+01
2.305568373287e+01
9.841276896621e+00
2.363736550990e+01
2.093008552608e+01
6.576019136098e+00
2.088750253821e+01
1.186162321103e+01
2.099206158628e+01
9.741342567649e+00
2.261693830842e+01
6.473871200106e+00
1.953558123399e+01
2.229427549935e+01
2.365873466093e+01
1.563992126570e+01
9.630699024545e+00
2.265125527669e+01
5.660627879136e+00
1.939488204869e+01
1.803676036708e+01
2.125333104401e+01
2.068368943490e+01
1.799552665117e+01
1.791969542988e+01
2.258570593535e+01
1.307582102750e+01
1.952449714494e+01
9.931558894932e+00
2.258086811877e+01
1.871729910229e+01
1.720680373551e+01
2.090546090971e+01
2.125373783723e+01
2.403073260856e+01
1.780619913025e+01
1.156400332433e+01
1.118177763105e+01
2.297865674095e+01
-2.851927864481e+00
1.901252848664e+01
1.516198055725e+01
1.904750600619e+01
2.335408331991e+01
1.165378510451e+01
1.284826275625e+01
2.164500013746e+01
1.618031242675e+01
1.758280004861e+01
1.354113721365e+01
1.567753279636e+01
1.261195597199e+01
1.064826334124e+01
2.458932882128e+01
1.881463124416e+01
1.191205975587e+01
1.810844242842e+01
1.707448657084e+01
1.681585511719e+01
1.750236247499e+01
2.444246241099e+01
2.309238000336e+01
9.399675094848e+00
2.426785523518e+01
2.309578015921e+01
-1.677723246036e+01
1.627656850203e+01
-2.302969496204e+01
-9.872854642355e-02
2.197421590242e+01
1.464574967716e+01
1.667552416448e+01
1.395340752672e+01
2.176105918267e+01
1.689651227793e+01
8.344895974253e+00
2.307488255046e+01
1.248820552409e+01
2.089353879415e+01
1.021541357033e+01
2.250183226892e+01
2.439774010860e+01
1.234650346801e+01
2.353858849245e+01
2.099005697027e+01
1.665436898699e+01
2.361792636807e+01
2.279239993474e+01
1.981052593920e+01
1.617059185719e+01
1.586356634529e+01
2.147819239410e+01
2.416377672426e+01
2.115408604206e+01
1.414279321535e+01
1.919406010166e+01
1.770481232849e+01
2.481130720067e+01
1.178849424852e+01
1.087542159155e+01
1.211249299438e+01
2.436367401756e+01
2.455287562956e+01
2.178031027513e+01
1.668210104002e+01
1.400114025444e+01
2.251738152976e+01
1.704964368195e+01
1.729126747319e+01
1.568979420695e+01
2.079501783464e+01
2.549847398667e+01
1.536281456949e+01
2.238597673904e+01
2.478916973896e+01
2.478995042301e+01
9.445793631816e+00
2.458182595578e+01
2.317560481540e+01
1.656784783486e+01
8.455773071847e+00
1.292647567254e+01
2.494649716437e+01
2.198914506844e+01
2.390643196379e+01
1.494483836857e+01
-3.333704950305e+00
1.480809485345e+01
2.532957712020e+01
1.357637518030e+01
1.160533269484e+01
2.559232697758e+01
2.443109568533e+01
2.190377824243e+01
1.650210291928e+01
1.595766773390e+01
1.607678106174e+01
2.520411832433e+01
2.478238549433e+01
2.364765654050e+01
2.279531799304e+01
2.112262939796e+01
1.944513812847e+01
1.977076932927e+01
1.821982315198e+01
2.451933994869e+01
2.217416798262e+01
1.617996134826e+01
2.310695701318e+01
2.345161188069e+01
1.581335085677e+01
1.863536266215e+01
2.470149857369e+01
2.420553797590e+01
2.205125026432e+01
2.139254520902e+01
2.377976124091e+01
1.705686511157e+01
2.493866986897e+01
2.502527127253e+01
2.495874099380e+01
2.248975121230e+01
1.406784157693e+01
2.052461306399e+01
2.510350639748e+01
2.518232982630e+01
2.142946555934e+01
1.438002499837e+01
2.360443071002e+01
2.029614007726e+01
1.373424659387e+01
2.114970360418e+01
2.309465335276e+01
2.022556315999e+01
1.360530313235e+01
1.778637662675e+01
1.950377040227e+01
1.268115648391e+01
1.498233619651e+01
1.520038893392e+01
1.845968100877e+01
2.141349233406e+01
1.297522117296e+01
1.106921133377e+01
2.452695132838e+01
1.226501643928e+01
1.063051416011e+01
2.232515346203e+01
9.766972121910e+00
2.123783725620e+01
2.417765559364e+01
1.688253004170e+01
2.189066045515e+01
1.373719452356e+01
2.525631881702e+01
2.225812177555e+01
2.154644939075e+01
1.182917761139e+01
2.490397794002e+01
1.876762710228e+01
1.844744768331e+01
2.211285970346e+01
1.804184059482e+01
1.673603730139e+01
1.424388570401e+01
1.211246009809e+01
2.154856745942e+01
2.191040084228e+01
1.798786691097e+01
1.631056587082e+01
2.186393647225e+01
1.750810959902e+01
2.388824200691e+01
2.420481502202e+01
1.716424802781e+01
2.503397674132e+01
1.865092708999e+01
1.773236241288e+01
2.363791399519e+01
1.943776276771e+01
1.527643247603e+01
1.899059310371e+01
1.989123032486e+01
1.960583904809e+01
1.900535265025e+01
2.215348428711e+01
1.707936959787e+01
2.197289162228e+01
2.457472495244e+01
2.351565421137e+01
1.558700768037e+01
9.343697693393e+00
1.361446927954e+01
2.189827719066e+01
1.834351124712e+01
1.380984950515e+01
1.598181949382e+01
2.483546936917e+01
2.176173507095e+00
2.361971431504e+01
1.993022262488e+01
2.334576389973e+01
2.500875598885e+01
1.176693209179e+01
1.146445793893e+01
2.346162310282e+01
2.077157332593e+01
2.436411824529e+01
1.054921078559e+01
9.694307825954e+00
1.764117074016e+01
2.383253019323e+01
1.524605890068e+01
2.078521033076e+01
1.182359229050e+01
1.642665064936e+01
1.906659781428e+01
1.721582917135e+01
2.306839955769e+01
2.091190618832e+01
2.066340766188e+01
2.004873987321e+01
2.033214610179e+01
1.595192316252e+01
1.721500211418e+01
1.850943604485e+01
1.921762253800e+01
1.710708761594e+01
1.843401581633e+01
1.774081215571e+01
2.130677214590e+01
1.754701332036e+01
2.498488327414e+01
1.752853807485e+01
2.179617078235e+01
2.085538557717e+01
1.456244121248e+01
2.332421314781e+01
1.886801396013e+01
2.111292341634e+01
2.093525703256e+01
1.876919090977e+01
1.946116597080e+01
2.127830285647e+01
2.322617318723e+01
2.080821609071e+01
1.916260198633e+01
1.751045548388e+01
-1.368281409963e+01
2.101493849346e+01
2.132674324312e+01
2.087249458657e+01
2.503213395400e+01
2.157636692368e+01
-4.627805472779e+01
2.098232245511e+01
1.716367888484e+01
1.800115694665e+01
1.653782937692e+01
2.282806848807e+01
2.113370232731e+01
2.477655486665e+01
2.504050855835e+01
2.116897394768e+01
-1.840050733551e+01
1.284910161869e+01
1.902724671867e+01
9.424510110227e+00
2.148310793226e+01
2.114920139406e+01
1.487775367649e+01
1.444745133023e+01
2.653511170410e+01
1.539632044652e+01
2.182948102956e+01
9.493022578542e+00
1.158475217641e+01
2.109985923456e+01
9.509046386556e+00
1.940596870747e+01
2.189358859009e+01
1.288700862433e+01
2.146930657773e+01
2.497822872138e+01
2.289284964186e+01
2.100745013187e+01
2.049372384204e+01
2.019486384477e+01
2.172001057066e+01
1.819230425491e+01
2.070701785615e+01
2.291589883016e+01
2.090873942128e+01
2.285530339100e+01
2.379082365656e+01
2.317313262949e+01
1.376595656005e+01
2.131446350636e+01
1.302162628067e+01
2.080937915182e+01
2.187182492731e+01
2.093269316443e+01
1.853936591563e+01
-4.400960745319e+01
2.246527055583e+01
1.742937859781e+01
2.109404215985e+01
1.623112003113e+01
2.230678509801e+01
2.273988652701e+01
2.181249054259e+01
2.128990930318e+01
2.206100218208e+01
1.493828378792e+01
2.115079397477e+01
2.338100877503e+01
2.267525779898e+01
1.197773490879e+01
1.687558608105e+01
2.259797073071e+01
1.623865489274e+01
2.105994443223e+01
1.855594933955e+01
2.298334264239e+01
1.982503720931e+01
2.426891743966e+01
2.354177835340e+01
2.269805003459e+01
1.915059346864e+01
2.034743302742e+01
2.405991274382e+01
2.091953867526e+01
1.873931820746e+01
2.270438852511e+01
1.840890656583e+01
2.226649155052e+01
2.567968618824e+01
2.143687639136e+01
1.783788972787e+01
1.567388238689e+01
2.085450406770e+01
2.194299482835e+01
2.362595866828e+01
4.105190328940e+00
2.127926231904e+01
1.798294430444e+01
2.009723554216e+01
2.073421648876e+01
2.242302179670e+01
1.585754575895e+01
1.258038931033e+01
2.512578857588e+01
2.116556627123e+01
2.434515072630e+01
1.522832478588e+01
1.500294318291e+01
2.351506257840e+01
1.322381566064e+01
1.825075411577e+01
2.469579306527e+01
2.017069057905e+01
2.065475079604e+01
-3.698597262087e+01
2.264448212648e+01
2.068599732552e+01
1.927098881224e+01
2.315094997392e+01
2.333025423129e+01
1.305816776037e+01
1.884314858318e+01
2.070300542877e+01
1.734242611057e+01
1.921187537761e+01
1.785881128577e+01
1.908762117531e+01
-3.406463331837e+01
1.340102879907e+01
1.750580487680e+01
-5.767890843422e+01
1.889517073488e+01
2.310538892995e+01
1.736037503398e+01
2.498128497408e+01
2.491849025643e+01
9.332294604994e+00
6.492403495483e+00
1.895255306788e+01
1.845603164763e+01
-4.778916453490e+01
8.879340717685e+00
-6.328027199177e+00
1.548154725446e+01
1.958033442103e+01
1.732245155480e+01
2.203830006318e+01
1.642230937588e+01
1.988987355643e+01
2.258187465187e+01
2.405185667284e+01
1.743226649532e+01
1.601383740113e+01
2.122069101099e+01
2.067444059679e+01
1.806490808758e+01
1.917297520035e+01
2.200683888400e+01
2.243247328576e+01
9.977886585717e+00
2.271293374908e+01
-1.832434641847e+00
1.888861010756e+01
1.927735349236e+01
-1.878704351076e+01
1.771970680388e+01
1.789254286376e+01
-4.937320410598e+01
6.515786654879e+00
6.883146401118e+00
2.429651092587e+01
1.596815355047e+01
1.958037263747e+01
2.120276517679e+01
2.149667196186e+01
2.098737244778e+01
1.672883775908e+01
1.942954503490e+01
7.179521456452e-01
1.316036395656e+01
6.804561816678e+00
6.929120562368e+00
-5.675163028306e+01
-1.901685073221e+01
6.482367776778e-01
1.419659572118e+01
-1.897650438733e+01
1.836538752269e+01
3.543561972177e+00
1.589855271410e+01
1.450024772397e+01
6.682855809347e+00
1.929571121958e+01
2.293939375739e+01
1.324136275945e+01
1.646531419881e+01
-1.271366022454e+00
1.935437715486e+01
1.911515794035e+01
1.197720806456e+01
6.659287614947e+00
1.664042273426e+01
1.908566750848e+01
1.521023213060e+01
6.702290775424e+00
6.488334852591e+00
9.362082232913e+00
1.992677040645e+01
1.906410292476e+01
-1.938202481032e+01
-5.646405169821e+01
4.361734107746e+00
1.953087494718e+01
2.083701852218e+01
1.147691268246e+01
1.674817511845e+01
4.603301852448e+00
2.449980732197e+01
-1.636661143562e+01
1.901918807052e+01
2.446435091364e+01
2.098283839303e+01
1.436764750771e+01
1.484749598855e+01
-1.893553329666e+01
1.991797448643e+01
1.918952790631e+01
1.906795901171e+01
6.726818545862e+00
2.431625135187e+01
1.930543413185e+01
2.252222371673e+01
-1.872407832939e+00
-1.927273076828e+01
-2.008107195976e+01
1.732445689664e+01
2.079438660759e+01
1.851353698485e+01
-5.663926819230e+01
1.832238610628e+01
2.057824241687e+01
2.084976250916e+01
2.118078718014e+01
1.584593554441e+01
1.715836443224e+01
2.056609614141e+01
2.057564341678e+01
1.674885694615e+01
-4.982073422704e+01
6.880879894959e+00
6.842341090041e+00
-5.663951385063e+01
2.059697837901e+01
2.114566868721e+01
2.060740237198e+01
-5.021252910949e+01
-5.012926372790e+01
2.064815184045e+01
2.062865660583e+01
1.533176904959e+01
6.965040478178e+00
1.631063507630e+01
1.251131109333e+01
7.007933999529e+00
-4.599639152130e+01
-4.383783088057e+01
-4.393563286784e+01
-4.481218794761e+01
1.859417508966e+01
1.801907740899e+01
-5.632217924722e+01
1.969102183480e+01
-5.322694021854e+01
1.966422464107e+01
1.925953252515e+01
1.941039424335e+01
1.433204355666e+01
1.532777422889e+01
1.922317608056e+01
2.091795112744e+01
1.923968340507e+01
2.087116309487e+01
2.078346473687e+01
1.769534652077e+01
1.905829765545e+01
1.908436094350e+01
2.087829451232e+01
2.082126730805e+01
2.018213925305e+01
-1.806224543163e+01
1.846742499795e+01
-2.032616959070e+01
2.135506407832e+01
1.894752553010e+01
2.122586031436e+01
1.345082562275e+01
-2.555829152579e+00
2.104091182204e+01
1.882680298507e+01
1.700470334333e+01
2.112280630879e+01
1.783167098635e+01
1.693629061923e+01
2.274057129282e+01
2.165584567408e+01
2.069520440913e+01
2.081156802843e+01
2.530067945247e+01
1.396930763759e+01
2.229717849249e+01
2.063211110847e+01
2.102544466770e+01
2.099955278565e+01
1.413500878387e+01
1.775830629848e+01
1.701836216648e+01
1.087138727820e+01
2.141441424832e+01
2.064255580135e+01
1.783142056266e+01
1.743817137193e+01
2.041570165327e+01
2.092949256657e+01
1.678490491474e+01
2.078891368386e+01
2.116430915219e+01
1.775255174159e+01
1.550559677988e+01
2.263650940567e+01
1.376381180442e+01
1.378539070798e+01
9.344911433247e-01
2.066424074977e+00
1.741715980301e+01
2.097049782078e+01
-1.023658460847e+01
1.819811094085e+01
1.176421003957e+01
2.121462875578e+01
2.106738107773e+01
1.917251090868e+01
2.097474593179e+01
1.083409086199e+01
2.404984560619e+01
2.103796585252e+01
1.273251277340e+01
2.136543113747e+01
1.609321657166e+01
1.423438619491e+01
1.523084978195e+01
1.908446859988e+01
1.416446113851e+01
1.753346908229e+01
1.661666126826e+01
1.500176676434e+01
1.921816558861e+01
2.046339167978e+01
2.099392452311e+01
1.613217405013e+01
1.176715271910e+01
1.891807586746e+01
2.258407484391e+01
1.648825551630e+01
1.851278345674e+01
2.039729626705e+01
2.155775267914e+01
1.553362514542e+01
2.565389092583e+01
-7.002076345964e-01
2.380051993271e+01
2.109720220881e+01
1.489731350956e+01
1.939504081760e+01
1.262566558809e+01
2.234555236404e+01
1.926646489091e+01
2.118741234031e+01
1.350021792591e+01
2.129513079048e+01
1.917623593125e+01
1.409480297285e+01
1.886916144732e+01
1.797203569380e+01
1.591202122813e+01
1.942496879436e+01
-5.556538387689e+01
-5.441845469686e+01
1.998571760729e+01
1.279084522792e+01
2.049652568330e+01
2.042570515778e+01
1.842545432723e+01
1.785131154965e+01
1.720891277461e+01
2.418952012283e+01
1.808256005974e+01
2.219345956339e+01
1.076147457141e+01
1.352283455357e+01
1.176727328947e+01
1.057695134711e+01
2.182317226582e+01
1.578583754715e+01
1.278098111637e+01
1.753023241210e+01
1.759457114571e+01
1.459663609397e+01
1.896045352022e+01
1.446063737873e+01
2.079424320121e+01
1.934203761651e+01
1.801315605681e+01
1.725966492163e+01
2.061984207392e+01
2.133412691286e+01
1.161799904747e+01
2.128196437208e+01
1.583894359899e+01
1.930479631173e+01
1.485697810548e+01
1.634699226508e+01
2.541666736415e+01
1.690550087883e+01
1.860705023752e+01
1.922849405737e+01
1.750451659404e+01
1.735188729885e+01
1.538597723243e+01
2.014171492002e+01
1.535487839275e+01
5.233441801247e+00
1.533631556199e+01
1.499857243660e+01
2.142396303495e+01
1.598489049346e+01
2.141911602974e+01
2.131025880464e+01
1.844386030239e+01
1.386498733499e+01
6.968940978396e+00
2.120866170086e+01
1.435939700773e+01
-2.417078622758e-01
1.746529744971e+01
1.337248693801e+01
1.411843351347e+01
1.793514201263e+01
2.152553557646e+01
1.727923058542e+01
1.698675866046e+01
1.644581206514e+01
2.188060975003e+01
1.355072028355e+01
2.120357331532e+01
1.895611471918e+01
2.164054996398e+01
2.458968135751e+01
1.196164879622e+01
1.282526115204e+01
2.390108507987e+01
1.922708728431e+01
1.431574033040e+01
1.514129485493e+01
1.453735481196e+01
1.311322558808e+01
2.158691693507e+01
2.388142578205e+01
2.353309806736e+01
1.797094294362e+01
2.072797599765e+01
1.121637518446e+01
2.132199460601e+01
2.171220297547e+01
1.868300424687e+01
2.123732948379e+01
1.594187725964e+01
1.852516969861e+01
2.123740437515e+01
1.233191833100e+01
1.527075177399e+01
1.696572226495e+01
2.057731441428e+01
2.186291403569e+01
1.657359963530e+01
2.116008734611e+01
1.522135561433e+01
1.355277772359e+01
1.310086809757e+01
1.899727931113e+01
2.210544933719e+01
2.146868274265e+01
1.260423835538e+01
1.869214490822e+01
2.302964744824e+01
2.209334247736e+01
1.639842713733e+01
1.762241696414e+01
1.731682157561e+01
1.227182299284e+01
2.221627751222e+01
1.773517266896e+01
1.465794601665e+01
1.390330017882e+01
2.532569589677e+01
1.662788492504e+01
2.522593985141e+01
1.709440325964e+01
1.762842832896e+01
1.289457812856e+01
2.241876711407e+01
1.967656490677e+01
1.685799674269e+01
2.076825048068e+01
2.265251436224e+01
2.100552726845e+01
2.316439875813e+01
1.361949031307e+01
2.202643920973e+01
2.177874212551e+01
2.049605272615e+01
1.809993053239e+01
2.188774397020e+01
1.470667270883e+01
1.800319720226e+01
2.043444336755e+01
1.657497755805e+01
1.656305555660e+01
1.792718953293e+01
1.567785869640e+01
1.496437003079e+01
1.974498770143e+01
2.237091519687e+01
2.039249948565e+01
-4.607530713998e+01
2.345585223099e+01
2.134529851678e+01
1.849902991706e+01
1.394560544245e+01
2.030156387937e+01
1.698896749296e+01
1.853309941658e+01
1.653505584021e+01
1.716088126176e+01
3.696886172708e+00
9.578335931994e+00
1.762231652437e+01
1.728049618323e+01
2.242419348642e+01
1.969948449867e+01
1.340227622074e+01
1.074474848822e+01
1.284402938494e+01
1.616483755396e+01
2.275858202963e+01
2.080030449763e+01
1.443628537241e+01
1.708463069502e+01
2.007638431550e+01
2.518434097827e+01
2.064811789942e+01
1.560366603625e+01
1.849064055889e+01
2.434567713134e+01
2.186736643229e+01
1.395581148158e+01
1.802500564525e+01
2.057126837839e+01
2.172199401631e+01
1.633035528658e+01
2.130278518346e+01
2.278207608303e+01
2.422051361644e+01
1.690404624949e+01
2.407885260298e+01
1.517149431550e+01
2.466343367932e+01
2.235575300404e+01
1.710111901592e+01
2.210721683476e+01
2.179681955104e+01
1.996585232865e+01
1.715864373439e+01
1.597877729767e+01
1.539936742997e+01
1.747267559040e+01
2.277276884783e+01
2.305815025273e+01
1.627677912161e+01
1.940587212182e+01
1.387792124879e+01
1.856918391608e+01
1.077863976885e+01
2.226755025256e+01
1.768705006772e+01
2.371538149722e+01
1.330392778342e+01
1.662942424657e+01
2.330950725207e+01
2.532260458063e+01
1.785934306322e+01
2.225554629011e+01
1.565151327872e+01
2.403842123248e+01
1.664177823102e+01
1.610767061100e+01
2.123137931515e+01
2.190205766783e+01
1.925576642578e+01
1.326496834602e+01
1.235848760501e+01
2.081929260100e+01
2.258377929809e+01
2.270643940892e+01
8.031047502904e+00
2.508237751885e+01
2.522671405103e+01
2.375111615092e+01
2.225207449758e+01
1.816669849006e+01
1.821371607700e+01
1.763665497210e+01
1.657250167430e+01
1.659553645914e+01
2.203299311849e+01
1.792601736589e+01
1.554643114999e+01
1.909891581542e+01
2.541173774758e+01
1.616569860931e+01
1.746671037706e+01
1.627082854099e+01
1.570673564570e+01
2.206472319326e+01
2.237871871093e+01
2.239233853879e+01
2.178071173090e+01
9.763296574941e+00
2.344794704219e+01
1.565574702290e+01
1.482229493495e+01
2.441623640411e+01
2.473381618464e+01
2.528171261029e+01
2.427834668821e+01
2.472492878445e+01
2.450579859091e+01
1.420890655044e+01
1.999963816318e+01
1.433929386793e+01
8.963071812877e+00
2.804706546869e+01
2.050524120970e+01
2.366373115510e+01
1.842141682169e+01
2.571699859049e+01
2.085298834781e+01
1.449135322903e+01
2.787266245074e+01
2.400475389361e+01
2.531103934441e+01
1.434707411015e+01
2.232257255012e+01
2.024124715917e+01
2.240628736505e+01
2.225772191184e+01
2.434958557590e+01
1.621716555339e+01
2.198054545789e+01
2.202718045028e+01
2.728879882608e+01
1.502788726487e+01
2.215692045786e+01
1.668687114749e+01
2.525271187600e+01
2.513963541293e+01
1.947770489757e+01
2.567603445797e+01
1.715983864315e+01
1.555660399073e+01
2.526663253025e+01
2.163419642432e+01
1.800539882075e+01
1.813294940120e+01
2.003183812154e+01
1.559466742428e+01
1.944706577557e+01
2.266992301669e+01
2.360667203855e+01
1.439579239897e+01
1.967672532817e+01
1.759090269807e+01
2.557498227631e+01
1.929841967836e+01
1.896701585441e+01
2.175869824065e+01
2.549457727447e+01
1.495378178104e+01
2.502798188700e+01
2.190706149415e+01
1.626455589298e+01
1.670973373598e+01
2.386511279218e+01
2.276275960632e+01
2.251213151073e+01
2.051490334949e+01
1.612143112062e+01
2.230814210498e+01
1.508045673527e+01
1.843382777547e+01
1.655070499550e+01
1.699268574027e+01
2.410228815795e+01
2.175197822157e+01
1.610066042794e+01
2.510555142233e+01
1.627727364882e+00
2.189251912904e+01
2.500992105934e+01
1.634058989877e+01
2.295358372480e+01
1.424161566319e+01
2.234200359433e+01
2.362835869674e+01
1.778652827229e+01
1.818916001757e+01
2.374288406035e+01
1.702864028647e+01
2.530872640889e+01
2.047387215918e+01
-7.917373723801e-01
1.893258653638e+01
1.743375388281e+00
3.491002141330e+00
2.572075392932e+01
5.412964794110e+00
2.371335902900e+01
2.397528050085e+01
2.509350301041e+01
2.318482900435e+01
2.565760283154e+01
1.752489353710e+01
1.869674510293e+01
2.195402988350e+01
2.246095836617e+01
2.363288748335e+01
1.703939291837e+01
2.558273066747e+01
2.149438448123e+01
1.660690919706e+01
1.656177581852e+01
2.476612658267e+01
2.553026792863e+01
2.060763379366e+01
1.691156396559e+01
2.142741577026e+01
2.391345063834e+01
2.245307924774e+01
1.899164391800e+01
2.128374162397e+01
1.606200268592e+01
2.511879065093e+01
2.015350878720e+01
2.336393310918e+01
1.710628533895e+01
2.026989936639e+01
1.433235869855e+01
2.293921285195e+01
2.538692911009e+01
2.315205935886e+01
2.218956557510e+01
1.781386951430e+01
1.999102065500e+01
2.534617227380e+01
2.474618927478e+01
2.208398939952e+01
2.279551637822e+01
2.492457983747e+01
2.487814263172e+01
2.274934884809e+01
2.332894224802e+01
2.550546886662e+01
1.607581644618e+01
2.117158597986e+01
1.687627557969e+01
2.178486421855e+01
1.519179660120e+01
1.320221426685e+01
1.767533867796e+01
2.282660976096e+01
2.178250919131e+01
1.557078475920e+01
1.822150572932e+01
1.422839677533e+01
2.469604681888e+01
2.176377302153e+01
1.787304112406e+01
2.386729173991e+01
2.327441156443e+01
2.482712526400e+01
1.613157911928e+01
1.731677032003e+01
2.389394470771e+01
1.793548164951e+01
2.339060822518e+01
2.152285677346e+01
2.485405007031e+01
2.402723499231e+01
1.830810179018e+01
1.673615847531e+01
2.423233804936e+01
2.187463933347e+01
1.555015610540e+01
2.203770198052e+01
2.444196930060e+01
2.601434363582e+01
2.108776581572e+01
2.046115730181e+01
2.366992929526e+01
2.096562876878e+01
2.057393502863e+01
2.235476034614e+01
2.354304978883e+01
1.431556881560e+01
1.991348412421e+01
2.552275667976e+01
2.134541437433e+01
2.326148015235e+01
2.532102980616e+01
2.088334110479e+01
2.325487549212e+01
2.108849942576e+01
2.333916251966e+01
1.983456365501e+01
2.107903888993e+01
2.422190335337e+01
2.168819770302e+01
1.823006643459e+01
2.161190315236e+01
2.292057986321e+01
2.488104240733e+01
2.112604646824e+01
2.112590541962e+01
1.906429772091e+01
2.130445762735e+01
1.498192420525e+01
2.155067789100e+01
2.210418255482e+01
7.059896227768e+00
7.074231856294e+00
1.643094868900e+01
2.129337444173e+01
1.988384050386e+01
1.780640009611e+01
2.399875295173e+01
2.244453664494e+01
2.493894706866e+01
1.927113090166e+01
1.128953679779e+01
2.329662476591e+01
2.077237639437e+01
2.419605000262e+01
1.904557560513e+01
2.106164149587e+01
1.837852737980e+01
1.500752410079e+01
1.824860575077e+01
1.835213405459e+01
9.325585093321e+00
1.929426594169e+01
1.739875701569e+01
1.683382667490e+01
1.707784493538e+01
2.264199629439e+01
1.196564051244e+01
2.239122555212e+01
2.121040217447e+01
1.885161010709e+01
5.390758968051e+00
6.404631994161e+00
1.501522709526e+01
2.232985438993e+01
1.978480590945e+01
2.336003901076e+01
2.434442717113e+01
2.114147407712e+01
1.740271490505e+01
1.946578315321e+01
2.169014696788e+01
4.107830235218e-01
2.348117758315e+01
2.140570622090e+01
-7.403959091016e-02
1.746140457552e+01
2.352363940461e+01
1.708391146854e+01
1.954345922994e+01
2.416407499840e+01
2.369366231355e+01
1.784156769128e+01
2.354702837703e+01
2.237776036400e+01
2.177881324998e+01
3.148864412716e+01
2.480532429601e+01
2.151572331564e+01
1.393829988133e+01
2.172757288472e+01
2.406040013813e+01
1.746173298064e+01
2.110345163088e+01
7.618847622216e+00
2.131313867897e+01
2.149214933932e+01
2.201599686155e+01
1.984557282276e+01
1.962074354848e+01
1.829219084940e+01
2.318650685863e+01
1.984913960092e+01
2.510352026305e+01
2.315384824828e+01
2.381637749886e+01
2.501531501586e+01
2.517341022115e+01
2.523689320584e+01
1.759651868076e+01
2.441872899901e+01
1.821763521250e+01
2.276581923996e+01
2.322352189911e+01
2.447269235639e+01
1.442189171293e+01
2.146014402920e+01
2.131001758727e+01
2.187388931450e+01
1.874247062350e+01
2.109434428454e+01
1.322794168163e+01
1.968190779218e+01
3.310214212747e+01
2.126528166021e+01
2.525424497226e+01
1.916084122207e+01
2.357742376811e+01
1.446707518125e+01
1.378602196551e+01
2.166210479742e+01
4.602865486893e+00
4.560382313848e+00
2.116728778230e+01
2.336806788475e+01
2.460522809696e+01
2.391286390888e+01
2.517830347651e+01
2.449578279373e+01
-2.105689286936e-01
1.230026484047e+01
7.087314094478e+00
2.312809043194e+01
2.444702302891e+01
2.203428970283e+01
2.096578278270e+01
2.525914927915e+01
2.098071008356e+01
2.413429176037e+01
2.218301408027e+01
2.245064751869e+01
2.254610499232e+01
2.250944814804e+01
1.792343871567e+01
1.931875301287e+01
2.490072273019e+01
1.894193283474e+01
2.336419823713e+01
2.290091986307e+01
2.474491326909e+01
2.071169375789e+01
1.794695341340e+01
2.774522664169e+01
2.479111595473e+01
2.292413436688e+01
7.477660580181e+00
1.975855008528e+01
1.996978447495e+01
1.465512098438e+01
7.585405855580e+00
1.978334055156e+01
3.499586537224e+01
5.232590216137e+00
2.425423575874e+01
1.944772358509e+01
1.098760107717e+01
2.366184268538e+01
2.311966290473e+01
2.182939089829e+01
2.422359584063e+01
1.881736817336e+01
2.367905845597e+01
1.947637469002e+01
1.951448058137e+01
1.591285730488e+01
8.697800267247e+00
1.479649546394e+01
2.037348795664e+01
-1.626044694471e+00
1.368351413346e+01
1.238362894462e+01
1.947707194102e+01
2.448837489154e+01
2.309701892717e+01
2.398583194273e+01
1.977627409742e+01
1.627912864067e+01
1.957172272588e+01
2.523350716556e+01
1.941808780037e+01
1.095983810533e+01
2.301391698046e+01
1.953496249505e+01
1.969644501689e+01
1.738798662499e+01
2.426677135049e+01
1.963669088289e+01
1.474774613113e+01
1.347587544002e+01
9.812140898310e+00
1.982622573074e+01
2.158043422736e+01
2.225032772306e+01
2.205796807884e+01
1.141768094217e+01
2.201710805336e+01
2.457203008549e+01
-1.301486401021e+00
1.961056189116e+01
1.470649575701e+01
9.788544284304e+00
1.973822591309e+01
2.372624000320e+01
1.971093290175e+01
2.512735575713e+01
1.751306149066e+01
2.302974864168e+01
2.281563969999e+01
2.293272157767e+01
1.990744088273e+01
1.979246275412e+01
2.479022783332e+01
5.847613432201e+00
2.757213326044e+01
2.002751945089e+01
2.278397563969e+01
1.984343676273e+01
1.979641217483e+01
1.432465927041e+01
1.871967758690e+01
2.160337746547e+01
9.259583302847e+00
1.920409676372e+01
2.057153723960e+01
1.036430252496e+01
2.162265701174e+01
2.254308133875e+01
2.462609646085e+01
4.499370505270e+00
3.499586537224e+01
1.804182771301e+01
1.565243223837e+01
7.847004341821e+00
2.146323624015e+01
1.299047512591e+01
2.155301377220e+01
1.550128460754e+01
1.928710677551e+01
2.259705614655e+01
2.109452560165e+01
2.198817680182e+01
1.977108185197e+01
1.699948214836e+01
2.092809449055e+01
2.295028429355e+01
1.923705070380e+01
8.034348531881e+00
2.433086441210e+01
1.692777216832e+01
1.779099861290e+01
1.811359312160e+01
2.315715929852e+01
1.817105791391e+01
2.447629263934e+01
2.712843091144e+01
1.697025962343e+01
2.371249627183e+01
2.457688731651e+01
1.968239494639e+01
1.911891343801e+01
3.695295017568e+00
1.584744284969e+01
2.054523340030e+01
2.506834911019e+01
2.315913894824e+01
1.441024940601e+01
2.284665704687e+01
1.821271929613e+01
2.362394233939e+01
2.287436694700e+01
2.377694415822e+01
2.145596544493e+01
2.436475593991e+01
2.393834515161e+01
2.324893073941e+01
1.434117546018e+01
1.653711179133e+01
2.260051771608e+01
2.400371077757e+01
2.106061156103e+01
1.598187851678e+01
1.816504299127e+01
1.751319817975e+01
-1.772726812989e+01
2.347613789690e+01
1.451039325308e+01
1.526169808590e+01
1.969209397781e+01
2.362217773190e+01
2.010862885984e+01
2.349098315656e+01
6.931467002194e+00
2.102289850797e+01
1.322836356128e+01
2.285206447947e+01
2.394778582680e+01
1.100144739115e+01
1.758417336530e+01
2.496641172264e+01
3.547413150170e+00
2.414605234689e+01
2.006815707189e+01
1.715351207147e+01
1.070074341592e+01
1.912694602439e+01
1.882622512449e+01
2.257963227734e+01
1.842568313078e+01
1.475050970818e+01
2.453112414044e+01
1.403678186348e+01
9.006048664331e+00
2.101376247601e+01
1.946751588237e+01
1.169122335860e+01
1.851439372557e+01
1.994245928292e+01
2.383975637191e+01
2.212904727201e+01
2.194787114753e+01
8.275132879418e+00
1.383410343357e+01
1.926031452910e+01
1.730022861580e+01
2.263537800486e+01
2.516640873738e+01
2.722327152350e+01
1.130394893990e+01
2.379770281960e+01
1.573263168987e+01
2.256461064765e+01
2.094432764792e+01
2.105307970977e+01
2.251161446270e+01
9.227334543087e+00
7.324673426615e+00
2.772882936369e+01
1.794691509090e+01
2.638164324549e+01
2.427965745092e+01
2.089533043721e+01
2.255452860334e+01
2.055993717574e+01
1.768928119904e+01
2.125715384801e+01
1.807082317238e+01
1.699852470647e+01
1.906173700496e+01
2.077150504371e+01
1.175052851848e+01
2.022110692349e+01
2.319902590616e+01
2.021026129382e+01
2.059339466806e+01
3.075377386161e+01
2.897929616982e+01
2.261237238168e+01
9.512281698237e+00
1.814709539750e+01
1.916637250027e+01
2.225622060100e+01
1.841563250327e+01
1.201958530995e+01
1.631258776067e+01
1.708873899640e+01
1.526903248862e+01
2.217262134426e+01
6.738965492693e+00
9.708564244566e+00
1.156372335872e+01
1.210780962925e+01
2.325091510575e+01
1.588143246617e+01
1.865289993367e+01
1.368952006068e+01
2.155973722274e+01
1.911239176713e+01
1.776159721717e+01
1.813481498288e+01
1.804946202048e+01
1.766951668963e+01
2.152112949393e+01
2.145886502063e+01
1.444856511478e+01
2.113707130319e+01
1.045537725274e+01
9.728097197047e+00
2.233537526923e+01
-5.205364005331e+00
-2.257065925577e+01
1.914136897163e+01
6.714421585637e+00
1.855907676260e+01
2.185939478808e+01
6.717450294662e+00
8.083917656281e+00
1.871938549609e+01
9.442276948295e+00
1.828787533308e+01
2.058322687090e+01
1.883538444049e+01
2.327967539764e+01
1.146897321678e+01
1.795346957489e+01
2.255023070012e+01
2.146524368037e+01
1.637112272123e+01
2.153230592343e+01
2.590930088217e+01
2.096341886502e+01
2.080487672659e+01
1.027322823816e+01
2.173957999688e+01
1.885000732388e+01
1.884883296737e+01
9.435421420375e+00
1.197910275602e+01
2.028994199449e+01
1.966717829252e+01
1.672353369170e+01
2.252965675404e+01
2.263369762198e+01
6.839000469867e+00
1.857337128068e+01
1.903662348229e+01
1.920678476378e+01
-4.866891567785e+01
-5.188870976709e+01
7.428608653936e+00
6.998050983575e+00
2.057419621747e+01
2.071541323045e+01
-2.302408573382e+01
8.619555815159e+00
2.090758931786e+01
2.164794032474e+01
1.363185645593e+01
2.108282706425e+01
1.949512658219e+01
1.887405792999e+01
1.443634789863e+01
1.526272222155e+01
2.307508970191e+01
7.808774228774e+00
1.851760829728e+01
1.949175609936e+01
1.788686009916e+01
1.880200375288e+01
1.294519062882e+01
2.107995962599e+01
1.884786790368e+01
1.834612403586e+01
6.877223245964e+00
2.376778956141e+01
1.868743130021e+01
1.454884063502e+01
-2.453310967294e+01
2.068275230608e+01
2.301690779332e+01
1.497457417298e+01
1.530229788261e+01
2.073245346956e+01
2.133206460989e+01
2.137657358401e+01
1.978911673591e+01
2.476646984430e+01
2.816917075864e+01
1.899330485229e+01
1.138912973474e+01
2.349712916106e+01
1.830621725154e+01
2.143075791342e+01
7.317724778124e+00
-2.189523323475e+00
2.781731092422e+01
1.562773017914e+01
1.654464404821e+01
1.845727629163e+01
1.465820737010e+01
2.202898090463e+01
1.128031056048e+01
2.131462066565e+01
2.215570038578e+01
1.148942951812e+01
2.162267928137e+01
1.884641696518e+01
1.862965178369e+01
2.761583192460e+01
1.819783622816e+01
2.083266268280e+01
2.228804296023e+01
2.224406712418e+01
2.060407895284e+01
1.824571368440e+01
9.711436120463e+00
2.226395376494e+01
1.895601989328e+01
1.282029136061e+01
2.082183989942e+01
2.181294953155e+01
2.084544244381e+01
1.661043013471e+01
2.131857950976e+01
2.155319441698e+01
2.170072420857e+01
1.656992351895e+01
2.088988968622e+01
9.211799452746e+00
1.810665717248e+01
1.705062613986e-01
1.757043139736e+01
1.536800156348e+01
-1.608405764888e+00
2.257473102810e+01
1.874496875906e+01
1.877148497535e+01
1.821744423700e+01
2.187902159014e+01
1.284185845642e+01
-2.521789989723e+01
2.398113215326e+01
-1.660541278568e+01
5.206990030400e+00
3.499586537224e+01
1.836462617338e+01
2.086406265797e+01
1.883889353622e+01
1.300325566188e+01
1.796237222253e+01
2.148184847272e+01
2.231675296504e+01
2.177946722631e+01
2.074330897025e+01
1.931360050298e+01
-2.123009887896e+00
2.205218799673e+01
2.094102941764e+01
3.270964738328e-01
5.489995720469e+00
2.807506405481e+01
-6.604229291301e+00
2.110837140939e+01
2.038379618912e+01
1.834679754903e+01
2.133320149456e+01
2.232784957349e+01
1.373730148213e+01
1.950900197004e+01
1.934344320678e+01
6.603518062957e+00
1.376995181135e+01
-2.073197765482e+01
2.081780584457e+01
9.797048969981e+00
7.767434095723e+00
1.811264115492e+01
2.012972518980e+01
1.822961667096e+01
1.908197616700e+01
1.570662165296e+01
1.998705215683e+01
2.118492354622e+01
1.906028940217e+01
2.078091385150e+01
9.331099323557e+00
2.175029290963e+01
9.475159361536e+00
1.851167459808e+01
-2.297077972777e+01
2.120964533172e+01
1.896196958475e+01
1.734473355044e+01
2.145737421865e+01
1.613723678720e+01
1.879275974053e+01
2.097494099919e+01
1.474058210340e+01
2.024713390009e+01
1.854863873750e+01
1.545005886746e+01
1.976299445354e+01
1.714603503969e+01
6.884293974833e+00
2.171673621070e+01
1.876256844546e+01
-5.820919477122e+01
7.024666189144e+00
2.071337340983e+01
9.757624950135e+00
2.242674347522e+01
1.860335311723e+01
1.863779055045e+01
1.268887275787e+01
2.459389691010e+01
1.907648457602e+01
1.714350210594e+01
1.072957703929e+01
1.899132388158e+01
1.438187244620e+01
1.458116578535e+01
1.334614828292e+01
2.158767934162e+01
1.925540491340e+01
3.499586537224e+01
1.667110214542e+01
1.873414926324e+01
1.938297725229e+01
2.181390272253e+01
1.853945243569e+01
1.881754392627e+01
-6.991845121242e+00
2.122935638822e+01
2.070111858659e+01
2.383790283814e+01
1.876237206866e+01
2.068835932919e+01
9.471360006420e+00
1.433467785095e+01
1.853556001742e+01
1.868426604383e+01
1.885714487994e+01
2.246592070228e+01
1.209359849280e+01
2.065615077337e+01
1.153747753937e+01
1.876553326742e+01
2.224522601965e+01
1.328780613090e+01
1.930305189015e+01
2.186279648605e+01
2.185612673945e+01
3.167045966502e+01
1.927703816167e+01
1.984341686225e+01
-6.880753851537e+00
1.829675692872e+01
2.958199248189e+01
1.942588673413e+01
-3.067513587475e+01
-3.245139086327e+01
-3.197339541455e+01
-3.248940791424e+01
-3.211272703695e+01
-3.252188570995e+01
-3.220377503080e+01
-3.278621587696e+01
-3.226184249398e+01
-3.325899003779e+01
-3.216404652476e+01
-3.397504467401e+01
-3.165058176310e+01
-3.497451610905e+01
-3.101298047572e+01
-3.628646054614e+01
-1.173653357037e+01
-3.031306107484e+01
-3.794218953883e+01
-3.605641490263e+01
-2.955680403616e+01
-3.997129774427e+01
-7.354426340560e+00
-2.861362647945e+01
-4.237802158918e+01
-2.743542735147e+01
-4.510175522792e+01
-2.592568484638e+01
-4.797059005054e+01
4.960909588557e+00
-2.463611195634e+01
-5.048781864745e+01
-2.342205346230e+01
-5.229066263268e+01
-5.290923179786e+01
-2.148736664873e+01
-4.901103538052e+01
-1.819727825509e+01
-3.797074550228e+01
-1.547239058497e+01
4.656212851853e+00
-2.943607672355e+01
-3.057210725055e+01
-3.211098921244e+01
-2.829493659291e+01
9.809093670105e+00
-2.161183529889e+01
-1.977568795002e+01
-1.978119544786e+01
-1.967027882983e+01
-1.971474243957e+01
-1.961905225692e+01
-1.967766221688e+01
-1.959129965356e+01
-1.968315522155e+01
-1.956329718596e+01
-1.969853591097e+01
-1.950306876301e+01
-1.971796681972e+01
-1.944744928080e+01
-1.975319842104e+01
-4.830866409949e+00
-1.933453148685e+01
-5.422402075147e+00
-1.981435139077e+01
-1.900131244586e+01
-1.974459067350e+01
-1.840116264915e+01
-1.967833636011e+01
-1.738314350774e+01
-1.103037006601e+01
-1.959470813214e+01
-1.598388839392e+01
-1.944065689826e+01
-1.423674208045e+01
-1.924577698670e+01
-1.272796480061e+01
-1.843545287440e+01
-1.084268947217e+01
-9.292119463335e+00
-1.670167151394e+01
-1.363977095219e+00
-1.283050782141e+01
-4.755750246106e+00
-1.811870656261e+01
-1.970895857118e+01
-1.495617612964e+01
-2.426235446881e+01
-1.918459577717e+00
-3.673366257789e+00
-4.648723882332e+00
-4.678097126299e+00
-4.780901341605e+00
-4.768741261437e+00
-4.756470118714e+00
-4.754888391613e+00
-4.802595141086e+00
-4.794879722493e+00
-4.822294207039e+00
-4.828309924438e+00
-4.862555886204e+00
-4.881917752425e+00
-5.889810921912e-01
-4.871734101570e+00
-4.948879983552e+00
-4.104429209903e+00
-5.002494852348e+00
-5.069610546206e+00
-2.428901987341e+00
-5.010624623502e+00
-5.115359456845e+00
-4.960499734457e+00
-5.138832177953e+00
-4.939640295768e+00
1.132663462369e-01
-5.165123986893e+00
-4.860316337626e+00
-4.656021265313e+00
-5.094035881373e+00
-4.417863538126e+00
-4.752113619739e+00
-3.114504999289e+00
-4.214595350987e+00
-2.904334380910e+00
-4.862872026523e+00
-3.495174093406e+00
-7.142008838096e+00
-1.980284758870e+00
-8.258299608454e-01
2.575344580280e+00
2.868748880685e+00
2.864095067744e+00
2.885480973330e+00
2.868019108462e+00
2.898828557425e+00
2.903390293787e+00
2.809681450027e+00
2.797763166361e+00
2.781526133392e+00
2.798688888693e+00
2.712399331476e+00
3.934856794004e+00
2.730091970588e+00
2.699479393063e+00
2.615351109415e+00
2.689781779769e+00
2.531130235127e+00
2.569618573094e+00
2.436687249771e+00
2.568223092035e+00
2.363912212990e+00
1.940610622689e+00
2.578618583731e+00
2.280273574193e+00
2.539671470250e+00
2.248340905377e+00
2.363790769171e+00
2.643469497203e+00
2.929451561759e+00
3.806548112420e+00
1.287028422940e+00
3.076413737249e+00
2.558477652631e+00
4.221039850218e+00
1.172795954393e+00
2.640850776274e+00


