# vtk DataFile Version 2.0
Calculation C:\Users\NickSteudtner\Documents\GitHub\TOCHNOG\standsicherheit_phiC at time 3.000000000000e+00 
ASCII
DATASET UNSTRUCTURED_GRID
Field FieldData 1
Time 1 1 double
3.000000000000e+00

POINTS 1220 float
0.0 0.0 0.0 
5.000000000000e+01 -1.000000000000e+01 0.0 
0.0 -2.000000000000e+01 0.0 
5.000000000000e+01 -2.000000000000e+01 0.0 
0.0 -9.999999999991e-01 0.0 
0.0 -1.999999999998e+00 0.0 
0.0 -2.999999999997e+00 0.0 
0.0 -3.999999999994e+00 0.0 
0.0 -4.999999999991e+00 0.0 
0.0 -5.999999999988e+00 0.0 
0.0 -6.999999999985e+00 0.0 
0.0 -7.999999999982e+00 0.0 
0.0 -8.999999999983e+00 0.0 
0.0 -9.999999999985e+00 0.0 
0.0 -1.099999999999e+01 0.0 
0.0 -1.199999999999e+01 0.0 
0.0 -1.299999999999e+01 0.0 
0.0 -1.399999999999e+01 0.0 
0.0 -1.499999999999e+01 0.0 
0.0 -1.599999999999e+01 0.0 
0.0 -1.700000000000e+01 0.0 
0.0 -1.800000000000e+01 0.0 
0.0 -1.900000000000e+01 0.0 
4.900000000001e+01 -2.000000000000e+01 0.0 
4.800000000001e+01 -2.000000000000e+01 0.0 
4.700000000002e+01 -2.000000000000e+01 0.0 
4.600000000003e+01 -2.000000000000e+01 0.0 
4.500000000004e+01 -2.000000000000e+01 0.0 
4.400000000004e+01 -2.000000000000e+01 0.0 
4.300000000005e+01 -2.000000000000e+01 0.0 
4.200000000006e+01 -2.000000000000e+01 0.0 
4.100000000006e+01 -2.000000000000e+01 0.0 
4.000000000007e+01 -2.000000000000e+01 0.0 
3.900000000008e+01 -2.000000000000e+01 0.0 
3.800000000009e+01 -2.000000000000e+01 0.0 
3.700000000009e+01 -2.000000000000e+01 0.0 
3.600000000010e+01 -2.000000000000e+01 0.0 
3.500000000011e+01 -2.000000000000e+01 0.0 
3.400000000011e+01 -2.000000000000e+01 0.0 
3.300000000012e+01 -2.000000000000e+01 0.0 
3.200000000013e+01 -2.000000000000e+01 0.0 
3.100000000013e+01 -2.000000000000e+01 0.0 
3.000000000013e+01 -2.000000000000e+01 0.0 
2.900000000013e+01 -2.000000000000e+01 0.0 
2.800000000013e+01 -2.000000000000e+01 0.0 
2.700000000013e+01 -2.000000000000e+01 0.0 
2.600000000013e+01 -2.000000000000e+01 0.0 
2.500000000013e+01 -2.000000000000e+01 0.0 
2.400000000013e+01 -2.000000000000e+01 0.0 
2.300000000013e+01 -2.000000000000e+01 0.0 
2.200000000013e+01 -2.000000000000e+01 0.0 
2.100000000013e+01 -2.000000000000e+01 0.0 
2.000000000013e+01 -2.000000000000e+01 0.0 
1.900000000013e+01 -2.000000000000e+01 0.0 
1.800000000013e+01 -2.000000000000e+01 0.0 
1.700000000012e+01 -2.000000000000e+01 0.0 
1.600000000011e+01 -2.000000000000e+01 0.0 
1.500000000011e+01 -2.000000000000e+01 0.0 
1.400000000010e+01 -2.000000000000e+01 0.0 
1.300000000009e+01 -2.000000000000e+01 0.0 
1.200000000009e+01 -2.000000000000e+01 0.0 
1.100000000008e+01 -2.000000000000e+01 0.0 
1.000000000007e+01 -2.000000000000e+01 0.0 
9.000000000064e+00 -2.000000000000e+01 0.0 
8.000000000057e+00 -2.000000000000e+01 0.0 
7.000000000050e+00 -2.000000000000e+01 0.0 
6.000000000043e+00 -2.000000000000e+01 0.0 
5.000000000036e+00 -2.000000000000e+01 0.0 
4.000000000028e+00 -2.000000000000e+01 0.0 
3.000000000021e+00 -2.000000000000e+01 0.0 
2.000000000014e+00 -2.000000000000e+01 0.0 
1.000000000007e+00 -2.000000000000e+01 0.0 
5.000000000000e+01 -1.100000000000e+01 0.0 
5.000000000000e+01 -1.200000000000e+01 0.0 
5.000000000000e+01 -1.300000000000e+01 0.0 
5.000000000000e+01 -1.400000000000e+01 0.0 
5.000000000000e+01 -1.500000000000e+01 0.0 
5.000000000000e+01 -1.600000000000e+01 0.0 
5.000000000000e+01 -1.700000000000e+01 0.0 
5.000000000000e+01 -1.800000000000e+01 0.0 
5.000000000000e+01 -1.900000000000e+01 0.0 
2.000000000000e+01 0.0 0.0 
3.500000000000e+01 -1.000000000000e+01 0.0 
2.150000000000e+01 -1.000000000000e+00 0.0 
2.300000000000e+01 -2.000000000000e+00 0.0 
2.450000000000e+01 -3.000000000000e+00 0.0 
2.600000000000e+01 -4.000000000000e+00 0.0 
2.750000000000e+01 -5.000000000000e+00 0.0 
2.900000000000e+01 -6.000000000000e+00 0.0 
3.050000000000e+01 -7.000000000000e+00 0.0 
3.200000000000e+01 -8.000000000000e+00 0.0 
3.350000000000e+01 -9.000000000000e+00 0.0 
5.000000000000e+01 -2.000000000000e+00 0.0 
5.000000000000e+01 -3.000000000000e+00 0.0 
5.000000000000e+01 -4.000000000000e+00 0.0 
5.000000000000e+01 -5.000000000000e+00 0.0 
5.000000000000e+01 -6.000000000000e+00 0.0 
5.000000000000e+01 -7.000000000000e+00 0.0 
5.000000000000e+01 -8.000000000000e+00 0.0 
5.000000000000e+01 -9.000000000000e+00 0.0 
4.900000000000e+01 -1.000000000000e+01 0.0 
4.800000000000e+01 -1.000000000000e+01 0.0 
4.700000000000e+01 -1.000000000000e+01 0.0 
4.600000000000e+01 -1.000000000000e+01 0.0 
4.500000000000e+01 -1.000000000000e+01 0.0 
4.400000000000e+01 -1.000000000000e+01 0.0 
4.300000000000e+01 -1.000000000000e+01 0.0 
4.200000000000e+01 -1.000000000000e+01 0.0 
4.100000000000e+01 -1.000000000000e+01 0.0 
4.000000000000e+01 -1.000000000000e+01 0.0 
3.900000000000e+01 -1.000000000000e+01 0.0 
3.800000000000e+01 -1.000000000000e+01 0.0 
3.700000000000e+01 -1.000000000000e+01 0.0 
3.600000000000e+01 -1.000000000000e+01 0.0 
1.900000000000e+01 0.0 0.0 
1.800000000000e+01 0.0 0.0 
1.700000000000e+01 0.0 0.0 
1.600000000000e+01 0.0 0.0 
1.500000000000e+01 0.0 0.0 
1.400000000000e+01 0.0 0.0 
1.300000000000e+01 0.0 0.0 
1.200000000000e+01 0.0 0.0 
1.100000000000e+01 0.0 0.0 
1.000000000000e+01 0.0 0.0 
9.000000000000e+00 0.0 0.0 
8.000000000000e+00 0.0 0.0 
7.000000000000e+00 0.0 0.0 
6.000000000000e+00 0.0 0.0 
5.000000000000e+00 0.0 0.0 
4.000000000000e+00 0.0 0.0 
3.000000000000e+00 0.0 0.0 
2.000000000000e+00 0.0 0.0 
1.000000000000e+00 0.0 0.0 
2.400000000000e+01 -2.000000000000e+00 0.0 
2.500000000000e+01 -2.000000000000e+00 0.0 
2.600000000000e+01 -2.000000000000e+00 0.0 
2.700000000000e+01 -2.000000000000e+00 0.0 
2.800000000000e+01 -2.000000000000e+00 0.0 
2.900000000000e+01 -2.000000000000e+00 0.0 
3.000000000000e+01 -2.000000000000e+00 0.0 
3.100000000000e+01 -2.000000000000e+00 0.0 
3.200000000000e+01 -2.000000000000e+00 0.0 
3.300000000000e+01 -2.000000000000e+00 0.0 
3.400000000000e+01 -2.000000000000e+00 0.0 
3.500000000000e+01 -2.000000000000e+00 0.0 
3.600000000000e+01 -2.000000000000e+00 0.0 
3.700000000000e+01 -2.000000000000e+00 0.0 
3.800000000000e+01 -2.000000000000e+00 0.0 
3.900000000000e+01 -2.000000000000e+00 0.0 
4.000000000000e+01 -2.000000000000e+00 0.0 
4.100000000000e+01 -2.000000000000e+00 0.0 
4.200000000000e+01 -2.000000000000e+00 0.0 
4.300000000000e+01 -2.000000000000e+00 0.0 
4.400000000000e+01 -2.000000000000e+00 0.0 
4.500000000000e+01 -2.000000000000e+00 0.0 
4.600000000000e+01 -2.000000000000e+00 0.0 
4.700000000000e+01 -2.000000000000e+00 0.0 
4.800000000000e+01 -2.000000000000e+00 0.0 
4.900000000000e+01 -2.000000000000e+00 0.0 
2.548076923077e+01 -3.000000000000e+00 0.0 
2.646153846153e+01 -3.000000000000e+00 0.0 
2.744230769230e+01 -3.000000000000e+00 0.0 
2.842307692306e+01 -3.000000000000e+00 0.0 
2.940384615383e+01 -3.000000000000e+00 0.0 
3.038461538459e+01 -3.000000000000e+00 0.0 
3.136538461536e+01 -3.000000000000e+00 0.0 
3.234615384612e+01 -3.000000000000e+00 0.0 
3.332692307687e+01 -3.000000000000e+00 0.0 
3.430769230762e+01 -3.000000000000e+00 0.0 
3.528846153837e+01 -3.000000000000e+00 0.0 
3.626923076912e+01 -3.000000000000e+00 0.0 
3.724999999988e+01 -3.000000000000e+00 0.0 
3.823076923065e+01 -3.000000000000e+00 0.0 
3.921153846143e+01 -3.000000000000e+00 0.0 
4.019230769221e+01 -3.000000000000e+00 0.0 
4.117307692299e+01 -3.000000000000e+00 0.0 
4.215384615377e+01 -3.000000000000e+00 0.0 
4.313461538455e+01 -3.000000000000e+00 0.0 
4.411538461533e+01 -3.000000000000e+00 0.0 
4.509615384611e+01 -3.000000000000e+00 0.0 
4.607692307688e+01 -3.000000000000e+00 0.0 
4.705769230766e+01 -3.000000000000e+00 0.0 
4.803846153844e+01 -3.000000000000e+00 0.0 
4.901923076922e+01 -3.000000000000e+00 0.0 
4.900000000000e+01 -4.000000000000e+00 0.0 
4.800000000000e+01 -4.000000000000e+00 0.0 
4.700000000000e+01 -4.000000000000e+00 0.0 
4.600000000000e+01 -4.000000000000e+00 0.0 
4.500000000000e+01 -4.000000000000e+00 0.0 
4.400000000000e+01 -4.000000000000e+00 0.0 
4.300000000000e+01 -4.000000000000e+00 0.0 
4.200000000000e+01 -4.000000000000e+00 0.0 
4.100000000000e+01 -4.000000000000e+00 0.0 
4.000000000000e+01 -4.000000000000e+00 0.0 
3.900000000000e+01 -4.000000000000e+00 0.0 
3.800000000000e+01 -4.000000000000e+00 0.0 
3.700000000000e+01 -4.000000000000e+00 0.0 
3.600000000000e+01 -4.000000000000e+00 0.0 
3.500000000000e+01 -4.000000000000e+00 0.0 
3.400000000000e+01 -4.000000000000e+00 0.0 
3.300000000000e+01 -4.000000000000e+00 0.0 
3.200000000000e+01 -4.000000000000e+00 0.0 
3.100000000000e+01 -4.000000000000e+00 0.0 
3.000000000000e+01 -4.000000000000e+00 0.0 
2.900000000000e+01 -4.000000000000e+00 0.0 
2.800000000000e+01 -4.000000000000e+00 0.0 
2.700000000000e+01 -4.000000000000e+00 0.0 
2.847826086957e+01 -5.000000000000e+00 0.0 
2.945652173913e+01 -5.000000000000e+00 0.0 
3.043478260870e+01 -5.000000000000e+00 0.0 
3.141304347826e+01 -5.000000000000e+00 0.0 
3.239130434783e+01 -5.000000000000e+00 0.0 
3.336956521739e+01 -5.000000000000e+00 0.0 
3.434782608696e+01 -5.000000000000e+00 0.0 
3.532608695652e+01 -5.000000000000e+00 0.0 
3.630434782609e+01 -5.000000000000e+00 0.0 
3.728260869565e+01 -5.000000000000e+00 0.0 
3.826086956522e+01 -5.000000000000e+00 0.0 
3.923913043478e+01 -5.000000000000e+00 0.0 
4.021739130435e+01 -5.000000000000e+00 0.0 
4.119565217391e+01 -5.000000000000e+00 0.0 
4.217391304348e+01 -5.000000000000e+00 0.0 
4.315217391304e+01 -5.000000000000e+00 0.0 
4.413043478261e+01 -5.000000000000e+00 0.0 
4.510869565217e+01 -5.000000000000e+00 0.0 
4.608695652174e+01 -5.000000000000e+00 0.0 
4.706521739130e+01 -5.000000000000e+00 0.0 
4.804347826087e+01 -5.000000000000e+00 0.0 
4.902173913043e+01 -5.000000000000e+00 0.0 
4.900000000001e+01 -6.000000000000e+00 0.0 
4.800000000003e+01 -6.000000000000e+00 0.0 
4.700000000004e+01 -6.000000000000e+00 0.0 
4.600000000006e+01 -6.000000000000e+00 0.0 
4.500000000007e+01 -6.000000000000e+00 0.0 
4.400000000009e+01 -6.000000000000e+00 0.0 
4.300000000010e+01 -6.000000000000e+00 0.0 
4.200000000012e+01 -6.000000000000e+00 0.0 
4.100000000013e+01 -6.000000000000e+00 0.0 
4.000000000014e+01 -6.000000000000e+00 0.0 
3.900000000014e+01 -6.000000000000e+00 0.0 
3.800000000012e+01 -6.000000000000e+00 0.0 
3.700000000010e+01 -6.000000000000e+00 0.0 
3.600000000008e+01 -6.000000000000e+00 0.0 
3.500000000006e+01 -6.000000000000e+00 0.0 
3.400000000005e+01 -6.000000000000e+00 0.0 
3.300000000003e+01 -6.000000000000e+00 0.0 
3.200000000001e+01 -6.000000000000e+00 0.0 
3.100000000000e+01 -6.000000000000e+00 0.0 
3.000000000000e+01 -6.000000000000e+00 0.0 
3.147499999998e+01 -7.000000000000e+00 0.0 
3.244999999998e+01 -7.000000000000e+00 0.0 
3.342499999998e+01 -7.000000000000e+00 0.0 
3.439999999998e+01 -7.000000000000e+00 0.0 
3.537499999998e+01 -7.000000000000e+00 0.0 
3.634999999998e+01 -7.000000000000e+00 0.0 
3.732499999998e+01 -7.000000000000e+00 0.0 
3.829999999998e+01 -7.000000000000e+00 0.0 
3.927499999999e+01 -7.000000000000e+00 0.0 
4.024999999999e+01 -7.000000000000e+00 0.0 
4.122499999999e+01 -7.000000000000e+00 0.0 
4.219999999999e+01 -7.000000000000e+00 0.0 
4.317499999999e+01 -7.000000000000e+00 0.0 
4.414999999999e+01 -7.000000000000e+00 0.0 
4.512499999999e+01 -7.000000000000e+00 0.0 
4.609999999999e+01 -7.000000000000e+00 0.0 
4.707500000000e+01 -7.000000000000e+00 0.0 
4.805000000000e+01 -7.000000000000e+00 0.0 
4.902500000000e+01 -7.000000000000e+00 0.0 
4.900000000000e+01 -8.000000000000e+00 0.0 
4.800000000000e+01 -8.000000000000e+00 0.0 
4.700000000000e+01 -8.000000000000e+00 0.0 
4.600000000000e+01 -8.000000000000e+00 0.0 
4.500000000000e+01 -8.000000000000e+00 0.0 
4.400000000000e+01 -8.000000000000e+00 0.0 
4.300000000000e+01 -8.000000000000e+00 0.0 
4.200000000000e+01 -8.000000000000e+00 0.0 
4.100000000000e+01 -8.000000000000e+00 0.0 
4.000000000000e+01 -8.000000000000e+00 0.0 
3.900000000000e+01 -8.000000000000e+00 0.0 
3.800000000000e+01 -8.000000000000e+00 0.0 
3.700000000000e+01 -8.000000000000e+00 0.0 
3.600000000000e+01 -8.000000000000e+00 0.0 
3.500000000000e+01 -8.000000000000e+00 0.0 
3.400000000000e+01 -8.000000000000e+00 0.0 
3.300000000000e+01 -8.000000000000e+00 0.0 
3.447058823527e+01 -9.000000000000e+00 0.0 
3.544117647055e+01 -9.000000000000e+00 0.0 
3.641176470582e+01 -9.000000000000e+00 0.0 
3.738235294109e+01 -9.000000000000e+00 0.0 
3.835294117637e+01 -9.000000000000e+00 0.0 
3.932352941164e+01 -9.000000000000e+00 0.0 
4.029411764691e+01 -9.000000000000e+00 0.0 
4.126470588219e+01 -9.000000000000e+00 0.0 
4.223529411748e+01 -9.000000000000e+00 0.0 
4.320588235279e+01 -9.000000000000e+00 0.0 
4.417647058811e+01 -9.000000000000e+00 0.0 
4.514705882342e+01 -9.000000000000e+00 0.0 
4.611764705874e+01 -9.000000000000e+00 0.0 
4.708823529405e+01 -9.000000000000e+00 0.0 
4.805882352937e+01 -9.000000000000e+00 0.0 
4.902941176468e+01 -9.000000000000e+00 0.0 
2.075000000000e+01 -5.000000000006e-01 0.0 
2.225000000000e+01 -1.500000000000e+00 0.0 
2.375000000000e+01 -2.500000000000e+00 0.0 
2.525000000000e+01 -3.500000000000e+00 0.0 
2.675000000000e+01 -4.500000000000e+00 0.0 
2.825000000000e+01 -5.500000000000e+00 0.0 
2.975000000000e+01 -6.500000000000e+00 0.0 
3.125000000000e+01 -7.500000000000e+00 0.0 
3.275000000000e+01 -8.500000000000e+00 0.0 
3.425000000000e+01 -9.500000000000e+00 0.0 
2.226951693683e+01 -2.403913980114e+00 0.0 
1.650149491944e+01 -1.913490915758e+01 0.0 
1.050042386896e+01 -8.504605092970e-01 0.0 
1.553146524712e+01 -8.281255032105e-01 0.0 
1.150000000008e+01 -1.913397459621e+01 0.0 
2.530060260647e+01 -4.428336431260e+00 0.0 
8.651114563942e-01 -1.052096295641e+01 0.0 
2.050000000013e+01 -1.913397459622e+01 0.0 
2.819198729811e+01 -6.399519052838e+00 0.0 
2.445670302931e+01 -1.915649188023e+01 0.0 
3.117591465718e+01 -8.394293040695e+00 0.0 
7.465053044742e+00 -1.920411160581e+01 0.0 
6.398295709691e+00 -8.230098819370e-01 0.0 
2.849659607461e+01 -1.914296187762e+01 0.0 
3.418732642882e+01 -1.040265792588e+01 0.0 
8.386450935063e-01 -6.533605142809e+00 0.0 
9.178661865596e-01 -1.329769195597e+01 0.0 
3.149448624493e+01 -1.910466733764e+01 0.0 
3.552916747426e+01 -1.914628590759e+01 0.0 
4.449210346537e+01 -1.914359085008e+01 0.0 
4.140975975145e+01 -1.906941860733e+01 0.0 
3.847475958753e+01 -1.916622382724e+01 0.0 
3.653774794640e+01 -1.088712800241e+01 0.0 
4.047886341787e+01 -1.090139014048e+01 0.0 
4.348006339825e+01 -1.092792621489e+01 0.0 
4.919519968029e+01 -1.451526755068e+01 0.0 
4.500000000032e+00 -1.913397459621e+01 0.0 
1.856136921614e+01 -8.212235170404e-01 0.0 
3.499895312306e+00 -8.661165539723e-01 0.0 
9.076088696565e-01 -1.642306201891e+01 0.0 
4.655174095477e+01 -1.086183387525e+01 0.0 
9.430688970604e-01 -3.496112672958e+00 0.0 
3.353992337063e+01 -1.901202090820e+01 0.0 
2.249746016977e+01 -1.921262287282e+01 0.0 
2.650122741777e+01 -1.916123026018e+01 0.0 
1.863571384842e+01 -1.908325534840e+01 0.0 
1.450089971693e+01 -1.917691901860e+01 0.0 
1.350044695317e+01 -8.659695299584e-01 0.0 
3.849987469880e+01 -1.084154983397e+01 0.0 
9.454419857884e+00 -1.900818879936e+01 0.0 
4.917398660523e+01 -1.645692866081e+01 0.0 
8.500000000000e+00 -8.660254037844e-01 0.0 
8.660319230785e-01 -8.500111697188e+00 0.0 
4.649022621545e+01 -1.930506220113e+01 0.0 
2.667688107845e+01 -5.420288124331e+00 0.0 
2.379251615665e+01 -3.412225477429e+00 0.0 
2.966631491830e+01 -7.389030232731e+00 0.0 
3.267915035995e+01 -9.396934932445e+00 0.0 
2.074836922338e+01 -1.320054020319e+00 0.0 
4.915985743621e+01 -1.261973384855e+01 0.0 
2.527129768623e+00 -1.931592414663e+01 0.0 
1.538676247410e+00 -8.436956619311e-01 0.0 
4.908096641539e+01 -1.842484004551e+01 0.0 
3.478612492673e+01 -1.090889364140e+01 0.0 
3.409757055860e+01 -1.131991530427e+01 0.0 
3.501895309466e+01 -1.177687842717e+01 0.0 
3.407758073088e+01 -1.224293381580e+01 0.0 
3.484541875390e+01 -1.277051428430e+01 0.0 
3.400322025842e+01 -1.319022775640e+01 0.0 
3.321672625034e+01 -1.266779191233e+01 0.0 
3.315244139236e+01 -1.360984106532e+01 0.0 
3.236335186892e+01 -1.308463225210e+01 0.0 
3.478337442841e+01 -1.372341158982e+01 0.0 
3.230105923633e+01 -1.403023731610e+01 0.0 
3.150954055289e+01 -1.350301767700e+01 0.0 
3.144604792090e+01 -1.444931742516e+01 0.0 
3.065653897123e+01 -1.392357262981e+01 0.0 
3.071897610812e+01 -1.297447031198e+01 0.0 
2.986790411740e+01 -1.339226181535e+01 0.0 
2.993181466745e+01 -1.244703272398e+01 0.0 
2.908023061869e+01 -1.286254537734e+01 0.0 
2.901619051372e+01 -1.380881655279e+01 0.0 
2.822986160390e+01 -1.327695262116e+01 0.0 
2.829453476870e+01 -1.233265343811e+01 0.0 
2.744542905518e+01 -1.274510491105e+01 0.0 
2.751120089246e+01 -1.180368086886e+01 0.0 
2.666218649885e+01 -1.221619339205e+01 0.0 
2.672371209234e+01 -1.127125228527e+01 0.0 
2.587763216302e+01 -1.168539979114e+01 0.0 
2.581165585299e+01 -1.262994410089e+01 0.0 
2.502890882577e+01 -1.209827323619e+01 0.0 
2.509631327757e+01 -1.115492410304e+01 0.0 
2.424662989877e+01 -1.156630981079e+01 0.0 
2.431704046904e+01 -1.062389179334e+01 0.0 
2.346445438728e+01 -1.103427680694e+01 0.0 
2.339382552877e+01 -1.197964871788e+01 0.0 
2.260936050780e+01 -1.144513277642e+01 0.0 
2.268075012022e+01 -1.049911928216e+01 0.0 
2.182525737661e+01 -1.090920811464e+01 0.0 
2.189682319817e+01 -9.961716944568e+00 0.0 
2.104174127792e+01 -1.037266986667e+01 0.0 
2.111304367575e+01 -9.424179358711e+00 0.0 
2.025306185381e+01 -9.832727364719e+00 0.0 
2.018141124247e+01 -1.079140628871e+01 0.0 
1.938594498257e+01 -1.025147354112e+01 0.0 
1.946106490453e+01 -9.288010758448e+00 0.0 
1.858929958352e+01 -9.706319802516e+00 0.0 
1.851540991219e+01 -1.067205988724e+01 0.0 
1.771485303178e+01 -1.012504443115e+01 0.0 
1.764134552256e+01 -1.109360378538e+01 0.0 
1.683745148095e+01 -1.054496365337e+01 0.0 
1.691852964353e+01 -9.582555261178e+00 0.0 
1.603603813062e+01 -1.000160132379e+01 0.0 
1.595824239350e+01 -1.096750698862e+01 0.0 
1.515080624291e+01 -1.041639501931e+01 0.0 
1.523171602559e+01 -9.451711491453e+00 0.0 
1.434621060709e+01 -9.871956467464e+00 0.0 
1.426777178765e+01 -1.083749501371e+01 0.0 
1.345775282374e+01 -1.028803175500e+01 0.0 
1.354103873368e+01 -9.324918457162e+00 0.0 
1.265072018622e+01 -9.742612837270e+00 0.0 
1.257285762070e+01 -1.071557782384e+01 0.0 
1.175874815690e+01 -1.015972324288e+01 0.0 
1.184203019714e+01 -9.193604071377e+00 0.0 
1.094927709905e+01 -9.612103238656e+00 0.0 
1.086938022910e+01 -1.058685085646e+01 0.0 
1.005424098961e+01 -1.002939116380e+01 0.0 
9.977974613295e+00 -1.101324897989e+01 0.0 
1.012915646404e+01 -9.051815821181e+00 0.0 
9.237127782494e+00 -9.471239055559e+00 0.0 
9.308426593771e+00 -8.483376461131e+00 0.0 
8.418806073345e+00 -8.910712374517e+00 0.0 
2.253688464062e+01 -1.239459402279e+01 0.0 
8.495126726666e+00 -7.921646665254e+00 0.0 
9.389727383206e+00 -7.512103628377e+00 0.0 
7.601560812974e+00 -8.349460349344e+00 0.0 
7.525680547759e+00 -9.339736686940e+00 0.0 
7.677888324502e+00 -7.359727833346e+00 0.0 
6.782001206724e+00 -7.788454494773e+00 0.0 
6.858778622885e+00 -6.797338062822e+00 0.0 
2.196596590865e+01 -8.979025665442e+00 0.0 
2.816540108272e+01 -1.422634142353e+01 0.0 
5.961601194403e+00 -7.226824010712e+00 0.0 
6.038171749656e+00 -6.234825887079e+00 0.0 
6.936257279557e+00 -5.805287640737e+00 0.0 
6.115068918323e+00 -5.242109758768e+00 0.0 
3.564391741903e+01 -1.329240553876e+01 0.0 
3.558115605778e+01 -1.425902892003e+01 0.0 
3.645445282201e+01 -1.381970786460e+01 0.0 
3.639744204358e+01 -1.479198128612e+01 0.0 
3.727266909778e+01 -1.435399586226e+01 0.0 
5.216667013081e+00 -5.671788584287e+00 0.0 
3.220697293295e+01 -1.499594545107e+01 0.0 
3.551112158269e+01 -1.523479869250e+01 0.0 
2.836056961467e+01 -1.139032434851e+01 0.0 
2.516730388602e+01 -1.021382726837e+01 0.0 
1.844436907403e+01 -1.164097215196e+01 0.0 
5.885434318740e+00 -8.218694781467e+00 0.0 
5.064071066867e+00 -7.656614643901e+00 0.0 
4.988089103470e+00 -8.649722082718e+00 0.0 
1.079421050408e+01 -1.157014985435e+01 0.0 
9.902420005256e+00 -1.199903342656e+01 0.0 
1.071994252214e+01 -1.255727909771e+01 0.0 
9.826974788171e+00 -1.298659581767e+01 0.0 
1.064607883789e+01 -1.354595476388e+01 0.0 
9.751541265343e+00 -1.397556905071e+01 0.0 
8.932296185869e+00 -1.341553353988e+01 0.0 
8.856399248106e+00 -1.440570715508e+01 0.0 
8.036186803543e+00 -1.384470558472e+01 0.0 
1.057112875118e+01 -1.453516759081e+01 0.0 
1.146582585687e+01 -1.410539926903e+01 0.0 
7.959894480382e+00 -1.483563350928e+01 0.0 
7.138792279156e+00 -1.427465094140e+01 0.0 
7.062506792418e+00 -1.526615385482e+01 0.0 
6.240693558277e+00 -1.470508863040e+01 0.0 
6.316957575451e+00 -1.371212581281e+01 0.0 
5.418183007107e+00 -1.414253605022e+01 0.0 
5.494748364428e+00 -1.314886770603e+01 0.0 
1.756825565873e+01 -1.206433872514e+01 0.0 
1.837565773345e+01 -1.261356468266e+01 0.0 
1.749574831391e+01 -1.303769280014e+01 0.0 
1.830539187332e+01 -1.358828364284e+01 0.0 
1.742278925170e+01 -1.401367746928e+01 0.0 
1.823303007798e+01 -1.456432294258e+01 0.0 
1.734941694138e+01 -1.499213734361e+01 0.0 
1.653760041637e+01 -1.443920312098e+01 0.0 
3.056237977307e+01 -1.487132260174e+01 0.0 
1.866469084762e+01 -8.742953000418e+00 0.0 
1.953669694916e+01 -8.326038909849e+00 0.0 
1.874194303780e+01 -7.780688158966e+00 0.0 
1.961032016741e+01 -7.366854697285e+00 0.0 
1.881715755159e+01 -6.821102209649e+00 0.0 
1.968369797150e+01 -6.407747217358e+00 0.0 
1.889237123259e+01 -5.858375520026e+00 0.0 
1.802038875366e+01 -6.276202618170e+00 0.0 
1.809793837984e+01 -5.307629520489e+00 0.0 
1.721985207997e+01 -5.728242054488e+00 0.0 
1.729850893523e+01 -4.756990819347e+00 0.0 
1.641745664240e+01 -5.174636548624e+00 0.0 
2.495978509456e+01 -1.304406404294e+01 0.0 
1.911567814831e+01 -1.413854250293e+01 0.0 
1.904387332608e+01 -1.511463127723e+01 0.0 
1.992115934240e+01 -1.468788025898e+01 0.0 
7.013706899628e+00 -4.812582868662e+00 0.0 
5.342091874585e+00 -1.513658157269e+01 0.0 
1.139098043784e+01 -1.509488509480e+01 0.0 
1.228151810610e+01 -1.465617481983e+01 0.0 
1.646373110164e+01 -1.541993323337e+01 0.0 
5.293328636712e+00 -4.678385108584e+00 0.0 
1.975965862987e+01 -5.448124345648e+00 0.0 
2.054318374236e+01 -5.992561293251e+00 0.0 
3.721453439063e+01 -1.533216152738e+01 0.0 
3.809302733893e+01 -1.489235527381e+01 0.0 
1.220852788900e+01 -1.565304565230e+01 0.0 
4.394120899730e+00 -5.108397613210e+00 0.0 
8.779354620288e+00 -1.539524721159e+01 0.0 
1.817791047702e+01 -4.338570146253e+00 0.0 
4.518860013839e+00 -1.457343189307e+01 0.0 
4.442712140414e+00 -1.556841391069e+01 0.0 
8.115343466391e+00 -1.285760324283e+01 0.0 
1.985334703171e+01 -1.566478400426e+01 0.0 
2.071953850276e+01 -1.522074243119e+01 0.0 
1.634012953883e+01 -6.154777738301e+00 0.0 
1.553479994708e+01 -5.593730508879e+00 0.0 
1.561265946942e+01 -4.617761762647e+00 0.0 
1.470674212978e+01 -5.064576488228e+00 0.0 
1.464498299883e+01 -6.026514471420e+00 0.0 
1.383271561817e+01 -5.467796261169e+00 0.0 
1.389241253067e+01 -4.504338666645e+00 0.0 
1.301868735463e+01 -4.907185188626e+00 0.0 
1.294514184846e+01 -5.888160903592e+00 0.0 
1.212955968622e+01 -5.328262335277e+00 0.0 
1.220721122383e+01 -4.341264976687e+00 0.0 
1.131324345897e+01 -4.766773516508e+00 0.0 
5.266597955397e+00 -1.613148974258e+01 0.0 
1.737805990867e+01 -3.786677807525e+00 0.0 
3.078438094513e+01 -1.203225297748e+01 0.0 
1.131569882285e+01 -1.608511932110e+01 0.0 
1.728478341782e+01 -1.596017432313e+01 0.0 
3.803465906019e+01 -1.587509751228e+01 0.0 
3.891681276677e+01 -1.543395196905e+01 0.0 
3.897340985302e+01 -1.444710288980e+01 0.0 
3.980095968193e+01 -1.499059496613e+01 0.0 
3.974334598189e+01 -1.597921884150e+01 0.0 
4.062964983717e+01 -1.553518690417e+01 0.0 
4.068729602479e+01 -1.454434445295e+01 0.0 
4.151772679790e+01 -1.508974196007e+01 0.0 
4.157505195739e+01 -1.409694289912e+01 0.0 
4.240699932656e+01 -1.464347955968e+01 0.0 
4.234898051011e+01 -1.563721375790e+01 0.0 
4.323934606035e+01 -1.519082036405e+01 0.0 
4.329740528208e+01 -1.419587509788e+01 0.0 
4.413056841369e+01 -1.474359631875e+01 0.0 
4.418850110108e+01 -1.374786684042e+01 0.0 
4.502219770667e+01 -1.429605103525e+01 0.0 
4.496411937907e+01 -1.529215882720e+01 0.0 
4.490027319897e+00 -4.154167794594e+00 0.0 
1.565080385988e+01 -1.486411982419e+01 0.0 
1.557610691279e+01 -1.584855627870e+01 0.0 
4.195350646612e+00 -8.089117689096e+00 0.0 
4.124027797830e+00 -9.082831955007e+00 0.0 
4.917944318925e+00 -9.643530901533e+00 0.0 
4.020105689502e+00 -1.007439673661e+01 0.0 
4.587185899277e+01 -1.484039992728e+01 0.0 
4.580078661551e+01 -1.584043391042e+01 0.0 
2.061956522375e+01 -5.046701343981e+00 0.0 
2.139572955529e+01 -5.579553449826e+00 0.0 
3.715344357292e+01 -1.631485124583e+01 0.0 
3.618886196443e+00 -1.500471207167e+01 0.0 
3.695606940204e+00 -1.400939692294e+01 0.0 
2.438890661143e+01 -9.686110599723e+00 0.0 
2.523267572778e+01 -9.276766000622e+00 0.0 
2.446094171539e+01 -8.751904591412e+00 0.0 
2.529089822738e+01 -8.321495612547e+00 0.0 
2.606882688827e+01 -8.864724051119e+00 0.0 
2.452116646430e+01 -7.792756462004e+00 0.0 
1.235543269617e+01 -1.365845617339e+01 0.0 
4.318116874181e+01 -1.618567469992e+01 0.0 
7.835066111909e+00 -5.376366223896e+00 0.0 
7.905687335704e+00 -4.382539065697e+00 0.0 
3.542640009567e+00 -1.600035116542e+01 0.0 
1.572431503071e+01 -1.388358386695e+01 0.0 
2.574684696680e+01 -1.357896141127e+01 0.0 
2.488842657651e+01 -1.399674354505e+01 0.0 
2.568301775611e+01 -1.453552048595e+01 0.0 
2.481535572009e+01 -1.495542756508e+01 0.0 
2.561729699688e+01 -1.549784648532e+01 0.0 
2.474623061296e+01 -1.592058894178e+01 0.0 
2.394234041695e+01 -1.537572575827e+01 0.0 
2.065825452567e+01 -1.621899055217e+01 0.0 
2.387180528935e+01 -1.634552264687e+01 0.0 
4.585364400844e+01 -1.383912334080e+01 0.0 
1.998744432052e+01 -1.370317155541e+01 0.0 
1.205356951443e+01 -6.313580285498e+00 0.0 
5.396543905849e+00 -3.731818611283e+00 0.0 
1.139652573295e+01 -3.745819399350e+00 0.0 
3.574124306703e+00 -4.551456826011e+00 0.0 
3.494140761930e+00 -5.539787055649e+00 0.0 
1.213651452413e+01 -1.664505033022e+01 0.0 
2.555045568519e+01 -1.646529356744e+01 0.0 
2.641671114986e+01 -1.603899382371e+01 0.0 
2.612920721894e+01 -7.906435260873e+00 0.0 
2.690339829698e+01 -8.456969591431e+00 0.0 
1.978024383368e+01 -1.664410216353e+01 0.0 
3.732829979082e+01 -1.336926601859e+01 0.0 
4.074336584605e+01 -1.355133328401e+01 0.0 
4.163204691081e+01 -1.310280943992e+01 0.0 
3.773826114429e+00 -3.493444309145e+00 0.0 
1.228783001032e+01 -3.374822835872e+00 0.0 
4.057110462520e+01 -1.652588478000e+01 0.0 
2.132535497898e+01 -6.523623360525e+00 0.0 
2.216932532211e+01 -6.110044769206e+00 0.0 
1.825781152128e+01 -3.370146817147e+00 0.0 
1.745679445888e+01 -2.812942552063e+00 0.0 
4.666517057280e+01 -1.539981381543e+01 0.0 
4.660575894464e+01 -1.639014410186e+01 0.0 
4.838230979954e+00 -1.063643436446e+01 0.0 
3.938942630206e+00 -1.106778981745e+01 0.0 
1.302967218620e+01 -1.621373452436e+01 0.0 
1.049548003190e+01 -4.204825123240e+00 0.0 
4.573571907195e+01 -1.683820511148e+01 0.0 
1.483686335807e+01 -1.430849689310e+01 0.0 
1.490982658890e+01 -1.332679386284e+01 0.0 
3.190805600162e+00 -9.510968358545e+00 0.0 
2.146625721848e+01 -4.642437303115e+00 0.0 
2.069866208266e+01 -4.111852942193e+00 0.0 
1.286859345584e+01 -6.873252723348e+00 0.0 
1.041794493184e+01 -5.194814260291e+00 0.0 
2.671081808965e+00 -4.976806516331e+00 0.0 
1.295786792925e+01 -1.720506531799e+01 0.0 
3.968438206511e+01 -1.696869067241e+01 0.0 
2.308550456051e+01 -1.579963151273e+01 0.0 
2.315593682844e+01 -1.482967445235e+01 0.0 
2.299471449450e+01 -1.677069968132e+01 0.0 
1.057344714696e+01 -3.214252277840e+00 0.0 
1.124057603753e+01 -1.707713739755e+01 0.0 
2.718402535754e+00 -1.543629882103e+01 0.0 
2.638549692805e+01 -1.696744916809e+01 0.0 
2.723416349007e+01 -1.658104204545e+01 0.0 
2.210193351704e+01 -7.046769643417e+00 0.0 
2.295180925161e+01 -6.657397605239e+00 0.0 
2.301355235833e+01 -5.709111896800e+00 0.0 
2.379052718281e+01 -6.254965406962e+00 0.0 
3.243528601237e+01 -1.214181853533e+01 0.0 
2.287977995457e+01 -7.583722368300e+00 0.0 
2.999876029544e+01 -1.150837653096e+01 0.0 
3.084435366963e+01 -1.109693775882e+01 0.0 
3.006650579669e+01 -1.057778994262e+01 0.0 
2.683802665066e+01 -9.386863216633e+00 0.0 
2.768641973621e+01 -8.988883915666e+00 0.0 
2.040296980397e+01 -7.903629133404e+00 0.0 
1.925235024054e+01 -1.218872783130e+01 0.0 
5.735667000424e+00 -1.020577277283e+01 0.0 
6.396559909872e+00 -1.272326295703e+01 0.0 
1.161199420714e+01 -1.212812778229e+01 0.0 
4.229046132615e+01 -1.663084237572e+01 0.0 
4.312275399692e+01 -1.718087491556e+01 0.0 
4.335502068163e+01 -1.320039231514e+01 0.0 
4.424630298089e+01 -1.275160688731e+01 0.0 
7.090116643816e+00 -3.818998061530e+00 0.0 
7.989472176569e+00 -3.389238711200e+00 0.0 
9.085824861778e+00 -1.144036167408e+01 0.0 
1.041972423731e+01 -1.651614080893e+01 0.0 
3.797525112640e+01 -1.686052038746e+01 0.0 
3.709114253394e+01 -1.730125999865e+01 0.0 
3.626966748340e+01 -1.675477052919e+01 0.0 
1.385164591440e+01 -1.677597757552e+01 0.0 
1.787152588784e+01 -8.198993896093e+00 0.0 
1.668849729812e+01 -1.248560611628e+01 0.0 
1.659546177905e+01 -3.232482605530e+00 0.0 
2.332214717345e+01 -1.292598167641e+01 0.0 
7.168238450786e+00 -2.824711686516e+00 0.0 
2.894878403906e+01 -1.475427524446e+01 0.0 
2.646763248247e+00 -1.643270107952e+01 0.0 
3.467431944285e+00 -1.699648837348e+01 0.0 
2.059475877282e+01 -1.719473628526e+01 0.0 
3.333868355437e+01 -1.080596971682e+01 0.0 
2.246451062637e+01 -1.334557761546e+01 0.0 
2.167821896388e+01 -1.280847834858e+01 0.0 
3.089653185767e+01 -1.017198487212e+01 0.0 
3.012604365669e+01 -9.657298805968e+00 0.0 
2.929627299435e+01 -1.006100135274e+01 0.0 
2.936201435219e+01 -9.136748899251e+00 0.0 
1.198219052702e+01 -7.291887238230e+00 0.0 
1.116702076035e+01 -6.731976101053e+00 0.0 
2.551388807505e+01 -1.746927036981e+01 0.0 
2.378639090370e+01 -1.728678807149e+01 0.0 
2.718543627188e+01 -1.748668016909e+01 0.0 
2.804681050301e+01 -1.712626668293e+01 0.0 
1.970737034667e+01 -1.762317646822e+01 0.0 
1.889535776135e+01 -1.707158098231e+01 0.0 
2.593777711283e+00 -5.971157087874e+00 0.0 
2.773468281110e+01 -8.067164273938e+00 0.0 
4.051205884347e+01 -1.751819982458e+01 0.0 
3.166903145421e+01 -1.068032992414e+01 0.0 
1.033042452886e+01 -1.748285844336e+01 0.0 
9.519274604626e+00 -1.694349240233e+01 0.0 
1.668308673328e+01 -2.255861778986e+00 0.0 
1.570531902832e+01 -2.676795860126e+00 0.0 
4.655826903379e+01 -1.736656245706e+01 0.0 
2.384148070773e+01 -5.328744256413e+00 0.0 
2.460255123641e+01 -5.852182672816e+00 0.0 
2.306638135119e+01 -4.798935440613e+00 0.0 
8.467720450578e-01 -1.849576263072e+01 0.0 
4.849657322345e+01 -1.084860705506e+01 0.0 
2.565860899507e+00 -1.742859793981e+01 0.0 
2.764418872564e+01 -9.927142821799e+00 0.0 
4.565165880064e+01 -1.785336695404e+01 0.0 
2.162231831329e+01 -1.376528337468e+01 0.0 
2.360646352969e+01 -9.136041963102e+00 0.0 
1.392738739903e+01 -1.578285505772e+01 0.0 
4.756405947478e+01 -1.683706841809e+01 0.0 
4.740895034054e+01 -1.793766756892e+01 0.0 
4.080779328826e+01 -1.257387192544e+01 0.0 
4.168907939671e+01 -1.210739129181e+01 0.0 
3.991197722154e+01 -1.300815793917e+01 0.0 
1.905536506762e+01 -3.940076697685e+00 0.0 
1.923879596617e+01 -2.875000734166e+00 0.0 
4.401386745746e+01 -1.673483229438e+01 0.0 
4.247233362525e+00 -7.094581653070e+00 0.0 
3.286051630211e+00 -7.635300020553e+00 0.0 
9.609533347623e+00 -4.594311677967e+00 0.0 
9.523554636369e+00 -5.595597029530e+00 0.0 
5.660336628893e+00 -1.119290329628e+01 0.0 
6.558070063295e+00 -1.076385809362e+01 0.0 
2.809866407414e+01 -1.518037766799e+01 0.0 
2.888868674504e+01 -1.570360690070e+01 0.0 
2.654431550819e+01 -1.411217777162e+01 0.0 
1.402158265969e+01 -1.375404617952e+01 0.0 
1.409592494026e+01 -1.277071998942e+01 0.0 
1.499355196178e+01 -1.235270737023e+01 0.0 
4.221535326155e+01 -1.759335617494e+01 0.0 
4.305583287033e+01 -1.822663146802e+01 0.0 
1.280748808359e+01 -7.834332838285e+00 0.0 
1.368988389326e+01 -7.420529606172e+00 0.0 
1.110091796060e+01 -7.683966794328e+00 0.0 
3.963446145980e+01 -1.794331310122e+01 0.0 
3.423932362213e+00 -1.796415590455e+01 0.0 
4.280814572302e+00 -1.752272834860e+01 0.0 
8.050136380041e+00 -2.421582378631e+00 0.0 
8.888674091650e+00 -2.984264211327e+00 0.0 
2.152839430898e+01 -3.732609965436e+00 0.0 
2.077799585292e+01 -3.183896021866e+00 0.0 
3.618719395821e+01 -1.770276572576e+01 0.0 
3.538165138340e+01 -1.718709995539e+01 0.0 
3.702925326420e+01 -1.828844288807e+01 0.0 
1.756739438711e+00 -5.353284859169e+00 0.0 
2.233710191104e+01 -1.527265621324e+01 0.0 
1.389483555057e+01 -1.771797164730e+01 0.0 
1.475634224300e+01 -1.728357428390e+01 0.0 
1.298797563052e+01 -1.825968924755e+01 0.0 
2.145331271866e+01 -1.673705379077e+01 0.0 
2.133282821169e+01 -1.769400773673e+01 0.0 
2.292139194136e+01 -1.774915400288e+01 0.0 
1.750750053243e+01 -1.861475593469e+00 0.0 
4.830478841772e+01 -1.752611802221e+01 0.0 
4.341203507805e+01 -1.220326745522e+01 0.0 
1.685254151866e+01 -1.443085301632e+00 0.0 
4.431538535165e+01 -1.171841387375e+01 0.0 
4.511308610496e+01 -1.229557320599e+01 0.0 
4.510133242889e+01 -1.123680627466e+01 0.0 
1.846818030617e+00 -4.410877617069e+00 0.0 
3.995468694584e+01 -1.186571542989e+01 0.0 
3.901387459804e+01 -1.242507616755e+01 0.0 
8.966735877533e+00 -1.837818700423e+00 0.0 
4.049310011091e+01 -1.848269508791e+01 0.0 
7.278862053803e+00 -1.918523922691e+00 0.0 
6.429715522129e+00 -2.316676521184e+00 0.0 
9.443505505022e+00 -1.792198868094e+01 0.0 
8.620386951051e+00 -1.737590365556e+01 0.0 
8.571868171503e+00 -1.834436667826e+01 0.0 
7.758629848526e+00 -1.775677907213e+01 0.0 
7.806648388584e+00 -1.680761266021e+01 0.0 
6.908555145436e+00 -1.723746463044e+01 0.0 
4.251709122090e+01 -1.156937480156e+01 0.0 
6.931136405615e+00 -1.832465719263e+01 0.0 
6.015545461353e+00 -1.768865355295e+01 0.0 
5.960535926343e+00 -1.872011001764e+01 0.0 
3.023253444786e+01 -8.761960642196e+00 0.0 
2.454622702599e+01 -6.749421992767e+00 0.0 
2.537499741604e+01 -6.347634963783e+00 0.0 
2.544077378460e+01 -5.431358513649e+00 0.0 
2.801367161747e+01 -1.820907270221e+01 0.0 
2.884507806914e+01 -1.762032095326e+01 0.0 
1.821474531936e+00 -1.588901260460e+01 0.0 
1.821006262604e+00 -1.489370287756e+01 0.0 
4.599962488908e+01 -1.176478780598e+01 0.0 
4.705457470007e+01 -1.172182804229e+01 0.0 
4.667668314802e+01 -1.263464558483e+01 0.0 
4.759648056504e+01 -1.252380987933e+01 0.0 
4.728041618103e+01 -1.341928568376e+01 0.0 
4.825209352360e+01 -1.330491640804e+01 0.0 
4.778118233428e+01 -1.420151961695e+01 0.0 
2.388192727579e+01 -1.826934810142e+01 0.0 
2.381714684947e+01 -4.385917965223e+00 0.0 
3.172733219247e+01 -9.758744265248e+00 0.0 
1.882012070658e+01 -1.805540597212e+01 0.0 
1.805667505243e+01 -1.742221226236e+01 0.0 
2.852599958080e+01 -8.597196079481e+00 0.0 
2.856486123437e+01 -7.661382718527e+00 0.0 
1.111792842875e+01 -1.818223852980e+01 0.0 
2.203322722466e+01 -7.986646678802e+00 0.0 
3.955703676900e+01 -1.903246763601e+01 0.0 
1.944842206513e+01 -8.038750575182e-01 0.0 
1.909882767783e+01 -1.746322740933e+00 0.0 
2.281147422941e+01 -8.525912918334e+00 0.0 
2.850633001468e+01 -9.533271335986e+00 0.0 
2.532883344309e+01 -7.308951659710e+00 0.0 
2.620475466461e+01 -6.979208585400e+00 0.0 
1.396278270396e+01 -1.475095389807e+01 0.0 
9.791001166724e+00 -2.554159793552e+00 0.0 
2.229293380421e+01 -4.269762271052e+00 0.0 
4.677238984118e+01 -1.430071795514e+01 0.0 
2.228658385918e+01 -3.344747535984e+00 0.0 
8.940223674553e-01 -1.543595733415e+01 0.0 
2.118566862474e+01 -8.435876987696e+00 0.0 
2.678325936437e+01 -1.032621195706e+01 0.0 
2.223400220487e+01 -5.179046761770e+00 0.0 
2.375370625384e+01 -7.251580562134e+00 0.0 
3.156971327386e+01 -1.255534750737e+01 0.0 
3.328226391312e+01 -1.172914813316e+01 0.0 
3.250948774219e+01 -1.120157009348e+01 0.0 
2.032993445717e+01 -8.867880112202e+00 0.0 
2.697226974856e+01 -7.536633082045e+00 0.0 
2.707377810386e+01 -6.590835263295e+00 0.0 
2.914099246827e+01 -1.191678458549e+01 0.0 
3.544824072239e+01 -1.621126558525e+01 0.0 
3.456511855436e+01 -1.665054783843e+01 0.0 
3.448395810225e+01 -1.759117813016e+01 0.0 
3.368378673938e+01 -1.708037781328e+01 0.0 
3.375560452567e+01 -1.610973066913e+01 0.0 
3.288001547988e+01 -1.654324255651e+01 0.0 
3.282475929147e+01 -1.749725654692e+01 0.0 
3.199880906313e+01 -1.697294088625e+01 0.0 
3.197001272932e+01 -1.811667776864e+01 0.0 
3.111884713021e+01 -1.742166785755e+01 0.0 
3.120418962865e+01 -1.642155709385e+01 0.0 
3.034666704371e+01 -1.683123833816e+01 0.0 
3.026224379976e+01 -1.772592851714e+01 0.0 
3.046632362943e+01 -1.582232843075e+01 0.0 
1.961344017324e+01 -1.857459447985e+01 0.0 
2.274975894774e+01 -9.532738811922e+00 0.0 
1.833923246887e+01 -2.396746883672e+00 0.0 
1.988859500848e+01 -2.249244376594e+00 0.0 
2.758045562861e+01 -1.086434261689e+01 0.0 
3.247300178163e+01 -1.909930104252e+01 0.0 
3.461947482503e+01 -1.911879848019e+01 0.0 
2.047161538662e+01 -6.941478180358e+00 0.0 
2.750230940214e+01 -1.915490590764e+01 0.0 
3.165081350803e+01 -1.161860780120e+01 0.0 
1.897456727641e+01 -4.889634688522e+00 0.0 
2.549338539756e+01 -1.914858252089e+01 0.0 
3.462873135081e+01 -1.567482276144e+01 0.0 
3.384432415243e+01 -1.512280684518e+01 0.0 
3.471433767690e+01 -1.469086942990e+01 0.0 
3.651470373046e+01 -1.918207952149e+01 0.0 
3.901742690249e+01 -1.345028556517e+01 0.0 
2.153224102692e+01 -1.920169709333e+01 0.0 
1.918382939341e+01 -1.316226275662e+01 0.0 
2.005389162382e+01 -1.271962165174e+01 0.0 
2.011472087878e+01 -1.175029352900e+01 0.0 
3.210679478412e+01 -1.598038618242e+01 0.0 
1.752175226543e+01 -1.914713022656e+01 0.0 
1.696897240059e+01 -1.832772588765e+01 0.0 
1.599682523337e+01 -1.832599992024e+01 0.0 
1.644507199462e+01 -1.743697981535e+01 0.0 
1.549987712903e+01 -1.915192375101e+01 0.0 
3.050250861901e+01 -1.918943550234e+01 0.0 
2.949944061527e+01 -1.922950455235e+01 0.0 
1.375892575273e+01 -6.447160534926e+00 0.0 
1.457223670180e+01 -7.006709243857e+00 0.0 
1.450818793236e+01 -7.965943451779e+00 0.0 
1.538804712402e+01 -7.553409623699e+00 0.0 
1.545817644768e+01 -6.580929593419e+00 0.0 
1.626506893751e+01 -7.129032608911e+00 0.0 
1.619833811522e+01 -8.086588580887e+00 0.0 
1.714448609609e+01 -6.697429609777e+00 0.0 
2.887616543568e+01 -1.668015232137e+01 0.0 
1.349814589130e+01 -1.918225301544e+01 0.0 
1.153887772210e+01 -1.311384581217e+01 0.0 
1.242708159886e+01 -1.267046795531e+01 0.0 
1.249799674267e+01 -1.169005616014e+01 0.0 
6.631723893693e+00 -9.774184881867e+00 0.0 
7.451471631867e+00 -1.033148796006e+01 0.0 
7.377795355458e+00 -1.132196345268e+01 0.0 
5.810931797536e+00 -9.211654212252e+00 0.0 
2.402683899133e+01 -1.441378562320e+01 0.0 
1.249768692036e+01 -1.917388426624e+01 0.0 
1.580373499437e+01 -1.290751860664e+01 0.0 
8.344650507834e+00 -9.898403995170e+00 0.0 
3.750622115305e+01 -1.086526401533e+01 0.0 
3.699391251667e+01 -1.171695900794e+01 0.0 
3.606517829518e+01 -1.173717504500e+01 0.0 
3.650257641795e+01 -1.270047380221e+01 0.0 
3.808951488918e+01 -1.183518714175e+01 0.0 
4.760380962420e+00 -1.162484888315e+01 0.0 
3.861210370848e+00 -1.205657631736e+01 0.0 
3.038284309476e+00 -1.149851280664e+01 0.0 
2.961598794889e+00 -1.248856794980e+01 0.0 
2.138953225512e+00 -1.193212674534e+01 0.0 
2.227383593457e+00 -1.096258903918e+01 0.0 
2.043265419276e+00 -1.292158472959e+01 0.0 
1.252449446028e+00 -1.225502002753e+01 0.0 
3.949985210740e+01 -1.086594001795e+01 0.0 
1.453499444792e+01 -8.768805922472e-01 0.0 
1.403518950933e+01 -1.749965556633e+00 0.0 
1.300715031023e+01 -1.714737233040e+00 0.0 
1.350929389899e+01 -2.527443911291e+00 0.0 
1.449600910711e+01 -2.595486162864e+00 0.0 
1.395693872901e+01 -3.484211041558e+00 0.0 
1.495105865208e+01 -3.364609636216e+00 0.0 
1.508822528740e+01 -1.766586020494e+00 0.0 
1.250223858430e+01 -8.634590186802e-01 0.0 
1.200279523409e+01 -1.709044504992e+00 0.0 
1.150086239419e+01 -8.592789190668e-01 0.0 
1.101482754194e+01 -1.677730591922e+00 0.0 
1.148018564526e+01 -2.659323866909e+00 0.0 
8.800552119754e+00 -3.989875954728e+00 0.0 
3.452790439430e+00 -1.901136170646e+01 0.0 
8.658451825200e-01 -9.503462241795e+00 0.0 
1.694787786797e+00 -9.000589234502e+00 0.0 
1.703436717094e+00 -8.038819004041e+00 0.0 
2.594197971110e+00 -8.563955242845e+00 0.0 
1.630513735412e+00 -9.907244747511e+00 0.0 
8.566859292791e-01 -7.512203837972e+00 0.0 
1.685461277022e+00 -7.164280248030e+00 0.0 
2.506394468801e+00 -8.623386730818e-01 0.0 
2.007475081581e+00 -1.727729545205e+00 0.0 
9.211534699767e-01 -1.628791366312e+00 0.0 
1.500000000020e+00 -2.598063549486e+00 0.0 
2.482078929963e+00 -2.553580088725e+00 0.0 
2.999795253092e+00 -1.732169015019e+00 0.0 
3.999712607169e+00 -1.728832897453e+00 0.0 
4.499752199340e+00 -8.656478679175e-01 0.0 
4.964377774841e+00 -1.730129617941e+00 0.0 
4.425017908337e+00 -2.597541756243e+00 0.0 
5.446573195014e+00 -8.410144840023e-01 0.0 
4.915722346614e+01 -1.550640962770e+01 0.0 
4.826794919243e+01 -1.600000000000e+01 0.0 
1.053139533193e+01 -1.911782884365e+01 0.0 
4.156049861949e+01 -1.095160998589e+01 0.0 
9.494526624416e+00 -8.650570090219e-01 0.0 
4.555762166964e+01 -1.897098103585e+01 0.0 
4.250656411371e+01 -1.914387356218e+01 0.0 
4.350906466345e+01 -1.917234727395e+01 0.0 
8.759665722424e-01 -1.746422130609e+01 0.0 
1.698936011838e+00 -1.795012186674e+01 0.0 
4.742476811029e+01 -1.900090177972e+01 0.0 
7.749196752349e+00 -6.368049313489e+00 0.0 
3.361572113416e+01 -1.798765193915e+01 0.0 
4.484660149212e+01 -1.728661231383e+01 0.0 
1.984038172228e+01 -4.502575320116e+00 0.0 
1.035080352627e+01 -6.166639575753e+00 0.0 
2.753558010652e+00 -1.444909521181e+01 0.0 
7.217069543032e+00 -1.328635391078e+01 0.0 
4.364336727739e+00 -1.655585677381e+01 0.0 
4.595208426108e+00 -1.357919665443e+01 0.0 
6.164967006980e+00 -1.569873454630e+01 0.0 
1.487855768353e+01 -1.826523774028e+01 0.0 
2.791876456372e+00 -4.019632415181e+00 0.0 
4.246464893515e+01 -1.364898659620e+01 0.0 
4.503855590351e+01 -1.329552780944e+01 0.0 
4.407239109604e+01 -1.573900004093e+01 0.0 
5.141054449252e+00 -6.664290382472e+00 0.0 
3.141083947149e+00 -1.055790764912e+01 0.0 
6.196463198741e+00 -4.256497932609e+00 0.0 
2.599618716181e+01 -1.836893455464e+01 0.0 
2.923057372337e+01 -1.098461757645e+01 0.0 
1.168343877486e+01 -1.114079645041e+01 0.0 
6.706222096238e+00 -8.780364234441e+00 0.0 
8.567858614669e+00 -6.943121440850e+00 0.0 
1.123755132901e+01 -5.753525820030e+00 0.0 
2.353456234423e+01 -1.008536320953e+01 0.0 
9.162073319168e+00 -1.045593739109e+01 0.0 
9.676343469685e+00 -1.496493008366e+01 0.0 
4.490637882905e+01 -1.628778970202e+01 0.0 
7.398129387772e+00 -9.639977982323e-01 0.0 
1.049641705805e+01 -1.552503975272e+01 0.0 
9.010356286268e+00 -1.242805042052e+01 0.0 
3.985573925497e+01 -1.399863651620e+01 0.0 
1.816196318262e+01 -1.554066497931e+01 0.0 
1.306332244168e+01 -3.963646550326e+00 0.0 
4.145850903932e+01 -1.608094559275e+01 0.0 
3.794664933633e+01 -1.779020121986e+01 0.0 
3.819614412903e+01 -1.290749321016e+01 0.0 
6.270014188119e+00 -3.255093186826e+00 0.0 
4.251165370388e+01 -1.263870364997e+01 0.0 
1.207347709171e+01 -1.763942826023e+01 0.0 
3.633240829927e+01 -1.577330481104e+01 0.0 
4.319052668832e+00 -6.101812561904e+00 0.0 
1.676492415806e+01 -1.151547901392e+01 0.0 
2.594059220037e+01 -1.074225223009e+01 0.0 
3.340750911501e+01 -9.898764354137e+00 0.0 
4.397619591281e+01 -1.769773736461e+01 0.0 
2.175611595028e+01 -1.185718747128e+01 0.0 
1.641818733106e+01 -1.640685203215e+01 0.0 
1.661211421753e+01 -1.346121366338e+01 0.0 
3.428853504935e+00 -6.551993389271e+00 0.0 
8.700728832502e+00 -1.638460872825e+01 0.0 
1.931369795309e+01 -1.121629383702e+01 0.0 
4.139798872363e+01 -1.706922153459e+01 0.0 
2.647837478700e+01 -1.507353829290e+01 0.0 
1.779469616424e+01 -9.161615782908e+00 0.0 
3.885879219319e+01 -1.642026488918e+01 0.0 
1.338194936770e+01 -1.125916521471e+01 0.0 
1.897071181111e+01 -1.609204322578e+01 0.0 
2.844308548793e+01 -1.046221003096e+01 0.0 
2.659854702194e+01 -1.316109415760e+01 0.0 
2.979604503271e+01 -1.433296157755e+01 0.0 
2.417694041347e+01 -1.251231397779e+01 0.0 
1.807401327411e+00 -1.388891148480e+01 0.0 
9.599810618782e+00 -1.595439365034e+01 0.0 
1.652144692160e+01 -4.205392788472e+00 0.0 
2.367839450246e+01 -8.188385218643e+00 0.0 
3.814894930468e+01 -1.390748338767e+01 0.0 
2.466448215774e+01 -1.685878545680e+01 0.0 
4.134044524611e+01 -1.806610045954e+01 0.0 
2.600511411958e+01 -9.801774120648e+00 0.0 
7.882158050716e+00 -1.582364037353e+01 0.0 
3.881607873422e+01 -1.737970515013e+01 0.0 
8.270182347708e+00 -1.088622154920e+01 0.0 
8.672520392520e-01 -4.532984309881e+00 0.0 
1.993447205337e+01 -3.579061902667e+00 0.0 
1.794616079549e+01 -7.238038888498e+00 0.0 
2.097277068165e+01 -1.132450168636e+01 0.0 
8.194803300681e+00 -1.187214224265e+01 0.0 
3.522279404911e+01 -1.823342818178e+01 0.0 
6.984481050295e+00 -1.625271465557e+01 0.0 
1.309433007797e+01 -1.521718594215e+01 0.0 
2.150246167611e+01 -1.885399038185e+00 0.0 
3.250689370209e+01 -1.028789870535e+01 0.0 
6.085886272238e+00 -1.668342132851e+01 0.0 
1.588455661727e+01 -1.193498985921e+01 0.0 
1.809323400821e+01 -1.651110084195e+01 0.0 
1.348885082381e+00 -1.136065576512e+01 0.0 
2.497670221995e+01 -1.834631276173e+01 0.0 
2.937062818424e+01 -8.233711194470e+00 0.0 
5.185823744469e+00 -1.711566910207e+01 0.0 
1.477497877209e+01 -1.530177014512e+01 0.0 
2.125346158933e+01 -7.473003997367e+00 0.0 
4.751561118290e+01 -1.084897772632e+01 0.0 
5.056026576843e+00 -1.825750475525e+01 0.0 
1.473948554523e+01 -1.634577436309e+01 0.0 
2.410566630936e+01 -1.345970002612e+01 0.0 
1.507337507513e+01 -1.138527895328e+01 0.0 
3.189857338687e+01 -8.887781229006e+00 0.0 
7.298712468334e+00 -1.230231046246e+01 0.0 
2.738235495295e+01 -1.368931690364e+01 0.0 
3.750141041969e+01 -1.920449893070e+01 0.0 
1.557271965640e+01 -1.683317951731e+01 0.0 
3.393731848929e+01 -1.413034777044e+01 0.0 
6.482156824153e+00 -1.174575135362e+01 0.0 
2.077971718439e+01 -1.421279621836e+01 0.0 
3.455084320178e+00 -2.562590040585e+00 0.0 
3.099056096250e+01 -9.270280416035e+00 0.0 
5.580176125418e+00 -1.217387969259e+01 0.0 
1.707247630389e+01 -7.660651981710e+00 0.0 
1.418658814174e+01 -1.180390575393e+01 0.0 
2.049103025389e+01 -1.811296706038e+01 0.0 
4.680386172316e+00 -1.260396879301e+01 0.0 
1.699679896554e+01 -8.624561788199e+00 0.0 
3.779470168555e+00 -1.303424899720e+01 0.0 
3.036589870126e+01 -7.879832518349e+00 0.0 
3.306993001774e+01 -1.457671062095e+01 0.0 
2.840150110165e+00 -1.346530088269e+01 0.0 
2.732011135052e+01 -1.464591214560e+01 0.0 
5.423639259568e+00 -2.659711955016e+00 0.0 
2.324455961696e+01 -1.387269388211e+01 0.0 
1.752768355571e+00 -1.693128613594e+01 0.0 
1.020244783051e+01 -8.076834012808e+00 0.0 
1.330873875224e+01 -1.222417528206e+01 0.0 
3.297727364880e+01 -1.555480372087e+01 0.0 
2.890929955439e+01 -6.868664170731e+00 0.0 
1.323294664622e+01 -1.320754260334e+01 0.0 
2.726532861246e+01 -1.560593120806e+01 0.0 
2.240020643398e+01 -1.429299177247e+01 0.0 
2.090445823633e+01 -1.228128621332e+01 0.0 
1.315809881502e+01 -1.420739326938e+01 0.0 
2.781328038068e+01 -7.181956082300e+00 0.0 
8.614200829057e+00 -5.936933226306e+00 0.0 
8.714765730069e+00 -4.979270529687e+00 0.0 
1.611881701099e+01 -9.041973294003e+00 0.0 
2.806830314340e+01 -1.614622947108e+01 0.0 
2.084435391396e+00 -3.385085422913e+00 0.0 
3.133211811152e+01 -1.542347619750e+01 0.0 
9.693114650768e+00 -3.590281506442e+00 0.0 
1.531883592202e+01 -8.504584946143e+00 0.0 
2.151589117094e+01 -1.578915763018e+01 0.0 
4.918943882696e+01 -1.355538828056e+01 0.0 
1.443236615188e+01 -8.918701794549e+00 0.0 
8.276250966452e-01 -5.537685192197e+00 0.0 
1.362790867918e+01 -8.374718262212e+00 0.0 
2.083767477370e+01 -1.324843956035e+01 0.0 
1.273834678703e+01 -8.790890389337e+00 0.0 
1.192275845670e+01 -8.242261327467e+00 0.0 
4.477236023583e+01 -1.824312396664e+01 0.0 
1.102989384254e+01 -8.649855800911e+00 0.0 
4.849096516045e+01 -1.917293752213e+01 0.0 
1.588996752238e+00 -1.910230934687e+01 0.0 
4.904245197583e+01 -1.159839008158e+01 0.0 
2.753852929608e+01 -5.782128488093e+00 0.0 
1.756133602833e+01 -8.306130313187e-01 0.0 
2.615423700951e+01 -6.153865090092e+00 0.0 
1.028818761294e+01 -7.122020845892e+00 0.0 
2.970818901196e+01 -1.527821347593e+01 0.0 
4.801461623449e+01 -1.164472570985e+01 0.0 
9.455722100419e+00 -6.546069291118e+00 0.0 
3.089099236677e+01 -1.835339328261e+01 0.0 
2.350000000013e+01 -1.920825896750e+01 0.0 
4.830620531887e+01 -1.506626155470e+01 0.0 
1.725381944701e+01 -1.688794487850e+01 0.0 
2.156246225273e+01 -1.475893794002e+01 0.0 
4.919319648787e+01 -1.742767505896e+01 0.0 
4.437935623576e+01 -1.077662927266e+01 0.0 
1.001520521978e+01 -1.652692675208e+00 0.0 
9.067160240050e-01 -1.441937727541e+01 0.0 
2.603365149390e+01 -4.755996613848e+00 0.0 
2.458344439002e+01 -4.873645517696e+00 0.0 
2.304312390142e+01 -3.836552768096e+00 0.0 
2.546923202198e+00 -6.902480355749e+00 0.0 
1.251534969393e+01 -2.490989965776e+00 0.0 
2.454061833377e+01 -3.933354231935e+00 0.0 
1.788186558740e+01 -1.827424884923e+01 0.0 
4.090785243552e+01 -1.166553231904e+01 0.0 
2.230128851568e+01 -1.623015738726e+01 0.0 
2.302362347568e+01 -2.916239960270e+00 0.0 
3.878119254461e+01 -1.830091164002e+01 0.0 
2.210081359958e+01 -1.829238229150e+01 0.0 
8.443704882233e+00 -1.921993252862e+01 0.0 
2.218405824691e+01 -1.724557581508e+01 0.0 
2.151157503963e+01 -2.790636689331e+00 0.0 
3.741658958955e+01 -1.250400191722e+01 0.0 
2.697247663737e+01 -1.838290202309e+01 0.0 
4.743362342862e+01 -1.585850773010e+01 0.0 
6.671345075358e+00 -1.924977576322e+01 0.0 
3.900825404537e+01 -1.157220003875e+01 0.0 
4.649692961375e+01 -1.836335837481e+01 0.0 
1.578831424832e+01 -3.678284023361e+00 0.0 
4.814208768888e+01 -1.841249298770e+01 0.0 
2.964123298315e+01 -1.625739458193e+01 0.0 
4.580760351902e+01 -1.284294554687e+01 0.0 
3.561520879615e+01 -1.245548941949e+01 0.0 
2.555418095658e+00 -1.841101588290e+01 0.0 
3.288468366144e+01 -1.834258164109e+01 0.0 
2.065894391445e+01 -2.240688571739e+00 0.0 
4.739171429915e+01 -1.496536413446e+01 0.0 
3.478086729185e+00 -8.576434653209e+00 0.0 
1.606010630246e+01 -1.588421807951e+00 0.0 
1.018329200594e+01 -1.834320874317e+01 0.0 
2.957213339430e+01 -1.720496954591e+01 0.0 
4.142712790164e+00 -1.837794506222e+01 0.0 
6.698721532573e-01 -2.499999999997e+00 0.0 
8.037039123140e+00 -1.571229354954e+00 0.0 
1.203541361428e+01 -1.847784298001e+01 0.0 
2.899968332038e+01 -1.848264722179e+01 0.0 
1.469229460948e+01 -4.219485753730e+00 0.0 
4.049590781957e+01 -1.932812501995e+01 0.0 
1.996211678340e+01 -1.506329754720e+00 0.0 
4.250588298353e+01 -1.067383247529e+01 0.0 
5.831497011152e+00 -1.635396227234e+00 0.0 
5.317606125670e+00 -1.923927974868e+01 0.0 
4.208546426993e+01 -1.842830665025e+01 0.0 
2.327553405011e+00 -9.459409929662e+00 0.0 
3.568351902251e+01 -1.096637218582e+01 0.0 
1.682104374890e+00 -6.231413350963e+00 0.0 
2.451812238018e+01 -1.766524914339e+01 0.0 
1.058003429638e+01 -2.391839617098e+00 0.0 
4.399988753123e+01 -1.851998776342e+01 0.0 
1.400000000010e+01 -1.852293523028e+01 0.0 
3.604719565984e+01 -1.850662876800e+01 0.0 
1.951297136734e+01 -1.938092349694e+01 0.0 
1.821365318472e+01 -1.531276353287e+00 0.0 
2.298031859732e+01 -1.854635324722e+01 0.0 
1.552168066204e+01 -1.764280741977e+01 0.0 
4.572957713638e+01 -1.073347898229e+01 0.0 
3.429637429624e+01 -1.838861552790e+01 0.0 
2.427434426052e+00 -7.705577451869e+00 0.0 
4.662792031485e+00 -3.359424455416e+00 0.0 
4.926794919243e+01 -1.926794919243e+01 0.0 
7.320508075690e-01 -7.320508075688e-01 0.0 
4.926794919243e+01 -1.073205080757e+01 0.0 
7.320508075705e-01 -1.926794919243e+01 0.0 
2.917460242467e+00 -3.202866455310e+00 0.0 
4.838200575963e+01 -1.232674147454e+01 0.0 
2.998445708009e+01 -1.854403752148e+01 0.0 
5.949940090766e-01 -1.152762038165e+01 0.0 
4.844763495759e+01 -1.678092548787e+01 0.0 
1.301685480160e+01 -3.170056592566e+00 0.0 
1.650046335855e+01 -6.731535384067e-01 0.0 
4.854881540991e+01 -1.405224059779e+01 0.0 
2.119545114693e+01 -1.846813384545e+01 0.0 
3.797852849897e+01 -1.857978513215e+01 0.0 
4.649823708745e+01 -1.338351810816e+01 0.0 
2.012685900976e+01 -2.889659035009e+00 0.0 
2.953271913273e+01 -1.791558075192e+01 0.0 
2.408509097292e+00 -1.021949208421e+01 0.0 
2.642589566221e+01 -1.773216561448e+01 0.0 
1.730010270775e+01 -1.763165076721e+01 0.0 
2.017406551304e+01 -8.513536440582e-01 0.0 
5.254761581934e-01 -1.249999999999e+01 0.0 
6.640448215642e+00 -1.545337834885e+00 0.0 
7.843361506349e+00 -1.852719839527e+01 0.0 
1.588442191088e+00 -1.066158564320e+01 0.0 
2.431250000000e+01 -2.420918367347e+00 0.0 
4.950961538461e+01 -2.500000000000e+00 0.0 
2.580823483239e+01 -3.416278049680e+00 0.0 
4.950961538461e+01 -3.500000000000e+00 0.0 
2.731250000000e+01 -4.420918367347e+00 0.0 
4.951086956522e+01 -4.500000000000e+00 0.0 
2.880770112393e+01 -5.415638864241e+00 0.0 
4.951086956522e+01 -5.500000000000e+00 0.0 
3.031250000000e+01 -6.420918367347e+00 0.0 
4.951250000000e+01 -6.500000000000e+00 0.0 
3.180701530612e+01 -7.414795918363e+00 0.0 
4.951250000000e+01 -7.500000000000e+00 0.0 
3.331250000000e+01 -8.420918367347e+00 0.0 
4.951470588234e+01 -8.500000000000e+00 0.0 
3.480610198624e+01 -9.413633635267e+00 0.0 
4.951470588234e+01 -9.500000000000e+00 0.0 

CELLS 2299 9196 
3 355 825 1101 
3 825 355 1103 
3 835 328 846 
3 948 713 1137 
3 715 775 941 
3 805 718 844 
3 335 757 759 
3 355 782 1103 
3 757 335 775 
3 708 943 1137 
3 327 902 903 
3 782 355 1117 
3 947 1099 1143 
3 764 895 985 
3 1099 361 1143 
3 354 948 1137 
3 763 334 904 
3 718 805 843 
3 342 762 1084 
3 762 342 1022 
3 943 708 1096 
3 1073 319 1079 
3 800 1073 1079 
3 750 749 959 
3 449 605 894 
3 902 327 1011 
3 113 82 1164 
3 794 320 1036 
3 447 449 894 
3 959 749 1169 
3 699 909 911 
3 352 765 942 
3 835 846 1144 
3 19 340 815 
3 350 769 771 
3 778 66 1135 
3 66 778 1161 
3 797 346 841 
3 761 104 1114 
3 104 761 1175 
3 1037 779 1063 
3 315 801 940 
3 1118 316 1122 
3 82 364 1164 
3 756 363 1113 
3 795 1118 1122 
3 909 699 912 
3 363 756 1139 
3 905 906 912 
3 895 764 1136 
3 357 800 1037 
3 747 762 1022 
3 525 1138 1156 
3 357 1037 1063 
3 847 329 1027 
3 1120 692 1165 
3 747 1022 1091 
3 340 785 815 
3 608 936 1054 
3 943 354 1137 
3 314 1148 1189 
3 1128 754 1130 
3 574 602 808 
3 1138 911 1156 
3 919 738 1143 
3 800 357 1073 
3 1148 758 1189 
3 328 835 1108 
3 635 596 917 
3 324 783 849 
3 1011 954 1065 
3 33 32 803 
3 794 1036 1166 
3 4 5 929 
3 926 1120 1165 
3 766 331 1017 
3 847 1027 1176 
3 814 1119 1126 
3 936 608 1178 
3 1119 356 1126 
3 596 609 917 
3 334 763 1124 
3 319 825 1079 
3 825 319 1101 
3 775 715 987 
3 757 775 987 
3 786 1011 1116 
3 18 19 815 
3 840 837 1085 
3 715 941 1124 
3 942 765 1115 
3 366 893 1164 
3 939 1110 1134 
3 1134 1110 1146 
3 332 33 803 
3 841 346 1171 
3 763 904 1136 
3 940 801 1149 
3 360 792 1089 
3 808 602 809 
3 941 775 1159 
3 361 919 1143 
3 522 1088 1112 
3 753 1128 1130 
3 643 641 819 
3 906 909 912 
3 946 947 1069 
3 712 939 1134 
3 314 905 912 
3 1042 337 1161 
3 487 840 1085 
3 4 929 1180 
3 710 806 842 
3 677 993 1031 
3 721 923 1147 
3 781 808 809 
3 576 574 808 
3 350 771 1129 
3 792 360 1184 
3 780 576 808 
3 811 741 1086 
3 364 366 1164 
3 939 712 1187 
3 576 780 819 
3 1131 1030 1145 
3 796 1046 1055 
3 923 721 1177 
3 1046 321 1055 
3 331 766 1157 
3 743 1131 1145 
3 902 1011 1065 
3 713 948 1139 
3 650 707 807 
3 321 779 1055 
3 769 350 1149 
3 947 704 1099 
3 786 954 1011 
3 807 707 1007 
3 751 879 1169 
3 683 799 807 
3 733 944 945 
3 783 324 1155 
3 985 895 1132 
3 592 564 813 
3 799 650 807 
3 779 321 1063 
3 707 845 1007 
3 819 645 1014 
3 335 759 1114 
3 806 441 842 
3 765 352 1153 
3 1100 1106 1184 
3 930 342 1084 
3 358 796 1031 
3 879 751 888 
3 780 643 819 
3 815 786 1116 
3 782 316 1118 
3 1088 748 1112 
3 341 787 788 
3 802 441 806 
3 785 340 1069 
3 635 811 1086 
3 947 706 1069 
3 822 695 850 
3 337 1042 1151 
3 1100 705 1106 
3 641 645 819 
3 993 358 1031 
3 327 903 1200 
3 316 782 1117 
3 441 802 816 
3 564 615 813 
3 787 341 1175 
3 645 806 1014 
3 796 358 1046 
3 689 878 1083 
3 923 624 1147 
3 320 794 1109 
3 849 783 1133 
3 781 809 1103 
3 624 923 1163 
3 866 996 1050 
3 799 683 1037 
3 782 781 1103 
3 822 677 1031 
3 806 710 1014 
3 330 943 1096 
3 453 862 1072 
3 340 946 1069 
3 795 356 1119 
3 651 816 1040 
3 837 862 1085 
3 81 114 804 
3 683 779 1037 
3 1039 711 1043 
3 935 1067 1160 
3 950 343 1176 
3 448 373 855 
3 1070 429 1097 
3 559 1039 1043 
3 893 366 1142 
3 894 605 1132 
3 749 751 1169 
3 1080 971 1107 
3 817 388 845 
3 647 537 850 
3 454 448 855 
3 644 822 850 
3 695 822 1031 
3 593 1053 1093 
3 878 727 1083 
3 804 338 805 
3 809 825 1103 
3 809 602 824 
3 707 817 845 
3 862 832 1072 
3 718 717 1023 
3 711 810 1029 
3 761 787 1175 
3 816 802 1040 
3 507 1029 1078 
3 767 977 1201 
3 853 454 855 
3 977 323 1201 
3 935 936 1067 
3 356 795 1122 
3 1080 723 1081 
3 827 454 853 
3 723 722 1081 
3 703 812 818 
3 529 910 982 
3 741 918 1086 
3 996 559 1050 
3 695 647 850 
3 738 919 1151 
3 114 338 804 
3 612 642 818 
3 402 441 816 
3 800 799 1037 
3 810 711 1039 
3 778 1042 1161 
3 1064 453 1072 
3 511 493 848 
3 559 1043 1050 
3 1011 327 1116 
3 845 455 1007 
3 854 855 1051 
3 754 1128 1173 
3 402 816 823 
3 642 703 818 
3 372 644 820 
3 803 32 1157 
3 388 817 992 
3 861 404 1000 
3 788 787 789 
3 917 609 1121 
3 644 821 822 
3 611 511 848 
3 717 851 952 
3 699 911 1138 
3 454 827 989 
3 537 820 850 
3 576 819 1014 
3 827 666 989 
3 862 453 1085 
3 455 826 968 
3 322 776 1135 
3 652 861 1000 
3 380 646 826 
3 710 842 973 
3 652 860 861 
3 494 510 851 
3 892 333 893 
3 406 403 823 
3 523 874 875 
3 854 1064 1072 
3 114 115 338 
3 644 370 821 
3 493 491 848 
3 567 612 818 
3 496 494 851 
3 375 372 820 
3 765 811 1115 
3 603 693 824 
3 652 859 860 
3 820 644 850 
3 892 893 894 
3 613 718 843 
3 523 875 877 
3 524 527 874 
3 809 824 825 
3 854 1051 1064 
3 602 603 824 
3 489 406 823 
3 816 651 823 
3 613 717 718 
3 842 398 973 
3 742 812 814 
3 37 329 847 
3 39 343 846 
3 389 388 992 
3 510 493 511 
3 566 567 625 
3 381 380 826 
3 510 511 566 
3 523 524 874 
3 455 968 1007 
3 944 733 1162 
3 848 651 1040 
3 1053 709 1093 
3 742 625 812 
3 347 57 867 
3 566 511 567 
3 386 455 845 
3 613 517 717 
3 889 582 997 
3 403 402 823 
3 527 871 874 
3 646 537 647 
3 42 868 869 
3 491 489 651 
3 652 480 859 
3 626 625 742 
3 857 542 980 
3 1029 810 1078 
3 642 643 701 
3 716 857 980 
3 345 45 849 
3 619 711 1029 
3 41 328 868 
3 985 605 1015 
3 840 487 1105 
3 703 701 795 
3 648 647 680 
3 380 537 646 
3 380 378 537 
3 456 992 1018 
3 320 47 852 
3 447 894 1142 
3 821 677 822 
3 651 489 823 
3 722 918 1081 
3 680 695 796 
3 642 641 643 
3 341 788 1041 
3 527 870 871 
3 491 651 848 
3 831 853 854 
3 612 641 642 
3 646 647 648 
3 480 482 859 
3 655 882 969 
3 50 344 858 
3 683 681 779 
3 495 497 877 
3 736 1070 1097 
3 702 781 782 
3 701 643 702 
3 837 834 862 
3 386 384 455 
3 693 799 800 
3 648 680 681 
3 54 346 863 
3 346 797 1123 
3 834 832 862 
3 854 853 855 
3 882 422 969 
3 574 575 602 
3 494 493 510 
3 492 491 493 
3 388 386 845 
3 669 889 997 
3 437 883 884 
3 830 828 831 
3 497 523 877 
3 571 456 572 
3 826 646 968 
3 573 572 574 
3 328 40 846 
3 343 38 847 
3 343 950 1144 
3 655 881 882 
3 666 568 989 
3 642 701 703 
3 490 489 491 
3 717 517 851 
3 603 650 693 
3 891 892 895 
3 857 985 1015 
3 867 865 959 
3 838 837 840 
3 372 370 644 
3 379 378 380 
3 517 496 851 
3 914 916 917 
3 441 400 842 
3 394 392 456 
3 400 398 842 
3 311 1030 1131 
3 788 789 790 
3 918 722 1086 
3 567 611 612 
3 57 56 867 
3 501 503 593 
3 365 677 821 
3 342 930 1152 
3 992 817 1018 
3 402 400 441 
3 378 375 820 
3 324 43 869 
3 680 647 695 
3 384 381 826 
3 437 884 890 
3 828 827 853 
3 655 880 881 
3 44 324 849 
3 41 40 328 
3 37 36 329 
3 39 38 343 
3 377 375 378 
3 831 828 853 
3 836 834 837 
3 574 572 575 
3 602 575 603 
3 886 883 970 
3 830 831 832 
3 46 345 852 
3 745 666 827 
3 859 593 860 
3 745 827 828 
3 586 584 887 
3 394 456 571 
3 693 650 799 
3 566 625 626 
3 332 803 1127 
3 573 574 576 
3 967 686 1036 
3 883 437 970 
3 528 531 870 
3 347 867 959 
3 612 640 641 
3 42 41 868 
3 343 847 1176 
3 385 384 386 
3 914 915 916 
3 44 43 324 
3 312 863 864 
3 527 528 870 
3 482 501 859 
3 318 51 858 
3 122 313 915 
3 571 572 573 
3 383 381 384 
3 387 386 388 
3 455 384 826 
3 625 567 818 
3 46 45 345 
3 488 406 489 
3 614 613 843 
3 776 322 1202 
3 915 313 916 
3 682 681 683 
3 909 910 911 
3 796 695 1031 
3 312 55 863 
3 48 47 320 
3 537 378 820 
3 906 908 909 
3 755 614 843 
3 909 908 910 
3 999 697 1012 
3 891 333 892 
3 367 365 821 
3 50 49 344 
3 349 891 895 
3 329 36 856 
3 589 586 887 
3 716 764 857 
3 702 780 781 
3 501 593 859 
3 717 952 1023 
3 52 51 318 
3 40 39 846 
3 38 37 847 
3 655 463 880 
3 458 460 886 
3 394 571 973 
3 463 465 880 
3 54 53 346 
3 567 511 611 
3 874 873 875 
3 871 872 873 
3 606 716 980 
3 58 347 879 
3 906 907 908 
3 56 55 312 
3 870 735 871 
3 43 42 869 
3 836 837 838 
3 121 122 915 
3 571 710 973 
3 665 568 666 
3 45 44 849 
3 377 378 379 
3 632 589 633 
3 626 742 743 
3 865 864 866 
3 627 734 735 
3 871 735 872 
3 905 348 906 
3 47 46 852 
3 851 510 952 
3 619 667 711 
3 716 763 764 
3 953 685 972 
3 871 873 874 
3 379 380 381 
3 51 50 858 
3 460 562 886 
3 471 507 577 
3 391 389 392 
3 730 623 731 
3 875 873 876 
3 880 577 881 
3 392 389 992 
3 728 585 1002 
3 501 502 503 
3 393 392 394 
3 430 432 890 
3 612 611 640 
3 458 886 970 
3 633 589 887 
3 457 480 652 
3 56 312 867 
3 744 666 745 
3 628 953 972 
3 55 54 863 
3 312 864 865 
3 399 398 400 
3 906 348 907 
3 59 879 888 
3 829 828 830 
3 531 627 870 
3 58 57 347 
3 465 471 880 
3 603 649 650 
3 370 367 821 
3 457 652 1000 
3 461 655 969 
3 623 582 889 
3 855 373 1051 
3 682 807 1007 
3 503 521 522 
3 790 789 791 
3 432 437 890 
3 482 484 501 
3 627 684 734 
3 654 476 955 
3 120 121 913 
3 641 640 645 
3 627 735 870 
3 883 725 884 
3 397 395 398 
3 471 577 880 
3 606 714 716 
3 531 594 627 
3 59 58 879 
3 383 384 385 
3 653 724 725 
3 385 386 387 
3 653 725 883 
3 913 121 915 
3 369 367 370 
3 922 921 923 
3 323 127 937 
3 562 617 653 
3 471 506 507 
3 951 621 976 
3 731 889 1033 
3 731 623 889 
3 365 325 677 
3 349 111 891 
3 746 856 1049 
3 387 388 389 
3 127 128 937 
3 741 661 918 
3 907 913 914 
3 723 1080 1107 
3 639 689 1083 
3 719 951 976 
3 516 999 1012 
3 440 438 949 
3 478 476 654 
3 619 630 667 
3 536 517 613 
3 353 921 922 
3 326 925 926 
3 315 60 888 
3 60 59 888 
3 921 920 924 
3 653 617 724 
3 461 463 655 
3 667 749 750 
3 661 580 918 
3 514 599 619 
3 935 933 936 
3 562 653 886 
3 884 725 885 
3 339 932 933 
3 353 920 921 
3 665 666 744 
3 128 129 934 
3 112 333 891 
3 112 113 333 
3 582 486 997 
3 326 10 925 
3 627 594 684 
3 812 625 818 
3 772 770 773 
3 852 345 967 
3 656 550 983 
3 702 643 780 
3 765 741 811 
3 648 681 682 
3 108 334 941 
3 107 108 941 
3 128 934 937 
3 934 933 935 
3 928 930 931 
3 504 445 579 
3 339 927 932 
3 920 317 924 
3 314 118 905 
3 445 440 949 
3 793 791 813 
3 110 111 349 
3 689 784 878 
3 465 470 471 
3 790 791 792 
3 10 11 925 
3 928 931 932 
3 30 29 944 
3 331 30 944 
3 716 714 763 
3 334 109 904 
3 925 922 926 
3 28 330 945 
3 579 445 949 
3 111 112 891 
3 110 349 904 
3 680 796 1055 
3 36 35 856 
3 944 29 945 
3 339 933 934 
3 129 339 934 
3 740 661 741 
3 884 885 1021 
3 946 704 947 
3 117 118 314 
3 351 938 939 
3 119 348 905 
3 622 582 623 
3 119 120 348 
3 118 119 905 
3 729 623 730 
3 675 738 739 
3 792 791 793 
3 968 682 1007 
3 927 928 932 
3 477 478 957 
3 25 24 948 
3 354 25 948 
3 109 110 904 
3 558 486 582 
3 29 28 945 
3 632 633 748 
3 928 929 930 
3 927 362 928 
3 928 362 929 
3 11 12 353 
3 361 69 919 
3 80 79 363 
3 131 362 927 
3 13 317 920 
3 70 69 361 
3 68 337 919 
3 61 315 940 
3 76 336 938 
3 78 77 351 
3 69 68 919 
3 68 67 337 
3 351 77 938 
3 131 132 362 
3 105 106 335 
3 108 109 334 
3 339 130 927 
3 65 64 322 
3 350 62 940 
3 63 62 350 
3 130 131 927 
3 129 130 339 
3 61 60 315 
3 62 61 940 
3 76 75 336 
3 102 103 341 
3 77 76 938 
3 74 73 360 
3 100 101 705 
3 126 127 323 
3 124 125 352 
3 123 124 942 
3 122 123 313 
3 13 14 317 
3 12 13 920 
3 124 352 942 
3 16 17 327 
3 313 123 942 
3 34 33 332 
3 28 27 330 
3 31 30 331 
3 6 7 342 
3 9 10 326 
3 27 26 943 
3 19 20 340 
3 26 25 354 
3 20 21 946 
3 21 22 704 
3 353 12 920 
3 330 27 943 
3 26 354 943 
3 340 20 946 
3 21 704 946 
3 569 570 954 
3 348 120 913 
3 460 561 562 
3 934 935 937 
3 772 773 774 
3 653 883 886 
3 535 519 956 
3 504 579 580 
3 1067 768 1160 
3 675 739 956 
3 562 563 617 
3 353 922 925 
3 519 581 956 
3 712 713 756 
3 11 353 925 
3 507 506 514 
3 469 467 520 
3 569 518 570 
3 637 569 954 
3 488 489 490 
3 682 683 807 
3 398 395 973 
3 477 476 478 
3 581 674 675 
3 785 637 786 
3 628 722 723 
3 700 621 708 
3 616 565 621 
3 761 760 787 
3 475 473 476 
3 518 477 957 
3 712 700 713 
3 616 700 712 
3 520 467 979 
3 675 706 738 
3 578 550 656 
3 785 786 815 
3 776 774 777 
3 708 621 951 
3 555 553 556 
3 471 470 506 
3 515 597 598 
3 534 620 628 
3 740 741 765 
3 907 348 913 
3 616 621 700 
3 675 674 706 
3 914 913 915 
3 833 832 834 
3 759 659 760 
3 505 519 535 
3 581 637 674 
3 684 685 736 
3 674 637 785 
3 759 760 761 
3 501 484 502 
3 776 777 778 
3 747 629 762 
3 771 770 772 
3 564 556 565 
3 598 629 692 
3 628 723 953 
3 900 898 901 
3 552 554 658 
3 439 443 458 
3 615 565 616 
3 555 564 592 
3 724 617 896 
3 786 637 954 
3 581 569 637 
3 564 565 615 
3 557 509 595 
3 617 563 618 
3 590 676 752 
3 556 963 976 
3 562 561 563 
3 469 520 955 
3 769 697 770 
3 555 556 564 
3 698 614 755 
3 672 767 768 
3 498 496 517 
3 581 675 956 
3 554 553 555 
3 902 900 903 
3 658 659 757 
3 619 599 630 
3 896 618 897 
3 519 569 581 
3 598 597 629 
3 772 774 776 
3 617 618 896 
3 692 629 747 
3 618 563 965 
3 458 459 460 
3 444 440 445 
3 899 900 902 
3 126 323 977 
3 352 125 977 
3 570 518 957 
3 515 557 597 
3 475 476 477 
3 476 473 955 
3 432 436 437 
3 531 532 594 
3 578 656 657 
3 844 718 1194 
3 460 560 561 
3 667 630 749 
3 597 557 608 
3 658 554 659 
3 757 659 759 
3 660 580 661 
3 696 663 697 
3 549 547 550 
3 515 509 557 
3 732 656 1001 
3 657 656 732 
3 452 509 515 
3 781 780 808 
3 446 445 504 
3 519 518 569 
3 897 898 899 
3 745 828 829 
3 578 657 719 
3 505 477 518 
3 475 477 505 
3 504 580 660 
3 505 518 519 
3 549 550 551 
3 899 898 900 
3 552 553 554 
3 551 550 578 
3 404 405 1000 
3 963 719 976 
3 563 624 965 
3 897 618 898 
3 560 459 720 
3 434 431 435 
3 552 551 553 
3 426 428 461 
3 444 446 452 
3 672 661 740 
3 549 551 552 
3 444 445 446 
3 769 770 771 
3 556 553 963 
3 505 535 958 
3 312 865 867 
3 563 561 624 
3 452 446 509 
3 660 661 672 
3 474 473 475 
3 555 592 962 
3 672 740 767 
3 458 443 459 
3 762 629 960 
3 552 658 961 
3 460 459 560 
3 473 469 955 
3 560 720 721 
3 621 565 976 
3 443 440 444 
3 468 472 516 
3 628 620 722 
3 472 469 473 
3 901 898 965 
3 474 475 958 
3 875 876 1057 
3 629 597 960 
3 760 659 962 
3 622 623 729 
3 572 456 1018 
3 554 555 962 
3 534 628 972 
3 546 548 606 
3 597 608 960 
3 773 770 999 
3 558 582 622 
3 503 502 521 
3 657 732 733 
3 461 462 463 
3 595 509 966 
3 466 464 467 
3 696 697 769 
3 684 594 685 
3 475 505 958 
3 553 551 963 
3 528 530 531 
3 468 467 469 
3 714 607 715 
3 598 692 998 
3 439 440 443 
3 391 392 393 
3 472 473 474 
3 603 575 649 
3 393 394 395 
3 548 547 549 
3 659 554 962 
3 606 607 714 
3 898 618 965 
3 636 538 663 
3 463 464 465 
3 658 757 987 
3 835 834 836 
3 522 521 590 
3 468 469 472 
3 551 578 963 
3 432 434 436 
3 436 438 439 
3 504 660 966 
3 465 466 470 
3 439 458 970 
3 548 549 961 
3 606 548 607 
3 408 410 457 
3 949 438 971 
3 490 491 492 
3 439 438 440 
3 436 434 438 
3 446 504 966 
3 514 538 599 
3 427 425 429 
3 578 719 963 
3 423 425 426 
3 465 464 466 
3 461 428 462 
3 397 398 399 
3 509 446 966 
3 636 663 696 
3 636 696 801 
3 583 585 728 
3 432 431 434 
3 463 462 464 
3 549 552 961 
3 437 436 970 
3 571 573 710 
3 443 444 964 
3 594 532 972 
3 430 431 432 
3 444 452 964 
3 515 598 990 
3 462 428 662 
3 466 467 468 
3 601 638 639 
3 125 126 977 
3 419 417 420 
3 423 421 424 
3 430 429 431 
3 607 548 961 
3 426 427 428 
3 459 443 964 
3 427 429 430 
3 565 556 976 
3 720 459 964 
3 672 768 986 
3 966 660 986 
3 685 594 972 
3 434 435 971 
3 419 421 422 
3 426 425 427 
3 534 596 620 
3 595 966 986 
3 857 764 985 
3 964 452 990 
3 514 506 538 
3 587 600 601 
3 371 370 372 
3 610 544 631 
3 639 688 689 
3 405 408 1000 
3 585 587 1002 
3 532 533 534 
3 430 890 974 
3 401 400 402 
3 524 526 527 
3 596 533 609 
3 436 439 970 
3 423 424 425 
3 422 421 423 
3 720 964 990 
3 426 461 969 
3 419 420 421 
3 415 417 418 
3 438 434 971 
3 485 483 486 
3 546 547 548 
3 415 413 416 
3 599 538 636 
3 531 530 532 
3 749 630 751 
3 422 423 969 
3 689 783 784 
3 382 381 383 
3 532 534 972 
3 374 372 375 
3 664 568 665 
3 422 882 1005 
3 645 802 806 
3 376 375 377 
3 456 392 992 
3 534 533 596 
3 766 737 803 
3 620 596 635 
3 797 691 798 
3 951 719 994 
3 508 486 558 
3 961 658 987 
3 545 544 610 
3 418 417 419 
3 457 479 480 
3 694 631 737 
3 468 516 975 
3 543 545 546 
3 622 729 810 
3 532 530 533 
3 543 541 544 
3 852 967 1036 
3 636 801 988 
3 427 430 974 
3 607 961 987 
3 715 607 987 
3 423 426 969 
3 470 466 975 
3 506 470 978 
3 660 672 986 
3 492 493 494 
3 411 413 414 
3 415 416 417 
3 395 394 973 
3 694 737 766 
3 830 832 833 
3 719 657 994 
3 650 649 707 
3 540 512 568 
3 466 468 975 
3 732 1001 1017 
3 513 541 542 
3 428 427 974 
3 411 409 412 
3 543 544 545 
3 610 631 694 
3 550 547 983 
3 546 545 547 
3 697 663 1012 
3 690 604 691 
3 663 538 978 
3 467 464 979 
3 779 681 1055 
3 485 508 539 
3 450 448 454 
3 452 515 990 
3 414 413 415 
3 731 1033 1045 
3 480 481 482 
3 497 499 523 
3 411 412 413 
3 482 483 484 
3 648 682 968 
3 662 428 974 
3 542 857 1015 
3 775 335 1159 
3 84 302 311 
3 464 462 979 
3 508 558 559 
3 829 830 950 
3 457 410 479 
3 462 662 979 
3 546 606 980 
3 85 303 356 
3 485 486 508 
3 481 479 669 
3 646 648 968 
3 470 975 978 
3 527 526 528 
3 538 506 978 
3 630 599 988 
3 484 483 485 
3 547 545 983 
3 591 589 632 
3 599 636 988 
3 86 304 316 
3 542 543 980 
3 752 676 753 
3 545 610 983 
3 482 481 483 
3 410 409 411 
3 1052 724 1056 
3 536 613 614 
3 656 983 1001 
3 990 598 998 
3 87 305 355 
3 588 586 589 
3 657 733 994 
3 528 529 530 
3 390 389 391 
3 542 541 543 
3 1021 885 1026 
3 523 499 524 
3 645 640 802 
3 609 533 982 
3 528 526 529 
3 530 529 982 
3 480 479 481 
3 856 35 1049 
3 88 306 319 
3 770 697 999 
3 407 406 488 
3 451 513 1015 
3 498 517 536 
3 751 630 988 
3 533 530 982 
3 721 720 998 
3 502 484 981 
3 419 422 1005 
3 590 604 676 
3 573 576 1014 
3 450 454 989 
3 690 691 797 
3 543 546 980 
3 830 833 950 
3 541 540 1004 
3 540 568 664 
3 510 566 952 
3 773 999 1019 
3 513 540 541 
3 404 861 1025 
3 89 307 357 
3 690 797 841 
3 495 494 496 
3 720 990 998 
3 590 521 604 
3 342 7 1022 
3 396 395 397 
3 485 539 981 
3 664 665 984 
3 665 744 746 
3 484 485 981 
3 631 544 1004 
3 405 403 406 
3 587 601 1002 
3 90 308 321 
3 836 838 839 
3 91 309 358 
3 310 91 993 
3 408 457 1000 
3 82 310 325 
3 678 433 679 
3 399 400 401 
3 411 414 991 
3 524 499 525 
3 408 409 410 
3 610 694 1001 
3 833 834 835 
3 516 472 1019 
3 676 604 690 
3 418 419 1005 
3 540 664 1004 
3 410 411 991 
3 774 773 1028 
3 544 541 1004 
3 568 512 989 
3 486 483 997 
3 405 407 408 
3 601 600 638 
3 379 381 382 
3 524 525 526 
3 495 496 497 
3 710 573 1014 
3 387 389 390 
3 777 774 1032 
3 513 512 540 
3 408 407 409 
3 583 728 1008 
3 539 508 996 
3 983 610 1001 
3 639 638 688 
3 605 451 1015 
3 711 667 1043 
3 479 410 991 
3 508 559 996 
3 393 395 396 
3 737 631 1020 
3 689 688 783 
3 481 669 997 
3 497 496 498 
3 591 632 634 
3 396 433 671 
3 405 406 407 
3 483 481 997 
3 514 619 1029 
3 497 498 499 
3 669 479 991 
3 374 375 376 
3 777 1032 1038 
3 376 377 487 
3 588 589 591 
3 371 372 374 
3 368 367 369 
3 382 383 442 
3 691 604 1006 
3 999 516 1019 
3 451 512 513 
3 665 746 984 
3 369 370 371 
3 488 490 668 
3 591 634 687 
3 1001 694 1017 
3 397 399 995 
3 396 397 433 
3 407 488 1003 
3 512 450 989 
3 649 575 1018 
3 678 679 709 
3 575 572 1018 
3 521 502 1006 
3 687 754 794 
3 412 409 1003 
3 536 614 670 
3 744 745 1027 
3 707 649 817 
3 1045 418 1058 
3 687 634 754 
3 451 450 512 
3 975 516 1012 
3 401 402 403 
3 670 614 698 
3 1038 739 1042 
3 390 391 500 
3 503 522 1053 
3 638 600 686 
3 698 755 758 
3 978 975 1012 
3 611 848 1040 
3 449 451 605 
3 520 1026 1047 
3 409 407 1003 
3 774 1028 1032 
3 671 433 678 
3 488 668 1003 
3 390 500 583 
3 670 698 699 
3 585 586 587 
3 502 981 1006 
3 784 783 1155 
3 587 588 600 
3 495 877 1024 
3 472 474 1019 
3 694 766 1017 
3 841 318 1059 
3 604 521 1006 
3 404 403 405 
3 583 584 585 
3 956 739 1038 
3 900 901 1035 
3 587 586 588 
3 513 542 1015 
3 773 1019 1028 
3 663 978 1012 
3 102 341 1041 
3 705 101 1041 
3 374 376 453 
3 585 584 586 
3 654 955 1047 
3 382 442 673 
3 679 433 995 
3 866 1050 1174 
3 401 403 404 
3 34 332 1049 
3 366 365 367 
3 433 397 995 
3 520 979 1026 
3 492 494 495 
3 662 974 1021 
3 583 500 584 
3 385 387 1008 
3 449 450 451 
3 673 442 726 
3 673 726 727 
3 931 930 1084 
3 974 890 1021 
3 817 649 1018 
3 377 379 1009 
3 487 377 1009 
3 798 691 1034 
3 7 8 1022 
3 525 499 1013 
3 391 393 1010 
3 890 884 1021 
3 91 358 993 
3 325 310 993 
3 449 448 450 
3 566 626 952 
3 1026 885 1047 
3 559 558 1039 
3 499 498 1013 
3 320 852 1036 
3 1004 664 1020 
3 725 724 1052 
3 1019 474 1028 
3 936 933 1054 
3 622 810 1039 
3 500 391 1010 
3 932 931 1054 
3 631 1004 1020 
3 498 536 1013 
3 379 382 1009 
3 387 390 1008 
3 415 418 1045 
3 881 577 1074 
3 664 984 1020 
3 577 507 1078 
3 396 671 1010 
3 393 396 1010 
3 302 83 1030 
3 536 670 1013 
3 588 591 1016 
3 368 369 373 
3 591 687 1016 
3 640 611 1040 
3 832 831 1072 
3 686 600 1016 
3 677 325 993 
3 600 588 1016 
3 474 958 1028 
3 887 584 1044 
3 662 1021 1026 
3 979 662 1026 
3 745 829 1027 
3 882 881 1071 
3 390 583 1008 
3 861 860 1077 
3 507 514 1029 
3 995 399 1025 
3 1024 877 1057 
3 889 669 1033 
3 668 490 1024 
3 382 673 1009 
3 668 1024 1057 
3 442 383 1048 
3 691 1006 1034 
3 1006 981 1034 
3 399 401 1025 
3 447 448 449 
3 1028 958 1032 
3 958 535 1032 
3 626 743 1023 
3 442 1048 1066 
3 777 1038 1042 
3 693 800 1079 
3 654 1052 1056 
3 311 302 1030 
3 1032 535 1038 
3 492 495 1024 
3 903 900 1035 
3 1053 522 1112 
3 447 373 448 
3 368 373 447 
3 500 1010 1044 
3 90 321 1046 
3 358 309 1046 
3 535 956 1038 
3 1074 577 1078 
3 731 1045 1058 
3 558 622 1039 
3 991 414 1033 
3 490 492 1024 
3 309 90 1046 
3 366 367 368 
3 101 102 1041 
3 981 539 1034 
3 401 404 1025 
3 690 841 1059 
3 674 785 1069 
3 669 991 1033 
3 778 777 1042 
3 1057 876 1061 
3 753 676 1059 
3 1010 671 1044 
3 633 887 1068 
3 667 750 1043 
3 431 429 1070 
3 1008 728 1048 
3 1033 414 1045 
3 385 1008 1048 
3 802 640 1040 
3 748 633 1076 
3 414 415 1045 
3 955 520 1047 
3 383 385 1048 
3 1145 359 1158 
3 860 593 1093 
3 814 311 1131 
3 595 986 1067 
3 654 1047 1052 
3 601 639 1075 
3 373 369 1051 
3 89 357 1063 
3 35 34 1049 
3 83 301 359 
3 321 308 1063 
3 730 731 1058 
3 724 896 1056 
3 681 680 1055 
3 1087 872 1090 
3 1071 881 1074 
3 584 500 1044 
3 593 503 1053 
3 838 1140 1150 
3 952 626 1023 
3 885 725 1052 
3 1056 896 1060 
3 949 971 1080 
3 364 325 365 
3 369 371 1051 
3 18 815 1116 
3 933 932 1054 
3 758 755 1102 
3 918 580 1081 
3 896 897 1060 
3 412 1061 1082 
3 873 872 1087 
3 877 875 1057 
3 478 654 1056 
3 374 453 1064 
3 1060 897 1062 
3 412 1003 1061 
3 1048 728 1066 
3 764 763 1136 
3 522 590 1088 
3 897 899 1062 
3 478 1056 1060 
3 88 319 1073 
3 416 413 1082 
3 1062 899 1065 
3 336 75 1089 
3 74 360 1089 
3 357 307 1073 
3 957 478 1060 
3 735 734 1092 
3 814 812 1119 
3 676 690 1059 
3 722 620 1086 
3 1092 734 1094 
3 1077 860 1093 
3 308 89 1063 
3 899 902 1065 
3 9 326 1091 
3 364 365 366 
3 957 1060 1062 
3 418 1005 1058 
3 1047 885 1052 
3 805 844 1158 
3 1113 351 1187 
3 420 417 1090 
3 996 866 1111 
3 633 1068 1076 
3 570 957 1062 
3 570 1062 1065 
3 1061 876 1082 
3 635 917 1167 
3 844 1145 1158 
3 954 570 1065 
3 1043 750 1050 
3 684 736 1095 
3 728 1002 1066 
3 825 824 1079 
3 726 442 1066 
3 801 315 1154 
3 115 116 1102 
3 24 23 1098 
3 71 70 1099 
3 73 72 1100 
3 424 421 1094 
3 887 1044 1068 
3 1003 668 1061 
3 986 768 1067 
3 83 359 1030 
3 951 994 1096 
3 371 374 1064 
3 82 325 364 
3 48 320 1109 
3 1022 8 1091 
3 344 49 1109 
3 1051 371 1064 
3 429 425 1097 
3 1044 671 1068 
3 424 1094 1095 
3 703 795 1119 
3 1095 736 1097 
3 453 376 1085 
3 706 674 1069 
3 420 1090 1092 
3 726 1066 1075 
3 1102 116 1189 
3 416 1082 1087 
3 831 854 1072 
3 435 431 1070 
3 736 685 1104 
3 671 678 1068 
3 910 529 1156 
3 87 355 1101 
3 319 306 1101 
3 435 1104 1107 
3 730 1058 1071 
3 995 1025 1077 
3 1066 1002 1075 
3 835 836 1108 
3 307 88 1073 
3 938 336 1110 
3 783 688 1133 
3 668 1057 1061 
3 311 814 1126 
3 824 693 1079 
3 1005 882 1071 
3 673 727 1105 
3 1058 1005 1071 
3 718 1023 1194 
3 729 730 1074 
3 795 701 1118 
3 1025 861 1077 
3 730 1071 1074 
3 1068 678 1076 
3 592 813 1193 
3 971 435 1107 
3 742 814 1131 
3 729 1074 1078 
3 702 782 1118 
3 1102 755 1172 
3 363 79 1113 
3 78 351 1113 
3 916 313 1115 
3 810 729 1078 
3 579 1080 1081 
3 579 949 1080 
3 1075 639 1083 
3 678 709 1076 
3 1002 601 1075 
3 416 1087 1090 
3 104 105 1114 
3 350 940 1149 
3 580 579 1081 
3 539 996 1111 
3 679 995 1077 
3 762 960 1084 
3 487 1009 1105 
3 413 412 1082 
3 914 917 1121 
3 876 873 1087 
3 17 18 1116 
3 376 487 1085 
3 620 635 1086 
3 903 1035 1186 
3 727 726 1083 
3 590 752 1088 
3 1070 736 1104 
3 1091 326 1165 
3 679 1077 1093 
3 75 74 1089 
3 908 907 1121 
3 967 345 1133 
3 846 343 1144 
3 360 1100 1184 
3 803 737 1127 
3 868 328 1108 
3 417 416 1090 
3 420 1092 1094 
3 864 863 1123 
3 338 115 1102 
3 8 9 1091 
3 903 1186 1200 
3 435 1070 1104 
3 872 735 1092 
3 86 316 1117 
3 355 305 1117 
3 763 714 1124 
3 1082 876 1087 
3 998 692 1120 
3 632 748 1125 
3 322 64 1129 
3 63 350 1129 
3 421 420 1094 
3 349 895 1136 
3 758 1102 1189 
3 85 356 1122 
3 911 910 1156 
3 316 304 1122 
3 709 679 1093 
3 734 684 1095 
3 1090 872 1092 
3 912 699 1148 
3 756 1113 1187 
3 1094 734 1095 
3 708 951 1096 
3 616 712 1134 
3 948 24 1098 
3 70 361 1099 
3 360 73 1100 
3 424 1095 1097 
3 306 87 1101 
3 425 424 1097 
3 66 65 1135 
3 84 311 1126 
3 356 303 1126 
3 798 1034 1111 
3 941 334 1124 
3 713 700 1137 
3 726 1075 1083 
3 752 753 1130 
3 838 840 1140 
3 789 787 1141 
3 1104 953 1107 
3 685 953 1104 
3 1110 336 1190 
3 1125 752 1130 
3 333 113 1164 
3 705 1041 1106 
3 788 790 1106 
3 787 760 1141 
3 670 699 1138 
3 953 723 1107 
3 733 945 1168 
3 962 592 1141 
3 318 841 1171 
3 836 839 1108 
3 1009 673 1105 
3 1020 984 1127 
3 624 561 1147 
3 560 721 1147 
3 801 696 1149 
3 314 912 1148 
3 747 1091 1165 
3 49 48 1109 
3 6 342 1152 
3 1041 788 1106 
3 865 866 1174 
3 740 765 1153 
3 323 937 1160 
3 31 331 1157 
3 107 941 1159 
3 1017 331 1162 
3 864 1123 1198 
3 335 106 1159 
3 338 1102 1172 
3 948 1098 1139 
3 595 1067 1178 
3 733 732 1162 
3 67 66 1161 
3 833 835 1144 
3 525 1013 1138 
3 895 892 1132 
3 923 921 1163 
3 748 1088 1125 
3 52 318 1171 
3 939 938 1110 
3 346 53 1171 
3 699 698 1148 
3 776 778 1135 
3 526 525 1156 
3 931 1084 1183 
3 347 959 1169 
3 856 746 1170 
3 766 803 1157 
3 759 761 1114 
3 366 368 1142 
3 812 703 1119 
3 868 1108 1185 
3 926 922 1177 
3 743 1145 1194 
3 1088 752 1125 
3 103 104 1175 
3 746 744 1170 
3 3 80 1179 
3 23 3 1179 
3 132 0 1180 
3 0 4 1180 
3 72 1 1181 
3 1 100 1181 
3 2 71 1182 
3 22 2 1182 
3 929 362 1180 
3 117 314 1189 
3 1042 739 1151 
3 687 794 1166 
3 608 557 1178 
3 772 776 1202 
3 16 327 1200 
3 317 14 1186 
3 813 791 1193 
3 982 910 1188 
3 748 1076 1112 
3 1067 936 1178 
3 965 624 1196 
3 1108 839 1185 
3 79 78 1113 
3 1035 317 1186 
3 790 792 1184 
3 686 967 1197 
3 1140 878 1150 
3 1105 727 1140 
3 105 335 1114 
3 709 1053 1112 
3 1027 829 1176 
3 692 747 1165 
3 313 942 1115 
3 638 686 1197 
3 1034 539 1111 
3 910 908 1188 
3 793 1110 1190 
3 919 337 1151 
3 686 1016 1166 
3 1036 686 1166 
3 327 17 1116 
3 804 805 1158 
3 305 86 1117 
3 701 702 1118 
3 892 894 1132 
3 1076 709 1112 
3 994 733 1168 
3 863 346 1123 
3 907 914 1121 
3 916 1115 1167 
3 304 85 1122 
3 813 615 1146 
3 721 998 1120 
3 984 746 1192 
3 1084 960 1183 
3 797 798 1123 
3 714 715 1124 
3 858 344 1128 
3 634 632 1125 
3 894 893 1142 
3 888 751 1154 
3 746 1049 1192 
3 1098 363 1139 
3 303 84 1126 
3 737 1020 1127 
3 345 849 1133 
3 1123 798 1198 
3 634 1125 1130 
3 64 63 1129 
3 840 1105 1140 
3 81 804 1199 
3 743 742 1131 
3 839 838 1150 
3 605 985 1132 
3 706 947 1143 
3 754 634 1130 
3 322 1129 1202 
3 615 616 1134 
3 318 858 1191 
3 988 801 1154 
3 751 988 1154 
3 1120 926 1177 
3 65 322 1135 
3 904 349 1136 
3 700 708 1137 
3 917 916 1167 
3 712 756 1187 
3 793 813 1146 
3 929 5 1152 
3 1013 670 1138 
3 727 878 1140 
3 331 944 1162 
3 756 713 1139 
3 1059 318 1191 
3 760 962 1141 
3 352 977 1153 
3 843 805 1172 
3 977 767 1153 
3 811 635 1167 
3 301 81 1199 
3 624 1163 1196 
3 738 706 1143 
3 950 833 1144 
3 368 447 1142 
3 561 560 1147 
3 696 769 1149 
3 750 959 1174 
3 1128 344 1173 
3 967 1133 1197 
3 878 784 1150 
3 1115 811 1167 
3 698 758 1148 
3 739 738 1151 
3 930 929 1152 
3 5 6 1152 
3 1030 359 1145 
3 767 740 1153 
3 315 888 1154 
3 324 869 1155 
3 1096 994 1168 
3 344 1109 1173 
3 1050 750 1174 
3 1141 592 1193 
3 32 31 1157 
3 529 526 1156 
3 106 107 1159 
3 908 1121 1188 
3 937 935 1160 
3 337 67 1161 
3 893 333 1164 
3 1054 931 1183 
3 921 924 1163 
3 1155 869 1185 
3 732 1017 1162 
3 329 856 1170 
3 326 926 1165 
3 755 843 1172 
3 1129 771 1202 
3 1098 23 1179 
3 71 1099 1182 
3 1100 72 1181 
3 959 865 1174 
3 608 1054 1183 
3 1127 984 1192 
3 323 1160 1201 
3 879 347 1169 
3 1027 329 1170 
3 805 338 1172 
3 1016 687 1166 
3 615 1134 1146 
3 945 330 1168 
3 53 52 1171 
3 336 1089 1190 
3 869 868 1185 
3 744 1027 1170 
3 1110 793 1146 
3 1155 1185 1195 
3 922 923 1177 
3 341 103 1175 
3 794 754 1173 
3 80 363 1179 
3 362 132 1180 
3 100 705 1181 
3 704 22 1182 
3 557 595 1178 
3 866 864 1198 
3 829 950 1176 
3 330 1096 1168 
3 960 608 1183 
3 1145 844 1194 
3 14 15 1186 
3 351 939 1187 
3 116 117 1189 
3 1049 332 1192 
3 792 793 1190 
3 609 982 1188 
3 791 789 1193 
3 1109 794 1173 
3 1186 15 1200 
3 359 301 1199 
3 721 1120 1177 
3 901 965 1196 
3 15 16 1200 
3 753 1059 1191 
3 924 317 1203 
3 1035 901 1203 
3 768 767 1201 
3 771 772 1202 
3 688 638 1197 
3 1023 743 1194 
3 363 1098 1179 
3 1099 704 1182 
3 705 1100 1181 
3 1089 792 1190 
3 1196 924 1203 
3 901 1196 1203 
3 317 1035 1203 
3 798 1111 1198 
3 1121 609 1188 
3 1133 688 1197 
3 1106 790 1184 
3 332 1127 1192 
3 1111 866 1198 
3 789 1141 1193 
3 839 1150 1195 
3 1128 753 1191 
3 858 1128 1191 
3 1158 359 1199 
3 1150 784 1195 
3 784 1155 1195 
3 1160 768 1201 
3 1163 924 1196 
3 804 1158 1199 
3 1185 839 1195 
3 183 182 158 
3 182 157 158 
3 182 181 157 
3 181 156 157 
3 181 180 156 
3 180 155 156 
3 180 179 155 
3 179 154 155 
3 179 178 154 
3 178 153 154 
3 178 177 153 
3 177 152 153 
3 177 176 152 
3 176 151 152 
3 176 175 151 
3 151 175 150 
3 175 174 150 
3 174 149 150 
3 174 173 149 
3 173 148 149 
3 134 85 1204 
3 173 172 148 
3 172 147 148 
3 172 171 147 
3 133 134 1204 
3 171 146 147 
3 171 170 146 
3 159 85 134 
3 170 145 146 
3 170 169 145 
3 169 144 145 
3 169 168 144 
3 168 143 144 
3 168 167 143 
3 167 142 143 
3 167 166 142 
3 142 166 141 
3 85 303 1204 
3 166 165 141 
3 141 165 140 
3 165 164 140 
3 140 164 139 
3 163 138 139 
3 164 163 139 
3 138 162 137 
3 163 162 138 
3 137 161 136 
3 162 161 137 
3 136 160 135 
3 159 134 135 
3 161 160 136 
3 160 159 135 
3 303 133 1204 
3 92 93 1205 
3 183 158 1205 
3 158 92 1205 
3 93 183 1205 
3 133 303 84 
3 182 183 184 
3 182 184 185 
3 181 182 185 
3 186 181 185 
3 180 181 186 
3 187 180 186 
3 179 180 187 
3 188 179 187 
3 178 179 188 
3 189 178 188 
3 177 178 189 
3 190 177 189 
3 176 177 190 
3 191 176 190 
3 175 176 191 
3 192 175 191 
3 174 175 192 
3 174 192 193 
3 173 174 193 
3 160 86 1206 
3 194 173 193 
3 172 173 194 
3 172 194 195 
3 86 160 206 
3 171 172 195 
3 171 195 196 
3 170 171 196 
3 170 196 197 
3 169 170 197 
3 159 160 1206 
3 169 197 198 
3 168 169 198 
3 168 198 199 
3 167 168 199 
3 167 199 200 
3 166 167 200 
3 166 200 201 
3 165 166 201 
3 165 201 202 
3 164 165 202 
3 164 202 203 
3 86 304 1206 
3 163 203 204 
3 163 164 203 
3 162 204 205 
3 162 163 204 
3 161 205 206 
3 161 162 205 
3 160 161 206 
3 304 159 1206 
3 93 94 1207 
3 184 183 1207 
3 94 184 1207 
3 183 93 1207 
3 159 304 85 
3 184 227 228 
3 184 185 227 
3 185 226 227 
3 185 186 226 
3 186 225 226 
3 186 187 225 
3 187 224 225 
3 187 188 224 
3 188 223 224 
3 188 189 223 
3 189 222 223 
3 189 190 222 
3 190 221 222 
3 190 191 221 
3 221 191 220 
3 191 192 220 
3 192 219 220 
3 192 193 219 
3 87 205 1208 
3 193 218 219 
3 193 194 218 
3 194 217 218 
3 205 206 1208 
3 217 194 195 
3 205 87 207 
3 216 217 195 
3 196 216 195 
3 215 216 196 
3 197 215 196 
3 215 197 214 
3 197 198 214 
3 214 198 213 
3 198 199 213 
3 305 87 1208 
3 213 199 212 
3 199 200 212 
3 212 200 211 
3 200 201 211 
3 201 202 210 
3 201 210 211 
3 202 203 209 
3 210 202 209 
3 203 204 208 
3 204 205 207 
3 209 203 208 
3 208 204 207 
3 206 305 1208 
3 95 94 1209 
3 184 228 1209 
3 94 184 1209 
3 228 95 1209 
3 305 206 86 
3 227 228 229 
3 227 229 230 
3 226 227 230 
3 226 230 231 
3 225 226 231 
3 232 225 231 
3 232 224 225 
3 232 233 224 
3 233 223 224 
3 233 234 223 
3 234 222 223 
3 234 235 222 
3 235 221 222 
3 235 236 221 
3 221 236 220 
3 236 237 220 
3 237 219 220 
3 208 88 1210 
3 237 238 219 
3 238 218 219 
3 248 88 208 
3 238 239 218 
3 239 217 218 
3 239 240 217 
3 217 240 216 
3 240 241 216 
3 207 208 1210 
3 216 241 215 
3 241 242 215 
3 215 242 214 
3 242 243 214 
3 214 243 213 
3 243 244 213 
3 213 244 212 
3 244 245 212 
3 212 245 211 
3 245 246 211 
3 88 306 1210 
3 246 247 210 
3 246 210 211 
3 247 248 209 
3 210 247 209 
3 209 248 208 
3 306 207 1210 
3 95 96 1211 
3 229 228 1211 
3 96 229 1211 
3 228 95 1211 
3 306 87 207 
3 266 267 229 
3 230 266 229 
3 265 266 230 
3 231 265 230 
3 264 265 231 
3 232 264 231 
3 263 264 232 
3 233 263 232 
3 262 263 233 
3 262 233 234 
3 261 262 234 
3 235 261 234 
3 260 261 235 
3 236 260 235 
3 259 260 236 
3 237 259 236 
3 89 247 1212 
3 258 259 237 
3 258 237 238 
3 247 248 1212 
3 258 238 257 
3 257 238 239 
3 247 89 249 
3 256 257 239 
3 256 239 240 
3 255 256 240 
3 255 240 241 
3 254 255 241 
3 242 254 241 
3 307 89 1212 
3 253 254 242 
3 253 242 243 
3 252 253 243 
3 252 243 244 
3 251 244 245 
3 251 252 244 
3 245 246 250 
3 251 245 250 
3 246 247 249 
3 246 249 250 
3 248 307 1212 
3 97 96 1213 
3 229 267 1213 
3 96 229 1213 
3 267 97 1213 
3 248 88 307 
3 266 267 268 
3 269 266 268 
3 265 266 269 
3 270 265 269 
3 264 265 270 
3 271 264 270 
3 263 264 271 
3 272 263 271 
3 262 263 272 
3 273 262 272 
3 261 262 273 
3 274 261 273 
3 260 261 274 
3 260 274 275 
3 259 260 275 
3 250 90 1214 
3 276 259 275 
3 90 250 284 
3 259 276 258 
3 276 277 258 
3 258 277 257 
3 277 278 257 
3 278 256 257 
3 256 278 279 
3 249 250 1214 
3 256 279 255 
3 279 280 255 
3 280 254 255 
3 280 281 254 
3 281 253 254 
3 282 253 281 
3 253 282 252 
3 252 282 283 
3 251 283 284 
3 251 252 283 
3 90 308 1214 
3 250 251 284 
3 308 249 1214 
3 97 98 1215 
3 268 267 1215 
3 98 268 1215 
3 267 97 1215 
3 89 249 308 
3 299 300 268 
3 269 299 268 
3 298 299 269 
3 270 298 269 
3 297 298 270 
3 271 297 270 
3 296 297 271 
3 272 296 271 
3 295 296 272 
3 273 295 272 
3 294 295 273 
3 274 294 273 
3 293 294 274 
3 91 283 1216 
3 293 274 275 
3 292 293 275 
3 283 284 1216 
3 276 292 275 
3 292 276 291 
3 283 91 285 
3 276 277 291 
3 277 290 291 
3 277 278 290 
3 278 289 290 
3 278 279 289 
3 309 91 1216 
3 279 288 289 
3 279 280 288 
3 280 281 287 
3 280 287 288 
3 281 282 286 
3 281 286 287 
3 282 283 285 
3 282 285 286 
3 284 309 1216 
3 99 98 1217 
3 268 300 1217 
3 98 268 1217 
3 300 99 1217 
3 90 309 284 
3 299 300 100 
3 299 100 101 
3 298 299 101 
3 298 101 102 
3 297 298 102 
3 297 102 103 
3 296 297 103 
3 296 103 104 
3 295 296 104 
3 295 104 105 
3 294 295 105 
3 294 105 106 
3 286 82 1218 
3 293 294 106 
3 113 82 286 
3 293 106 107 
3 292 293 107 
3 108 292 107 
3 291 292 108 
3 109 291 108 
3 290 291 109 
3 290 109 110 
3 285 286 1218 
3 290 110 289 
3 110 111 289 
3 111 288 289 
3 111 112 288 
3 112 113 287 
3 288 112 287 
3 287 113 286 
3 82 310 1218 
3 310 285 1218 
3 99 1 1219 
3 100 300 1219 
3 1 100 1219 
3 300 99 1219 
3 310 91 285 

CELL_TYPES 2299
5
5
5
5
5
5
5
5
5
5
5
5
5
5
5
5
5
5
5
5
5
5
5
5
5
5
5
5
5
5
5
5
5
5
5
5
5
5
5
5
5
5
5
5
5
5
5
5
5
5
5
5
5
5
5
5
5
5
5
5
5
5
5
5
5
5
5
5
5
5
5
5
5
5
5
5
5
5
5
5
5
5
5
5
5
5
5
5
5
5
5
5
5
5
5
5
5
5
5
5
5
5
5
5
5
5
5
5
5
5
5
5
5
5
5
5
5
5
5
5
5
5
5
5
5
5
5
5
5
5
5
5
5
5
5
5
5
5
5
5
5
5
5
5
5
5
5
5
5
5
5
5
5
5
5
5
5
5
5
5
5
5
5
5
5
5
5
5
5
5
5
5
5
5
5
5
5
5
5
5
5
5
5
5
5
5
5
5
5
5
5
5
5
5
5
5
5
5
5
5
5
5
5
5
5
5
5
5
5
5
5
5
5
5
5
5
5
5
5
5
5
5
5
5
5
5
5
5
5
5
5
5
5
5
5
5
5
5
5
5
5
5
5
5
5
5
5
5
5
5
5
5
5
5
5
5
5
5
5
5
5
5
5
5
5
5
5
5
5
5
5
5
5
5
5
5
5
5
5
5
5
5
5
5
5
5
5
5
5
5
5
5
5
5
5
5
5
5
5
5
5
5
5
5
5
5
5
5
5
5
5
5
5
5
5
5
5
5
5
5
5
5
5
5
5
5
5
5
5
5
5
5
5
5
5
5
5
5
5
5
5
5
5
5
5
5
5
5
5
5
5
5
5
5
5
5
5
5
5
5
5
5
5
5
5
5
5
5
5
5
5
5
5
5
5
5
5
5
5
5
5
5
5
5
5
5
5
5
5
5
5
5
5
5
5
5
5
5
5
5
5
5
5
5
5
5
5
5
5
5
5
5
5
5
5
5
5
5
5
5
5
5
5
5
5
5
5
5
5
5
5
5
5
5
5
5
5
5
5
5
5
5
5
5
5
5
5
5
5
5
5
5
5
5
5
5
5
5
5
5
5
5
5
5
5
5
5
5
5
5
5
5
5
5
5
5
5
5
5
5
5
5
5
5
5
5
5
5
5
5
5
5
5
5
5
5
5
5
5
5
5
5
5
5
5
5
5
5
5
5
5
5
5
5
5
5
5
5
5
5
5
5
5
5
5
5
5
5
5
5
5
5
5
5
5
5
5
5
5
5
5
5
5
5
5
5
5
5
5
5
5
5
5
5
5
5
5
5
5
5
5
5
5
5
5
5
5
5
5
5
5
5
5
5
5
5
5
5
5
5
5
5
5
5
5
5
5
5
5
5
5
5
5
5
5
5
5
5
5
5
5
5
5
5
5
5
5
5
5
5
5
5
5
5
5
5
5
5
5
5
5
5
5
5
5
5
5
5
5
5
5
5
5
5
5
5
5
5
5
5
5
5
5
5
5
5
5
5
5
5
5
5
5
5
5
5
5
5
5
5
5
5
5
5
5
5
5
5
5
5
5
5
5
5
5
5
5
5
5
5
5
5
5
5
5
5
5
5
5
5
5
5
5
5
5
5
5
5
5
5
5
5
5
5
5
5
5
5
5
5
5
5
5
5
5
5
5
5
5
5
5
5
5
5
5
5
5
5
5
5
5
5
5
5
5
5
5
5
5
5
5
5
5
5
5
5
5
5
5
5
5
5
5
5
5
5
5
5
5
5
5
5
5
5
5
5
5
5
5
5
5
5
5
5
5
5
5
5
5
5
5
5
5
5
5
5
5
5
5
5
5
5
5
5
5
5
5
5
5
5
5
5
5
5
5
5
5
5
5
5
5
5
5
5
5
5
5
5
5
5
5
5
5
5
5
5
5
5
5
5
5
5
5
5
5
5
5
5
5
5
5
5
5
5
5
5
5
5
5
5
5
5
5
5
5
5
5
5
5
5
5
5
5
5
5
5
5
5
5
5
5
5
5
5
5
5
5
5
5
5
5
5
5
5
5
5
5
5
5
5
5
5
5
5
5
5
5
5
5
5
5
5
5
5
5
5
5
5
5
5
5
5
5
5
5
5
5
5
5
5
5
5
5
5
5
5
5
5
5
5
5
5
5
5
5
5
5
5
5
5
5
5
5
5
5
5
5
5
5
5
5
5
5
5
5
5
5
5
5
5
5
5
5
5
5
5
5
5
5
5
5
5
5
5
5
5
5
5
5
5
5
5
5
5
5
5
5
5
5
5
5
5
5
5
5
5
5
5
5
5
5
5
5
5
5
5
5
5
5
5
5
5
5
5
5
5
5
5
5
5
5
5
5
5
5
5
5
5
5
5
5
5
5
5
5
5
5
5
5
5
5
5
5
5
5
5
5
5
5
5
5
5
5
5
5
5
5
5
5
5
5
5
5
5
5
5
5
5
5
5
5
5
5
5
5
5
5
5
5
5
5
5
5
5
5
5
5
5
5
5
5
5
5
5
5
5
5
5
5
5
5
5
5
5
5
5
5
5
5
5
5
5
5
5
5
5
5
5
5
5
5
5
5
5
5
5
5
5
5
5
5
5
5
5
5
5
5
5
5
5
5
5
5
5
5
5
5
5
5
5
5
5
5
5
5
5
5
5
5
5
5
5
5
5
5
5
5
5
5
5
5
5
5
5
5
5
5
5
5
5
5
5
5
5
5
5
5
5
5
5
5
5
5
5
5
5
5
5
5
5
5
5
5
5
5
5
5
5
5
5
5
5
5
5
5
5
5
5
5
5
5
5
5
5
5
5
5
5
5
5
5
5
5
5
5
5
5
5
5
5
5
5
5
5
5
5
5
5
5
5
5
5
5
5
5
5
5
5
5
5
5
5
5
5
5
5
5
5
5
5
5
5
5
5
5
5
5
5
5
5
5
5
5
5
5
5
5
5
5
5
5
5
5
5
5
5
5
5
5
5
5
5
5
5
5
5
5
5
5
5
5
5
5
5
5
5
5
5
5
5
5
5
5
5
5
5
5
5
5
5
5
5
5
5
5
5
5
5
5
5
5
5
5
5
5
5
5
5
5
5
5
5
5
5
5
5
5
5
5
5
5
5
5
5
5
5
5
5
5
5
5
5
5
5
5
5
5
5
5
5
5
5
5
5
5
5
5
5
5
5
5
5
5
5
5
5
5
5
5
5
5
5
5
5
5
5
5
5
5
5
5
5
5
5
5
5
5
5
5
5
5
5
5
5
5
5
5
5
5
5
5
5
5
5
5
5
5
5
5
5
5
5
5
5
5
5
5
5
5
5
5
5
5
5
5
5
5
5
5
5
5
5
5
5
5
5
5
5
5
5
5
5
5
5
5
5
5
5
5
5
5
5
5
5
5
5
5
5
5
5
5
5
5
5
5
5
5
5
5
5
5
5
5
5
5
5
5
5
5
5
5
5
5
5
5
5
5
5
5
5
5
5
5
5
5
5
5
5
5
5
5
5
5
5
5
5
5
5
5
5
5
5
5
5
5
5
5
5
5
5
5
5
5
5
5
5
5
5
5
5
5
5
5
5
5
5
5
5
5
5
5
5
5
5
5
5
5
5
5
5
5
5
5
5
5
5
5
5
5
5
5
5
5
5
5
5
5
5
5
5
5
5
5
5
5
5
5
5
5
5
5
5
5
5
5
5
5
5
5
5
5
5
5
5
5
5
5
5
5
5
5
5
5
5
5
5
5
5
5
5
5
5
5
5
5
5
5
5
5
5
5
5
5
5
5
5
5
5
5
5
5
5
5
5
5
5
5
5
5
5
5
5
5
5
5
5
5
5
5
5
5
5
5
5
5
5
5
5
5
5
5
5
5
5
5
5
5
5
5
5
5
5
5
5
5
5
5
5
5
5
5
5
5
5
5
5
5
5
5
5
5
5
5
5
5
5
5
5
5
5
5
5
5
5
5
5
5
5
5
5
5
5
5
5
5
5
5
5
5
5
5
5
5
5
5
5
5
5
5
5
5
5
5
5
5
5
5
5
5
5
5
5
5
5
5
5
5
5
5
5
5
5
5
5
5
5
5
5
5
5
5
5
5
5
5
5
5
5
5
5
5
5
5
5
5
5
5
5
5
5
5
5
5
5
5
5
5
5
5
5
5
5
5
5
5
5
5
5
5
5
5
5
5
5
5
5
5
5
5
5
5
5
5
5
5
5
5
5
5
5
5
5
5
5
5
5
5
5
5
5
5
5
5
5
5
5
5
5
5
5
5
5
5
5
5
5
5
5
5
5
5
5
5
5
5
5
5
5
5
5
5
5
5
5
5
5
5
5
5
5
5
5
5
5
5
5
5
5
5
5
5
5
5
5
5
5
5
5
5
5
5
5
5
5
5
5
5
5
5
5
5
5
5
5
5
5
5
5
5
5
5
5
5
5
5
5
5
5
5
5
5
5
5
5
5
5
5
5
5
5
5
5
5
5
5
5
5
5
5
5
5
5
5
5
5
5
5
5
5
5
5
5
5
5
5
5
5
5
5
5
5
5
5
5
5
5
5
5
5
5
5
5
5
5
5
5
5
5
5
5
5
5
5
5
5
5
5
5
5
5
5
5
5
5
5
5
5
5
5
5
5
5
5
5
5
5
5
5
5
5
5
5
5
5
5
5
5
5
5
5
5
5
5
5
5
5
5
5
5
5
5
5
5
5
5
5
5
5
5
5
5
5
5
5
5
5
5
5
5
5
5
5
5
5
5
5
5
5
5
5
5
5
5
5
5
5
5
5
5
5
5
5
5
5
5
5
5
5
5
5
5
5
5
5
5
5
5
5
5
5
5
5
5
5
5
5
5
5
5
5
5
5
5
5
5
5
5
5
5
5
5
5
5
5
5
5
5
5
5
5
5
5
5
5
5
5
5
5
5
5
5
5
5
5
5
5
5
5
5
5
5
5
5
5
5
5
5
5
5
5
5
5
5
5
5
5
5
5
5
5
5
5
5
5
5
5
5
5
5
5
5
5
5
5
5
5
5
5
5
5
5
5
5
5
5
5
5
5
5
5
5
5
5
5
5
5
5
5
5
5
5
5
5
5
5
5
5
5
5
5
5
5
5
5
5
5
5
5
5
5
5
5
5
5
5
5
5
5
5
5
5
5
5
5
5
5
5
5
5
5
5
5
5
5
5
5
5
5
5
5
5
5
5
5
5
5
5
5
5
5
5
5
5
5
5
5
5
5
5

POINT_DATA 1220

VECTORS coord float
0.0 0.0 0.0 
5.000000000000e+01 -1.000000000000e+01 0.0 
0.0 -2.000000000000e+01 0.0 
5.000000000000e+01 -2.000000000000e+01 0.0 
0.0 -9.999999999991e-01 0.0 
0.0 -1.999999999998e+00 0.0 
0.0 -2.999999999997e+00 0.0 
0.0 -3.999999999994e+00 0.0 
0.0 -4.999999999991e+00 0.0 
0.0 -5.999999999988e+00 0.0 
0.0 -6.999999999985e+00 0.0 
0.0 -7.999999999982e+00 0.0 
0.0 -8.999999999983e+00 0.0 
0.0 -9.999999999985e+00 0.0 
0.0 -1.099999999999e+01 0.0 
0.0 -1.199999999999e+01 0.0 
0.0 -1.299999999999e+01 0.0 
0.0 -1.399999999999e+01 0.0 
0.0 -1.499999999999e+01 0.0 
0.0 -1.599999999999e+01 0.0 
0.0 -1.700000000000e+01 0.0 
0.0 -1.800000000000e+01 0.0 
0.0 -1.900000000000e+01 0.0 
4.900000000001e+01 -2.000000000000e+01 0.0 
4.800000000001e+01 -2.000000000000e+01 0.0 
4.700000000002e+01 -2.000000000000e+01 0.0 
4.600000000003e+01 -2.000000000000e+01 0.0 
4.500000000004e+01 -2.000000000000e+01 0.0 
4.400000000004e+01 -2.000000000000e+01 0.0 
4.300000000005e+01 -2.000000000000e+01 0.0 
4.200000000006e+01 -2.000000000000e+01 0.0 
4.100000000006e+01 -2.000000000000e+01 0.0 
4.000000000007e+01 -2.000000000000e+01 0.0 
3.900000000008e+01 -2.000000000000e+01 0.0 
3.800000000009e+01 -2.000000000000e+01 0.0 
3.700000000009e+01 -2.000000000000e+01 0.0 
3.600000000010e+01 -2.000000000000e+01 0.0 
3.500000000011e+01 -2.000000000000e+01 0.0 
3.400000000011e+01 -2.000000000000e+01 0.0 
3.300000000012e+01 -2.000000000000e+01 0.0 
3.200000000013e+01 -2.000000000000e+01 0.0 
3.100000000013e+01 -2.000000000000e+01 0.0 
3.000000000013e+01 -2.000000000000e+01 0.0 
2.900000000013e+01 -2.000000000000e+01 0.0 
2.800000000013e+01 -2.000000000000e+01 0.0 
2.700000000013e+01 -2.000000000000e+01 0.0 
2.600000000013e+01 -2.000000000000e+01 0.0 
2.500000000013e+01 -2.000000000000e+01 0.0 
2.400000000013e+01 -2.000000000000e+01 0.0 
2.300000000013e+01 -2.000000000000e+01 0.0 
2.200000000013e+01 -2.000000000000e+01 0.0 
2.100000000013e+01 -2.000000000000e+01 0.0 
2.000000000013e+01 -2.000000000000e+01 0.0 
1.900000000013e+01 -2.000000000000e+01 0.0 
1.800000000013e+01 -2.000000000000e+01 0.0 
1.700000000012e+01 -2.000000000000e+01 0.0 
1.600000000011e+01 -2.000000000000e+01 0.0 
1.500000000011e+01 -2.000000000000e+01 0.0 
1.400000000010e+01 -2.000000000000e+01 0.0 
1.300000000009e+01 -2.000000000000e+01 0.0 
1.200000000009e+01 -2.000000000000e+01 0.0 
1.100000000008e+01 -2.000000000000e+01 0.0 
1.000000000007e+01 -2.000000000000e+01 0.0 
9.000000000064e+00 -2.000000000000e+01 0.0 
8.000000000057e+00 -2.000000000000e+01 0.0 
7.000000000050e+00 -2.000000000000e+01 0.0 
6.000000000043e+00 -2.000000000000e+01 0.0 
5.000000000036e+00 -2.000000000000e+01 0.0 
4.000000000028e+00 -2.000000000000e+01 0.0 
3.000000000021e+00 -2.000000000000e+01 0.0 
2.000000000014e+00 -2.000000000000e+01 0.0 
1.000000000007e+00 -2.000000000000e+01 0.0 
5.000000000000e+01 -1.100000000000e+01 0.0 
5.000000000000e+01 -1.200000000000e+01 0.0 
5.000000000000e+01 -1.300000000000e+01 0.0 
5.000000000000e+01 -1.400000000000e+01 0.0 
5.000000000000e+01 -1.500000000000e+01 0.0 
5.000000000000e+01 -1.600000000000e+01 0.0 
5.000000000000e+01 -1.700000000000e+01 0.0 
5.000000000000e+01 -1.800000000000e+01 0.0 
5.000000000000e+01 -1.900000000000e+01 0.0 
2.000000000000e+01 0.0 0.0 
3.500000000000e+01 -1.000000000000e+01 0.0 
2.150000000000e+01 -1.000000000000e+00 0.0 
2.300000000000e+01 -2.000000000000e+00 0.0 
2.450000000000e+01 -3.000000000000e+00 0.0 
2.600000000000e+01 -4.000000000000e+00 0.0 
2.750000000000e+01 -5.000000000000e+00 0.0 
2.900000000000e+01 -6.000000000000e+00 0.0 
3.050000000000e+01 -7.000000000000e+00 0.0 
3.200000000000e+01 -8.000000000000e+00 0.0 
3.350000000000e+01 -9.000000000000e+00 0.0 
5.000000000000e+01 -2.000000000000e+00 0.0 
5.000000000000e+01 -3.000000000000e+00 0.0 
5.000000000000e+01 -4.000000000000e+00 0.0 
5.000000000000e+01 -5.000000000000e+00 0.0 
5.000000000000e+01 -6.000000000000e+00 0.0 
5.000000000000e+01 -7.000000000000e+00 0.0 
5.000000000000e+01 -8.000000000000e+00 0.0 
5.000000000000e+01 -9.000000000000e+00 0.0 
4.900000000000e+01 -1.000000000000e+01 0.0 
4.800000000000e+01 -1.000000000000e+01 0.0 
4.700000000000e+01 -1.000000000000e+01 0.0 
4.600000000000e+01 -1.000000000000e+01 0.0 
4.500000000000e+01 -1.000000000000e+01 0.0 
4.400000000000e+01 -1.000000000000e+01 0.0 
4.300000000000e+01 -1.000000000000e+01 0.0 
4.200000000000e+01 -1.000000000000e+01 0.0 
4.100000000000e+01 -1.000000000000e+01 0.0 
4.000000000000e+01 -1.000000000000e+01 0.0 
3.900000000000e+01 -1.000000000000e+01 0.0 
3.800000000000e+01 -1.000000000000e+01 0.0 
3.700000000000e+01 -1.000000000000e+01 0.0 
3.600000000000e+01 -1.000000000000e+01 0.0 
1.900000000000e+01 0.0 0.0 
1.800000000000e+01 0.0 0.0 
1.700000000000e+01 0.0 0.0 
1.600000000000e+01 0.0 0.0 
1.500000000000e+01 0.0 0.0 
1.400000000000e+01 0.0 0.0 
1.300000000000e+01 0.0 0.0 
1.200000000000e+01 0.0 0.0 
1.100000000000e+01 0.0 0.0 
1.000000000000e+01 0.0 0.0 
9.000000000000e+00 0.0 0.0 
8.000000000000e+00 0.0 0.0 
7.000000000000e+00 0.0 0.0 
6.000000000000e+00 0.0 0.0 
5.000000000000e+00 0.0 0.0 
4.000000000000e+00 0.0 0.0 
3.000000000000e+00 0.0 0.0 
2.000000000000e+00 0.0 0.0 
1.000000000000e+00 0.0 0.0 
2.400000000000e+01 -2.000000000000e+00 0.0 
2.500000000000e+01 -2.000000000000e+00 0.0 
2.600000000000e+01 -2.000000000000e+00 0.0 
2.700000000000e+01 -2.000000000000e+00 0.0 
2.800000000000e+01 -2.000000000000e+00 0.0 
2.900000000000e+01 -2.000000000000e+00 0.0 
3.000000000000e+01 -2.000000000000e+00 0.0 
3.100000000000e+01 -2.000000000000e+00 0.0 
3.200000000000e+01 -2.000000000000e+00 0.0 
3.300000000000e+01 -2.000000000000e+00 0.0 
3.400000000000e+01 -2.000000000000e+00 0.0 
3.500000000000e+01 -2.000000000000e+00 0.0 
3.600000000000e+01 -2.000000000000e+00 0.0 
3.700000000000e+01 -2.000000000000e+00 0.0 
3.800000000000e+01 -2.000000000000e+00 0.0 
3.900000000000e+01 -2.000000000000e+00 0.0 
4.000000000000e+01 -2.000000000000e+00 0.0 
4.100000000000e+01 -2.000000000000e+00 0.0 
4.200000000000e+01 -2.000000000000e+00 0.0 
4.300000000000e+01 -2.000000000000e+00 0.0 
4.400000000000e+01 -2.000000000000e+00 0.0 
4.500000000000e+01 -2.000000000000e+00 0.0 
4.600000000000e+01 -2.000000000000e+00 0.0 
4.700000000000e+01 -2.000000000000e+00 0.0 
4.800000000000e+01 -2.000000000000e+00 0.0 
4.900000000000e+01 -2.000000000000e+00 0.0 
2.548076923077e+01 -3.000000000000e+00 0.0 
2.646153846153e+01 -3.000000000000e+00 0.0 
2.744230769230e+01 -3.000000000000e+00 0.0 
2.842307692306e+01 -3.000000000000e+00 0.0 
2.940384615383e+01 -3.000000000000e+00 0.0 
3.038461538459e+01 -3.000000000000e+00 0.0 
3.136538461536e+01 -3.000000000000e+00 0.0 
3.234615384612e+01 -3.000000000000e+00 0.0 
3.332692307687e+01 -3.000000000000e+00 0.0 
3.430769230762e+01 -3.000000000000e+00 0.0 
3.528846153837e+01 -3.000000000000e+00 0.0 
3.626923076912e+01 -3.000000000000e+00 0.0 
3.724999999988e+01 -3.000000000000e+00 0.0 
3.823076923065e+01 -3.000000000000e+00 0.0 
3.921153846143e+01 -3.000000000000e+00 0.0 
4.019230769221e+01 -3.000000000000e+00 0.0 
4.117307692299e+01 -3.000000000000e+00 0.0 
4.215384615377e+01 -3.000000000000e+00 0.0 
4.313461538455e+01 -3.000000000000e+00 0.0 
4.411538461533e+01 -3.000000000000e+00 0.0 
4.509615384611e+01 -3.000000000000e+00 0.0 
4.607692307688e+01 -3.000000000000e+00 0.0 
4.705769230766e+01 -3.000000000000e+00 0.0 
4.803846153844e+01 -3.000000000000e+00 0.0 
4.901923076922e+01 -3.000000000000e+00 0.0 
4.900000000000e+01 -4.000000000000e+00 0.0 
4.800000000000e+01 -4.000000000000e+00 0.0 
4.700000000000e+01 -4.000000000000e+00 0.0 
4.600000000000e+01 -4.000000000000e+00 0.0 
4.500000000000e+01 -4.000000000000e+00 0.0 
4.400000000000e+01 -4.000000000000e+00 0.0 
4.300000000000e+01 -4.000000000000e+00 0.0 
4.200000000000e+01 -4.000000000000e+00 0.0 
4.100000000000e+01 -4.000000000000e+00 0.0 
4.000000000000e+01 -4.000000000000e+00 0.0 
3.900000000000e+01 -4.000000000000e+00 0.0 
3.800000000000e+01 -4.000000000000e+00 0.0 
3.700000000000e+01 -4.000000000000e+00 0.0 
3.600000000000e+01 -4.000000000000e+00 0.0 
3.500000000000e+01 -4.000000000000e+00 0.0 
3.400000000000e+01 -4.000000000000e+00 0.0 
3.300000000000e+01 -4.000000000000e+00 0.0 
3.200000000000e+01 -4.000000000000e+00 0.0 
3.100000000000e+01 -4.000000000000e+00 0.0 
3.000000000000e+01 -4.000000000000e+00 0.0 
2.900000000000e+01 -4.000000000000e+00 0.0 
2.800000000000e+01 -4.000000000000e+00 0.0 
2.700000000000e+01 -4.000000000000e+00 0.0 
2.847826086957e+01 -5.000000000000e+00 0.0 
2.945652173913e+01 -5.000000000000e+00 0.0 
3.043478260870e+01 -5.000000000000e+00 0.0 
3.141304347826e+01 -5.000000000000e+00 0.0 
3.239130434783e+01 -5.000000000000e+00 0.0 
3.336956521739e+01 -5.000000000000e+00 0.0 
3.434782608696e+01 -5.000000000000e+00 0.0 
3.532608695652e+01 -5.000000000000e+00 0.0 
3.630434782609e+01 -5.000000000000e+00 0.0 
3.728260869565e+01 -5.000000000000e+00 0.0 
3.826086956522e+01 -5.000000000000e+00 0.0 
3.923913043478e+01 -5.000000000000e+00 0.0 
4.021739130435e+01 -5.000000000000e+00 0.0 
4.119565217391e+01 -5.000000000000e+00 0.0 
4.217391304348e+01 -5.000000000000e+00 0.0 
4.315217391304e+01 -5.000000000000e+00 0.0 
4.413043478261e+01 -5.000000000000e+00 0.0 
4.510869565217e+01 -5.000000000000e+00 0.0 
4.608695652174e+01 -5.000000000000e+00 0.0 
4.706521739130e+01 -5.000000000000e+00 0.0 
4.804347826087e+01 -5.000000000000e+00 0.0 
4.902173913043e+01 -5.000000000000e+00 0.0 
4.900000000001e+01 -6.000000000000e+00 0.0 
4.800000000003e+01 -6.000000000000e+00 0.0 
4.700000000004e+01 -6.000000000000e+00 0.0 
4.600000000006e+01 -6.000000000000e+00 0.0 
4.500000000007e+01 -6.000000000000e+00 0.0 
4.400000000009e+01 -6.000000000000e+00 0.0 
4.300000000010e+01 -6.000000000000e+00 0.0 
4.200000000012e+01 -6.000000000000e+00 0.0 
4.100000000013e+01 -6.000000000000e+00 0.0 
4.000000000014e+01 -6.000000000000e+00 0.0 
3.900000000014e+01 -6.000000000000e+00 0.0 
3.800000000012e+01 -6.000000000000e+00 0.0 
3.700000000010e+01 -6.000000000000e+00 0.0 
3.600000000008e+01 -6.000000000000e+00 0.0 
3.500000000006e+01 -6.000000000000e+00 0.0 
3.400000000005e+01 -6.000000000000e+00 0.0 
3.300000000003e+01 -6.000000000000e+00 0.0 
3.200000000001e+01 -6.000000000000e+00 0.0 
3.100000000000e+01 -6.000000000000e+00 0.0 
3.000000000000e+01 -6.000000000000e+00 0.0 
3.147499999998e+01 -7.000000000000e+00 0.0 
3.244999999998e+01 -7.000000000000e+00 0.0 
3.342499999998e+01 -7.000000000000e+00 0.0 
3.439999999998e+01 -7.000000000000e+00 0.0 
3.537499999998e+01 -7.000000000000e+00 0.0 
3.634999999998e+01 -7.000000000000e+00 0.0 
3.732499999998e+01 -7.000000000000e+00 0.0 
3.829999999998e+01 -7.000000000000e+00 0.0 
3.927499999999e+01 -7.000000000000e+00 0.0 
4.024999999999e+01 -7.000000000000e+00 0.0 
4.122499999999e+01 -7.000000000000e+00 0.0 
4.219999999999e+01 -7.000000000000e+00 0.0 
4.317499999999e+01 -7.000000000000e+00 0.0 
4.414999999999e+01 -7.000000000000e+00 0.0 
4.512499999999e+01 -7.000000000000e+00 0.0 
4.609999999999e+01 -7.000000000000e+00 0.0 
4.707500000000e+01 -7.000000000000e+00 0.0 
4.805000000000e+01 -7.000000000000e+00 0.0 
4.902500000000e+01 -7.000000000000e+00 0.0 
4.900000000000e+01 -8.000000000000e+00 0.0 
4.800000000000e+01 -8.000000000000e+00 0.0 
4.700000000000e+01 -8.000000000000e+00 0.0 
4.600000000000e+01 -8.000000000000e+00 0.0 
4.500000000000e+01 -8.000000000000e+00 0.0 
4.400000000000e+01 -8.000000000000e+00 0.0 
4.300000000000e+01 -8.000000000000e+00 0.0 
4.200000000000e+01 -8.000000000000e+00 0.0 
4.100000000000e+01 -8.000000000000e+00 0.0 
4.000000000000e+01 -8.000000000000e+00 0.0 
3.900000000000e+01 -8.000000000000e+00 0.0 
3.800000000000e+01 -8.000000000000e+00 0.0 
3.700000000000e+01 -8.000000000000e+00 0.0 
3.600000000000e+01 -8.000000000000e+00 0.0 
3.500000000000e+01 -8.000000000000e+00 0.0 
3.400000000000e+01 -8.000000000000e+00 0.0 
3.300000000000e+01 -8.000000000000e+00 0.0 
3.447058823527e+01 -9.000000000000e+00 0.0 
3.544117647055e+01 -9.000000000000e+00 0.0 
3.641176470582e+01 -9.000000000000e+00 0.0 
3.738235294109e+01 -9.000000000000e+00 0.0 
3.835294117637e+01 -9.000000000000e+00 0.0 
3.932352941164e+01 -9.000000000000e+00 0.0 
4.029411764691e+01 -9.000000000000e+00 0.0 
4.126470588219e+01 -9.000000000000e+00 0.0 
4.223529411748e+01 -9.000000000000e+00 0.0 
4.320588235279e+01 -9.000000000000e+00 0.0 
4.417647058811e+01 -9.000000000000e+00 0.0 
4.514705882342e+01 -9.000000000000e+00 0.0 
4.611764705874e+01 -9.000000000000e+00 0.0 
4.708823529405e+01 -9.000000000000e+00 0.0 
4.805882352937e+01 -9.000000000000e+00 0.0 
4.902941176468e+01 -9.000000000000e+00 0.0 
2.075000000000e+01 -5.000000000006e-01 0.0 
2.225000000000e+01 -1.500000000000e+00 0.0 
2.375000000000e+01 -2.500000000000e+00 0.0 
2.525000000000e+01 -3.500000000000e+00 0.0 
2.675000000000e+01 -4.500000000000e+00 0.0 
2.825000000000e+01 -5.500000000000e+00 0.0 
2.975000000000e+01 -6.500000000000e+00 0.0 
3.125000000000e+01 -7.500000000000e+00 0.0 
3.275000000000e+01 -8.500000000000e+00 0.0 
3.425000000000e+01 -9.500000000000e+00 0.0 
2.226951693683e+01 -2.403913980114e+00 0.0 
1.650149491944e+01 -1.913490915758e+01 0.0 
1.050042386896e+01 -8.504605092970e-01 0.0 
1.553146524712e+01 -8.281255032105e-01 0.0 
1.150000000008e+01 -1.913397459621e+01 0.0 
2.530060260647e+01 -4.428336431260e+00 0.0 
8.651114563942e-01 -1.052096295641e+01 0.0 
2.050000000013e+01 -1.913397459622e+01 0.0 
2.819198729811e+01 -6.399519052838e+00 0.0 
2.445670302931e+01 -1.915649188023e+01 0.0 
3.117591465718e+01 -8.394293040695e+00 0.0 
7.465053044742e+00 -1.920411160581e+01 0.0 
6.398295709691e+00 -8.230098819370e-01 0.0 
2.849659607461e+01 -1.914296187762e+01 0.0 
3.418732642882e+01 -1.040265792588e+01 0.0 
8.386450935063e-01 -6.533605142809e+00 0.0 
9.178661865596e-01 -1.329769195597e+01 0.0 
3.149448624493e+01 -1.910466733764e+01 0.0 
3.552916747426e+01 -1.914628590759e+01 0.0 
4.449210346537e+01 -1.914359085008e+01 0.0 
4.140975975145e+01 -1.906941860733e+01 0.0 
3.847475958753e+01 -1.916622382724e+01 0.0 
3.653774794640e+01 -1.088712800241e+01 0.0 
4.047886341787e+01 -1.090139014048e+01 0.0 
4.348006339825e+01 -1.092792621489e+01 0.0 
4.919519968029e+01 -1.451526755068e+01 0.0 
4.500000000032e+00 -1.913397459621e+01 0.0 
1.856136921614e+01 -8.212235170404e-01 0.0 
3.499895312306e+00 -8.661165539723e-01 0.0 
9.076088696565e-01 -1.642306201891e+01 0.0 
4.655174095477e+01 -1.086183387525e+01 0.0 
9.430688970604e-01 -3.496112672958e+00 0.0 
3.353992337063e+01 -1.901202090820e+01 0.0 
2.249746016977e+01 -1.921262287282e+01 0.0 
2.650122741777e+01 -1.916123026018e+01 0.0 
1.863571384842e+01 -1.908325534840e+01 0.0 
1.450089971693e+01 -1.917691901860e+01 0.0 
1.350044695317e+01 -8.659695299584e-01 0.0 
3.849987469880e+01 -1.084154983397e+01 0.0 
9.454419857884e+00 -1.900818879936e+01 0.0 
4.917398660523e+01 -1.645692866081e+01 0.0 
8.500000000000e+00 -8.660254037844e-01 0.0 
8.660319230785e-01 -8.500111697188e+00 0.0 
4.649022621545e+01 -1.930506220113e+01 0.0 
2.667688107845e+01 -5.420288124331e+00 0.0 
2.379251615665e+01 -3.412225477429e+00 0.0 
2.966631491830e+01 -7.389030232731e+00 0.0 
3.267915035995e+01 -9.396934932445e+00 0.0 
2.074836922338e+01 -1.320054020319e+00 0.0 
4.915985743621e+01 -1.261973384855e+01 0.0 
2.527129768623e+00 -1.931592414663e+01 0.0 
1.538676247410e+00 -8.436956619311e-01 0.0 
4.908096641539e+01 -1.842484004551e+01 0.0 
3.478612492673e+01 -1.090889364140e+01 0.0 
3.409757055860e+01 -1.131991530427e+01 0.0 
3.501895309466e+01 -1.177687842717e+01 0.0 
3.407758073088e+01 -1.224293381580e+01 0.0 
3.484541875390e+01 -1.277051428430e+01 0.0 
3.400322025842e+01 -1.319022775640e+01 0.0 
3.321672625034e+01 -1.266779191233e+01 0.0 
3.315244139236e+01 -1.360984106532e+01 0.0 
3.236335186892e+01 -1.308463225210e+01 0.0 
3.478337442841e+01 -1.372341158982e+01 0.0 
3.230105923633e+01 -1.403023731610e+01 0.0 
3.150954055289e+01 -1.350301767700e+01 0.0 
3.144604792090e+01 -1.444931742516e+01 0.0 
3.065653897123e+01 -1.392357262981e+01 0.0 
3.071897610812e+01 -1.297447031198e+01 0.0 
2.986790411740e+01 -1.339226181535e+01 0.0 
2.993181466745e+01 -1.244703272398e+01 0.0 
2.908023061869e+01 -1.286254537734e+01 0.0 
2.901619051372e+01 -1.380881655279e+01 0.0 
2.822986160390e+01 -1.327695262116e+01 0.0 
2.829453476870e+01 -1.233265343811e+01 0.0 
2.744542905518e+01 -1.274510491105e+01 0.0 
2.751120089246e+01 -1.180368086886e+01 0.0 
2.666218649885e+01 -1.221619339205e+01 0.0 
2.672371209234e+01 -1.127125228527e+01 0.0 
2.587763216302e+01 -1.168539979114e+01 0.0 
2.581165585299e+01 -1.262994410089e+01 0.0 
2.502890882577e+01 -1.209827323619e+01 0.0 
2.509631327757e+01 -1.115492410304e+01 0.0 
2.424662989877e+01 -1.156630981079e+01 0.0 
2.431704046904e+01 -1.062389179334e+01 0.0 
2.346445438728e+01 -1.103427680694e+01 0.0 
2.339382552877e+01 -1.197964871788e+01 0.0 
2.260936050780e+01 -1.144513277642e+01 0.0 
2.268075012022e+01 -1.049911928216e+01 0.0 
2.182525737661e+01 -1.090920811464e+01 0.0 
2.189682319817e+01 -9.961716944568e+00 0.0 
2.104174127792e+01 -1.037266986667e+01 0.0 
2.111304367575e+01 -9.424179358711e+00 0.0 
2.025306185381e+01 -9.832727364719e+00 0.0 
2.018141124247e+01 -1.079140628871e+01 0.0 
1.938594498257e+01 -1.025147354112e+01 0.0 
1.946106490453e+01 -9.288010758448e+00 0.0 
1.858929958352e+01 -9.706319802516e+00 0.0 
1.851540991219e+01 -1.067205988724e+01 0.0 
1.771485303178e+01 -1.012504443115e+01 0.0 
1.764134552256e+01 -1.109360378538e+01 0.0 
1.683745148095e+01 -1.054496365337e+01 0.0 
1.691852964353e+01 -9.582555261178e+00 0.0 
1.603603813062e+01 -1.000160132379e+01 0.0 
1.595824239350e+01 -1.096750698862e+01 0.0 
1.515080624291e+01 -1.041639501931e+01 0.0 
1.523171602559e+01 -9.451711491453e+00 0.0 
1.434621060709e+01 -9.871956467464e+00 0.0 
1.426777178765e+01 -1.083749501371e+01 0.0 
1.345775282374e+01 -1.028803175500e+01 0.0 
1.354103873368e+01 -9.324918457162e+00 0.0 
1.265072018622e+01 -9.742612837270e+00 0.0 
1.257285762070e+01 -1.071557782384e+01 0.0 
1.175874815690e+01 -1.015972324288e+01 0.0 
1.184203019714e+01 -9.193604071377e+00 0.0 
1.094927709905e+01 -9.612103238656e+00 0.0 
1.086938022910e+01 -1.058685085646e+01 0.0 
1.005424098961e+01 -1.002939116380e+01 0.0 
9.977974613295e+00 -1.101324897989e+01 0.0 
1.012915646404e+01 -9.051815821181e+00 0.0 
9.237127782494e+00 -9.471239055559e+00 0.0 
9.308426593771e+00 -8.483376461131e+00 0.0 
8.418806073345e+00 -8.910712374517e+00 0.0 
2.253688464062e+01 -1.239459402279e+01 0.0 
8.495126726666e+00 -7.921646665254e+00 0.0 
9.389727383206e+00 -7.512103628377e+00 0.0 
7.601560812974e+00 -8.349460349344e+00 0.0 
7.525680547759e+00 -9.339736686940e+00 0.0 
7.677888324502e+00 -7.359727833346e+00 0.0 
6.782001206724e+00 -7.788454494773e+00 0.0 
6.858778622885e+00 -6.797338062822e+00 0.0 
2.196596590865e+01 -8.979025665442e+00 0.0 
2.816540108272e+01 -1.422634142353e+01 0.0 
5.961601194403e+00 -7.226824010712e+00 0.0 
6.038171749656e+00 -6.234825887079e+00 0.0 
6.936257279557e+00 -5.805287640737e+00 0.0 
6.115068918323e+00 -5.242109758768e+00 0.0 
3.564391741903e+01 -1.329240553876e+01 0.0 
3.558115605778e+01 -1.425902892003e+01 0.0 
3.645445282201e+01 -1.381970786460e+01 0.0 
3.639744204358e+01 -1.479198128612e+01 0.0 
3.727266909778e+01 -1.435399586226e+01 0.0 
5.216667013081e+00 -5.671788584287e+00 0.0 
3.220697293295e+01 -1.499594545107e+01 0.0 
3.551112158269e+01 -1.523479869250e+01 0.0 
2.836056961467e+01 -1.139032434851e+01 0.0 
2.516730388602e+01 -1.021382726837e+01 0.0 
1.844436907403e+01 -1.164097215196e+01 0.0 
5.885434318740e+00 -8.218694781467e+00 0.0 
5.064071066867e+00 -7.656614643901e+00 0.0 
4.988089103470e+00 -8.649722082718e+00 0.0 
1.079421050408e+01 -1.157014985435e+01 0.0 
9.902420005256e+00 -1.199903342656e+01 0.0 
1.071994252214e+01 -1.255727909771e+01 0.0 
9.826974788171e+00 -1.298659581767e+01 0.0 
1.064607883789e+01 -1.354595476388e+01 0.0 
9.751541265343e+00 -1.397556905071e+01 0.0 
8.932296185869e+00 -1.341553353988e+01 0.0 
8.856399248106e+00 -1.440570715508e+01 0.0 
8.036186803543e+00 -1.384470558472e+01 0.0 
1.057112875118e+01 -1.453516759081e+01 0.0 
1.146582585687e+01 -1.410539926903e+01 0.0 
7.959894480382e+00 -1.483563350928e+01 0.0 
7.138792279156e+00 -1.427465094140e+01 0.0 
7.062506792418e+00 -1.526615385482e+01 0.0 
6.240693558277e+00 -1.470508863040e+01 0.0 
6.316957575451e+00 -1.371212581281e+01 0.0 
5.418183007107e+00 -1.414253605022e+01 0.0 
5.494748364428e+00 -1.314886770603e+01 0.0 
1.756825565873e+01 -1.206433872514e+01 0.0 
1.837565773345e+01 -1.261356468266e+01 0.0 
1.749574831391e+01 -1.303769280014e+01 0.0 
1.830539187332e+01 -1.358828364284e+01 0.0 
1.742278925170e+01 -1.401367746928e+01 0.0 
1.823303007798e+01 -1.456432294258e+01 0.0 
1.734941694138e+01 -1.499213734361e+01 0.0 
1.653760041637e+01 -1.443920312098e+01 0.0 
3.056237977307e+01 -1.487132260174e+01 0.0 
1.866469084762e+01 -8.742953000418e+00 0.0 
1.953669694916e+01 -8.326038909849e+00 0.0 
1.874194303780e+01 -7.780688158966e+00 0.0 
1.961032016741e+01 -7.366854697285e+00 0.0 
1.881715755159e+01 -6.821102209649e+00 0.0 
1.968369797150e+01 -6.407747217358e+00 0.0 
1.889237123259e+01 -5.858375520026e+00 0.0 
1.802038875366e+01 -6.276202618170e+00 0.0 
1.809793837984e+01 -5.307629520489e+00 0.0 
1.721985207997e+01 -5.728242054488e+00 0.0 
1.729850893523e+01 -4.756990819347e+00 0.0 
1.641745664240e+01 -5.174636548624e+00 0.0 
2.495978509456e+01 -1.304406404294e+01 0.0 
1.911567814831e+01 -1.413854250293e+01 0.0 
1.904387332608e+01 -1.511463127723e+01 0.0 
1.992115934240e+01 -1.468788025898e+01 0.0 
7.013706899628e+00 -4.812582868662e+00 0.0 
5.342091874585e+00 -1.513658157269e+01 0.0 
1.139098043784e+01 -1.509488509480e+01 0.0 
1.228151810610e+01 -1.465617481983e+01 0.0 
1.646373110164e+01 -1.541993323337e+01 0.0 
5.293328636712e+00 -4.678385108584e+00 0.0 
1.975965862987e+01 -5.448124345648e+00 0.0 
2.054318374236e+01 -5.992561293251e+00 0.0 
3.721453439063e+01 -1.533216152738e+01 0.0 
3.809302733893e+01 -1.489235527381e+01 0.0 
1.220852788900e+01 -1.565304565230e+01 0.0 
4.394120899730e+00 -5.108397613210e+00 0.0 
8.779354620288e+00 -1.539524721159e+01 0.0 
1.817791047702e+01 -4.338570146253e+00 0.0 
4.518860013839e+00 -1.457343189307e+01 0.0 
4.442712140414e+00 -1.556841391069e+01 0.0 
8.115343466391e+00 -1.285760324283e+01 0.0 
1.985334703171e+01 -1.566478400426e+01 0.0 
2.071953850276e+01 -1.522074243119e+01 0.0 
1.634012953883e+01 -6.154777738301e+00 0.0 
1.553479994708e+01 -5.593730508879e+00 0.0 
1.561265946942e+01 -4.617761762647e+00 0.0 
1.470674212978e+01 -5.064576488228e+00 0.0 
1.464498299883e+01 -6.026514471420e+00 0.0 
1.383271561817e+01 -5.467796261169e+00 0.0 
1.389241253067e+01 -4.504338666645e+00 0.0 
1.301868735463e+01 -4.907185188626e+00 0.0 
1.294514184846e+01 -5.888160903592e+00 0.0 
1.212955968622e+01 -5.328262335277e+00 0.0 
1.220721122383e+01 -4.341264976687e+00 0.0 
1.131324345897e+01 -4.766773516508e+00 0.0 
5.266597955397e+00 -1.613148974258e+01 0.0 
1.737805990867e+01 -3.786677807525e+00 0.0 
3.078438094513e+01 -1.203225297748e+01 0.0 
1.131569882285e+01 -1.608511932110e+01 0.0 
1.728478341782e+01 -1.596017432313e+01 0.0 
3.803465906019e+01 -1.587509751228e+01 0.0 
3.891681276677e+01 -1.543395196905e+01 0.0 
3.897340985302e+01 -1.444710288980e+01 0.0 
3.980095968193e+01 -1.499059496613e+01 0.0 
3.974334598189e+01 -1.597921884150e+01 0.0 
4.062964983717e+01 -1.553518690417e+01 0.0 
4.068729602479e+01 -1.454434445295e+01 0.0 
4.151772679790e+01 -1.508974196007e+01 0.0 
4.157505195739e+01 -1.409694289912e+01 0.0 
4.240699932656e+01 -1.464347955968e+01 0.0 
4.234898051011e+01 -1.563721375790e+01 0.0 
4.323934606035e+01 -1.519082036405e+01 0.0 
4.329740528208e+01 -1.419587509788e+01 0.0 
4.413056841369e+01 -1.474359631875e+01 0.0 
4.418850110108e+01 -1.374786684042e+01 0.0 
4.502219770667e+01 -1.429605103525e+01 0.0 
4.496411937907e+01 -1.529215882720e+01 0.0 
4.490027319897e+00 -4.154167794594e+00 0.0 
1.565080385988e+01 -1.486411982419e+01 0.0 
1.557610691279e+01 -1.584855627870e+01 0.0 
4.195350646612e+00 -8.089117689096e+00 0.0 
4.124027797830e+00 -9.082831955007e+00 0.0 
4.917944318925e+00 -9.643530901533e+00 0.0 
4.020105689502e+00 -1.007439673661e+01 0.0 
4.587185899277e+01 -1.484039992728e+01 0.0 
4.580078661551e+01 -1.584043391042e+01 0.0 
2.061956522375e+01 -5.046701343981e+00 0.0 
2.139572955529e+01 -5.579553449826e+00 0.0 
3.715344357292e+01 -1.631485124583e+01 0.0 
3.618886196443e+00 -1.500471207167e+01 0.0 
3.695606940204e+00 -1.400939692294e+01 0.0 
2.438890661143e+01 -9.686110599723e+00 0.0 
2.523267572778e+01 -9.276766000622e+00 0.0 
2.446094171539e+01 -8.751904591412e+00 0.0 
2.529089822738e+01 -8.321495612547e+00 0.0 
2.606882688827e+01 -8.864724051119e+00 0.0 
2.452116646430e+01 -7.792756462004e+00 0.0 
1.235543269617e+01 -1.365845617339e+01 0.0 
4.318116874181e+01 -1.618567469992e+01 0.0 
7.835066111909e+00 -5.376366223896e+00 0.0 
7.905687335704e+00 -4.382539065697e+00 0.0 
3.542640009567e+00 -1.600035116542e+01 0.0 
1.572431503071e+01 -1.388358386695e+01 0.0 
2.574684696680e+01 -1.357896141127e+01 0.0 
2.488842657651e+01 -1.399674354505e+01 0.0 
2.568301775611e+01 -1.453552048595e+01 0.0 
2.481535572009e+01 -1.495542756508e+01 0.0 
2.561729699688e+01 -1.549784648532e+01 0.0 
2.474623061296e+01 -1.592058894178e+01 0.0 
2.394234041695e+01 -1.537572575827e+01 0.0 
2.065825452567e+01 -1.621899055217e+01 0.0 
2.387180528935e+01 -1.634552264687e+01 0.0 
4.585364400844e+01 -1.383912334080e+01 0.0 
1.998744432052e+01 -1.370317155541e+01 0.0 
1.205356951443e+01 -6.313580285498e+00 0.0 
5.396543905849e+00 -3.731818611283e+00 0.0 
1.139652573295e+01 -3.745819399350e+00 0.0 
3.574124306703e+00 -4.551456826011e+00 0.0 
3.494140761930e+00 -5.539787055649e+00 0.0 
1.213651452413e+01 -1.664505033022e+01 0.0 
2.555045568519e+01 -1.646529356744e+01 0.0 
2.641671114986e+01 -1.603899382371e+01 0.0 
2.612920721894e+01 -7.906435260873e+00 0.0 
2.690339829698e+01 -8.456969591431e+00 0.0 
1.978024383368e+01 -1.664410216353e+01 0.0 
3.732829979082e+01 -1.336926601859e+01 0.0 
4.074336584605e+01 -1.355133328401e+01 0.0 
4.163204691081e+01 -1.310280943992e+01 0.0 
3.773826114429e+00 -3.493444309145e+00 0.0 
1.228783001032e+01 -3.374822835872e+00 0.0 
4.057110462520e+01 -1.652588478000e+01 0.0 
2.132535497898e+01 -6.523623360525e+00 0.0 
2.216932532211e+01 -6.110044769206e+00 0.0 
1.825781152128e+01 -3.370146817147e+00 0.0 
1.745679445888e+01 -2.812942552063e+00 0.0 
4.666517057280e+01 -1.539981381543e+01 0.0 
4.660575894464e+01 -1.639014410186e+01 0.0 
4.838230979954e+00 -1.063643436446e+01 0.0 
3.938942630206e+00 -1.106778981745e+01 0.0 
1.302967218620e+01 -1.621373452436e+01 0.0 
1.049548003190e+01 -4.204825123240e+00 0.0 
4.573571907195e+01 -1.683820511148e+01 0.0 
1.483686335807e+01 -1.430849689310e+01 0.0 
1.490982658890e+01 -1.332679386284e+01 0.0 
3.190805600162e+00 -9.510968358545e+00 0.0 
2.146625721848e+01 -4.642437303115e+00 0.0 
2.069866208266e+01 -4.111852942193e+00 0.0 
1.286859345584e+01 -6.873252723348e+00 0.0 
1.041794493184e+01 -5.194814260291e+00 0.0 
2.671081808965e+00 -4.976806516331e+00 0.0 
1.295786792925e+01 -1.720506531799e+01 0.0 
3.968438206511e+01 -1.696869067241e+01 0.0 
2.308550456051e+01 -1.579963151273e+01 0.0 
2.315593682844e+01 -1.482967445235e+01 0.0 
2.299471449450e+01 -1.677069968132e+01 0.0 
1.057344714696e+01 -3.214252277840e+00 0.0 
1.124057603753e+01 -1.707713739755e+01 0.0 
2.718402535754e+00 -1.543629882103e+01 0.0 
2.638549692805e+01 -1.696744916809e+01 0.0 
2.723416349007e+01 -1.658104204545e+01 0.0 
2.210193351704e+01 -7.046769643417e+00 0.0 
2.295180925161e+01 -6.657397605239e+00 0.0 
2.301355235833e+01 -5.709111896800e+00 0.0 
2.379052718281e+01 -6.254965406962e+00 0.0 
3.243528601237e+01 -1.214181853533e+01 0.0 
2.287977995457e+01 -7.583722368300e+00 0.0 
2.999876029544e+01 -1.150837653096e+01 0.0 
3.084435366963e+01 -1.109693775882e+01 0.0 
3.006650579669e+01 -1.057778994262e+01 0.0 
2.683802665066e+01 -9.386863216633e+00 0.0 
2.768641973621e+01 -8.988883915666e+00 0.0 
2.040296980397e+01 -7.903629133404e+00 0.0 
1.925235024054e+01 -1.218872783130e+01 0.0 
5.735667000424e+00 -1.020577277283e+01 0.0 
6.396559909872e+00 -1.272326295703e+01 0.0 
1.161199420714e+01 -1.212812778229e+01 0.0 
4.229046132615e+01 -1.663084237572e+01 0.0 
4.312275399692e+01 -1.718087491556e+01 0.0 
4.335502068163e+01 -1.320039231514e+01 0.0 
4.424630298089e+01 -1.275160688731e+01 0.0 
7.090116643816e+00 -3.818998061530e+00 0.0 
7.989472176569e+00 -3.389238711200e+00 0.0 
9.085824861778e+00 -1.144036167408e+01 0.0 
1.041972423731e+01 -1.651614080893e+01 0.0 
3.797525112640e+01 -1.686052038746e+01 0.0 
3.709114253394e+01 -1.730125999865e+01 0.0 
3.626966748340e+01 -1.675477052919e+01 0.0 
1.385164591440e+01 -1.677597757552e+01 0.0 
1.787152588784e+01 -8.198993896093e+00 0.0 
1.668849729812e+01 -1.248560611628e+01 0.0 
1.659546177905e+01 -3.232482605530e+00 0.0 
2.332214717345e+01 -1.292598167641e+01 0.0 
7.168238450786e+00 -2.824711686516e+00 0.0 
2.894878403906e+01 -1.475427524446e+01 0.0 
2.646763248247e+00 -1.643270107952e+01 0.0 
3.467431944285e+00 -1.699648837348e+01 0.0 
2.059475877282e+01 -1.719473628526e+01 0.0 
3.333868355437e+01 -1.080596971682e+01 0.0 
2.246451062637e+01 -1.334557761546e+01 0.0 
2.167821896388e+01 -1.280847834858e+01 0.0 
3.089653185767e+01 -1.017198487212e+01 0.0 
3.012604365669e+01 -9.657298805968e+00 0.0 
2.929627299435e+01 -1.006100135274e+01 0.0 
2.936201435219e+01 -9.136748899251e+00 0.0 
1.198219052702e+01 -7.291887238230e+00 0.0 
1.116702076035e+01 -6.731976101053e+00 0.0 
2.551388807505e+01 -1.746927036981e+01 0.0 
2.378639090370e+01 -1.728678807149e+01 0.0 
2.718543627188e+01 -1.748668016909e+01 0.0 
2.804681050301e+01 -1.712626668293e+01 0.0 
1.970737034667e+01 -1.762317646822e+01 0.0 
1.889535776135e+01 -1.707158098231e+01 0.0 
2.593777711283e+00 -5.971157087874e+00 0.0 
2.773468281110e+01 -8.067164273938e+00 0.0 
4.051205884347e+01 -1.751819982458e+01 0.0 
3.166903145421e+01 -1.068032992414e+01 0.0 
1.033042452886e+01 -1.748285844336e+01 0.0 
9.519274604626e+00 -1.694349240233e+01 0.0 
1.668308673328e+01 -2.255861778986e+00 0.0 
1.570531902832e+01 -2.676795860126e+00 0.0 
4.655826903379e+01 -1.736656245706e+01 0.0 
2.384148070773e+01 -5.328744256413e+00 0.0 
2.460255123641e+01 -5.852182672816e+00 0.0 
2.306638135119e+01 -4.798935440613e+00 0.0 
8.467720450578e-01 -1.849576263072e+01 0.0 
4.849657322345e+01 -1.084860705506e+01 0.0 
2.565860899507e+00 -1.742859793981e+01 0.0 
2.764418872564e+01 -9.927142821799e+00 0.0 
4.565165880064e+01 -1.785336695404e+01 0.0 
2.162231831329e+01 -1.376528337468e+01 0.0 
2.360646352969e+01 -9.136041963102e+00 0.0 
1.392738739903e+01 -1.578285505772e+01 0.0 
4.756405947478e+01 -1.683706841809e+01 0.0 
4.740895034054e+01 -1.793766756892e+01 0.0 
4.080779328826e+01 -1.257387192544e+01 0.0 
4.168907939671e+01 -1.210739129181e+01 0.0 
3.991197722154e+01 -1.300815793917e+01 0.0 
1.905536506762e+01 -3.940076697685e+00 0.0 
1.923879596617e+01 -2.875000734166e+00 0.0 
4.401386745746e+01 -1.673483229438e+01 0.0 
4.247233362525e+00 -7.094581653070e+00 0.0 
3.286051630211e+00 -7.635300020553e+00 0.0 
9.609533347623e+00 -4.594311677967e+00 0.0 
9.523554636369e+00 -5.595597029530e+00 0.0 
5.660336628893e+00 -1.119290329628e+01 0.0 
6.558070063295e+00 -1.076385809362e+01 0.0 
2.809866407414e+01 -1.518037766799e+01 0.0 
2.888868674504e+01 -1.570360690070e+01 0.0 
2.654431550819e+01 -1.411217777162e+01 0.0 
1.402158265969e+01 -1.375404617952e+01 0.0 
1.409592494026e+01 -1.277071998942e+01 0.0 
1.499355196178e+01 -1.235270737023e+01 0.0 
4.221535326155e+01 -1.759335617494e+01 0.0 
4.305583287033e+01 -1.822663146802e+01 0.0 
1.280748808359e+01 -7.834332838285e+00 0.0 
1.368988389326e+01 -7.420529606172e+00 0.0 
1.110091796060e+01 -7.683966794328e+00 0.0 
3.963446145980e+01 -1.794331310122e+01 0.0 
3.423932362213e+00 -1.796415590455e+01 0.0 
4.280814572302e+00 -1.752272834860e+01 0.0 
8.050136380041e+00 -2.421582378631e+00 0.0 
8.888674091650e+00 -2.984264211327e+00 0.0 
2.152839430898e+01 -3.732609965436e+00 0.0 
2.077799585292e+01 -3.183896021866e+00 0.0 
3.618719395821e+01 -1.770276572576e+01 0.0 
3.538165138340e+01 -1.718709995539e+01 0.0 
3.702925326420e+01 -1.828844288807e+01 0.0 
1.756739438711e+00 -5.353284859169e+00 0.0 
2.233710191104e+01 -1.527265621324e+01 0.0 
1.389483555057e+01 -1.771797164730e+01 0.0 
1.475634224300e+01 -1.728357428390e+01 0.0 
1.298797563052e+01 -1.825968924755e+01 0.0 
2.145331271866e+01 -1.673705379077e+01 0.0 
2.133282821169e+01 -1.769400773673e+01 0.0 
2.292139194136e+01 -1.774915400288e+01 0.0 
1.750750053243e+01 -1.861475593469e+00 0.0 
4.830478841772e+01 -1.752611802221e+01 0.0 
4.341203507805e+01 -1.220326745522e+01 0.0 
1.685254151866e+01 -1.443085301632e+00 0.0 
4.431538535165e+01 -1.171841387375e+01 0.0 
4.511308610496e+01 -1.229557320599e+01 0.0 
4.510133242889e+01 -1.123680627466e+01 0.0 
1.846818030617e+00 -4.410877617069e+00 0.0 
3.995468694584e+01 -1.186571542989e+01 0.0 
3.901387459804e+01 -1.242507616755e+01 0.0 
8.966735877533e+00 -1.837818700423e+00 0.0 
4.049310011091e+01 -1.848269508791e+01 0.0 
7.278862053803e+00 -1.918523922691e+00 0.0 
6.429715522129e+00 -2.316676521184e+00 0.0 
9.443505505022e+00 -1.792198868094e+01 0.0 
8.620386951051e+00 -1.737590365556e+01 0.0 
8.571868171503e+00 -1.834436667826e+01 0.0 
7.758629848526e+00 -1.775677907213e+01 0.0 
7.806648388584e+00 -1.680761266021e+01 0.0 
6.908555145436e+00 -1.723746463044e+01 0.0 
4.251709122090e+01 -1.156937480156e+01 0.0 
6.931136405615e+00 -1.832465719263e+01 0.0 
6.015545461353e+00 -1.768865355295e+01 0.0 
5.960535926343e+00 -1.872011001764e+01 0.0 
3.023253444786e+01 -8.761960642196e+00 0.0 
2.454622702599e+01 -6.749421992767e+00 0.0 
2.537499741604e+01 -6.347634963783e+00 0.0 
2.544077378460e+01 -5.431358513649e+00 0.0 
2.801367161747e+01 -1.820907270221e+01 0.0 
2.884507806914e+01 -1.762032095326e+01 0.0 
1.821474531936e+00 -1.588901260460e+01 0.0 
1.821006262604e+00 -1.489370287756e+01 0.0 
4.599962488908e+01 -1.176478780598e+01 0.0 
4.705457470007e+01 -1.172182804229e+01 0.0 
4.667668314802e+01 -1.263464558483e+01 0.0 
4.759648056504e+01 -1.252380987933e+01 0.0 
4.728041618103e+01 -1.341928568376e+01 0.0 
4.825209352360e+01 -1.330491640804e+01 0.0 
4.778118233428e+01 -1.420151961695e+01 0.0 
2.388192727579e+01 -1.826934810142e+01 0.0 
2.381714684947e+01 -4.385917965223e+00 0.0 
3.172733219247e+01 -9.758744265248e+00 0.0 
1.882012070658e+01 -1.805540597212e+01 0.0 
1.805667505243e+01 -1.742221226236e+01 0.0 
2.852599958080e+01 -8.597196079481e+00 0.0 
2.856486123437e+01 -7.661382718527e+00 0.0 
1.111792842875e+01 -1.818223852980e+01 0.0 
2.203322722466e+01 -7.986646678802e+00 0.0 
3.955703676900e+01 -1.903246763601e+01 0.0 
1.944842206513e+01 -8.038750575182e-01 0.0 
1.909882767783e+01 -1.746322740933e+00 0.0 
2.281147422941e+01 -8.525912918334e+00 0.0 
2.850633001468e+01 -9.533271335986e+00 0.0 
2.532883344309e+01 -7.308951659710e+00 0.0 
2.620475466461e+01 -6.979208585400e+00 0.0 
1.396278270396e+01 -1.475095389807e+01 0.0 
9.791001166724e+00 -2.554159793552e+00 0.0 
2.229293380421e+01 -4.269762271052e+00 0.0 
4.677238984118e+01 -1.430071795514e+01 0.0 
2.228658385918e+01 -3.344747535984e+00 0.0 
8.940223674553e-01 -1.543595733415e+01 0.0 
2.118566862474e+01 -8.435876987696e+00 0.0 
2.678325936437e+01 -1.032621195706e+01 0.0 
2.223400220487e+01 -5.179046761770e+00 0.0 
2.375370625384e+01 -7.251580562134e+00 0.0 
3.156971327386e+01 -1.255534750737e+01 0.0 
3.328226391312e+01 -1.172914813316e+01 0.0 
3.250948774219e+01 -1.120157009348e+01 0.0 
2.032993445717e+01 -8.867880112202e+00 0.0 
2.697226974856e+01 -7.536633082045e+00 0.0 
2.707377810386e+01 -6.590835263295e+00 0.0 
2.914099246827e+01 -1.191678458549e+01 0.0 
3.544824072239e+01 -1.621126558525e+01 0.0 
3.456511855436e+01 -1.665054783843e+01 0.0 
3.448395810225e+01 -1.759117813016e+01 0.0 
3.368378673938e+01 -1.708037781328e+01 0.0 
3.375560452567e+01 -1.610973066913e+01 0.0 
3.288001547988e+01 -1.654324255651e+01 0.0 
3.282475929147e+01 -1.749725654692e+01 0.0 
3.199880906313e+01 -1.697294088625e+01 0.0 
3.197001272932e+01 -1.811667776864e+01 0.0 
3.111884713021e+01 -1.742166785755e+01 0.0 
3.120418962865e+01 -1.642155709385e+01 0.0 
3.034666704371e+01 -1.683123833816e+01 0.0 
3.026224379976e+01 -1.772592851714e+01 0.0 
3.046632362943e+01 -1.582232843075e+01 0.0 
1.961344017324e+01 -1.857459447985e+01 0.0 
2.274975894774e+01 -9.532738811922e+00 0.0 
1.833923246887e+01 -2.396746883672e+00 0.0 
1.988859500848e+01 -2.249244376594e+00 0.0 
2.758045562861e+01 -1.086434261689e+01 0.0 
3.247300178163e+01 -1.909930104252e+01 0.0 
3.461947482503e+01 -1.911879848019e+01 0.0 
2.047161538662e+01 -6.941478180358e+00 0.0 
2.750230940214e+01 -1.915490590764e+01 0.0 
3.165081350803e+01 -1.161860780120e+01 0.0 
1.897456727641e+01 -4.889634688522e+00 0.0 
2.549338539756e+01 -1.914858252089e+01 0.0 
3.462873135081e+01 -1.567482276144e+01 0.0 
3.384432415243e+01 -1.512280684518e+01 0.0 
3.471433767690e+01 -1.469086942990e+01 0.0 
3.651470373046e+01 -1.918207952149e+01 0.0 
3.901742690249e+01 -1.345028556517e+01 0.0 
2.153224102692e+01 -1.920169709333e+01 0.0 
1.918382939341e+01 -1.316226275662e+01 0.0 
2.005389162382e+01 -1.271962165174e+01 0.0 
2.011472087878e+01 -1.175029352900e+01 0.0 
3.210679478412e+01 -1.598038618242e+01 0.0 
1.752175226543e+01 -1.914713022656e+01 0.0 
1.696897240059e+01 -1.832772588765e+01 0.0 
1.599682523337e+01 -1.832599992024e+01 0.0 
1.644507199462e+01 -1.743697981535e+01 0.0 
1.549987712903e+01 -1.915192375101e+01 0.0 
3.050250861901e+01 -1.918943550234e+01 0.0 
2.949944061527e+01 -1.922950455235e+01 0.0 
1.375892575273e+01 -6.447160534926e+00 0.0 
1.457223670180e+01 -7.006709243857e+00 0.0 
1.450818793236e+01 -7.965943451779e+00 0.0 
1.538804712402e+01 -7.553409623699e+00 0.0 
1.545817644768e+01 -6.580929593419e+00 0.0 
1.626506893751e+01 -7.129032608911e+00 0.0 
1.619833811522e+01 -8.086588580887e+00 0.0 
1.714448609609e+01 -6.697429609777e+00 0.0 
2.887616543568e+01 -1.668015232137e+01 0.0 
1.349814589130e+01 -1.918225301544e+01 0.0 
1.153887772210e+01 -1.311384581217e+01 0.0 
1.242708159886e+01 -1.267046795531e+01 0.0 
1.249799674267e+01 -1.169005616014e+01 0.0 
6.631723893693e+00 -9.774184881867e+00 0.0 
7.451471631867e+00 -1.033148796006e+01 0.0 
7.377795355458e+00 -1.132196345268e+01 0.0 
5.810931797536e+00 -9.211654212252e+00 0.0 
2.402683899133e+01 -1.441378562320e+01 0.0 
1.249768692036e+01 -1.917388426624e+01 0.0 
1.580373499437e+01 -1.290751860664e+01 0.0 
8.344650507834e+00 -9.898403995170e+00 0.0 
3.750622115305e+01 -1.086526401533e+01 0.0 
3.699391251667e+01 -1.171695900794e+01 0.0 
3.606517829518e+01 -1.173717504500e+01 0.0 
3.650257641795e+01 -1.270047380221e+01 0.0 
3.808951488918e+01 -1.183518714175e+01 0.0 
4.760380962420e+00 -1.162484888315e+01 0.0 
3.861210370848e+00 -1.205657631736e+01 0.0 
3.038284309476e+00 -1.149851280664e+01 0.0 
2.961598794889e+00 -1.248856794980e+01 0.0 
2.138953225512e+00 -1.193212674534e+01 0.0 
2.227383593457e+00 -1.096258903918e+01 0.0 
2.043265419276e+00 -1.292158472959e+01 0.0 
1.252449446028e+00 -1.225502002753e+01 0.0 
3.949985210740e+01 -1.086594001795e+01 0.0 
1.453499444792e+01 -8.768805922472e-01 0.0 
1.403518950933e+01 -1.749965556633e+00 0.0 
1.300715031023e+01 -1.714737233040e+00 0.0 
1.350929389899e+01 -2.527443911291e+00 0.0 
1.449600910711e+01 -2.595486162864e+00 0.0 
1.395693872901e+01 -3.484211041558e+00 0.0 
1.495105865208e+01 -3.364609636216e+00 0.0 
1.508822528740e+01 -1.766586020494e+00 0.0 
1.250223858430e+01 -8.634590186802e-01 0.0 
1.200279523409e+01 -1.709044504992e+00 0.0 
1.150086239419e+01 -8.592789190668e-01 0.0 
1.101482754194e+01 -1.677730591922e+00 0.0 
1.148018564526e+01 -2.659323866909e+00 0.0 
8.800552119754e+00 -3.989875954728e+00 0.0 
3.452790439430e+00 -1.901136170646e+01 0.0 
8.658451825200e-01 -9.503462241795e+00 0.0 
1.694787786797e+00 -9.000589234502e+00 0.0 
1.703436717094e+00 -8.038819004041e+00 0.0 
2.594197971110e+00 -8.563955242845e+00 0.0 
1.630513735412e+00 -9.907244747511e+00 0.0 
8.566859292791e-01 -7.512203837972e+00 0.0 
1.685461277022e+00 -7.164280248030e+00 0.0 
2.506394468801e+00 -8.623386730818e-01 0.0 
2.007475081581e+00 -1.727729545205e+00 0.0 
9.211534699767e-01 -1.628791366312e+00 0.0 
1.500000000020e+00 -2.598063549486e+00 0.0 
2.482078929963e+00 -2.553580088725e+00 0.0 
2.999795253092e+00 -1.732169015019e+00 0.0 
3.999712607169e+00 -1.728832897453e+00 0.0 
4.499752199340e+00 -8.656478679175e-01 0.0 
4.964377774841e+00 -1.730129617941e+00 0.0 
4.425017908337e+00 -2.597541756243e+00 0.0 
5.446573195014e+00 -8.410144840023e-01 0.0 
4.915722346614e+01 -1.550640962770e+01 0.0 
4.826794919243e+01 -1.600000000000e+01 0.0 
1.053139533193e+01 -1.911782884365e+01 0.0 
4.156049861949e+01 -1.095160998589e+01 0.0 
9.494526624416e+00 -8.650570090219e-01 0.0 
4.555762166964e+01 -1.897098103585e+01 0.0 
4.250656411371e+01 -1.914387356218e+01 0.0 
4.350906466345e+01 -1.917234727395e+01 0.0 
8.759665722424e-01 -1.746422130609e+01 0.0 
1.698936011838e+00 -1.795012186674e+01 0.0 
4.742476811029e+01 -1.900090177972e+01 0.0 
7.749196752349e+00 -6.368049313489e+00 0.0 
3.361572113416e+01 -1.798765193915e+01 0.0 
4.484660149212e+01 -1.728661231383e+01 0.0 
1.984038172228e+01 -4.502575320116e+00 0.0 
1.035080352627e+01 -6.166639575753e+00 0.0 
2.753558010652e+00 -1.444909521181e+01 0.0 
7.217069543032e+00 -1.328635391078e+01 0.0 
4.364336727739e+00 -1.655585677381e+01 0.0 
4.595208426108e+00 -1.357919665443e+01 0.0 
6.164967006980e+00 -1.569873454630e+01 0.0 
1.487855768353e+01 -1.826523774028e+01 0.0 
2.791876456372e+00 -4.019632415181e+00 0.0 
4.246464893515e+01 -1.364898659620e+01 0.0 
4.503855590351e+01 -1.329552780944e+01 0.0 
4.407239109604e+01 -1.573900004093e+01 0.0 
5.141054449252e+00 -6.664290382472e+00 0.0 
3.141083947149e+00 -1.055790764912e+01 0.0 
6.196463198741e+00 -4.256497932609e+00 0.0 
2.599618716181e+01 -1.836893455464e+01 0.0 
2.923057372337e+01 -1.098461757645e+01 0.0 
1.168343877486e+01 -1.114079645041e+01 0.0 
6.706222096238e+00 -8.780364234441e+00 0.0 
8.567858614669e+00 -6.943121440850e+00 0.0 
1.123755132901e+01 -5.753525820030e+00 0.0 
2.353456234423e+01 -1.008536320953e+01 0.0 
9.162073319168e+00 -1.045593739109e+01 0.0 
9.676343469685e+00 -1.496493008366e+01 0.0 
4.490637882905e+01 -1.628778970202e+01 0.0 
7.398129387772e+00 -9.639977982323e-01 0.0 
1.049641705805e+01 -1.552503975272e+01 0.0 
9.010356286268e+00 -1.242805042052e+01 0.0 
3.985573925497e+01 -1.399863651620e+01 0.0 
1.816196318262e+01 -1.554066497931e+01 0.0 
1.306332244168e+01 -3.963646550326e+00 0.0 
4.145850903932e+01 -1.608094559275e+01 0.0 
3.794664933633e+01 -1.779020121986e+01 0.0 
3.819614412903e+01 -1.290749321016e+01 0.0 
6.270014188119e+00 -3.255093186826e+00 0.0 
4.251165370388e+01 -1.263870364997e+01 0.0 
1.207347709171e+01 -1.763942826023e+01 0.0 
3.633240829927e+01 -1.577330481104e+01 0.0 
4.319052668832e+00 -6.101812561904e+00 0.0 
1.676492415806e+01 -1.151547901392e+01 0.0 
2.594059220037e+01 -1.074225223009e+01 0.0 
3.340750911501e+01 -9.898764354137e+00 0.0 
4.397619591281e+01 -1.769773736461e+01 0.0 
2.175611595028e+01 -1.185718747128e+01 0.0 
1.641818733106e+01 -1.640685203215e+01 0.0 
1.661211421753e+01 -1.346121366338e+01 0.0 
3.428853504935e+00 -6.551993389271e+00 0.0 
8.700728832502e+00 -1.638460872825e+01 0.0 
1.931369795309e+01 -1.121629383702e+01 0.0 
4.139798872363e+01 -1.706922153459e+01 0.0 
2.647837478700e+01 -1.507353829290e+01 0.0 
1.779469616424e+01 -9.161615782908e+00 0.0 
3.885879219319e+01 -1.642026488918e+01 0.0 
1.338194936770e+01 -1.125916521471e+01 0.0 
1.897071181111e+01 -1.609204322578e+01 0.0 
2.844308548793e+01 -1.046221003096e+01 0.0 
2.659854702194e+01 -1.316109415760e+01 0.0 
2.979604503271e+01 -1.433296157755e+01 0.0 
2.417694041347e+01 -1.251231397779e+01 0.0 
1.807401327411e+00 -1.388891148480e+01 0.0 
9.599810618782e+00 -1.595439365034e+01 0.0 
1.652144692160e+01 -4.205392788472e+00 0.0 
2.367839450246e+01 -8.188385218643e+00 0.0 
3.814894930468e+01 -1.390748338767e+01 0.0 
2.466448215774e+01 -1.685878545680e+01 0.0 
4.134044524611e+01 -1.806610045954e+01 0.0 
2.600511411958e+01 -9.801774120648e+00 0.0 
7.882158050716e+00 -1.582364037353e+01 0.0 
3.881607873422e+01 -1.737970515013e+01 0.0 
8.270182347708e+00 -1.088622154920e+01 0.0 
8.672520392520e-01 -4.532984309881e+00 0.0 
1.993447205337e+01 -3.579061902667e+00 0.0 
1.794616079549e+01 -7.238038888498e+00 0.0 
2.097277068165e+01 -1.132450168636e+01 0.0 
8.194803300681e+00 -1.187214224265e+01 0.0 
3.522279404911e+01 -1.823342818178e+01 0.0 
6.984481050295e+00 -1.625271465557e+01 0.0 
1.309433007797e+01 -1.521718594215e+01 0.0 
2.150246167611e+01 -1.885399038185e+00 0.0 
3.250689370209e+01 -1.028789870535e+01 0.0 
6.085886272238e+00 -1.668342132851e+01 0.0 
1.588455661727e+01 -1.193498985921e+01 0.0 
1.809323400821e+01 -1.651110084195e+01 0.0 
1.348885082381e+00 -1.136065576512e+01 0.0 
2.497670221995e+01 -1.834631276173e+01 0.0 
2.937062818424e+01 -8.233711194470e+00 0.0 
5.185823744469e+00 -1.711566910207e+01 0.0 
1.477497877209e+01 -1.530177014512e+01 0.0 
2.125346158933e+01 -7.473003997367e+00 0.0 
4.751561118290e+01 -1.084897772632e+01 0.0 
5.056026576843e+00 -1.825750475525e+01 0.0 
1.473948554523e+01 -1.634577436309e+01 0.0 
2.410566630936e+01 -1.345970002612e+01 0.0 
1.507337507513e+01 -1.138527895328e+01 0.0 
3.189857338687e+01 -8.887781229006e+00 0.0 
7.298712468334e+00 -1.230231046246e+01 0.0 
2.738235495295e+01 -1.368931690364e+01 0.0 
3.750141041969e+01 -1.920449893070e+01 0.0 
1.557271965640e+01 -1.683317951731e+01 0.0 
3.393731848929e+01 -1.413034777044e+01 0.0 
6.482156824153e+00 -1.174575135362e+01 0.0 
2.077971718439e+01 -1.421279621836e+01 0.0 
3.455084320178e+00 -2.562590040585e+00 0.0 
3.099056096250e+01 -9.270280416035e+00 0.0 
5.580176125418e+00 -1.217387969259e+01 0.0 
1.707247630389e+01 -7.660651981710e+00 0.0 
1.418658814174e+01 -1.180390575393e+01 0.0 
2.049103025389e+01 -1.811296706038e+01 0.0 
4.680386172316e+00 -1.260396879301e+01 0.0 
1.699679896554e+01 -8.624561788199e+00 0.0 
3.779470168555e+00 -1.303424899720e+01 0.0 
3.036589870126e+01 -7.879832518349e+00 0.0 
3.306993001774e+01 -1.457671062095e+01 0.0 
2.840150110165e+00 -1.346530088269e+01 0.0 
2.732011135052e+01 -1.464591214560e+01 0.0 
5.423639259568e+00 -2.659711955016e+00 0.0 
2.324455961696e+01 -1.387269388211e+01 0.0 
1.752768355571e+00 -1.693128613594e+01 0.0 
1.020244783051e+01 -8.076834012808e+00 0.0 
1.330873875224e+01 -1.222417528206e+01 0.0 
3.297727364880e+01 -1.555480372087e+01 0.0 
2.890929955439e+01 -6.868664170731e+00 0.0 
1.323294664622e+01 -1.320754260334e+01 0.0 
2.726532861246e+01 -1.560593120806e+01 0.0 
2.240020643398e+01 -1.429299177247e+01 0.0 
2.090445823633e+01 -1.228128621332e+01 0.0 
1.315809881502e+01 -1.420739326938e+01 0.0 
2.781328038068e+01 -7.181956082300e+00 0.0 
8.614200829057e+00 -5.936933226306e+00 0.0 
8.714765730069e+00 -4.979270529687e+00 0.0 
1.611881701099e+01 -9.041973294003e+00 0.0 
2.806830314340e+01 -1.614622947108e+01 0.0 
2.084435391396e+00 -3.385085422913e+00 0.0 
3.133211811152e+01 -1.542347619750e+01 0.0 
9.693114650768e+00 -3.590281506442e+00 0.0 
1.531883592202e+01 -8.504584946143e+00 0.0 
2.151589117094e+01 -1.578915763018e+01 0.0 
4.918943882696e+01 -1.355538828056e+01 0.0 
1.443236615188e+01 -8.918701794549e+00 0.0 
8.276250966452e-01 -5.537685192197e+00 0.0 
1.362790867918e+01 -8.374718262212e+00 0.0 
2.083767477370e+01 -1.324843956035e+01 0.0 
1.273834678703e+01 -8.790890389337e+00 0.0 
1.192275845670e+01 -8.242261327467e+00 0.0 
4.477236023583e+01 -1.824312396664e+01 0.0 
1.102989384254e+01 -8.649855800911e+00 0.0 
4.849096516045e+01 -1.917293752213e+01 0.0 
1.588996752238e+00 -1.910230934687e+01 0.0 
4.904245197583e+01 -1.159839008158e+01 0.0 
2.753852929608e+01 -5.782128488093e+00 0.0 
1.756133602833e+01 -8.306130313187e-01 0.0 
2.615423700951e+01 -6.153865090092e+00 0.0 
1.028818761294e+01 -7.122020845892e+00 0.0 
2.970818901196e+01 -1.527821347593e+01 0.0 
4.801461623449e+01 -1.164472570985e+01 0.0 
9.455722100419e+00 -6.546069291118e+00 0.0 
3.089099236677e+01 -1.835339328261e+01 0.0 
2.350000000013e+01 -1.920825896750e+01 0.0 
4.830620531887e+01 -1.506626155470e+01 0.0 
1.725381944701e+01 -1.688794487850e+01 0.0 
2.156246225273e+01 -1.475893794002e+01 0.0 
4.919319648787e+01 -1.742767505896e+01 0.0 
4.437935623576e+01 -1.077662927266e+01 0.0 
1.001520521978e+01 -1.652692675208e+00 0.0 
9.067160240050e-01 -1.441937727541e+01 0.0 
2.603365149390e+01 -4.755996613848e+00 0.0 
2.458344439002e+01 -4.873645517696e+00 0.0 
2.304312390142e+01 -3.836552768096e+00 0.0 
2.546923202198e+00 -6.902480355749e+00 0.0 
1.251534969393e+01 -2.490989965776e+00 0.0 
2.454061833377e+01 -3.933354231935e+00 0.0 
1.788186558740e+01 -1.827424884923e+01 0.0 
4.090785243552e+01 -1.166553231904e+01 0.0 
2.230128851568e+01 -1.623015738726e+01 0.0 
2.302362347568e+01 -2.916239960270e+00 0.0 
3.878119254461e+01 -1.830091164002e+01 0.0 
2.210081359958e+01 -1.829238229150e+01 0.0 
8.443704882233e+00 -1.921993252862e+01 0.0 
2.218405824691e+01 -1.724557581508e+01 0.0 
2.151157503963e+01 -2.790636689331e+00 0.0 
3.741658958955e+01 -1.250400191722e+01 0.0 
2.697247663737e+01 -1.838290202309e+01 0.0 
4.743362342862e+01 -1.585850773010e+01 0.0 
6.671345075358e+00 -1.924977576322e+01 0.0 
3.900825404537e+01 -1.157220003875e+01 0.0 
4.649692961375e+01 -1.836335837481e+01 0.0 
1.578831424832e+01 -3.678284023361e+00 0.0 
4.814208768888e+01 -1.841249298770e+01 0.0 
2.964123298315e+01 -1.625739458193e+01 0.0 
4.580760351902e+01 -1.284294554687e+01 0.0 
3.561520879615e+01 -1.245548941949e+01 0.0 
2.555418095658e+00 -1.841101588290e+01 0.0 
3.288468366144e+01 -1.834258164109e+01 0.0 
2.065894391445e+01 -2.240688571739e+00 0.0 
4.739171429915e+01 -1.496536413446e+01 0.0 
3.478086729185e+00 -8.576434653209e+00 0.0 
1.606010630246e+01 -1.588421807951e+00 0.0 
1.018329200594e+01 -1.834320874317e+01 0.0 
2.957213339430e+01 -1.720496954591e+01 0.0 
4.142712790164e+00 -1.837794506222e+01 0.0 
6.698721532573e-01 -2.499999999997e+00 0.0 
8.037039123140e+00 -1.571229354954e+00 0.0 
1.203541361428e+01 -1.847784298001e+01 0.0 
2.899968332038e+01 -1.848264722179e+01 0.0 
1.469229460948e+01 -4.219485753730e+00 0.0 
4.049590781957e+01 -1.932812501995e+01 0.0 
1.996211678340e+01 -1.506329754720e+00 0.0 
4.250588298353e+01 -1.067383247529e+01 0.0 
5.831497011152e+00 -1.635396227234e+00 0.0 
5.317606125670e+00 -1.923927974868e+01 0.0 
4.208546426993e+01 -1.842830665025e+01 0.0 
2.327553405011e+00 -9.459409929662e+00 0.0 
3.568351902251e+01 -1.096637218582e+01 0.0 
1.682104374890e+00 -6.231413350963e+00 0.0 
2.451812238018e+01 -1.766524914339e+01 0.0 
1.058003429638e+01 -2.391839617098e+00 0.0 
4.399988753123e+01 -1.851998776342e+01 0.0 
1.400000000010e+01 -1.852293523028e+01 0.0 
3.604719565984e+01 -1.850662876800e+01 0.0 
1.951297136734e+01 -1.938092349694e+01 0.0 
1.821365318472e+01 -1.531276353287e+00 0.0 
2.298031859732e+01 -1.854635324722e+01 0.0 
1.552168066204e+01 -1.764280741977e+01 0.0 
4.572957713638e+01 -1.073347898229e+01 0.0 
3.429637429624e+01 -1.838861552790e+01 0.0 
2.427434426052e+00 -7.705577451869e+00 0.0 
4.662792031485e+00 -3.359424455416e+00 0.0 
4.926794919243e+01 -1.926794919243e+01 0.0 
7.320508075690e-01 -7.320508075688e-01 0.0 
4.926794919243e+01 -1.073205080757e+01 0.0 
7.320508075705e-01 -1.926794919243e+01 0.0 
2.917460242467e+00 -3.202866455310e+00 0.0 
4.838200575963e+01 -1.232674147454e+01 0.0 
2.998445708009e+01 -1.854403752148e+01 0.0 
5.949940090766e-01 -1.152762038165e+01 0.0 
4.844763495759e+01 -1.678092548787e+01 0.0 
1.301685480160e+01 -3.170056592566e+00 0.0 
1.650046335855e+01 -6.731535384067e-01 0.0 
4.854881540991e+01 -1.405224059779e+01 0.0 
2.119545114693e+01 -1.846813384545e+01 0.0 
3.797852849897e+01 -1.857978513215e+01 0.0 
4.649823708745e+01 -1.338351810816e+01 0.0 
2.012685900976e+01 -2.889659035009e+00 0.0 
2.953271913273e+01 -1.791558075192e+01 0.0 
2.408509097292e+00 -1.021949208421e+01 0.0 
2.642589566221e+01 -1.773216561448e+01 0.0 
1.730010270775e+01 -1.763165076721e+01 0.0 
2.017406551304e+01 -8.513536440582e-01 0.0 
5.254761581934e-01 -1.249999999999e+01 0.0 
6.640448215642e+00 -1.545337834885e+00 0.0 
7.843361506349e+00 -1.852719839527e+01 0.0 
1.588442191088e+00 -1.066158564320e+01 0.0 
2.431250000000e+01 -2.420918367347e+00 0.0 
4.950961538461e+01 -2.500000000000e+00 0.0 
2.580823483239e+01 -3.416278049680e+00 0.0 
4.950961538461e+01 -3.500000000000e+00 0.0 
2.731250000000e+01 -4.420918367347e+00 0.0 
4.951086956522e+01 -4.500000000000e+00 0.0 
2.880770112393e+01 -5.415638864241e+00 0.0 
4.951086956522e+01 -5.500000000000e+00 0.0 
3.031250000000e+01 -6.420918367347e+00 0.0 
4.951250000000e+01 -6.500000000000e+00 0.0 
3.180701530612e+01 -7.414795918363e+00 0.0 
4.951250000000e+01 -7.500000000000e+00 0.0 
3.331250000000e+01 -8.420918367347e+00 0.0 
4.951470588234e+01 -8.500000000000e+00 0.0 
3.480610198624e+01 -9.413633635267e+00 0.0 
4.951470588234e+01 -9.500000000000e+00 0.0 

SCALARS node_number int
LOOKUP_TABLE default
1
2
3
4
5
6
7
8
9
10
11
12
13
14
15
16
17
18
19
20
21
22
23
24
25
26
27
28
29
30
31
32
33
34
35
36
37
38
39
40
41
42
43
44
45
46
47
48
49
50
51
52
53
54
55
56
57
58
59
60
61
62
63
64
65
66
67
68
69
70
71
72
73
74
75
76
77
78
79
80
81
82
84
85
86
87
88
89
90
91
92
93
95
96
97
98
99
100
101
102
104
105
106
107
108
109
110
111
112
113
114
115
116
117
118
119
120
121
122
123
124
125
126
127
128
129
130
131
132
133
134
135
136
194
195
196
197
198
199
200
201
202
203
204
205
206
207
208
209
210
211
212
213
214
215
216
217
218
219
220
221
222
223
224
225
226
227
228
229
230
231
232
233
234
235
236
237
238
239
240
241
242
243
244
245
246
247
248
249
250
251
252
253
254
255
256
257
258
259
260
261
262
263
264
265
266
267
268
269
270
271
272
273
274
275
276
277
278
279
280
281
282
283
284
285
286
287
288
289
290
291
292
293
294
295
296
297
298
299
300
301
302
303
304
305
306
307
308
309
310
311
312
313
314
315
316
317
318
319
320
321
322
323
324
325
326
327
328
329
330
331
332
333
334
335
336
337
338
339
340
341
342
343
344
345
346
347
348
349
350
351
352
353
354
355
356
357
358
359
360
361
362
363
364
365
366
367
368
369
370
371
372
373
374
375
376
377
378
379
380
381
382
383
384
385
386
387
388
389
390
391
392
393
394
395
396
397
398
399
400
401
402
403
404
405
406
407
408
409
410
411
412
413
414
415
416
417
418
419
420
421
422
423
424
425
426
427
428
429
430
431
432
433
434
435
436
437
438
439
440
441
442
443
444
445
446
447
448
449
450
451
452
453
454
455
456
457
458
459
460
461
462
463
464
465
466
467
468
469
470
471
472
473
474
475
476
477
478
479
480
481
482
483
484
485
486
487
488
489
490
491
492
493
494
495
496
497
498
499
500
501
502
503
504
505
506
507
508
509
510
511
512
513
514
515
516
517
518
519
520
521
522
523
524
525
526
527
528
529
530
531
532
533
534
535
536
537
538
539
540
541
542
543
544
545
546
547
548
549
550
551
552
553
554
555
556
557
558
559
560
561
562
563
564
565
566
567
568
569
570
571
572
573
574
575
576
577
578
579
580
581
582
583
584
585
586
587
588
589
590
591
592
593
594
595
596
597
598
599
600
601
602
603
604
605
606
607
608
609
610
611
612
613
614
615
616
617
618
619
620
621
622
623
624
625
626
627
628
629
630
631
632
633
634
635
636
637
638
639
640
641
642
643
644
645
646
647
648
649
650
651
652
653
654
655
656
657
658
659
660
661
662
663
664
665
666
667
668
669
670
671
672
673
674
675
676
677
678
679
680
681
682
683
684
685
686
687
688
689
690
691
692
693
694
695
696
697
698
699
700
701
702
703
704
705
706
707
708
709
710
711
712
713
714
715
716
717
718
719
720
721
722
723
724
725
726
727
728
729
730
731
732
733
734
735
736
737
738
739
740
741
742
743
744
745
746
747
748
749
750
751
752
753
754
755
756
757
758
759
760
761
762
763
764
765
766
767
768
769
770
771
772
773
774
775
776
777
778
779
780
781
782
783
784
785
786
787
788
789
790
791
792
793
794
795
796
797
798
799
800
801
802
803
804
805
806
807
808
809
810
811
812
813
814
815
816
817
818
819
820
821
822
823
824
825
826
827
828
829
830
831
832
833
834
835
836
837
838
839
840
841
842
843
844
845
846
847
848
849
850
851
852
853
854
855
856
857
858
859
860
861
862
863
864
865
866
867
868
869
870
871
872
873
874
875
876
877
878
879
880
881
882
883
884
885
886
887
888
889
890
891
892
893
894
895
896
897
898
899
900
901
902
903
904
905
906
907
908
909
910
911
912
913
914
915
916
917
918
919
920
921
922
923
924
925
926
927
928
929
930
931
932
933
934
935
936
937
938
939
940
941
942
943
944
945
946
947
948
949
950
951
952
953
954
955
956
957
958
959
960
961
962
963
964
965
966
967
968
969
970
971
972
973
974
975
976
977
978
979
980
981
982
983
984
985
986
987
988
989
990
991
992
993
994
995
996
997
998
999
1000
1001
1002
1003
1004
1005
1006
1007
1008
1009
1010
1011
1012
1013
1014
1015
1016
1017
1018
1019
1020
1021
1022
1023
1024
1025
1026
1027
1028
1029
1030
1031
1032
1033
1034
1035
1036
1037
1038
1039
1040
1041
1042
1043
1044
1045
1046
1047
1048
1049
1050
1051
1052
1053
1054
1055
1056
1057
1058
1059
1060
1061
1062
1063
1064
1065
1066
1067
1068
1069
1070
1071
1072
1073
1074
1075
1076
1077
1078
1079
1080
1081
1082
1083
1084
1085
1086
1087
1088
1089
1090
1091
1092
1093
1094
1095
1096
1097
1098
1099
1100
1101
1102
1103
1104
1105
1106
1107
1108
1109
1110
1111
1112
1113
1114
1115
1116
1117
1118
1119
1120
1121
1122
1123
1124
1125
1126
1127
1128
1129
1130
1131
1132
1133
1134
1135
1136
1137
1138
1139
1140
1141
1142
1143
1144
1145
1146
1147
1148
1149
1150
1151
1152
1153
1154
1155
1156
1157
1158
1159
1160
1161
1162
1163
1164
1165
1166
1167
1168
1169
1170
1171
1172
1173
1174
1175
1176
1177
1178
1179
1180
1181
1182
1183
1184
1185
1186
1187
1188
1189
1190
1191
1192
1193
1194
1195
1196
1197
1198
1199
1200
1201
1202
1203
1204
1205
1206
1207
1208
1209
1210
1211
1212
1213
1214
1215
1216
1217
1218
1219
1220
1221
1222
1223
1224
1225
1226
1227
1228
1229
1230
1231
1232
1233
1234
1235
1236
1237
1238
1239
1240
1241
1242
1243
1244
1245
1246
1247
1248
1249
1250
1251
1252
1253
1254
1255
1256
1257
1258
1259
1260
1261
1262
1263
1264
1269
1270
1271
1272
1273
1274
1275
1276
1277
1278
1279
1280
1281
1282
1283
1284

VECTORS node_mesh_deformation float
0.0 6.733216143190e-02 0.0 
0.000000000000e+00 8.493624804130e-02 0.0 
0.0 0.000000000000e+00 0.0 
0.000000000000e+00 0.000000000000e+00 0.0 
0.0 6.820834888433e-02 0.0 
0.0 6.837249632707e-02 0.0 
0.0 6.786225010675e-02 0.0 
0.0 6.667257202067e-02 0.0 
0.0 6.482289558041e-02 0.0 
0.0 6.246169309046e-02 0.0 
0.0 5.967602873270e-02 0.0 
0.0 5.653230618205e-02 0.0 
0.0 5.309667792594e-02 0.0 
0.0 4.941250239715e-02 0.0 
0.0 4.549590356582e-02 0.0 
0.0 4.136727491251e-02 0.0 
0.0 3.702376273649e-02 0.0 
0.0 3.246148114417e-02 0.0 
0.0 2.766215415519e-02 0.0 
0.0 2.261629485055e-02 0.0 
0.0 1.732281285618e-02 0.0 
0.0 1.178041529701e-02 0.0 
0.0 6.005493708756e-03 0.0 
0.000000000000e+00 0.000000000000e+00 0.0 
0.000000000000e+00 0.000000000000e+00 0.0 
0.000000000000e+00 0.000000000000e+00 0.0 
0.000000000000e+00 0.000000000000e+00 0.0 
0.000000000000e+00 0.000000000000e+00 0.0 
0.000000000000e+00 0.000000000000e+00 0.0 
0.000000000000e+00 0.000000000000e+00 0.0 
0.000000000000e+00 0.000000000000e+00 0.0 
0.000000000000e+00 0.000000000000e+00 0.0 
0.000000000000e+00 0.000000000000e+00 0.0 
0.000000000000e+00 0.000000000000e+00 0.0 
0.000000000000e+00 0.000000000000e+00 0.0 
0.000000000000e+00 0.000000000000e+00 0.0 
0.000000000000e+00 0.000000000000e+00 0.0 
0.000000000000e+00 0.000000000000e+00 0.0 
0.000000000000e+00 0.000000000000e+00 0.0 
0.000000000000e+00 0.000000000000e+00 0.0 
0.000000000000e+00 0.000000000000e+00 0.0 
0.000000000000e+00 0.000000000000e+00 0.0 
0.000000000000e+00 0.000000000000e+00 0.0 
0.000000000000e+00 0.000000000000e+00 0.0 
0.000000000000e+00 0.000000000000e+00 0.0 
0.000000000000e+00 0.000000000000e+00 0.0 
0.000000000000e+00 0.000000000000e+00 0.0 
0.000000000000e+00 0.000000000000e+00 0.0 
0.000000000000e+00 0.000000000000e+00 0.0 
0.000000000000e+00 0.000000000000e+00 0.0 
0.000000000000e+00 0.000000000000e+00 0.0 
0.000000000000e+00 0.000000000000e+00 0.0 
0.000000000000e+00 0.000000000000e+00 0.0 
0.000000000000e+00 0.000000000000e+00 0.0 
0.000000000000e+00 0.000000000000e+00 0.0 
0.000000000000e+00 0.000000000000e+00 0.0 
0.000000000000e+00 0.000000000000e+00 0.0 
0.000000000000e+00 0.000000000000e+00 0.0 
0.000000000000e+00 0.000000000000e+00 0.0 
0.000000000000e+00 0.000000000000e+00 0.0 
0.000000000000e+00 0.000000000000e+00 0.0 
0.000000000000e+00 0.000000000000e+00 0.0 
0.000000000000e+00 0.000000000000e+00 0.0 
0.000000000000e+00 0.000000000000e+00 0.0 
0.000000000000e+00 0.000000000000e+00 0.0 
0.000000000000e+00 0.000000000000e+00 0.0 
0.000000000000e+00 0.000000000000e+00 0.0 
0.000000000000e+00 0.000000000000e+00 0.0 
0.000000000000e+00 0.000000000000e+00 0.0 
0.000000000000e+00 0.000000000000e+00 0.0 
0.000000000000e+00 0.000000000000e+00 0.0 
0.000000000000e+00 0.000000000000e+00 0.0 
0.000000000000e+00 7.805980648690e-02 0.0 
0.000000000000e+00 7.077739011001e-02 0.0 
0.000000000000e+00 6.310158273734e-02 0.0 
0.000000000000e+00 5.505802911599e-02 0.0 
0.000000000000e+00 4.665895588627e-02 0.0 
0.000000000000e+00 3.792662172018e-02 0.0 
0.000000000000e+00 2.887825719519e-02 0.0 
0.000000000000e+00 1.953006629957e-02 0.0 
0.000000000000e+00 9.902742311699e-03 0.0 
-5.787281180925e-03 -1.400531814903e-02 0.0 
2.130741562843e-02 7.645139636746e-02 0.0 
1.245462985274e-03 1.199939120365e-02 0.0 
7.221775290368e-03 3.232558207059e-02 0.0 
1.337090941050e-02 4.744690657094e-02 0.0 
1.831853455815e-02 5.898129595470e-02 0.0 
2.198113052534e-02 6.797497258033e-02 0.0 
2.426965629321e-02 7.443008213247e-02 0.0 
2.518304362430e-02 7.831073634993e-02 0.0 
2.485683745120e-02 7.976114695114e-02 0.0 
2.349969300773e-02 7.903490013535e-02 0.0 
0.000000000000e+00 1.236782496144e-01 0.0 
0.000000000000e+00 1.204851915274e-01 0.0 
0.000000000000e+00 1.167919599920e-01 0.0 
0.000000000000e+00 1.126599903415e-01 0.0 
0.000000000000e+00 1.080172057505e-01 0.0 
0.000000000000e+00 1.029486991948e-01 0.0 
0.000000000000e+00 9.737699960733e-02 0.0 
0.000000000000e+00 9.139153623721e-02 0.0 
1.193312325547e-03 8.492552827642e-02 0.0 
2.378360427713e-03 8.488847048366e-02 0.0 
3.584095902241e-03 8.482094817637e-02 0.0 
4.812658831916e-03 8.471285055960e-02 0.0 
6.069167507221e-03 8.456608795715e-02 0.0 
7.355214984763e-03 8.434687318310e-02 0.0 
8.686310462103e-03 8.406759181099e-02 0.0 
1.006031030904e-02 8.368707945200e-02 0.0 
1.149404304678e-02 8.321225640344e-02 0.0 
1.298919265358e-02 8.259442801430e-02 0.0 
1.454328719096e-02 8.181970222769e-02 0.0 
1.616424024739e-02 8.085087483041e-02 0.0 
1.783832427432e-02 7.965790429326e-02 0.0 
1.955263621161e-02 7.819924479263e-02 0.0 
-2.668003627900e-03 -2.773113445377e-02 0.0 
1.927479226897e-03 -3.444601662273e-02 0.0 
6.948318828215e-03 -3.615819683966e-02 0.0 
1.244216824870e-02 -3.249268350617e-02 0.0 
1.649103649056e-02 -2.099945244279e-02 0.0 
1.877288564996e-02 -6.720801194067e-03 0.0 
1.947069183320e-02 4.376061211036e-03 0.0 
1.949677219261e-02 1.367975737725e-02 0.0 
1.939103920705e-02 2.189689175700e-02 0.0 
1.904931765768e-02 2.945513173000e-02 0.0 
1.838324645004e-02 3.636303234451e-02 0.0 
1.744953712329e-02 4.255715558148e-02 0.0 
1.618275106184e-02 4.820372496746e-02 0.0 
1.450584006798e-02 5.322908379455e-02 0.0 
1.252364808706e-02 5.753621989349e-02 0.0 
1.032490050136e-02 6.103101187548e-02 0.0 
7.941970508246e-03 6.380008634953e-02 0.0 
5.408489893890e-03 6.581894302086e-02 0.0 
2.717390196836e-03 6.696659405527e-02 0.0 
5.359441664901e-03 4.503509589663e-02 0.0 
4.934294685771e-03 5.554811985720e-02 0.0 
4.660109287116e-03 6.496183660299e-02 0.0 
4.525252290303e-03 7.344549379206e-02 0.0 
4.482425520077e-03 8.111677008747e-02 0.0 
4.503520017558e-03 8.799137025097e-02 0.0 
4.678998907952e-03 9.407403039135e-02 0.0 
4.935479142873e-03 9.938908151388e-02 0.0 
5.224551378845e-03 1.039580254225e-01 0.0 
5.506473963329e-03 1.078223952504e-01 0.0 
5.752904694248e-03 1.110594276508e-01 0.0 
5.939830343259e-03 1.137351765631e-01 0.0 
6.048949472259e-03 1.159210929499e-01 0.0 
6.069734103413e-03 1.176874300338e-01 0.0 
5.996624074484e-03 1.190998011249e-01 0.0 
5.830163365410e-03 1.202184236132e-01 0.0 
5.575314164432e-03 1.210959548279e-01 0.0 
5.240714827202e-03 1.217801641056e-01 0.0 
4.835219600345e-03 1.223069624715e-01 0.0 
4.367030229339e-03 1.227080655419e-01 0.0 
3.844125660549e-03 1.230085886945e-01 0.0 
3.277064583209e-03 1.232284512977e-01 0.0 
2.675342428653e-03 1.233853161302e-01 0.0 
2.045597793376e-03 1.234955264556e-01 0.0 
1.393925866857e-03 1.235790042309e-01 0.0 
7.200149236013e-04 1.236831922765e-01 0.0 
1.245293470881e-02 5.734860971563e-02 0.0 
1.181321200982e-02 6.616471635529e-02 0.0 
1.127290085767e-02 7.413918727875e-02 0.0 
1.081326940814e-02 8.131849721128e-02 0.0 
1.042737009285e-02 8.775009536938e-02 0.0 
1.009257045337e-02 9.341101393343e-02 0.0 
9.786095846895e-03 9.832968638929e-02 0.0 
9.492643002837e-03 1.025391790501e-01 0.0 
9.218321901770e-03 1.060959102237e-01 0.0 
8.939495454172e-03 1.090653737979e-01 0.0 
8.642235827814e-03 1.115115225846e-01 0.0 
8.316784239817e-03 1.135044792605e-01 0.0 
7.953880413659e-03 1.151090148276e-01 0.0 
7.548676881136e-03 1.163885494165e-01 0.0 
7.099611881934e-03 1.173998266017e-01 0.0 
6.607593726592e-03 1.181922111023e-01 0.0 
6.074224817418e-03 1.188076006669e-01 0.0 
5.502633176917e-03 1.192797420922e-01 0.0 
4.896446136293e-03 1.196373889987e-01 0.0 
4.260125367232e-03 1.199044480892e-01 0.0 
3.598878654692e-03 1.200998089414e-01 0.0 
2.917984354049e-03 1.202393593098e-01 0.0 
2.222457226722e-03 1.203375352817e-01 0.0 
1.514444927210e-03 1.204060107615e-01 0.0 
7.649690003433e-04 1.204344459988e-01 0.0 
8.719616548873e-04 1.168161430425e-01 0.0 
1.694695528059e-03 1.167543841168e-01 0.0 
2.508702924928e-03 1.166888512707e-01 0.0 
3.315680675527e-03 1.165922481653e-01 0.0 
4.115460121362e-03 1.164523946262e-01 0.0 
4.906462183790e-03 1.162549401049e-01 0.0 
5.686932325752e-03 1.159826841972e-01 0.0 
6.455365395951e-03 1.156146024918e-01 0.0 
7.210713813926e-03 1.151244689980e-01 0.0 
7.952790549993e-03 1.144806864602e-01 0.0 
8.682557452126e-03 1.136455030182e-01 0.0 
9.401695868426e-03 1.125736056400e-01 0.0 
1.011280098692e-02 1.112111107257e-01 0.0 
1.082008854584e-02 1.094950203435e-01 0.0 
1.153110362863e-02 1.073534301212e-01 0.0 
1.225497049081e-02 1.047217546162e-01 0.0 
1.298020395662e-02 1.015313546217e-01 0.0 
1.370867906694e-02 9.771231958279e-02 0.0 
1.444412034226e-02 9.320650134250e-02 0.0 
1.518526056804e-02 8.795876140863e-02 0.0 
1.593678778368e-02 8.193203290491e-02 0.0 
1.669934666309e-02 7.512069434970e-02 0.0 
1.746082968880e-02 6.750654853048e-02 0.0 
2.102098305520e-02 7.494017596345e-02 0.0 
2.007090896779e-02 8.111993585884e-02 0.0 
1.905945649318e-02 8.655518313983e-02 0.0 
1.802410192487e-02 9.128944700266e-02 0.0 
1.697791820818e-02 9.535145438467e-02 0.0 
1.593028805278e-02 9.879449887314e-02 0.0 
1.488848512582e-02 1.016749873712e-01 0.0 
1.385525059771e-02 1.040575473564e-01 0.0 
1.283587737894e-02 1.059987202447e-01 0.0 
1.184672590151e-02 1.075556369595e-01 0.0 
1.088201847089e-02 1.087949310953e-01 0.0 
9.937014349866e-03 1.097729865613e-01 0.0 
9.007458100022e-03 1.105369992967e-01 0.0 
8.089585421793e-03 1.111268384549e-01 0.0 
7.180273519531e-03 1.115764466491e-01 0.0 
6.277539415635e-03 1.119148445718e-01 0.0 
5.380119679238e-03 1.121657792984e-01 0.0 
4.487023441214e-03 1.123481269988e-01 0.0 
3.597773220164e-03 1.124776068175e-01 0.0 
2.711994261425e-03 1.125662252324e-01 0.0 
1.828045993832e-03 1.126202663820e-01 0.0 
9.186671804287e-04 1.126155861776e-01 0.0 
1.008384886973e-03 1.080482370329e-01 0.0 
2.007776032229e-03 1.080033975810e-01 0.0 
3.009034118961e-03 1.079457462981e-01 0.0 
4.015775149739e-03 1.078527466827e-01 0.0 
5.032638803343e-03 1.077153558220e-01 0.0 
6.063590228436e-03 1.075207822126e-01 0.0 
7.111765225993e-03 1.072519331492e-01 0.0 
8.180061437940e-03 1.068890732443e-01 0.0 
9.271879214019e-03 1.064058693438e-01 0.0 
1.039143726752e-02 1.057697887909e-01 0.0 
1.154353132124e-02 1.049443578639e-01 0.0 
1.273337450774e-02 1.038869326942e-01 0.0 
1.396664213924e-02 1.025469108153e-01 0.0 
1.524920920127e-02 1.008618851726e-01 0.0 
1.655553019901e-02 9.877195966083e-02 0.0 
1.787654242437e-02 9.621794317738e-02 0.0 
1.920407372506e-02 9.313902939989e-02 0.0 
2.052693762256e-02 8.946980134568e-02 0.0 
2.182702590738e-02 8.517108062594e-02 0.0 
2.305883788344e-02 8.017306989927e-02 0.0 
2.378121098936e-02 8.268564591581e-02 0.0 
2.236683032916e-02 8.645265049713e-02 0.0 
2.089671129017e-02 8.964758246330e-02 0.0 
1.941653992868e-02 9.234883708561e-02 0.0 
1.794009746456e-02 9.459199415394e-02 0.0 
1.647655439774e-02 9.643515868058e-02 0.0 
1.505097158196e-02 9.793101884037e-02 0.0 
1.368035881163e-02 9.913211656075e-02 0.0 
1.236113602654e-02 1.000867168739e-01 0.0 
1.108895652069e-02 1.008369909257e-01 0.0 
9.858550670607e-03 1.014182832578e-01 0.0 
8.666812098149e-03 1.018628641086e-01 0.0 
7.509485795339e-03 1.022003256826e-01 0.0 
6.380639661494e-03 1.024529416826e-01 0.0 
5.279612561409e-03 1.026381825714e-01 0.0 
4.201238165876e-03 1.027698423051e-01 0.0 
3.139011150097e-03 1.028584469464e-01 0.0 
2.087318919543e-03 1.029104339776e-01 0.0 
1.042855706615e-03 1.029064435648e-01 0.0 
1.125020152330e-03 9.740108519056e-02 0.0 
2.254920530383e-03 9.735023515395e-02 0.0 
3.394960002666e-03 9.729005764899e-02 0.0 
4.551713101264e-03 9.719201207999e-02 0.0 
5.730658040470e-03 9.704657935590e-02 0.0 
6.939983696711e-03 9.684147693757e-02 0.0 
8.185265548853e-03 9.656401145454e-02 0.0 
9.475310729634e-03 9.619365779538e-02 0.0 
1.081780699073e-02 9.570793717228e-02 0.0 
1.220981886933e-02 9.507648060278e-02 0.0 
1.365420374886e-02 9.426167313717e-02 0.0 
1.515518398063e-02 9.322903616848e-02 0.0 
1.671552567072e-02 9.193380817463e-02 0.0 
1.833390700385e-02 9.033391243664e-02 0.0 
1.998085968739e-02 8.836941777960e-02 0.0 
2.162817224457e-02 8.599968888691e-02 0.0 
2.324175106085e-02 8.314423306227e-02 0.0 
2.182165522539e-02 8.144849531607e-02 0.0 
2.016501147207e-02 8.346219819785e-02 0.0 
1.849207907266e-02 8.511940880008e-02 0.0 
1.686408238023e-02 8.649842835264e-02 0.0 
1.528752203519e-02 8.762192224950e-02 0.0 
1.376662775994e-02 8.852543557866e-02 0.0 
1.229682572956e-02 8.924609537532e-02 0.0 
1.089160639401e-02 8.981254835055e-02 0.0 
9.541053186879e-03 9.025353053979e-02 0.0 
8.243303087390e-03 9.059819025279e-02 0.0 
6.987237481106e-03 9.085614757765e-02 0.0 
5.769847787612e-03 9.105216086082e-02 0.0 
4.580311994516e-03 9.118892792418e-02 0.0 
3.415712606241e-03 9.128415215156e-02 0.0 
2.270105807590e-03 9.134038867201e-02 0.0 
1.131539870222e-03 9.134415210162e-02 0.0 
-1.960658084389e-03 4.267003773661e-04 0.0 
4.464955986101e-03 2.264555537039e-02 0.0 
1.039690075442e-02 4.033722687212e-02 0.0 
1.600435836638e-02 5.353939199619e-02 0.0 
2.033009552241e-02 6.378956801243e-02 0.0 
2.330244257893e-02 7.152205056037e-02 0.0 
2.488668667181e-02 7.668129347710e-02 0.0 
2.515337216680e-02 7.932437343438e-02 0.0 
2.429039637238e-02 7.964940705534e-02 0.0 
2.249093380043e-02 7.795624314647e-02 0.0 
1.174122183835e-02 2.130817931664e-02 0.0 
1.300977988041e-03 3.500252684614e-03 0.0 
1.296397393380e-02 2.560634064770e-02 0.0 
8.159869721256e-03 -2.565107113358e-02 0.0 
-7.978613218782e-04 3.816210597545e-03 0.0 
2.126339727363e-02 5.127408610898e-02 0.0 
-1.407921526697e-03 4.720306629865e-02 0.0 
3.258155663804e-03 3.995888564642e-03 0.0 
2.645959582329e-02 6.776040483657e-02 0.0 
4.431192692774e-03 4.822830019993e-03 0.0 
2.669372991076e-02 7.459211335310e-02 0.0 
-1.242856191983e-03 4.135959075818e-03 0.0 
1.132942673638e-02 5.169657408724e-02 0.0 
4.746491090351e-03 6.045386348742e-03 0.0 
2.274978337201e-02 7.225290268828e-02 0.0 
-1.024415702664e-03 6.075702818309e-02 0.0 
-1.255249104859e-03 3.555610783949e-02 0.0 
4.536049509159e-03 7.115238248353e-03 0.0 
3.382621534051e-03 7.573155895528e-03 0.0 
1.139124041941e-03 8.394851664303e-03 0.0 
2.011654619842e-03 8.944349424038e-03 0.0 
2.542894827904e-03 7.774024799716e-03 0.0 
1.856614150685e-02 7.314652881625e-02 0.0 
1.226058492689e-02 7.674886767313e-02 0.0 
8.039819008637e-03 7.785574334013e-02 0.0 
7.841642012281e-04 5.076641945672e-02 0.0 
-1.057998980877e-03 4.920232531934e-03 0.0 
4.154290270179e-03 -2.839021799819e-02 0.0 
6.871416775051e-03 6.315933633349e-02 0.0 
-8.007277529271e-04 2.034427231920e-02 0.0 
4.123446908032e-03 7.888017326877e-02 0.0 
2.119643547021e-04 6.704102734021e-02 0.0 
4.473230050714e-03 8.345851124776e-03 0.0 
3.668631686203e-03 4.028106537387e-03 0.0 
4.653315332195e-03 5.351596463818e-03 0.0 
2.516060430963e-03 3.902001761027e-03 0.0 
2.934897433935e-04 3.336834522909e-03 0.0 
1.073229519528e-02 -1.155008622731e-03 0.0 
1.532887203830e-02 7.567485975717e-02 0.0 
-1.397344441113e-03 4.718091535938e-03 0.0 
5.894110798863e-04 3.382149930708e-02 0.0 
1.280190664159e-02 3.963620008774e-02 0.0 
-1.376261735217e-03 5.459988894778e-02 0.0 
5.805829469736e-04 6.870914303438e-03 0.0 
2.454668334071e-02 6.022122412802e-02 0.0 
1.692087390125e-02 3.839555170003e-02 0.0 
2.718243168230e-02 7.238392844920e-02 0.0 
2.514962302364e-02 7.443577711950e-02 0.0 
5.486561702888e-03 2.164103557911e-04 0.0 
9.494737207021e-04 6.606281524395e-02 0.0 
-5.243945106921e-04 4.049536656741e-03 0.0 
3.197277933457e-03 6.721589373727e-02 0.0 
3.240750115410e-04 1.546537286567e-02 0.0 
2.155723088961e-02 7.017947778488e-02 0.0 
2.256332111105e-02 6.617727716773e-02 0.0 
2.068227853031e-02 6.479804597599e-02 0.0 
2.176659867007e-02 5.999769417388e-02 0.0 
1.995839273965e-02 5.762449245482e-02 0.0 
2.063113333058e-02 5.336433757402e-02 0.0 
2.255203336872e-02 5.553439424570e-02 0.0 
2.109832121003e-02 4.904989147626e-02 0.0 
2.309547847587e-02 5.108927694354e-02 0.0 
1.868160695523e-02 5.070267508104e-02 0.0 
2.131347523621e-02 4.472228674161e-02 0.0 
2.336283230644e-02 4.662583639625e-02 0.0 
2.126022489766e-02 4.042946247248e-02 0.0 
2.332468444196e-02 4.219304715463e-02 0.0 
2.535433606993e-02 4.801963657981e-02 0.0 
2.531316302916e-02 4.344211389567e-02 0.0 
2.721184423041e-02 4.883570987477e-02 0.0 
2.717230350198e-02 4.408140766934e-02 0.0 
2.493221532054e-02 3.897847735795e-02 0.0 
2.674410804837e-02 3.947650941740e-02 0.0 
2.878354614944e-02 4.407156274259e-02 0.0 
2.830869207457e-02 3.930983391566e-02 0.0 
3.011207317511e-02 4.336824724601e-02 0.0 
2.955956090052e-02 3.843553853009e-02 0.0 
3.112241129848e-02 4.192872314479e-02 0.0 
3.046606570378e-02 3.684556337249e-02 0.0 
2.854209302232e-02 3.380805512799e-02 0.0 
2.931642825286e-02 3.214343988299e-02 0.0 
3.097049338086e-02 3.454938914946e-02 0.0 
2.966097242582e-02 2.980160816836e-02 0.0 
3.103663963581e-02 3.158223909764e-02 0.0 
2.954034109129e-02 2.685799701897e-02 0.0 
2.784253476925e-02 2.561938384127e-02 0.0 
2.750972700512e-02 2.279472589512e-02 0.0 
2.890191941242e-02 2.334193817084e-02 0.0 
2.655142251964e-02 1.933807271361e-02 0.0 
2.765024905289e-02 1.911711969158e-02 0.0 
2.494135962894e-02 1.528929366689e-02 0.0 
2.578107516493e-02 1.436480791803e-02 0.0 
2.270451166059e-02 1.093295985868e-02 0.0 
2.173122905857e-02 1.242936428322e-02 0.0 
1.918157520577e-02 8.629162784409e-03 0.0 
1.992840198060e-02 6.578093846137e-03 0.0 
1.617449516853e-02 5.061262724785e-03 0.0 
1.541350373545e-02 7.458041149064e-03 0.0 
1.229179976238e-02 4.747294528125e-03 0.0 
1.159477877590e-02 7.315495580803e-03 0.0 
8.470117236680e-03 5.489127354348e-03 0.0 
8.997322091584e-03 2.717081346709e-03 0.0 
5.296379657761e-03 4.441257583933e-03 0.0 
4.930629591495e-03 7.074123279034e-03 0.0 
1.976090075924e-03 6.887011547658e-03 0.0 
2.234873719797e-03 4.293238928254e-03 0.0 
-7.384599401554e-04 7.587588234911e-03 0.0 
-7.305740255852e-04 9.567814109129e-03 0.0 
-3.063706584907e-03 1.085545992730e-02 0.0 
-3.111310965826e-03 9.160898804295e-03 0.0 
-5.035019724122e-03 1.292366135445e-02 0.0 
-4.875272290448e-03 1.408829211551e-02 0.0 
-6.559241374882e-03 1.666519392283e-02 0.0 
-6.630059800782e-03 1.578538656815e-02 0.0 
-7.838468512690e-03 1.990212795591e-02 0.0 
-7.670654475264e-03 2.023476339176e-02 0.0 
-8.650032329665e-03 2.372975814083e-02 0.0 
-8.334104379564e-03 2.344009648434e-02 0.0 
-8.695838843357e-03 2.378763991406e-02 0.0 
-9.207725589505e-03 2.771366058486e-02 0.0 
-9.081044823224e-03 2.818619611680e-02 0.0 
-9.331763239631e-03 3.207792313087e-02 0.0 
2.555515383804e-02 2.205608751732e-02 0.0 
-8.968090231834e-03 3.291569045547e-02 0.0 
-8.565700945296e-03 2.846418464464e-02 0.0 
-9.019644707752e-03 3.669023918170e-02 0.0 
-9.220634323417e-03 3.533718657814e-02 0.0 
-8.386949772593e-03 3.786893982204e-02 0.0 
-8.307259385254e-03 4.142470600042e-02 0.0 
-7.396498957272e-03 4.288413738476e-02 0.0 
2.827437383620e-02 1.881228562848e-02 0.0 
2.420520682787e-02 3.468244369452e-02 0.0 
-7.251922016561e-03 4.612996439656e-02 0.0 
-6.084173044109e-03 4.779887961644e-02 0.0 
-5.895020537646e-03 4.415187594209e-02 0.0 
-4.304523097285e-03 4.922324950352e-02 0.0 
1.808714009246e-02 5.495791384214e-02 0.0 
1.670319324590e-02 4.767816411637e-02 0.0 
1.621039123245e-02 5.193347608130e-02 0.0 
1.471589924731e-02 4.435586633735e-02 0.0 
1.432362060415e-02 4.853778248644e-02 0.0 
-4.564789708407e-03 5.245871726526e-02 0.0 
1.910286088415e-02 3.798681941132e-02 0.0 
1.490514823227e-02 4.009177572739e-02 0.0 
3.021351870872e-02 4.852646133674e-02 0.0 
3.198074151712e-02 3.689911522133e-02 0.0 
1.447376426851e-02 9.684533073443e-03 0.0 
-7.895717922645e-03 4.423535161815e-02 0.0 
-6.781608006709e-03 4.860465535745e-02 0.0 
-7.180764207867e-03 4.628967345497e-02 0.0 
-7.245674232159e-03 2.027107498620e-02 0.0 
-7.745537095634e-03 2.282022483141e-02 0.0 
-6.564614953865e-03 1.992277261613e-02 0.0 
-6.945903958032e-03 2.179948204186e-02 0.0 
-5.723511523001e-03 1.911181581114e-02 0.0 
-6.060078328682e-03 2.032437265749e-02 0.0 
-6.999820866247e-03 2.320108838927e-02 0.0 
-6.100231854758e-03 2.109246094551e-02 0.0 
-6.781560956743e-03 2.410355882146e-02 0.0 
-4.896359778160e-03 1.777454401697e-02 0.0 
-4.265429702384e-03 1.682187563969e-02 0.0 
-5.881763915026e-03 2.140648101673e-02 0.0 
-6.337415319572e-03 2.450161910104e-02 0.0 
-5.454217331549e-03 2.126313997050e-02 0.0 
-5.711585989085e-03 2.441153811552e-02 0.0 
-6.521448891064e-03 2.778169900672e-02 0.0 
-5.702904024536e-03 2.769232867347e-02 0.0 
-6.431777908155e-03 3.118989448292e-02 0.0 
1.081860573055e-02 9.601434307411e-03 0.0 
1.337377002685e-02 1.153443917396e-02 0.0 
9.995091497970e-03 1.137180343695e-02 0.0 
1.204854836876e-02 1.263904102013e-02 0.0 
9.067885026482e-03 1.216793071792e-02 0.0 
1.064174712100e-02 1.281144969536e-02 0.0 
7.944899553589e-03 1.213877535545e-02 0.0 
6.374859032519e-03 1.198078330394e-02 0.0 
2.092817147734e-02 3.614137256758e-02 0.0 
1.676082398075e-02 2.521478203436e-03 0.0 
2.042752487896e-02 4.430260170736e-03 0.0 
1.707615457754e-02 -2.192627238440e-04 0.0 
2.050267277611e-02 2.200612374479e-03 0.0 
1.703751043000e-02 -3.065410917892e-03 0.0 
2.017300776892e-02 -6.133772478911e-05 0.0 
1.671221232941e-02 -6.028607744281e-03 0.0 
1.342042540873e-02 -7.558659408391e-03 0.0 
1.308134680227e-02 -1.118449954117e-02 0.0 
9.817475272246e-03 -1.085634520538e-02 0.0 
9.616524774710e-03 -1.492965773940e-02 0.0 
6.485577554518e-03 -1.253107984120e-02 0.0 
2.706120488926e-02 2.957353279011e-02 0.0 
1.356314019593e-02 1.378118016319e-02 0.0 
1.171391463671e-02 1.328789183207e-02 0.0 
1.451017485005e-02 1.466205284056e-02 0.0 
-3.724268453277e-03 4.523380878127e-02 0.0 
-4.940348417166e-03 2.385779953976e-02 0.0 
-3.593536196531e-03 1.554629973915e-02 0.0 
-2.702886912417e-03 1.492660403584e-02 0.0 
5.517054891815e-03 1.166463266056e-02 0.0 
-2.579455005726e-03 5.393348086138e-02 0.0 
1.942651525966e-02 -2.293432211387e-03 0.0 
2.261657400961e-02 4.789737660098e-03 0.0 
1.274680357835e-02 4.066675449553e-02 0.0 
1.246373604279e-02 4.482691063191e-02 0.0 
-2.235870327734e-03 1.361990844561e-02 0.0 
-2.975523669077e-03 5.672937644340e-02 0.0 
-5.223771479438e-03 1.851356144253e-02 0.0 
1.231169782784e-02 -1.500411334458e-02 0.0 
-4.774092123425e-03 2.712074406362e-02 0.0 
-4.063926831035e-03 2.287613442481e-02 0.0 
-7.646373502432e-03 2.637383278849e-02 0.0 
1.227768743991e-02 1.349607216856e-02 0.0 
1.496230075990e-02 1.520912663186e-02 0.0 
6.402298859378e-03 -8.556895297751e-03 0.0 
3.308636514092e-03 -8.435801614253e-03 0.0 
3.598028622065e-03 -1.225295555003e-02 0.0 
6.947637849368e-04 -6.228430403837e-03 0.0 
3.379529045056e-04 -3.210214606782e-03 0.0 
-1.703095700435e-03 -1.297874520469e-04 0.0 
-9.602409130771e-04 -2.541855071803e-03 0.0 
-2.884916918445e-03 4.460014231217e-03 0.0 
-3.804646308941e-03 6.294838193390e-03 0.0 
-4.514532127233e-03 1.126419268882e-02 0.0 
-2.991560386150e-03 1.017299753031e-02 0.0 
-4.233527840137e-03 1.702580779624e-02 0.0 
-4.132035126578e-03 1.966732630096e-02 0.0 
9.152001030778e-03 -1.917115474031e-02 0.0 
2.688838120442e-02 5.365554090559e-02 0.0 
-2.998966574156e-03 1.365442628154e-02 0.0 
6.680327828683e-03 1.134682917755e-02 0.0 
1.082005311229e-02 3.667908269722e-02 0.0 
1.064684122166e-02 4.083153609544e-02 0.0 
1.200746937597e-02 4.897939254889e-02 0.0 
1.029592318914e-02 4.495685258324e-02 0.0 
8.893376305785e-03 3.657616646038e-02 0.0 
8.650837297161e-03 4.070795881232e-02 0.0 
9.791030343550e-03 4.904000685267e-02 0.0 
8.248387084450e-03 4.479293851453e-02 0.0 
9.153242866624e-03 5.305253162047e-02 0.0 
7.707478083603e-03 4.881131153562e-02 0.0 
6.784693502695e-03 4.034335455934e-02 0.0 
6.336308231333e-03 4.439121616541e-02 0.0 
7.049560957050e-03 5.275808217776e-02 0.0 
5.762683022958e-03 4.836908958400e-02 0.0 
6.293124424182e-03 5.661591450503e-02 0.0 
5.081749880510e-03 5.226605837622e-02 0.0 
4.560649282986e-03 4.382376013249e-02 0.0 
-9.798291655576e-04 5.802334185869e-02 0.0 
3.999546527220e-03 1.198139004602e-02 0.0 
3.397105648151e-03 1.130921070379e-02 0.0 
-6.046241600146e-03 5.021686069027e-02 0.0 
-6.255705425016e-03 4.751396193099e-02 0.0 
-7.250934071807e-03 4.371401122104e-02 0.0 
-6.147237299096e-03 4.462673094477e-02 0.0 
3.936037533485e-03 4.780823403487e-02 0.0 
3.457167607678e-03 3.914352143884e-02 0.0 
2.130813225116e-02 3.540321137326e-03 0.0 
2.412173756376e-02 1.134040948192e-02 0.0 
1.079204596691e-02 3.251429779953e-02 0.0 
-3.775779169777e-03 2.610706166244e-02 0.0 
-4.364323066071e-03 3.040381514452e-02 0.0 
3.178407058467e-02 3.334664368173e-02 0.0 
3.231815117132e-02 3.922412840074e-02 0.0 
3.189110407726e-02 3.517580520285e-02 0.0 
3.194714801127e-02 4.163375029061e-02 0.0 
3.226759123981e-02 4.550388077402e-02 0.0 
3.125844532340e-02 3.709362512957e-02 0.0 
-3.298707530249e-03 1.556086038224e-02 0.0 
5.418880312099e-03 3.572066881012e-02 0.0 
-5.402948984030e-03 3.977289788174e-02 0.0 
-2.849535799912e-03 4.059333765583e-02 0.0 
-3.153240969707e-03 2.151462708105e-02 0.0 
4.413706061161e-03 1.186842868555e-02 0.0 
2.605085021633e-02 3.058460811920e-02 0.0 
2.432590534328e-02 2.674059807280e-02 0.0 
2.316680404661e-02 2.707731668946e-02 0.0 
2.131668507901e-02 2.355569286699e-02 0.0 
1.999501325753e-02 2.322477845311e-02 0.0 
1.803726220728e-02 1.998706194013e-02 0.0 
1.921029540708e-02 2.039368054498e-02 0.0 
1.232394631467e-02 1.334303319815e-02 0.0 
1.587822287743e-02 1.704564324049e-02 0.0 
4.379934240021e-03 5.614091619011e-02 0.0 
1.665148559638e-02 1.511753190082e-02 0.0 
-5.527373641870e-03 1.251434529263e-02 0.0 
-6.984442250957e-05 5.486964243260e-02 0.0 
-1.677985880935e-03 1.664275432877e-02 0.0 
-1.497659619353e-03 6.043743181267e-02 0.0 
-3.003601059016e-03 5.871330781632e-02 0.0 
-1.841341550211e-03 1.165531056073e-02 0.0 
1.648942601599e-02 1.898877228984e-02 0.0 
1.834712572278e-02 2.228932104936e-02 0.0 
3.139331255555e-02 4.852073792631e-02 0.0 
3.166447124020e-02 5.203814954485e-02 0.0 
9.872241914273e-03 1.163416815238e-02 0.0 
1.553476762621e-02 5.620436667999e-02 0.0 
1.065606074410e-02 5.709387219136e-02 0.0 
9.807886031084e-03 6.101082585535e-02 0.0 
6.439923561743e-04 6.141271034777e-02 0.0 
-5.508349793431e-04 9.401418595383e-03 0.0 
7.229923073602e-03 3.210051278665e-02 0.0 
2.538030243389e-02 1.182322152694e-02 0.0 
2.649227031323e-02 1.869708107359e-02 0.0 
1.126934211733e-02 -1.896967316217e-02 0.0 
8.435626486023e-03 -2.377313700304e-02 0.0 
2.927911509403e-03 4.308060565327e-02 0.0 
2.493951700743e-03 3.431796181284e-02 0.0 
-7.028246712082e-03 4.091344138279e-02 0.0 
-5.853213866891e-03 4.142396857682e-02 0.0 
-9.089619927529e-04 1.192422279458e-02 0.0 
-2.951499007894e-03 2.323823094956e-02 0.0 
2.841625233650e-03 3.019124177941e-02 0.0 
2.166328889105e-03 1.239587833292e-02 0.0 
2.145873197072e-03 1.195305394169e-02 0.0 
-5.039340436936e-03 4.821143926124e-02 0.0 
2.210443926925e-02 1.115448367706e-02 0.0 
1.932625607432e-02 2.554002018622e-03 0.0 
-4.447712405891e-03 8.228458041988e-03 0.0 
-5.290007846922e-03 2.325437630149e-02 0.0 
-1.662868643271e-03 6.197081230841e-02 0.0 
-7.701454662339e-04 9.806956678776e-03 0.0 
7.183427983740e-03 2.792840550405e-02 0.0 
1.693164123960e-02 1.762484141187e-02 0.0 
2.001247464614e-02 2.027803847869e-02 0.0 
1.359902115958e-02 1.443152787779e-02 0.0 
3.268483287471e-04 2.335651605384e-02 0.0 
-2.420037710170e-03 1.113517007432e-02 0.0 
-2.754512615931e-03 2.471344866057e-02 0.0 
1.477665391150e-02 1.767727301207e-02 0.0 
1.640174156506e-02 2.079195274574e-02 0.0 
2.771023481504e-02 1.852513768090e-02 0.0 
2.851364996214e-02 2.560110964543e-02 0.0 
2.660183064702e-02 2.663959098244e-02 0.0 
2.833033027144e-02 3.330840978615e-02 0.0 
2.445030907496e-02 5.729375086229e-02 0.0 
2.960458463821e-02 2.478815212724e-02 0.0 
2.850463708103e-02 5.405253179764e-02 0.0 
2.782517126730e-02 5.908525588280e-02 0.0 
2.916514407652e-02 5.910405460571e-02 0.0 
3.221342070095e-02 4.865403352506e-02 0.0 
3.155150194952e-02 5.489787636023e-02 0.0 
2.359753647600e-02 7.811696127574e-03 0.0 
1.694406936184e-02 1.229467349377e-02 0.0 
-8.019898415074e-03 3.974529958465e-02 0.0 
-7.294683823570e-03 3.078223680503e-02 0.0 
-5.787217273021e-03 1.762018037864e-02 0.0 
5.630463499784e-03 3.158574166615e-02 0.0 
4.295089740324e-03 2.676252069294e-02 0.0 
7.565169216839e-03 6.080471293691e-02 0.0 
6.653730422279e-03 6.452748558253e-02 0.0 
-7.787222929219e-04 4.610337273780e-02 0.0 
4.966655360796e-04 4.120496976927e-02 0.0 
-8.565230260183e-03 2.614094331377e-02 0.0 
-3.426147696571e-03 1.339791835902e-02 0.0 
8.816585304380e-03 2.826216751423e-02 0.0 
8.448276977283e-03 2.409833429146e-02 0.0 
1.053845178772e-02 2.834186175886e-02 0.0 
2.845205233530e-04 1.038934353371e-02 0.0 
1.330083712412e-02 -9.941684304469e-04 0.0 
7.448780161138e-03 1.012352917755e-02 0.0 
6.437478582953e-03 -2.136481979150e-02 0.0 
2.558014387035e-02 2.420351808776e-02 0.0 
2.959702856903e-03 4.673463573611e-02 0.0 
2.232222744497e-02 3.369089559482e-02 0.0 
-2.244707689850e-03 1.981695169195e-02 0.0 
-2.502626752410e-03 1.660697001783e-02 0.0 
9.547742676354e-03 1.086597728072e-02 0.0 
2.412293771635e-02 6.780711806457e-02 0.0 
2.308612828363e-02 2.105537614540e-02 0.0 
2.284714553883e-02 1.913768952667e-02 0.0 
2.814647031437e-02 6.428217854236e-02 0.0 
2.918461304281e-02 6.395749671389e-02 0.0 
3.024252330437e-02 5.848406968242e-02 0.0 
2.994057200584e-02 6.302537440184e-02 0.0 
-6.183232902305e-03 1.375938603048e-02 0.0 
-6.857009859441e-03 1.821355041569e-02 0.0 
1.248019716824e-02 1.421723126410e-02 0.0 
1.234767631188e-02 1.332339433592e-02 0.0 
1.267997956464e-02 1.573017128226e-02 0.0 
1.417681144706e-02 1.868723493422e-02 0.0 
7.285700156796e-03 9.097953642843e-03 0.0 
7.548762821269e-03 1.011440255080e-02 0.0 
-2.663848461037e-03 5.990265219631e-02 0.0 
3.059043461991e-02 5.857979746097e-02 0.0 
5.522787668262e-03 2.321904840991e-02 0.0 
2.687174982747e-02 6.403271541339e-02 0.0 
-2.688547243574e-03 1.043105072434e-02 0.0 
-3.546833227317e-03 1.281852442990e-02 0.0 
6.172312751787e-03 -2.632016638290e-02 0.0 
4.103813342171e-03 -2.042794527509e-02 0.0 
1.956644303277e-03 2.538757859807e-02 0.0 
2.573785338784e-02 3.510182453445e-02 0.0 
2.730984522501e-02 4.125302249245e-02 0.0 
2.384115697069e-02 2.796023600296e-02 0.0 
-3.741621160197e-04 8.914202721499e-03 0.0 
1.781529262296e-03 7.910989825865e-02 0.0 
-1.698838692254e-03 1.463599013585e-02 0.0 
3.176673800733e-02 5.118020435337e-02 0.0 
2.087457028018e-03 2.078722029808e-02 0.0 
2.036493191615e-02 1.849878043029e-02 0.0 
3.116862958137e-02 2.919882066347e-02 0.0 
3.974739786958e-04 1.200875758343e-02 0.0 
1.603177682860e-03 3.032544751914e-02 0.0 
1.183629663885e-03 2.007811648319e-02 0.0 
1.122171367251e-02 6.471902054805e-02 0.0 
1.022225960807e-02 6.864350130131e-02 0.0 
1.220027389773e-02 6.090827271559e-02 0.0 
1.454932372904e-02 -1.220200213066e-02 0.0 
1.255173039587e-02 -1.503279901175e-02 0.0 
4.169199494029e-03 3.093783132341e-02 0.0 
-5.471887452266e-03 5.274253262769e-02 0.0 
-4.687832074119e-03 5.389572226735e-02 0.0 
-3.904007553233e-03 2.924135768659e-02 0.0 
-6.141731653255e-03 2.901007891026e-02 0.0 
-7.652110410246e-03 3.714184086193e-02 0.0 
-8.493070390386e-03 3.577377203852e-02 0.0 
2.130438737514e-02 2.964892543826e-02 0.0 
1.931797807658e-02 2.818865593915e-02 0.0 
2.471868144638e-02 3.095964601373e-02 0.0 
1.118708003460e-04 1.305665384780e-02 0.0 
-2.885582282044e-04 1.239558952695e-02 0.0 
1.938226457236e-03 1.072593594066e-02 0.0 
4.297904352363e-03 2.283984768294e-02 0.0 
2.898066177401e-03 1.706334018686e-02 0.0 
-4.875461055178e-03 9.981145469964e-03 0.0 
-2.676691350798e-03 4.842912912093e-03 0.0 
-7.480664320852e-03 1.881743739236e-02 0.0 
5.194224073236e-03 1.917541803699e-02 0.0 
-1.814717234146e-03 1.153501044447e-02 0.0 
-2.553451334236e-03 1.357622292479e-02 0.0 
4.592233171458e-03 4.175803718186e-02 0.0 
1.835122042268e-03 3.575544983046e-02 0.0 
1.905620538711e-02 1.133636010431e-02 0.0 
1.608064039774e-02 2.004239729209e-03 0.0 
7.951963127319e-03 2.027598732026e-02 0.0 
1.006279932746e-02 2.425794771395e-02 0.0 
5.717043960558e-03 1.545633929754e-02 0.0 
-1.384308728901e-03 6.282980783635e-02 0.0 
1.756375028830e-02 1.769488080847e-02 0.0 
2.402507491457e-04 8.150728775099e-03 0.0 
1.380009516751e-03 9.022870756336e-03 0.0 
-5.276215363210e-04 6.769523726813e-03 0.0 
1.198623245310e-02 1.289530161404e-02 0.0 
8.815608642646e-03 9.837793980005e-03 0.0 
9.943556503437e-03 1.072689529676e-02 0.0 
7.139665097206e-03 -2.820375436454e-02 0.0 
8.955326156936e-04 2.396712270506e-02 0.0 
7.886748182663e-03 6.852021048361e-02 0.0 
6.315134382170e-03 -3.023449059394e-02 0.0 
6.833126545928e-03 7.235374472828e-02 0.0 
5.719280591578e-03 6.819246226543e-02 0.0 
5.909313173696e-03 7.600694326626e-02 0.0 
-6.176538729901e-04 6.457668863372e-02 0.0 
1.279413097868e-02 6.953027566567e-02 0.0 
1.388589147432e-02 6.473391423283e-02 0.0 
7.224292444267e-03 3.622223721526e-02 0.0 
3.567966589138e-03 1.435806067348e-02 0.0 
6.895169548361e-03 4.675746310588e-02 0.0 
4.997970634661e-03 5.120804698979e-02 0.0 
-2.610935583954e-03 9.279114906441e-03 0.0 
-3.390904196715e-03 1.187869730485e-02 0.0 
-2.332674029377e-03 7.897068350474e-03 0.0 
-3.082540745410e-03 1.081970234239e-02 0.0 
-4.067714690316e-03 1.470691739407e-02 0.0 
-3.602656203803e-03 1.358109914771e-02 0.0 
9.233406589253e-03 7.293742510794e-02 0.0 
-2.402310078730e-03 8.590171622174e-03 0.0 
-2.987463195999e-03 1.200347180440e-02 0.0 
-1.800706789775e-03 6.893248791766e-03 0.0 
2.850196054253e-02 6.878786903697e-02 0.0 
2.960057079950e-02 3.905100512628e-02 0.0 
2.851618478213e-02 4.682259449032e-02 0.0 
2.552763436987e-02 4.978040113185e-02 0.0 
9.429963478603e-03 1.202148451873e-02 0.0 
1.196389931223e-02 1.638696394217e-02 0.0 
-1.750200309345e-03 2.288220811754e-02 0.0 
-2.049695902578e-03 2.777613220673e-02 0.0 
4.730532471640e-03 7.230611681201e-02 0.0 
3.459126990300e-03 7.273061781307e-02 0.0 
3.778016667006e-03 6.580727604075e-02 0.0 
2.731852771632e-03 6.673858253550e-02 0.0 
2.936715992341e-03 5.968659470144e-02 0.0 
1.894786931935e-03 6.065942450848e-02 0.0 
2.238042899101e-03 5.333932035151e-02 0.0 
8.364002225843e-03 9.093734248726e-03 0.0 
2.206051738493e-02 3.653044340416e-02 0.0 
2.684838251114e-02 6.939897570203e-02 0.0 
5.194627667983e-03 7.454169443527e-03 0.0 
5.643498279987e-03 8.960367537846e-03 0.0 
3.046290352752e-02 6.109826992066e-02 0.0 
2.908853005721e-02 6.512205883167e-02 0.0 
-1.720102691740e-03 7.611763400099e-03 0.0 
2.829623587003e-02 1.857900568823e-02 0.0 
2.625458447930e-03 9.126284993535e-03 0.0 
3.145347361180e-03 -1.973974131371e-02 0.0 
8.521182402710e-03 -2.035343531440e-02 0.0 
3.001643992241e-02 2.421633622514e-02 0.0 
3.105045722086e-02 5.712037105148e-02 0.0 
3.066192227474e-02 4.416259603201e-02 0.0 
2.969459289059e-02 5.167873167430e-02 0.0 
3.273134327522e-04 1.293879169553e-02 0.0 
3.458569098092e-03 2.978992572315e-02 0.0 
2.162309489855e-02 1.998438254709e-02 0.0 
3.246909907148e-03 5.244243754019e-02 0.0 
1.750655536621e-02 2.047870601809e-02 0.0 
-9.465639547869e-04 2.540760485537e-02 0.0 
2.620144418220e-02 1.341695548564e-02 0.0 
3.202055311673e-02 4.532731580715e-02 0.0 
2.453683507159e-02 1.917062031596e-02 0.0 
3.015942607083e-02 3.188757769617e-02 0.0 
2.506892212684e-02 5.265707270249e-02 0.0 
2.359209433369e-02 6.182732523671e-02 0.0 
2.527191477445e-02 6.331497438408e-02 0.0 
2.335886681960e-02 9.395041589793e-03 0.0 
3.035590329797e-02 5.549847732307e-02 0.0 
2.812580748988e-02 5.938530883497e-02 0.0 
2.885052150172e-02 4.901489315711e-02 0.0 
1.268918876681e-02 3.228261246042e-02 0.0 
1.229486999535e-02 2.811328023047e-02 0.0 
9.411533250798e-03 2.044155811289e-02 0.0 
1.165856089990e-02 2.408207684250e-02 0.0 
1.456835465729e-02 3.168616206640e-02 0.0 
1.401093986582e-02 2.758639757826e-02 0.0 
1.077804284329e-02 2.023831788710e-02 0.0 
1.319139475631e-02 2.360790002148e-02 0.0 
8.812940496895e-03 1.496780824273e-02 0.0 
1.199502945515e-02 1.960818287958e-02 0.0 
1.562620626122e-02 2.678422120356e-02 0.0 
1.463871797196e-02 2.303867015822e-02 0.0 
1.110367365577e-02 1.678322108021e-02 0.0 
1.810815518379e-02 2.989512739134e-02 0.0 
4.545198370906e-03 5.984469026092e-03 0.0 
2.975691096804e-02 2.379480212194e-02 0.0 
9.611097563464e-03 -2.297839687056e-02 0.0 
1.135435700242e-02 -1.036859068316e-02 0.0 
3.128034191501e-02 4.732292132803e-02 0.0 
4.337357759304e-03 7.392758290980e-03 0.0 
3.738547937317e-03 7.650303500842e-03 0.0 
2.333040435700e-02 6.233121142792e-03 0.0 
4.718195661994e-03 5.683157928878e-03 0.0 
2.621714983283e-02 5.851261612706e-02 0.0 
1.590785284383e-02 -9.097977261987e-03 0.0 
4.629421700287e-03 5.147037860755e-03 0.0 
1.486217522064e-02 3.585003063857e-02 0.0 
1.705112747332e-02 3.922381987920e-02 0.0 
1.699093854229e-02 4.345522255858e-02 0.0 
3.004471960644e-03 7.392203091474e-03 0.0 
1.306990144527e-02 5.691849436208e-02 0.0 
3.375064827150e-03 3.876387882418e-03 0.0 
1.532119184680e-02 1.347682233080e-02 0.0 
1.875797808631e-02 1.476884574458e-02 0.0 
2.044599608150e-02 1.378316744142e-02 0.0 
1.639634445193e-02 3.092827162999e-02 0.0 
1.795385426302e-03 3.487133321855e-03 0.0 
2.872009991730e-03 6.241440980322e-03 0.0 
1.937702590489e-03 6.183268249728e-03 0.0 
3.480891457691e-03 8.613064493435e-03 0.0 
7.875825779085e-04 3.432553594671e-03 0.0 
4.282574423293e-03 6.221446352114e-03 0.0 
4.199951428220e-03 5.686887757037e-03 0.0 
-2.241207954301e-03 2.401840900481e-03 0.0 
-1.276582295162e-05 -1.997332285679e-04 0.0 
-3.386258680997e-04 2.575326798753e-03 0.0 
2.774106431653e-03 -1.542017937040e-03 0.0 
3.081315020600e-03 -4.846891551159e-03 0.0 
6.229082363717e-03 -4.908991811448e-03 0.0 
5.976452408060e-03 -1.551609758142e-03 0.0 
9.851918979724e-03 -7.078560805386e-03 0.0 
1.578874263242e-02 2.233500909193e-02 0.0 
-9.003817314301e-05 3.404391802199e-03 0.0 
-5.055043305054e-03 1.749337857691e-02 0.0 
-4.011400407315e-03 1.554042893554e-02 0.0 
-4.562516432296e-03 1.500464989662e-02 0.0 
-8.768269321177e-03 3.788995998975e-02 0.0 
-9.070269730952e-03 3.375677511229e-02 0.0 
-8.629924417812e-03 3.190873197792e-02 0.0 
-8.123839950827e-03 4.210837858028e-02 0.0 
2.229282170435e-02 2.330200389503e-02 0.0 
-4.825301231470e-04 3.523523667369e-03 0.0 
4.591192334818e-03 1.094516628268e-02 0.0 
-9.325931330684e-03 3.106362203877e-02 0.0 
1.694496911492e-02 7.450066252373e-02 0.0 
1.745790591086e-02 6.797467323321e-02 0.0 
1.896157568085e-02 6.665969745560e-02 0.0 
1.749097408297e-02 6.033919212701e-02 0.0 
1.565117978738e-02 6.829485189588e-02 0.0 
-6.608924899135e-03 3.786175054310e-02 0.0 
-5.427800173513e-03 3.797462662911e-02 0.0 
-4.556566105990e-03 4.132093460962e-02 0.0 
-4.163778523882e-03 3.753057269619e-02 0.0 
-3.199236408071e-03 4.065066741194e-02 0.0 
-3.496401211724e-03 4.439015252491e-02 0.0 
-2.840082355275e-03 3.659862079451e-02 0.0 
-1.856950402968e-03 3.993777767773e-02 0.0 
1.375074439456e-02 7.634672344999e-02 0.0 
9.032871360390e-03 -1.399094823087e-02 0.0 
4.709346395051e-03 -7.677060544997e-03 0.0 
5.716807014148e-03 3.502758187750e-03 0.0 
1.973506805422e-03 -1.873869386115e-03 0.0 
2.310110710249e-03 -1.123898417991e-02 0.0 
6.220427914805e-05 -4.947146179408e-03 0.0 
1.906449632907e-03 -1.270847206497e-02 0.0 
4.317402597119e-03 -1.866031104754e-02 0.0 
1.180614836315e-02 8.965675060233e-03 0.0 
6.585505391753e-03 1.287065445753e-02 0.0 
1.250612044014e-02 1.770059969969e-02 0.0 
7.387077823665e-03 2.116144369416e-02 0.0 
2.161575084502e-03 1.658402030697e-02 0.0 
-1.897440541496e-03 3.531590882906e-02 0.0 
-9.844443812836e-04 5.728967600465e-03 0.0 
-1.416714116507e-03 5.104432738251e-02 0.0 
-2.727242196398e-03 5.218905404066e-02 0.0 
-2.598464204846e-03 5.541087137394e-02 0.0 
-4.048767517697e-03 5.243402487348e-02 0.0 
-2.646008663377e-03 4.898604361483e-02 0.0 
-1.249177132007e-03 5.784270878734e-02 0.0 
-2.318052681001e-03 5.814701099776e-02 0.0 
5.053849340668e-03 6.558870453711e-02 0.0 
2.812174008299e-03 6.678298412850e-02 0.0 
1.401778836740e-03 6.812890345816e-02 0.0 
1.224857635675e-03 6.726652788841e-02 0.0 
2.035152353340e-03 6.560993329314e-02 0.0 
4.114152016128e-03 6.469191803419e-02 0.0 
5.322572820617e-03 6.182464242493e-02 0.0 
8.562823166936e-03 5.995793266318e-02 0.0 
6.318769096861e-03 5.829249569432e-02 0.0 
3.222131193707e-03 5.999653175883e-02 0.0 
1.004099873384e-02 5.620069037832e-02 0.0 
7.188235962303e-04 4.227006620656e-02 0.0 
1.364629238218e-03 3.789457272495e-02 0.0 
-1.077021586161e-03 4.030993161994e-03 0.0 
1.068540933957e-02 7.698169247875e-02 0.0 
1.297403237169e-02 3.302518077165e-02 0.0 
1.088647729915e-03 1.010921997923e-02 0.0 
1.598254169934e-03 8.298814977845e-03 0.0 
1.309982572366e-03 8.078806502816e-03 0.0 
-5.947675162526e-04 1.473912470325e-02 0.0 
-9.602835519256e-04 1.194673296189e-02 0.0 
5.990973261802e-04 9.867838204322e-03 0.0 
-7.203699014878e-03 3.892000395909e-02 0.0 
8.520862711279e-03 1.679031124425e-02 0.0 
3.050983861549e-03 2.599520470852e-02 0.0 
1.808872173472e-02 -4.399085695139e-03 0.0 
-6.838300678922e-03 2.333361179667e-02 0.0 
-3.196839685815e-03 2.930826220928e-02 0.0 
-7.183981338161e-03 2.734066812059e-02 0.0 
-3.335089513191e-03 1.833782031341e-02 0.0 
-5.439464603511e-03 3.104267515625e-02 0.0 
-4.857086540746e-03 2.067107939016e-02 0.0 
1.004467849834e-03 6.415425170843e-03 0.0 
-3.258762652467e-04 6.339268551052e-02 0.0 
8.403838604593e-03 5.697598132257e-02 0.0 
5.505971450617e-03 6.040441230185e-02 0.0 
5.056586215275e-03 3.980562607633e-02 0.0 
-5.938391456737e-03 5.066611086780e-02 0.0 
-4.893621469731e-03 4.465426939005e-02 0.0 
-1.867661900443e-03 5.034872256930e-02 0.0 
8.549682840695e-03 9.813454702908e-03 0.0 
2.986302868848e-02 5.386184155227e-02 0.0 
-6.294771761944e-03 1.731125882581e-02 0.0 
-8.729890388716e-03 3.976795235283e-02 0.0 
-8.133847274113e-03 3.362102384181e-02 0.0 
-5.813294701420e-03 1.758731322152e-02 0.0 
3.066082147684e-02 2.801987855213e-02 0.0 
-9.031225484472e-03 2.706439071417e-02 0.0 
-5.204094316305e-03 1.834732416757e-02 0.0 
3.884781037243e-03 3.507146364968e-02 0.0 
1.158357298019e-02 4.633037691124e-02 0.0 
-4.147119706108e-03 1.587258878698e-02 0.0 
-7.854517987202e-03 2.486491322105e-02 0.0 
1.140026426485e-02 5.308567087929e-02 0.0 
9.076946388806e-03 1.220426837112e-02 0.0 
-1.685342059348e-03 3.067145308529e-03 0.0 
7.092093480708e-03 3.625432059031e-02 0.0 
6.577846416398e-03 2.011704820124e-02 0.0 
1.473854238981e-02 6.046837225238e-02 0.0 
1.408076456270e-03 5.122486415200e-02 0.0 
8.901895174482e-03 6.492786173991e-02 0.0 
-1.447649139786e-03 9.014277481334e-03 0.0 
1.282793449518e-02 3.646404971901e-02 0.0 
-4.478752445402e-03 5.490593931099e-02 0.0 
7.936120579146e-03 8.034185409135e-03 0.0 
3.175545140831e-02 3.975326598684e-02 0.0 
2.408859718535e-02 7.351736531770e-02 0.0 
3.127458382131e-03 2.209691998015e-02 0.0 
2.498868095739e-02 1.939526632847e-02 0.0 
4.544311558718e-03 1.056676436431e-02 0.0 
7.024060812249e-03 1.149223035441e-02 0.0 
-4.078719994154e-03 5.648180072990e-02 0.0 
-4.342374424727e-03 1.544950301208e-02 0.0 
1.816915575522e-02 1.057252928399e-02 0.0 
5.683730015427e-03 2.746922248945e-02 0.0 
2.170264483167e-02 2.678268484062e-02 0.0 
1.287465987466e-02 2.013417684132e-03 0.0 
8.956303701815e-03 3.242622163104e-02 0.0 
-2.857555388973e-03 1.224710280059e-02 0.0 
9.719954954669e-03 1.206037984597e-02 0.0 
3.096743583523e-02 5.289679980710e-02 0.0 
2.739169416258e-02 3.479462298277e-02 0.0 
2.300474472128e-02 3.789554047389e-02 0.0 
2.767714392015e-02 2.790109906840e-02 0.0 
-2.297508159649e-03 3.246931072346e-02 0.0 
-4.386155835951e-03 1.584828173735e-02 0.0 
6.664547644547e-03 -1.683066292060e-02 0.0 
3.103249777063e-02 3.046206731844e-02 0.0 
1.376041634558e-02 5.273239783123e-02 0.0 
1.455513077875e-02 1.610460573999e-02 0.0 
3.999818445244e-03 1.835148014223e-02 0.0 
3.236639601681e-02 4.262116304927e-02 0.0 
-4.996429776685e-03 1.827488415503e-02 0.0 
6.984004177340e-03 2.401941130632e-02 0.0 
-9.006438847170e-03 2.980768184616e-02 0.0 
-3.639006066758e-04 6.544837318991e-02 0.0 
1.628811088472e-02 -6.215714412495e-03 0.0 
1.348300882275e-02 -4.187871186193e-03 0.0 
2.370135667674e-02 1.613480978274e-02 0.0 
-8.420185156067e-03 2.825716171779e-02 0.0 
6.818462162073e-03 1.538741847433e-02 0.0 
-4.565107398446e-03 1.762670860604e-02 0.0 
-1.124539753219e-03 1.335232334656e-02 0.0 
8.896065815595e-03 1.118088057885e-02 0.0 
2.563442210730e-02 6.878126916810e-02 0.0 
-3.975947693798e-03 1.658108378859e-02 0.0 
4.658017578558e-03 9.267082045255e-03 0.0 
7.367869757559e-03 1.086516108091e-02 0.0 
-2.117704958155e-03 4.358861404604e-02 0.0 
8.406884549800e-03 9.344854730656e-03 0.0 
2.904366982641e-02 6.711348939433e-02 0.0 
-3.280776360108e-03 1.517231816195e-02 0.0 
1.992746413695e-03 1.204502424223e-02 0.0 
2.605389757734e-02 1.253070552663e-02 0.0 
2.954699267413e-03 7.904721316116e-02 0.0 
-2.153766187039e-03 9.528754872392e-03 0.0 
1.690733820213e-03 1.083624842705e-02 0.0 
2.515520459194e-02 2.578104055828e-02 0.0 
1.874659943992e-03 9.057355142373e-03 0.0 
2.608040226293e-02 7.472845725337e-02 0.0 
-7.974270032574e-03 2.979483507429e-02 0.0 
2.593084634577e-02 3.509456619335e-02 0.0 
2.665097223115e-03 7.317872383659e-03 0.0 
2.778841956362e-03 9.859056165286e-03 0.0 
1.908598330279e-02 4.660068413567e-02 0.0 
-7.976583315061e-03 3.340922231207e-02 0.0 
1.747354359107e-02 1.639583105107e-02 0.0 
2.747862992787e-03 6.318645287219e-02 0.0 
2.778622622706e-02 6.937501778950e-02 0.0 
-7.098146374716e-03 3.429558581966e-02 0.0 
9.712812557108e-03 -3.572166117993e-03 0.0 
-5.692963341684e-04 1.114434180011e-02 0.0 
6.682146978253e-03 7.909580453010e-03 0.0 
-6.061280655885e-03 3.457980063069e-02 0.0 
9.420025254670e-03 -2.636285451896e-04 0.0 
-4.919318630609e-03 3.431867755867e-02 0.0 
2.713769584346e-02 7.360052318064e-02 0.0 
1.920030004725e-02 4.217846078757e-02 0.0 
-3.674972483961e-03 3.359094223884e-02 0.0 
2.312659064390e-02 3.061303510934e-02 0.0 
3.444173122868e-03 5.588730246594e-02 0.0 
2.290073609193e-02 2.247394269924e-02 0.0 
-1.360283077379e-03 1.749650934937e-02 0.0 
-8.460733750491e-03 2.370977110193e-02 0.0 
-2.530114581331e-03 1.335615459614e-02 0.0 
1.684994110350e-02 3.502261953951e-02 0.0 
2.693427139936e-02 7.037589099684e-02 0.0 
-1.977473746907e-03 1.405135443793e-02 0.0 
1.997830735180e-02 2.587462771032e-02 0.0 
2.042425736763e-02 1.965925142700e-02 0.0 
2.202121402601e-02 1.671284365728e-02 0.0 
-1.468827837446e-03 1.407495101518e-02 0.0 
2.890099171761e-02 6.234640898649e-02 0.0 
-6.706834051718e-03 3.443279609593e-02 0.0 
-4.720603415500e-03 3.482611000198e-02 0.0 
5.687199652492e-03 1.591081113736e-03 0.0 
1.798113512546e-02 2.436357720922e-02 0.0 
5.404439953347e-04 6.565398214728e-02 0.0 
1.871252410811e-02 3.378982177113e-02 0.0 
-8.007678351518e-04 2.955271434424e-02 0.0 
2.497197149923e-03 1.488334299331e-03 0.0 
1.484012830551e-02 1.530404232860e-02 0.0 
8.596054706373e-04 5.867151792288e-02 0.0 
-5.629246701648e-04 5.195397880717e-03 0.0 
-7.302574329041e-04 6.333587806454e-02 0.0 
-2.975791079713e-03 7.069049808521e-03 0.0 
1.982611211707e-02 1.686934168696e-02 0.0 
-5.059780983052e-03 1.156250776801e-02 0.0 
-6.545116355895e-03 1.478683647099e-02 0.0 
2.112683231204e-03 1.704292414826e-02 0.0 
-7.797773508770e-03 1.939299374978e-02 0.0 
2.972403721841e-04 8.192248752085e-03 0.0 
-4.370863684848e-04 5.355085082474e-03 0.0 
1.119885663144e-03 7.374639514260e-02 0.0 
2.507825716240e-02 6.548834276709e-02 0.0 
5.676782879465e-03 -3.297235404783e-02 0.0 
2.750181535190e-02 5.367958221431e-02 0.0 
-7.844951964794e-03 2.345850996712e-02 0.0 
2.031009842511e-02 3.211428604950e-02 0.0 
2.327149663557e-03 7.336131289334e-02 0.0 
-7.599905067735e-03 2.874298114787e-02 0.0 
8.163592945436e-03 1.262654621639e-02 0.0 
3.947048055313e-03 4.281307464424e-03 0.0 
1.544946840845e-03 4.606492702994e-02 0.0 
5.367997797944e-03 9.897926140070e-03 0.0 
1.770399553191e-02 1.724093358759e-02 0.0 
4.439230477757e-04 2.490763471780e-02 0.0 
6.860697882537e-03 7.911812041676e-02 0.0 
7.996642165685e-03 2.884823169908e-02 0.0 
-1.100183802391e-03 3.036658578138e-02 0.0 
2.219947876256e-02 5.687549078315e-02 0.0 
2.381348601893e-02 4.324596742531e-02 0.0 
1.976012821068e-02 2.892467864282e-02 0.0 
-3.302931193150e-03 5.754711808668e-02 0.0 
2.432434204989e-03 7.749487389371e-03 0.0 
1.928837721535e-02 4.517847529727e-02 0.0 
3.797972418578e-03 6.553027859063e-03 0.0 
1.146331275069e-02 7.152730893235e-02 0.0 
1.462484886496e-02 1.526287705341e-02 0.0 
1.448183730512e-02 3.033910918809e-02 0.0 
4.792212338188e-03 1.574381688671e-02 0.0 
7.291603496256e-03 8.031441406331e-03 0.0 
-1.190389935291e-03 3.899080217732e-03 0.0 
1.115801232445e-02 1.199886252189e-02 0.0 
1.472734580264e-02 1.101417897451e-02 0.0 
1.624016200979e-02 6.275285960535e-02 0.0 
8.581568869161e-03 1.029408496699e-02 0.0 
2.081968791693e-03 3.911531435265e-02 0.0 
-1.145546543928e-03 4.010716048601e-03 0.0 
1.432337358792e-02 7.096368205014e-02 0.0 
1.305052868354e-03 1.598984337022e-02 0.0 
4.294492891081e-03 -1.664149121831e-02 0.0 
6.668002949937e-04 1.556203798217e-02 0.0 
1.707255378495e-02 2.595585753738e-02 0.0 
4.749446832193e-03 6.408320037617e-02 0.0 
1.909630278470e-02 6.095894272761e-02 0.0 
-1.138052770112e-03 9.237060328079e-03 0.0 
7.465030874947e-03 1.360389260295e-02 0.0 
1.183210662920e-02 -4.816987106491e-04 0.0 
2.416287331172e-03 4.687499381888e-02 0.0 
-5.285973890874e-03 5.060017926440e-02 0.0 
5.595960049813e-03 -2.687138271175e-02 0.0 
-1.939229392480e-03 7.310839556894e-03 0.0 
1.350041721059e-02 1.975272193031e-02 0.0 
-1.744677170815e-03 9.116714144220e-03 0.0 
5.913857559111e-04 6.801473353137e-02 0.0 
8.719458289416e-03 4.237583150104e-02 0.0 
-1.024013756384e-03 6.225472695554e-03 0.0 
7.988211464006e-03 1.076943223426e-02 0.0 
9.269540414660e-04 -8.536208471087e-03 0.0 
1.646893282803e-03 6.419712817316e-03 0.0 
7.366874432918e-03 -1.138837840708e-02 0.0 
9.372687274322e-03 7.929587289955e-02 0.0 
7.381702760617e-03 5.450753240846e-02 0.0 
-1.039166393833e-03 4.237339508233e-03 0.0 
2.990591628908e-03 1.505797392411e-02 0.0 
-3.729110645500e-03 4.978483246231e-02 0.0 
2.000266150903e-02 7.135843837060e-02 0.0 
-1.884917503570e-03 6.077800819121e-02 0.0 
1.122424888101e-02 1.235851133183e-02 0.0 
3.913740444938e-03 2.401145490792e-02 0.0 
2.087992197801e-03 1.435771991180e-02 0.0 
2.177803667305e-04 5.684766011907e-03 0.0 
5.472738588118e-03 1.327701754507e-02 0.0 
2.013103192308e-03 2.766937156487e-03 0.0 
7.034473973100e-03 -2.738440213072e-02 0.0 
6.723835756034e-03 7.310825081436e-03 0.0 
2.108666557799e-03 8.081444382888e-03 0.0 
5.145442057461e-03 7.966787180264e-02 0.0 
6.672571003143e-03 1.375420589843e-02 0.0 
-3.540680126959e-03 5.539572728795e-02 0.0 
1.084402883804e-03 5.837670778107e-02 0.0 
1.273959244088e-04 7.268412022178e-03 0.0 
1.601845438077e-03 6.777209913822e-02 0.0 
8.663755852538e-04 7.993335119705e-02 0.0 
-1.692932393258e-04 4.400364146903e-03 0.0 
1.089725558430e-03 6.407167225712e-02 0.0 
1.850028326217e-03 6.827808227010e-02 0.0 
7.514968252398e-03 1.080016242464e-02 0.0 
-9.226814827961e-04 4.324856375091e-02 0.0 
1.028603994676e-03 3.085685601142e-02 0.0 
1.570654938572e-04 2.931224009796e-03 0.0 
7.606884586515e-03 -3.286087442653e-02 0.0 
1.480545350312e-03 5.460299343412e-02 0.0 
6.020405701619e-03 6.898513271686e-03 0.0 
4.398165173953e-03 1.305762605848e-02 0.0 
3.810116124981e-03 5.989345506935e-02 0.0 
1.412558731111e-02 -5.927655031452e-03 0.0 
1.049150116999e-02 1.494550794255e-02 0.0 
-3.856064679667e-03 4.695541237310e-02 0.0 
1.151341185436e-02 1.365423122677e-02 0.0 
4.292700666209e-03 8.218946009318e-03 0.0 
2.507659643264e-03 -9.468095027895e-03 0.0 
-7.795972557494e-04 3.915451273042e-02 0.0 
8.322012976896e-03 5.041846089337e-02 0.0 
-2.146244060417e-03 7.312483941579e-03 0.0 
-2.542803692440e-03 4.616133730010e-02 0.0 
8.892865416268e-03 4.717883878215e-02 0.0 
3.636385774684e-04 1.221307685427e-01 0.0 
1.490398542260e-02 5.906567930915e-02 0.0 
4.108204462128e-04 1.186981082715e-01 0.0 
1.935667406316e-02 6.852006908601e-02 0.0 
4.329361572388e-04 1.147849955591e-01 0.0 
2.232394758654e-02 7.548399394683e-02 0.0 
4.872045609190e-04 1.103995901054e-01 0.0 
2.387937606971e-02 7.994254131928e-02 0.0 
4.958422577346e-04 1.055432804099e-01 0.0 
2.410817852804e-02 8.196183694779e-02 0.0 
5.446421762230e-04 1.002206911041e-01 0.0 
2.322781842082e-02 8.175359304284e-02 0.0 
5.454082645002e-04 9.443870099878e-02 0.0 
2.144715249553e-02 7.967315944668e-02 0.0 
5.781363742088e-04 8.820807520442e-02 0.0 

VECTORS node_bounda_dof_materi_velocity_x float
1.000000000000e+00 0.0 0.0 
1.000000000000e+00 0.0 0.0 
1.000000000000e+00 0.0 0.0 
1.000000000000e+00 0.0 0.0 
1.000000000000e+00 0.0 0.0 
1.000000000000e+00 0.0 0.0 
1.000000000000e+00 0.0 0.0 
1.000000000000e+00 0.0 0.0 
1.000000000000e+00 0.0 0.0 
1.000000000000e+00 0.0 0.0 
1.000000000000e+00 0.0 0.0 
1.000000000000e+00 0.0 0.0 
1.000000000000e+00 0.0 0.0 
1.000000000000e+00 0.0 0.0 
1.000000000000e+00 0.0 0.0 
1.000000000000e+00 0.0 0.0 
1.000000000000e+00 0.0 0.0 
1.000000000000e+00 0.0 0.0 
1.000000000000e+00 0.0 0.0 
1.000000000000e+00 0.0 0.0 
1.000000000000e+00 0.0 0.0 
1.000000000000e+00 0.0 0.0 
1.000000000000e+00 0.0 0.0 
1.000000000000e+00 0.0 0.0 
1.000000000000e+00 0.0 0.0 
1.000000000000e+00 0.0 0.0 
1.000000000000e+00 0.0 0.0 
1.000000000000e+00 0.0 0.0 
1.000000000000e+00 0.0 0.0 
1.000000000000e+00 0.0 0.0 
1.000000000000e+00 0.0 0.0 
1.000000000000e+00 0.0 0.0 
1.000000000000e+00 0.0 0.0 
1.000000000000e+00 0.0 0.0 
1.000000000000e+00 0.0 0.0 
1.000000000000e+00 0.0 0.0 
1.000000000000e+00 0.0 0.0 
1.000000000000e+00 0.0 0.0 
1.000000000000e+00 0.0 0.0 
1.000000000000e+00 0.0 0.0 
1.000000000000e+00 0.0 0.0 
1.000000000000e+00 0.0 0.0 
1.000000000000e+00 0.0 0.0 
1.000000000000e+00 0.0 0.0 
1.000000000000e+00 0.0 0.0 
1.000000000000e+00 0.0 0.0 
1.000000000000e+00 0.0 0.0 
1.000000000000e+00 0.0 0.0 
1.000000000000e+00 0.0 0.0 
1.000000000000e+00 0.0 0.0 
1.000000000000e+00 0.0 0.0 
1.000000000000e+00 0.0 0.0 
1.000000000000e+00 0.0 0.0 
1.000000000000e+00 0.0 0.0 
1.000000000000e+00 0.0 0.0 
1.000000000000e+00 0.0 0.0 
1.000000000000e+00 0.0 0.0 
1.000000000000e+00 0.0 0.0 
1.000000000000e+00 0.0 0.0 
1.000000000000e+00 0.0 0.0 
1.000000000000e+00 0.0 0.0 
1.000000000000e+00 0.0 0.0 
1.000000000000e+00 0.0 0.0 
1.000000000000e+00 0.0 0.0 
1.000000000000e+00 0.0 0.0 
1.000000000000e+00 0.0 0.0 
1.000000000000e+00 0.0 0.0 
1.000000000000e+00 0.0 0.0 
1.000000000000e+00 0.0 0.0 
1.000000000000e+00 0.0 0.0 
1.000000000000e+00 0.0 0.0 
1.000000000000e+00 0.0 0.0 
1.000000000000e+00 0.0 0.0 
1.000000000000e+00 0.0 0.0 
1.000000000000e+00 0.0 0.0 
1.000000000000e+00 0.0 0.0 
1.000000000000e+00 0.0 0.0 
1.000000000000e+00 0.0 0.0 
1.000000000000e+00 0.0 0.0 
1.000000000000e+00 0.0 0.0 
1.000000000000e+00 0.0 0.0 
0.0 0.0 0.0 
0.0 0.0 0.0 
0.0 0.0 0.0 
0.0 0.0 0.0 
0.0 0.0 0.0 
0.0 0.0 0.0 
0.0 0.0 0.0 
0.0 0.0 0.0 
0.0 0.0 0.0 
0.0 0.0 0.0 
0.0 0.0 0.0 
1.000000000000e+00 0.0 0.0 
1.000000000000e+00 0.0 0.0 
1.000000000000e+00 0.0 0.0 
1.000000000000e+00 0.0 0.0 
1.000000000000e+00 0.0 0.0 
1.000000000000e+00 0.0 0.0 
1.000000000000e+00 0.0 0.0 
1.000000000000e+00 0.0 0.0 
0.0 0.0 0.0 
0.0 0.0 0.0 
0.0 0.0 0.0 
0.0 0.0 0.0 
0.0 0.0 0.0 
0.0 0.0 0.0 
0.0 0.0 0.0 
0.0 0.0 0.0 
0.0 0.0 0.0 
0.0 0.0 0.0 
0.0 0.0 0.0 
0.0 0.0 0.0 
0.0 0.0 0.0 
0.0 0.0 0.0 
0.0 0.0 0.0 
0.0 0.0 0.0 
0.0 0.0 0.0 
0.0 0.0 0.0 
0.0 0.0 0.0 
0.0 0.0 0.0 
0.0 0.0 0.0 
0.0 0.0 0.0 
0.0 0.0 0.0 
0.0 0.0 0.0 
0.0 0.0 0.0 
0.0 0.0 0.0 
0.0 0.0 0.0 
0.0 0.0 0.0 
0.0 0.0 0.0 
0.0 0.0 0.0 
0.0 0.0 0.0 
0.0 0.0 0.0 
0.0 0.0 0.0 
0.0 0.0 0.0 
0.0 0.0 0.0 
0.0 0.0 0.0 
0.0 0.0 0.0 
0.0 0.0 0.0 
0.0 0.0 0.0 
0.0 0.0 0.0 
0.0 0.0 0.0 
0.0 0.0 0.0 
0.0 0.0 0.0 
0.0 0.0 0.0 
0.0 0.0 0.0 
0.0 0.0 0.0 
0.0 0.0 0.0 
0.0 0.0 0.0 
0.0 0.0 0.0 
0.0 0.0 0.0 
0.0 0.0 0.0 
0.0 0.0 0.0 
0.0 0.0 0.0 
0.0 0.0 0.0 
0.0 0.0 0.0 
0.0 0.0 0.0 
0.0 0.0 0.0 
0.0 0.0 0.0 
0.0 0.0 0.0 
0.0 0.0 0.0 
0.0 0.0 0.0 
0.0 0.0 0.0 
0.0 0.0 0.0 
0.0 0.0 0.0 
0.0 0.0 0.0 
0.0 0.0 0.0 
0.0 0.0 0.0 
0.0 0.0 0.0 
0.0 0.0 0.0 
0.0 0.0 0.0 
0.0 0.0 0.0 
0.0 0.0 0.0 
0.0 0.0 0.0 
0.0 0.0 0.0 
0.0 0.0 0.0 
0.0 0.0 0.0 
0.0 0.0 0.0 
0.0 0.0 0.0 
0.0 0.0 0.0 
0.0 0.0 0.0 
0.0 0.0 0.0 
0.0 0.0 0.0 
0.0 0.0 0.0 
0.0 0.0 0.0 
0.0 0.0 0.0 
0.0 0.0 0.0 
0.0 0.0 0.0 
0.0 0.0 0.0 
0.0 0.0 0.0 
0.0 0.0 0.0 
0.0 0.0 0.0 
0.0 0.0 0.0 
0.0 0.0 0.0 
0.0 0.0 0.0 
0.0 0.0 0.0 
0.0 0.0 0.0 
0.0 0.0 0.0 
0.0 0.0 0.0 
0.0 0.0 0.0 
0.0 0.0 0.0 
0.0 0.0 0.0 
0.0 0.0 0.0 
0.0 0.0 0.0 
0.0 0.0 0.0 
0.0 0.0 0.0 
0.0 0.0 0.0 
0.0 0.0 0.0 
0.0 0.0 0.0 
0.0 0.0 0.0 
0.0 0.0 0.0 
0.0 0.0 0.0 
0.0 0.0 0.0 
0.0 0.0 0.0 
0.0 0.0 0.0 
0.0 0.0 0.0 
0.0 0.0 0.0 
0.0 0.0 0.0 
0.0 0.0 0.0 
0.0 0.0 0.0 
0.0 0.0 0.0 
0.0 0.0 0.0 
0.0 0.0 0.0 
0.0 0.0 0.0 
0.0 0.0 0.0 
0.0 0.0 0.0 
0.0 0.0 0.0 
0.0 0.0 0.0 
0.0 0.0 0.0 
0.0 0.0 0.0 
0.0 0.0 0.0 
0.0 0.0 0.0 
0.0 0.0 0.0 
0.0 0.0 0.0 
0.0 0.0 0.0 
0.0 0.0 0.0 
0.0 0.0 0.0 
0.0 0.0 0.0 
0.0 0.0 0.0 
0.0 0.0 0.0 
0.0 0.0 0.0 
0.0 0.0 0.0 
0.0 0.0 0.0 
0.0 0.0 0.0 
0.0 0.0 0.0 
0.0 0.0 0.0 
0.0 0.0 0.0 
0.0 0.0 0.0 
0.0 0.0 0.0 
0.0 0.0 0.0 
0.0 0.0 0.0 
0.0 0.0 0.0 
0.0 0.0 0.0 
0.0 0.0 0.0 
0.0 0.0 0.0 
0.0 0.0 0.0 
0.0 0.0 0.0 
0.0 0.0 0.0 
0.0 0.0 0.0 
0.0 0.0 0.0 
0.0 0.0 0.0 
0.0 0.0 0.0 
0.0 0.0 0.0 
0.0 0.0 0.0 
0.0 0.0 0.0 
0.0 0.0 0.0 
0.0 0.0 0.0 
0.0 0.0 0.0 
0.0 0.0 0.0 
0.0 0.0 0.0 
0.0 0.0 0.0 
0.0 0.0 0.0 
0.0 0.0 0.0 
0.0 0.0 0.0 
0.0 0.0 0.0 
0.0 0.0 0.0 
0.0 0.0 0.0 
0.0 0.0 0.0 
0.0 0.0 0.0 
0.0 0.0 0.0 
0.0 0.0 0.0 
0.0 0.0 0.0 
0.0 0.0 0.0 
0.0 0.0 0.0 
0.0 0.0 0.0 
0.0 0.0 0.0 
0.0 0.0 0.0 
0.0 0.0 0.0 
0.0 0.0 0.0 
0.0 0.0 0.0 
0.0 0.0 0.0 
0.0 0.0 0.0 
0.0 0.0 0.0 
0.0 0.0 0.0 
0.0 0.0 0.0 
0.0 0.0 0.0 
0.0 0.0 0.0 
0.0 0.0 0.0 
0.0 0.0 0.0 
0.0 0.0 0.0 
0.0 0.0 0.0 
0.0 0.0 0.0 
0.0 0.0 0.0 
0.0 0.0 0.0 
0.0 0.0 0.0 
0.0 0.0 0.0 
0.0 0.0 0.0 
0.0 0.0 0.0 
0.0 0.0 0.0 
0.0 0.0 0.0 
0.0 0.0 0.0 
0.0 0.0 0.0 
0.0 0.0 0.0 
0.0 0.0 0.0 
0.0 0.0 0.0 
0.0 0.0 0.0 
0.0 0.0 0.0 
0.0 0.0 0.0 
0.0 0.0 0.0 
0.0 0.0 0.0 
0.0 0.0 0.0 
0.0 0.0 0.0 
0.0 0.0 0.0 
0.0 0.0 0.0 
0.0 0.0 0.0 
0.0 0.0 0.0 
0.0 0.0 0.0 
0.0 0.0 0.0 
0.0 0.0 0.0 
0.0 0.0 0.0 
0.0 0.0 0.0 
0.0 0.0 0.0 
0.0 0.0 0.0 
0.0 0.0 0.0 
0.0 0.0 0.0 
0.0 0.0 0.0 
0.0 0.0 0.0 
0.0 0.0 0.0 
0.0 0.0 0.0 
0.0 0.0 0.0 
0.0 0.0 0.0 
0.0 0.0 0.0 
0.0 0.0 0.0 
0.0 0.0 0.0 
0.0 0.0 0.0 
0.0 0.0 0.0 
0.0 0.0 0.0 
0.0 0.0 0.0 
0.0 0.0 0.0 
0.0 0.0 0.0 
0.0 0.0 0.0 
0.0 0.0 0.0 
0.0 0.0 0.0 
0.0 0.0 0.0 
0.0 0.0 0.0 
0.0 0.0 0.0 
0.0 0.0 0.0 
0.0 0.0 0.0 
0.0 0.0 0.0 
0.0 0.0 0.0 
0.0 0.0 0.0 
0.0 0.0 0.0 
0.0 0.0 0.0 
0.0 0.0 0.0 
0.0 0.0 0.0 
0.0 0.0 0.0 
0.0 0.0 0.0 
0.0 0.0 0.0 
0.0 0.0 0.0 
0.0 0.0 0.0 
0.0 0.0 0.0 
0.0 0.0 0.0 
0.0 0.0 0.0 
0.0 0.0 0.0 
0.0 0.0 0.0 
0.0 0.0 0.0 
0.0 0.0 0.0 
0.0 0.0 0.0 
0.0 0.0 0.0 
0.0 0.0 0.0 
0.0 0.0 0.0 
0.0 0.0 0.0 
0.0 0.0 0.0 
0.0 0.0 0.0 
0.0 0.0 0.0 
0.0 0.0 0.0 
0.0 0.0 0.0 
0.0 0.0 0.0 
0.0 0.0 0.0 
0.0 0.0 0.0 
0.0 0.0 0.0 
0.0 0.0 0.0 
0.0 0.0 0.0 
0.0 0.0 0.0 
0.0 0.0 0.0 
0.0 0.0 0.0 
0.0 0.0 0.0 
0.0 0.0 0.0 
0.0 0.0 0.0 
0.0 0.0 0.0 
0.0 0.0 0.0 
0.0 0.0 0.0 
0.0 0.0 0.0 
0.0 0.0 0.0 
0.0 0.0 0.0 
0.0 0.0 0.0 
0.0 0.0 0.0 
0.0 0.0 0.0 
0.0 0.0 0.0 
0.0 0.0 0.0 
0.0 0.0 0.0 
0.0 0.0 0.0 
0.0 0.0 0.0 
0.0 0.0 0.0 
0.0 0.0 0.0 
0.0 0.0 0.0 
0.0 0.0 0.0 
0.0 0.0 0.0 
0.0 0.0 0.0 
0.0 0.0 0.0 
0.0 0.0 0.0 
0.0 0.0 0.0 
0.0 0.0 0.0 
0.0 0.0 0.0 
0.0 0.0 0.0 
0.0 0.0 0.0 
0.0 0.0 0.0 
0.0 0.0 0.0 
0.0 0.0 0.0 
0.0 0.0 0.0 
0.0 0.0 0.0 
0.0 0.0 0.0 
0.0 0.0 0.0 
0.0 0.0 0.0 
0.0 0.0 0.0 
0.0 0.0 0.0 
0.0 0.0 0.0 
0.0 0.0 0.0 
0.0 0.0 0.0 
0.0 0.0 0.0 
0.0 0.0 0.0 
0.0 0.0 0.0 
0.0 0.0 0.0 
0.0 0.0 0.0 
0.0 0.0 0.0 
0.0 0.0 0.0 
0.0 0.0 0.0 
0.0 0.0 0.0 
0.0 0.0 0.0 
0.0 0.0 0.0 
0.0 0.0 0.0 
0.0 0.0 0.0 
0.0 0.0 0.0 
0.0 0.0 0.0 
0.0 0.0 0.0 
0.0 0.0 0.0 
0.0 0.0 0.0 
0.0 0.0 0.0 
0.0 0.0 0.0 
0.0 0.0 0.0 
0.0 0.0 0.0 
0.0 0.0 0.0 
0.0 0.0 0.0 
0.0 0.0 0.0 
0.0 0.0 0.0 
0.0 0.0 0.0 
0.0 0.0 0.0 
0.0 0.0 0.0 
0.0 0.0 0.0 
0.0 0.0 0.0 
0.0 0.0 0.0 
0.0 0.0 0.0 
0.0 0.0 0.0 
0.0 0.0 0.0 
0.0 0.0 0.0 
0.0 0.0 0.0 
0.0 0.0 0.0 
0.0 0.0 0.0 
0.0 0.0 0.0 
0.0 0.0 0.0 
0.0 0.0 0.0 
0.0 0.0 0.0 
0.0 0.0 0.0 
0.0 0.0 0.0 
0.0 0.0 0.0 
0.0 0.0 0.0 
0.0 0.0 0.0 
0.0 0.0 0.0 
0.0 0.0 0.0 
0.0 0.0 0.0 
0.0 0.0 0.0 
0.0 0.0 0.0 
0.0 0.0 0.0 
0.0 0.0 0.0 
0.0 0.0 0.0 
0.0 0.0 0.0 
0.0 0.0 0.0 
0.0 0.0 0.0 
0.0 0.0 0.0 
0.0 0.0 0.0 
0.0 0.0 0.0 
0.0 0.0 0.0 
0.0 0.0 0.0 
0.0 0.0 0.0 
0.0 0.0 0.0 
0.0 0.0 0.0 
0.0 0.0 0.0 
0.0 0.0 0.0 
0.0 0.0 0.0 
0.0 0.0 0.0 
0.0 0.0 0.0 
0.0 0.0 0.0 
0.0 0.0 0.0 
0.0 0.0 0.0 
0.0 0.0 0.0 
0.0 0.0 0.0 
0.0 0.0 0.0 
0.0 0.0 0.0 
0.0 0.0 0.0 
0.0 0.0 0.0 
0.0 0.0 0.0 
0.0 0.0 0.0 
0.0 0.0 0.0 
0.0 0.0 0.0 
0.0 0.0 0.0 
0.0 0.0 0.0 
0.0 0.0 0.0 
0.0 0.0 0.0 
0.0 0.0 0.0 
0.0 0.0 0.0 
0.0 0.0 0.0 
0.0 0.0 0.0 
0.0 0.0 0.0 
0.0 0.0 0.0 
0.0 0.0 0.0 
0.0 0.0 0.0 
0.0 0.0 0.0 
0.0 0.0 0.0 
0.0 0.0 0.0 
0.0 0.0 0.0 
0.0 0.0 0.0 
0.0 0.0 0.0 
0.0 0.0 0.0 
0.0 0.0 0.0 
0.0 0.0 0.0 
0.0 0.0 0.0 
0.0 0.0 0.0 
0.0 0.0 0.0 
0.0 0.0 0.0 
0.0 0.0 0.0 
0.0 0.0 0.0 
0.0 0.0 0.0 
0.0 0.0 0.0 
0.0 0.0 0.0 
0.0 0.0 0.0 
0.0 0.0 0.0 
0.0 0.0 0.0 
0.0 0.0 0.0 
0.0 0.0 0.0 
0.0 0.0 0.0 
0.0 0.0 0.0 
0.0 0.0 0.0 
0.0 0.0 0.0 
0.0 0.0 0.0 
0.0 0.0 0.0 
0.0 0.0 0.0 
0.0 0.0 0.0 
0.0 0.0 0.0 
0.0 0.0 0.0 
0.0 0.0 0.0 
0.0 0.0 0.0 
0.0 0.0 0.0 
0.0 0.0 0.0 
0.0 0.0 0.0 
0.0 0.0 0.0 
0.0 0.0 0.0 
0.0 0.0 0.0 
0.0 0.0 0.0 
0.0 0.0 0.0 
0.0 0.0 0.0 
0.0 0.0 0.0 
0.0 0.0 0.0 
0.0 0.0 0.0 
0.0 0.0 0.0 
0.0 0.0 0.0 
0.0 0.0 0.0 
0.0 0.0 0.0 
0.0 0.0 0.0 
0.0 0.0 0.0 
0.0 0.0 0.0 
0.0 0.0 0.0 
0.0 0.0 0.0 
0.0 0.0 0.0 
0.0 0.0 0.0 
0.0 0.0 0.0 
0.0 0.0 0.0 
0.0 0.0 0.0 
0.0 0.0 0.0 
0.0 0.0 0.0 
0.0 0.0 0.0 
0.0 0.0 0.0 
0.0 0.0 0.0 
0.0 0.0 0.0 
0.0 0.0 0.0 
0.0 0.0 0.0 
0.0 0.0 0.0 
0.0 0.0 0.0 
0.0 0.0 0.0 
0.0 0.0 0.0 
0.0 0.0 0.0 
0.0 0.0 0.0 
0.0 0.0 0.0 
0.0 0.0 0.0 
0.0 0.0 0.0 
0.0 0.0 0.0 
0.0 0.0 0.0 
0.0 0.0 0.0 
0.0 0.0 0.0 
0.0 0.0 0.0 
0.0 0.0 0.0 
0.0 0.0 0.0 
0.0 0.0 0.0 
0.0 0.0 0.0 
0.0 0.0 0.0 
0.0 0.0 0.0 
0.0 0.0 0.0 
0.0 0.0 0.0 
0.0 0.0 0.0 
0.0 0.0 0.0 
0.0 0.0 0.0 
0.0 0.0 0.0 
0.0 0.0 0.0 
0.0 0.0 0.0 
0.0 0.0 0.0 
0.0 0.0 0.0 
0.0 0.0 0.0 
0.0 0.0 0.0 
0.0 0.0 0.0 
0.0 0.0 0.0 
0.0 0.0 0.0 
0.0 0.0 0.0 
0.0 0.0 0.0 
0.0 0.0 0.0 
0.0 0.0 0.0 
0.0 0.0 0.0 
0.0 0.0 0.0 
0.0 0.0 0.0 
0.0 0.0 0.0 
0.0 0.0 0.0 
0.0 0.0 0.0 
0.0 0.0 0.0 
0.0 0.0 0.0 
0.0 0.0 0.0 
0.0 0.0 0.0 
0.0 0.0 0.0 
0.0 0.0 0.0 
0.0 0.0 0.0 
0.0 0.0 0.0 
0.0 0.0 0.0 
0.0 0.0 0.0 
0.0 0.0 0.0 
0.0 0.0 0.0 
0.0 0.0 0.0 
0.0 0.0 0.0 
0.0 0.0 0.0 
0.0 0.0 0.0 
0.0 0.0 0.0 
0.0 0.0 0.0 
0.0 0.0 0.0 
0.0 0.0 0.0 
0.0 0.0 0.0 
0.0 0.0 0.0 
0.0 0.0 0.0 
0.0 0.0 0.0 
0.0 0.0 0.0 
0.0 0.0 0.0 
0.0 0.0 0.0 
0.0 0.0 0.0 
0.0 0.0 0.0 
0.0 0.0 0.0 
0.0 0.0 0.0 
0.0 0.0 0.0 
0.0 0.0 0.0 
0.0 0.0 0.0 
0.0 0.0 0.0 
0.0 0.0 0.0 
0.0 0.0 0.0 
0.0 0.0 0.0 
0.0 0.0 0.0 
0.0 0.0 0.0 
0.0 0.0 0.0 
0.0 0.0 0.0 
0.0 0.0 0.0 
0.0 0.0 0.0 
0.0 0.0 0.0 
0.0 0.0 0.0 
0.0 0.0 0.0 
0.0 0.0 0.0 
0.0 0.0 0.0 
0.0 0.0 0.0 
0.0 0.0 0.0 
0.0 0.0 0.0 
0.0 0.0 0.0 
0.0 0.0 0.0 
0.0 0.0 0.0 
0.0 0.0 0.0 
0.0 0.0 0.0 
0.0 0.0 0.0 
0.0 0.0 0.0 
0.0 0.0 0.0 
0.0 0.0 0.0 
0.0 0.0 0.0 
0.0 0.0 0.0 
0.0 0.0 0.0 
0.0 0.0 0.0 
0.0 0.0 0.0 
0.0 0.0 0.0 
0.0 0.0 0.0 
0.0 0.0 0.0 
0.0 0.0 0.0 
0.0 0.0 0.0 
0.0 0.0 0.0 
0.0 0.0 0.0 
0.0 0.0 0.0 
0.0 0.0 0.0 
0.0 0.0 0.0 
0.0 0.0 0.0 
0.0 0.0 0.0 
0.0 0.0 0.0 
0.0 0.0 0.0 
0.0 0.0 0.0 
0.0 0.0 0.0 
0.0 0.0 0.0 
0.0 0.0 0.0 
0.0 0.0 0.0 
0.0 0.0 0.0 
0.0 0.0 0.0 
0.0 0.0 0.0 
0.0 0.0 0.0 
0.0 0.0 0.0 
0.0 0.0 0.0 
0.0 0.0 0.0 
0.0 0.0 0.0 
0.0 0.0 0.0 
0.0 0.0 0.0 
0.0 0.0 0.0 
0.0 0.0 0.0 
0.0 0.0 0.0 
0.0 0.0 0.0 
0.0 0.0 0.0 
0.0 0.0 0.0 
0.0 0.0 0.0 
0.0 0.0 0.0 
0.0 0.0 0.0 
0.0 0.0 0.0 
0.0 0.0 0.0 
0.0 0.0 0.0 
0.0 0.0 0.0 
0.0 0.0 0.0 
0.0 0.0 0.0 
0.0 0.0 0.0 
0.0 0.0 0.0 
0.0 0.0 0.0 
0.0 0.0 0.0 
0.0 0.0 0.0 
0.0 0.0 0.0 
0.0 0.0 0.0 
0.0 0.0 0.0 
0.0 0.0 0.0 
0.0 0.0 0.0 
0.0 0.0 0.0 
0.0 0.0 0.0 
0.0 0.0 0.0 
0.0 0.0 0.0 
0.0 0.0 0.0 
0.0 0.0 0.0 
0.0 0.0 0.0 
0.0 0.0 0.0 
0.0 0.0 0.0 
0.0 0.0 0.0 
0.0 0.0 0.0 
0.0 0.0 0.0 
0.0 0.0 0.0 
0.0 0.0 0.0 
0.0 0.0 0.0 
0.0 0.0 0.0 
0.0 0.0 0.0 
0.0 0.0 0.0 
0.0 0.0 0.0 
0.0 0.0 0.0 
0.0 0.0 0.0 
0.0 0.0 0.0 
0.0 0.0 0.0 
0.0 0.0 0.0 
0.0 0.0 0.0 
0.0 0.0 0.0 
0.0 0.0 0.0 
0.0 0.0 0.0 
0.0 0.0 0.0 
0.0 0.0 0.0 
0.0 0.0 0.0 
0.0 0.0 0.0 
0.0 0.0 0.0 
0.0 0.0 0.0 
0.0 0.0 0.0 
0.0 0.0 0.0 
0.0 0.0 0.0 
0.0 0.0 0.0 
0.0 0.0 0.0 
0.0 0.0 0.0 
0.0 0.0 0.0 
0.0 0.0 0.0 
0.0 0.0 0.0 
0.0 0.0 0.0 
0.0 0.0 0.0 
0.0 0.0 0.0 
0.0 0.0 0.0 
0.0 0.0 0.0 
0.0 0.0 0.0 
0.0 0.0 0.0 
0.0 0.0 0.0 
0.0 0.0 0.0 
0.0 0.0 0.0 
0.0 0.0 0.0 
0.0 0.0 0.0 
0.0 0.0 0.0 
0.0 0.0 0.0 
0.0 0.0 0.0 
0.0 0.0 0.0 
0.0 0.0 0.0 
0.0 0.0 0.0 
0.0 0.0 0.0 
0.0 0.0 0.0 
0.0 0.0 0.0 
0.0 0.0 0.0 
0.0 0.0 0.0 
0.0 0.0 0.0 
0.0 0.0 0.0 
0.0 0.0 0.0 
0.0 0.0 0.0 
0.0 0.0 0.0 
0.0 0.0 0.0 
0.0 0.0 0.0 
0.0 0.0 0.0 
0.0 0.0 0.0 
0.0 0.0 0.0 
0.0 0.0 0.0 
0.0 0.0 0.0 
0.0 0.0 0.0 
0.0 0.0 0.0 
0.0 0.0 0.0 
0.0 0.0 0.0 
0.0 0.0 0.0 
0.0 0.0 0.0 
0.0 0.0 0.0 
0.0 0.0 0.0 
0.0 0.0 0.0 
0.0 0.0 0.0 
0.0 0.0 0.0 
0.0 0.0 0.0 
0.0 0.0 0.0 
0.0 0.0 0.0 
0.0 0.0 0.0 
0.0 0.0 0.0 
0.0 0.0 0.0 
0.0 0.0 0.0 
0.0 0.0 0.0 
0.0 0.0 0.0 
0.0 0.0 0.0 
0.0 0.0 0.0 
0.0 0.0 0.0 
0.0 0.0 0.0 
0.0 0.0 0.0 
0.0 0.0 0.0 
0.0 0.0 0.0 
0.0 0.0 0.0 
0.0 0.0 0.0 
0.0 0.0 0.0 
0.0 0.0 0.0 
0.0 0.0 0.0 
0.0 0.0 0.0 
0.0 0.0 0.0 
0.0 0.0 0.0 
0.0 0.0 0.0 
0.0 0.0 0.0 
0.0 0.0 0.0 
0.0 0.0 0.0 
0.0 0.0 0.0 
0.0 0.0 0.0 
0.0 0.0 0.0 
0.0 0.0 0.0 
0.0 0.0 0.0 
0.0 0.0 0.0 
0.0 0.0 0.0 
0.0 0.0 0.0 
0.0 0.0 0.0 
0.0 0.0 0.0 
0.0 0.0 0.0 
0.0 0.0 0.0 
0.0 0.0 0.0 
0.0 0.0 0.0 
0.0 0.0 0.0 
0.0 0.0 0.0 
0.0 0.0 0.0 
0.0 0.0 0.0 
0.0 0.0 0.0 
0.0 0.0 0.0 
0.0 0.0 0.0 
0.0 0.0 0.0 
0.0 0.0 0.0 
0.0 0.0 0.0 
0.0 0.0 0.0 
0.0 0.0 0.0 
0.0 0.0 0.0 
0.0 0.0 0.0 
0.0 0.0 0.0 
0.0 0.0 0.0 
0.0 0.0 0.0 
0.0 0.0 0.0 
0.0 0.0 0.0 
0.0 0.0 0.0 
0.0 0.0 0.0 
0.0 0.0 0.0 
0.0 0.0 0.0 
0.0 0.0 0.0 
0.0 0.0 0.0 
0.0 0.0 0.0 
0.0 0.0 0.0 
0.0 0.0 0.0 
0.0 0.0 0.0 
0.0 0.0 0.0 
0.0 0.0 0.0 
0.0 0.0 0.0 
0.0 0.0 0.0 
0.0 0.0 0.0 
0.0 0.0 0.0 
0.0 0.0 0.0 
0.0 0.0 0.0 
0.0 0.0 0.0 
0.0 0.0 0.0 
0.0 0.0 0.0 
0.0 0.0 0.0 
0.0 0.0 0.0 
0.0 0.0 0.0 
0.0 0.0 0.0 
0.0 0.0 0.0 
0.0 0.0 0.0 
0.0 0.0 0.0 
0.0 0.0 0.0 
0.0 0.0 0.0 
0.0 0.0 0.0 
0.0 0.0 0.0 
0.0 0.0 0.0 
0.0 0.0 0.0 
0.0 0.0 0.0 
0.0 0.0 0.0 
0.0 0.0 0.0 
0.0 0.0 0.0 
0.0 0.0 0.0 
0.0 0.0 0.0 
0.0 0.0 0.0 
0.0 0.0 0.0 
0.0 0.0 0.0 
0.0 0.0 0.0 
0.0 0.0 0.0 
0.0 0.0 0.0 
0.0 0.0 0.0 
0.0 0.0 0.0 
0.0 0.0 0.0 
0.0 0.0 0.0 
0.0 0.0 0.0 
0.0 0.0 0.0 
0.0 0.0 0.0 
0.0 0.0 0.0 
0.0 0.0 0.0 
0.0 0.0 0.0 
0.0 0.0 0.0 
0.0 0.0 0.0 
0.0 0.0 0.0 
0.0 0.0 0.0 
0.0 0.0 0.0 
0.0 0.0 0.0 
0.0 0.0 0.0 
0.0 0.0 0.0 
0.0 0.0 0.0 
0.0 0.0 0.0 
0.0 0.0 0.0 
0.0 0.0 0.0 
0.0 0.0 0.0 
0.0 0.0 0.0 
0.0 0.0 0.0 
0.0 0.0 0.0 
0.0 0.0 0.0 
0.0 0.0 0.0 
0.0 0.0 0.0 
0.0 0.0 0.0 
0.0 0.0 0.0 
0.0 0.0 0.0 
0.0 0.0 0.0 
0.0 0.0 0.0 
0.0 0.0 0.0 
0.0 0.0 0.0 
0.0 0.0 0.0 
0.0 0.0 0.0 
0.0 0.0 0.0 
0.0 0.0 0.0 
0.0 0.0 0.0 
0.0 0.0 0.0 
0.0 0.0 0.0 
0.0 0.0 0.0 
0.0 0.0 0.0 
0.0 0.0 0.0 
0.0 0.0 0.0 
0.0 0.0 0.0 
0.0 0.0 0.0 
0.0 0.0 0.0 
0.0 0.0 0.0 
0.0 0.0 0.0 
0.0 0.0 0.0 
0.0 0.0 0.0 
0.0 0.0 0.0 
0.0 0.0 0.0 
0.0 0.0 0.0 
0.0 0.0 0.0 
0.0 0.0 0.0 
0.0 0.0 0.0 
0.0 0.0 0.0 
0.0 0.0 0.0 
0.0 0.0 0.0 
0.0 0.0 0.0 
0.0 0.0 0.0 
0.0 0.0 0.0 
0.0 0.0 0.0 
0.0 0.0 0.0 
0.0 0.0 0.0 
0.0 0.0 0.0 
0.0 0.0 0.0 
0.0 0.0 0.0 
0.0 0.0 0.0 
0.0 0.0 0.0 
0.0 0.0 0.0 
0.0 0.0 0.0 
0.0 0.0 0.0 
0.0 0.0 0.0 
0.0 0.0 0.0 
0.0 0.0 0.0 
0.0 0.0 0.0 
0.0 0.0 0.0 
0.0 0.0 0.0 
0.0 0.0 0.0 
0.0 0.0 0.0 
0.0 0.0 0.0 
0.0 0.0 0.0 
0.0 0.0 0.0 
0.0 0.0 0.0 
0.0 0.0 0.0 
0.0 0.0 0.0 
0.0 0.0 0.0 
0.0 0.0 0.0 
0.0 0.0 0.0 
0.0 0.0 0.0 
0.0 0.0 0.0 
0.0 0.0 0.0 
0.0 0.0 0.0 
0.0 0.0 0.0 
0.0 0.0 0.0 
0.0 0.0 0.0 
0.0 0.0 0.0 
0.0 0.0 0.0 
0.0 0.0 0.0 
0.0 0.0 0.0 
0.0 0.0 0.0 
0.0 0.0 0.0 
0.0 0.0 0.0 
0.0 0.0 0.0 
0.0 0.0 0.0 
0.0 0.0 0.0 
0.0 0.0 0.0 
0.0 0.0 0.0 
0.0 0.0 0.0 
0.0 0.0 0.0 
0.0 0.0 0.0 
0.0 0.0 0.0 
0.0 0.0 0.0 
0.0 0.0 0.0 
0.0 0.0 0.0 
0.0 0.0 0.0 
0.0 0.0 0.0 
0.0 0.0 0.0 
0.0 0.0 0.0 
0.0 0.0 0.0 
0.0 0.0 0.0 
0.0 0.0 0.0 
0.0 0.0 0.0 
0.0 0.0 0.0 
0.0 0.0 0.0 
0.0 0.0 0.0 
0.0 0.0 0.0 
0.0 0.0 0.0 
0.0 0.0 0.0 
0.0 0.0 0.0 
0.0 0.0 0.0 
0.0 0.0 0.0 
0.0 0.0 0.0 
0.0 0.0 0.0 
0.0 0.0 0.0 
0.0 0.0 0.0 
0.0 0.0 0.0 
0.0 0.0 0.0 
0.0 0.0 0.0 
0.0 0.0 0.0 
0.0 0.0 0.0 
0.0 0.0 0.0 
0.0 0.0 0.0 
0.0 0.0 0.0 
0.0 0.0 0.0 
0.0 0.0 0.0 
0.0 0.0 0.0 
0.0 0.0 0.0 
0.0 0.0 0.0 
0.0 0.0 0.0 
0.0 0.0 0.0 
0.0 0.0 0.0 
0.0 0.0 0.0 
0.0 0.0 0.0 
0.0 0.0 0.0 
0.0 0.0 0.0 
0.0 0.0 0.0 
0.0 0.0 0.0 
0.0 0.0 0.0 
0.0 0.0 0.0 
0.0 0.0 0.0 
0.0 0.0 0.0 
0.0 0.0 0.0 
0.0 0.0 0.0 
0.0 0.0 0.0 
0.0 0.0 0.0 
0.0 0.0 0.0 
0.0 0.0 0.0 
0.0 0.0 0.0 
0.0 0.0 0.0 
0.0 0.0 0.0 
0.0 0.0 0.0 
0.0 0.0 0.0 
0.0 0.0 0.0 
0.0 0.0 0.0 
0.0 0.0 0.0 
0.0 0.0 0.0 
0.0 0.0 0.0 
0.0 0.0 0.0 
0.0 0.0 0.0 
0.0 0.0 0.0 
0.0 0.0 0.0 
0.0 0.0 0.0 
0.0 0.0 0.0 
0.0 0.0 0.0 
0.0 0.0 0.0 
0.0 0.0 0.0 
0.0 0.0 0.0 
0.0 0.0 0.0 
0.0 0.0 0.0 
0.0 0.0 0.0 
0.0 0.0 0.0 
0.0 0.0 0.0 
0.0 0.0 0.0 
0.0 0.0 0.0 
0.0 0.0 0.0 
0.0 0.0 0.0 
0.0 0.0 0.0 
0.0 0.0 0.0 
0.0 0.0 0.0 
0.0 0.0 0.0 
0.0 0.0 0.0 
0.0 0.0 0.0 
0.0 0.0 0.0 
0.0 0.0 0.0 
0.0 0.0 0.0 
0.0 0.0 0.0 
0.0 0.0 0.0 
0.0 0.0 0.0 
0.0 0.0 0.0 
0.0 0.0 0.0 
0.0 0.0 0.0 
0.0 0.0 0.0 
0.0 0.0 0.0 
0.0 0.0 0.0 
0.0 0.0 0.0 
0.0 0.0 0.0 
0.0 0.0 0.0 
0.0 0.0 0.0 
0.0 0.0 0.0 
0.0 0.0 0.0 
0.0 0.0 0.0 
0.0 0.0 0.0 
0.0 0.0 0.0 
0.0 0.0 0.0 
0.0 0.0 0.0 
0.0 0.0 0.0 
0.0 0.0 0.0 
0.0 0.0 0.0 
0.0 0.0 0.0 
0.0 0.0 0.0 
0.0 0.0 0.0 
0.0 0.0 0.0 
0.0 0.0 0.0 
0.0 0.0 0.0 
0.0 0.0 0.0 
0.0 0.0 0.0 
0.0 0.0 0.0 
0.0 0.0 0.0 
0.0 0.0 0.0 
0.0 0.0 0.0 
0.0 0.0 0.0 
0.0 0.0 0.0 
0.0 0.0 0.0 
0.0 0.0 0.0 
0.0 0.0 0.0 
0.0 0.0 0.0 
0.0 0.0 0.0 
0.0 0.0 0.0 
0.0 0.0 0.0 

VECTORS node_bounda_dof_materi_velocity_y float
0.0 0.0 0.0 
0.0 0.0 0.0 
0.0 1.000000000000e+00 0.0 
0.0 1.000000000000e+00 0.0 
0.0 0.0 0.0 
0.0 0.0 0.0 
0.0 0.0 0.0 
0.0 0.0 0.0 
0.0 0.0 0.0 
0.0 0.0 0.0 
0.0 0.0 0.0 
0.0 0.0 0.0 
0.0 0.0 0.0 
0.0 0.0 0.0 
0.0 0.0 0.0 
0.0 0.0 0.0 
0.0 0.0 0.0 
0.0 0.0 0.0 
0.0 0.0 0.0 
0.0 0.0 0.0 
0.0 0.0 0.0 
0.0 0.0 0.0 
0.0 0.0 0.0 
0.0 1.000000000000e+00 0.0 
0.0 1.000000000000e+00 0.0 
0.0 1.000000000000e+00 0.0 
0.0 1.000000000000e+00 0.0 
0.0 1.000000000000e+00 0.0 
0.0 1.000000000000e+00 0.0 
0.0 1.000000000000e+00 0.0 
0.0 1.000000000000e+00 0.0 
0.0 1.000000000000e+00 0.0 
0.0 1.000000000000e+00 0.0 
0.0 1.000000000000e+00 0.0 
0.0 1.000000000000e+00 0.0 
0.0 1.000000000000e+00 0.0 
0.0 1.000000000000e+00 0.0 
0.0 1.000000000000e+00 0.0 
0.0 1.000000000000e+00 0.0 
0.0 1.000000000000e+00 0.0 
0.0 1.000000000000e+00 0.0 
0.0 1.000000000000e+00 0.0 
0.0 1.000000000000e+00 0.0 
0.0 1.000000000000e+00 0.0 
0.0 1.000000000000e+00 0.0 
0.0 1.000000000000e+00 0.0 
0.0 1.000000000000e+00 0.0 
0.0 1.000000000000e+00 0.0 
0.0 1.000000000000e+00 0.0 
0.0 1.000000000000e+00 0.0 
0.0 1.000000000000e+00 0.0 
0.0 1.000000000000e+00 0.0 
0.0 1.000000000000e+00 0.0 
0.0 1.000000000000e+00 0.0 
0.0 1.000000000000e+00 0.0 
0.0 1.000000000000e+00 0.0 
0.0 1.000000000000e+00 0.0 
0.0 1.000000000000e+00 0.0 
0.0 1.000000000000e+00 0.0 
0.0 1.000000000000e+00 0.0 
0.0 1.000000000000e+00 0.0 
0.0 1.000000000000e+00 0.0 
0.0 1.000000000000e+00 0.0 
0.0 1.000000000000e+00 0.0 
0.0 1.000000000000e+00 0.0 
0.0 1.000000000000e+00 0.0 
0.0 1.000000000000e+00 0.0 
0.0 1.000000000000e+00 0.0 
0.0 1.000000000000e+00 0.0 
0.0 1.000000000000e+00 0.0 
0.0 1.000000000000e+00 0.0 
0.0 1.000000000000e+00 0.0 
0.0 0.0 0.0 
0.0 0.0 0.0 
0.0 0.0 0.0 
0.0 0.0 0.0 
0.0 0.0 0.0 
0.0 0.0 0.0 
0.0 0.0 0.0 
0.0 0.0 0.0 
0.0 0.0 0.0 
0.0 0.0 0.0 
0.0 0.0 0.0 
0.0 0.0 0.0 
0.0 0.0 0.0 
0.0 0.0 0.0 
0.0 0.0 0.0 
0.0 0.0 0.0 
0.0 0.0 0.0 
0.0 0.0 0.0 
0.0 0.0 0.0 
0.0 0.0 0.0 
0.0 0.0 0.0 
0.0 0.0 0.0 
0.0 0.0 0.0 
0.0 0.0 0.0 
0.0 0.0 0.0 
0.0 0.0 0.0 
0.0 0.0 0.0 
0.0 0.0 0.0 
0.0 0.0 0.0 
0.0 0.0 0.0 
0.0 0.0 0.0 
0.0 0.0 0.0 
0.0 0.0 0.0 
0.0 0.0 0.0 
0.0 0.0 0.0 
0.0 0.0 0.0 
0.0 0.0 0.0 
0.0 0.0 0.0 
0.0 0.0 0.0 
0.0 0.0 0.0 
0.0 0.0 0.0 
0.0 0.0 0.0 
0.0 0.0 0.0 
0.0 0.0 0.0 
0.0 0.0 0.0 
0.0 0.0 0.0 
0.0 0.0 0.0 
0.0 0.0 0.0 
0.0 0.0 0.0 
0.0 0.0 0.0 
0.0 0.0 0.0 
0.0 0.0 0.0 
0.0 0.0 0.0 
0.0 0.0 0.0 
0.0 0.0 0.0 
0.0 0.0 0.0 
0.0 0.0 0.0 
0.0 0.0 0.0 
0.0 0.0 0.0 
0.0 0.0 0.0 
0.0 0.0 0.0 
0.0 0.0 0.0 
0.0 0.0 0.0 
0.0 0.0 0.0 
0.0 0.0 0.0 
0.0 0.0 0.0 
0.0 0.0 0.0 
0.0 0.0 0.0 
0.0 0.0 0.0 
0.0 0.0 0.0 
0.0 0.0 0.0 
0.0 0.0 0.0 
0.0 0.0 0.0 
0.0 0.0 0.0 
0.0 0.0 0.0 
0.0 0.0 0.0 
0.0 0.0 0.0 
0.0 0.0 0.0 
0.0 0.0 0.0 
0.0 0.0 0.0 
0.0 0.0 0.0 
0.0 0.0 0.0 
0.0 0.0 0.0 
0.0 0.0 0.0 
0.0 0.0 0.0 
0.0 0.0 0.0 
0.0 0.0 0.0 
0.0 0.0 0.0 
0.0 0.0 0.0 
0.0 0.0 0.0 
0.0 0.0 0.0 
0.0 0.0 0.0 
0.0 0.0 0.0 
0.0 0.0 0.0 
0.0 0.0 0.0 
0.0 0.0 0.0 
0.0 0.0 0.0 
0.0 0.0 0.0 
0.0 0.0 0.0 
0.0 0.0 0.0 
0.0 0.0 0.0 
0.0 0.0 0.0 
0.0 0.0 0.0 
0.0 0.0 0.0 
0.0 0.0 0.0 
0.0 0.0 0.0 
0.0 0.0 0.0 
0.0 0.0 0.0 
0.0 0.0 0.0 
0.0 0.0 0.0 
0.0 0.0 0.0 
0.0 0.0 0.0 
0.0 0.0 0.0 
0.0 0.0 0.0 
0.0 0.0 0.0 
0.0 0.0 0.0 
0.0 0.0 0.0 
0.0 0.0 0.0 
0.0 0.0 0.0 
0.0 0.0 0.0 
0.0 0.0 0.0 
0.0 0.0 0.0 
0.0 0.0 0.0 
0.0 0.0 0.0 
0.0 0.0 0.0 
0.0 0.0 0.0 
0.0 0.0 0.0 
0.0 0.0 0.0 
0.0 0.0 0.0 
0.0 0.0 0.0 
0.0 0.0 0.0 
0.0 0.0 0.0 
0.0 0.0 0.0 
0.0 0.0 0.0 
0.0 0.0 0.0 
0.0 0.0 0.0 
0.0 0.0 0.0 
0.0 0.0 0.0 
0.0 0.0 0.0 
0.0 0.0 0.0 
0.0 0.0 0.0 
0.0 0.0 0.0 
0.0 0.0 0.0 
0.0 0.0 0.0 
0.0 0.0 0.0 
0.0 0.0 0.0 
0.0 0.0 0.0 
0.0 0.0 0.0 
0.0 0.0 0.0 
0.0 0.0 0.0 
0.0 0.0 0.0 
0.0 0.0 0.0 
0.0 0.0 0.0 
0.0 0.0 0.0 
0.0 0.0 0.0 
0.0 0.0 0.0 
0.0 0.0 0.0 
0.0 0.0 0.0 
0.0 0.0 0.0 
0.0 0.0 0.0 
0.0 0.0 0.0 
0.0 0.0 0.0 
0.0 0.0 0.0 
0.0 0.0 0.0 
0.0 0.0 0.0 
0.0 0.0 0.0 
0.0 0.0 0.0 
0.0 0.0 0.0 
0.0 0.0 0.0 
0.0 0.0 0.0 
0.0 0.0 0.0 
0.0 0.0 0.0 
0.0 0.0 0.0 
0.0 0.0 0.0 
0.0 0.0 0.0 
0.0 0.0 0.0 
0.0 0.0 0.0 
0.0 0.0 0.0 
0.0 0.0 0.0 
0.0 0.0 0.0 
0.0 0.0 0.0 
0.0 0.0 0.0 
0.0 0.0 0.0 
0.0 0.0 0.0 
0.0 0.0 0.0 
0.0 0.0 0.0 
0.0 0.0 0.0 
0.0 0.0 0.0 
0.0 0.0 0.0 
0.0 0.0 0.0 
0.0 0.0 0.0 
0.0 0.0 0.0 
0.0 0.0 0.0 
0.0 0.0 0.0 
0.0 0.0 0.0 
0.0 0.0 0.0 
0.0 0.0 0.0 
0.0 0.0 0.0 
0.0 0.0 0.0 
0.0 0.0 0.0 
0.0 0.0 0.0 
0.0 0.0 0.0 
0.0 0.0 0.0 
0.0 0.0 0.0 
0.0 0.0 0.0 
0.0 0.0 0.0 
0.0 0.0 0.0 
0.0 0.0 0.0 
0.0 0.0 0.0 
0.0 0.0 0.0 
0.0 0.0 0.0 
0.0 0.0 0.0 
0.0 0.0 0.0 
0.0 0.0 0.0 
0.0 0.0 0.0 
0.0 0.0 0.0 
0.0 0.0 0.0 
0.0 0.0 0.0 
0.0 0.0 0.0 
0.0 0.0 0.0 
0.0 0.0 0.0 
0.0 0.0 0.0 
0.0 0.0 0.0 
0.0 0.0 0.0 
0.0 0.0 0.0 
0.0 0.0 0.0 
0.0 0.0 0.0 
0.0 0.0 0.0 
0.0 0.0 0.0 
0.0 0.0 0.0 
0.0 0.0 0.0 
0.0 0.0 0.0 
0.0 0.0 0.0 
0.0 0.0 0.0 
0.0 0.0 0.0 
0.0 0.0 0.0 
0.0 0.0 0.0 
0.0 0.0 0.0 
0.0 0.0 0.0 
0.0 0.0 0.0 
0.0 0.0 0.0 
0.0 0.0 0.0 
0.0 0.0 0.0 
0.0 0.0 0.0 
0.0 0.0 0.0 
0.0 0.0 0.0 
0.0 0.0 0.0 
0.0 0.0 0.0 
0.0 0.0 0.0 
0.0 0.0 0.0 
0.0 0.0 0.0 
0.0 0.0 0.0 
0.0 0.0 0.0 
0.0 0.0 0.0 
0.0 0.0 0.0 
0.0 0.0 0.0 
0.0 0.0 0.0 
0.0 0.0 0.0 
0.0 0.0 0.0 
0.0 0.0 0.0 
0.0 0.0 0.0 
0.0 0.0 0.0 
0.0 0.0 0.0 
0.0 0.0 0.0 
0.0 0.0 0.0 
0.0 0.0 0.0 
0.0 0.0 0.0 
0.0 0.0 0.0 
0.0 0.0 0.0 
0.0 0.0 0.0 
0.0 0.0 0.0 
0.0 0.0 0.0 
0.0 0.0 0.0 
0.0 0.0 0.0 
0.0 0.0 0.0 
0.0 0.0 0.0 
0.0 0.0 0.0 
0.0 0.0 0.0 
0.0 0.0 0.0 
0.0 0.0 0.0 
0.0 0.0 0.0 
0.0 0.0 0.0 
0.0 0.0 0.0 
0.0 0.0 0.0 
0.0 0.0 0.0 
0.0 0.0 0.0 
0.0 0.0 0.0 
0.0 0.0 0.0 
0.0 0.0 0.0 
0.0 0.0 0.0 
0.0 0.0 0.0 
0.0 0.0 0.0 
0.0 0.0 0.0 
0.0 0.0 0.0 
0.0 0.0 0.0 
0.0 0.0 0.0 
0.0 0.0 0.0 
0.0 0.0 0.0 
0.0 0.0 0.0 
0.0 0.0 0.0 
0.0 0.0 0.0 
0.0 0.0 0.0 
0.0 0.0 0.0 
0.0 0.0 0.0 
0.0 0.0 0.0 
0.0 0.0 0.0 
0.0 0.0 0.0 
0.0 0.0 0.0 
0.0 0.0 0.0 
0.0 0.0 0.0 
0.0 0.0 0.0 
0.0 0.0 0.0 
0.0 0.0 0.0 
0.0 0.0 0.0 
0.0 0.0 0.0 
0.0 0.0 0.0 
0.0 0.0 0.0 
0.0 0.0 0.0 
0.0 0.0 0.0 
0.0 0.0 0.0 
0.0 0.0 0.0 
0.0 0.0 0.0 
0.0 0.0 0.0 
0.0 0.0 0.0 
0.0 0.0 0.0 
0.0 0.0 0.0 
0.0 0.0 0.0 
0.0 0.0 0.0 
0.0 0.0 0.0 
0.0 0.0 0.0 
0.0 0.0 0.0 
0.0 0.0 0.0 
0.0 0.0 0.0 
0.0 0.0 0.0 
0.0 0.0 0.0 
0.0 0.0 0.0 
0.0 0.0 0.0 
0.0 0.0 0.0 
0.0 0.0 0.0 
0.0 0.0 0.0 
0.0 0.0 0.0 
0.0 0.0 0.0 
0.0 0.0 0.0 
0.0 0.0 0.0 
0.0 0.0 0.0 
0.0 0.0 0.0 
0.0 0.0 0.0 
0.0 0.0 0.0 
0.0 0.0 0.0 
0.0 0.0 0.0 
0.0 0.0 0.0 
0.0 0.0 0.0 
0.0 0.0 0.0 
0.0 0.0 0.0 
0.0 0.0 0.0 
0.0 0.0 0.0 
0.0 0.0 0.0 
0.0 0.0 0.0 
0.0 0.0 0.0 
0.0 0.0 0.0 
0.0 0.0 0.0 
0.0 0.0 0.0 
0.0 0.0 0.0 
0.0 0.0 0.0 
0.0 0.0 0.0 
0.0 0.0 0.0 
0.0 0.0 0.0 
0.0 0.0 0.0 
0.0 0.0 0.0 
0.0 0.0 0.0 
0.0 0.0 0.0 
0.0 0.0 0.0 
0.0 0.0 0.0 
0.0 0.0 0.0 
0.0 0.0 0.0 
0.0 0.0 0.0 
0.0 0.0 0.0 
0.0 0.0 0.0 
0.0 0.0 0.0 
0.0 0.0 0.0 
0.0 0.0 0.0 
0.0 0.0 0.0 
0.0 0.0 0.0 
0.0 0.0 0.0 
0.0 0.0 0.0 
0.0 0.0 0.0 
0.0 0.0 0.0 
0.0 0.0 0.0 
0.0 0.0 0.0 
0.0 0.0 0.0 
0.0 0.0 0.0 
0.0 0.0 0.0 
0.0 0.0 0.0 
0.0 0.0 0.0 
0.0 0.0 0.0 
0.0 0.0 0.0 
0.0 0.0 0.0 
0.0 0.0 0.0 
0.0 0.0 0.0 
0.0 0.0 0.0 
0.0 0.0 0.0 
0.0 0.0 0.0 
0.0 0.0 0.0 
0.0 0.0 0.0 
0.0 0.0 0.0 
0.0 0.0 0.0 
0.0 0.0 0.0 
0.0 0.0 0.0 
0.0 0.0 0.0 
0.0 0.0 0.0 
0.0 0.0 0.0 
0.0 0.0 0.0 
0.0 0.0 0.0 
0.0 0.0 0.0 
0.0 0.0 0.0 
0.0 0.0 0.0 
0.0 0.0 0.0 
0.0 0.0 0.0 
0.0 0.0 0.0 
0.0 0.0 0.0 
0.0 0.0 0.0 
0.0 0.0 0.0 
0.0 0.0 0.0 
0.0 0.0 0.0 
0.0 0.0 0.0 
0.0 0.0 0.0 
0.0 0.0 0.0 
0.0 0.0 0.0 
0.0 0.0 0.0 
0.0 0.0 0.0 
0.0 0.0 0.0 
0.0 0.0 0.0 
0.0 0.0 0.0 
0.0 0.0 0.0 
0.0 0.0 0.0 
0.0 0.0 0.0 
0.0 0.0 0.0 
0.0 0.0 0.0 
0.0 0.0 0.0 
0.0 0.0 0.0 
0.0 0.0 0.0 
0.0 0.0 0.0 
0.0 0.0 0.0 
0.0 0.0 0.0 
0.0 0.0 0.0 
0.0 0.0 0.0 
0.0 0.0 0.0 
0.0 0.0 0.0 
0.0 0.0 0.0 
0.0 0.0 0.0 
0.0 0.0 0.0 
0.0 0.0 0.0 
0.0 0.0 0.0 
0.0 0.0 0.0 
0.0 0.0 0.0 
0.0 0.0 0.0 
0.0 0.0 0.0 
0.0 0.0 0.0 
0.0 0.0 0.0 
0.0 0.0 0.0 
0.0 0.0 0.0 
0.0 0.0 0.0 
0.0 0.0 0.0 
0.0 0.0 0.0 
0.0 0.0 0.0 
0.0 0.0 0.0 
0.0 0.0 0.0 
0.0 0.0 0.0 
0.0 0.0 0.0 
0.0 0.0 0.0 
0.0 0.0 0.0 
0.0 0.0 0.0 
0.0 0.0 0.0 
0.0 0.0 0.0 
0.0 0.0 0.0 
0.0 0.0 0.0 
0.0 0.0 0.0 
0.0 0.0 0.0 
0.0 0.0 0.0 
0.0 0.0 0.0 
0.0 0.0 0.0 
0.0 0.0 0.0 
0.0 0.0 0.0 
0.0 0.0 0.0 
0.0 0.0 0.0 
0.0 0.0 0.0 
0.0 0.0 0.0 
0.0 0.0 0.0 
0.0 0.0 0.0 
0.0 0.0 0.0 
0.0 0.0 0.0 
0.0 0.0 0.0 
0.0 0.0 0.0 
0.0 0.0 0.0 
0.0 0.0 0.0 
0.0 0.0 0.0 
0.0 0.0 0.0 
0.0 0.0 0.0 
0.0 0.0 0.0 
0.0 0.0 0.0 
0.0 0.0 0.0 
0.0 0.0 0.0 
0.0 0.0 0.0 
0.0 0.0 0.0 
0.0 0.0 0.0 
0.0 0.0 0.0 
0.0 0.0 0.0 
0.0 0.0 0.0 
0.0 0.0 0.0 
0.0 0.0 0.0 
0.0 0.0 0.0 
0.0 0.0 0.0 
0.0 0.0 0.0 
0.0 0.0 0.0 
0.0 0.0 0.0 
0.0 0.0 0.0 
0.0 0.0 0.0 
0.0 0.0 0.0 
0.0 0.0 0.0 
0.0 0.0 0.0 
0.0 0.0 0.0 
0.0 0.0 0.0 
0.0 0.0 0.0 
0.0 0.0 0.0 
0.0 0.0 0.0 
0.0 0.0 0.0 
0.0 0.0 0.0 
0.0 0.0 0.0 
0.0 0.0 0.0 
0.0 0.0 0.0 
0.0 0.0 0.0 
0.0 0.0 0.0 
0.0 0.0 0.0 
0.0 0.0 0.0 
0.0 0.0 0.0 
0.0 0.0 0.0 
0.0 0.0 0.0 
0.0 0.0 0.0 
0.0 0.0 0.0 
0.0 0.0 0.0 
0.0 0.0 0.0 
0.0 0.0 0.0 
0.0 0.0 0.0 
0.0 0.0 0.0 
0.0 0.0 0.0 
0.0 0.0 0.0 
0.0 0.0 0.0 
0.0 0.0 0.0 
0.0 0.0 0.0 
0.0 0.0 0.0 
0.0 0.0 0.0 
0.0 0.0 0.0 
0.0 0.0 0.0 
0.0 0.0 0.0 
0.0 0.0 0.0 
0.0 0.0 0.0 
0.0 0.0 0.0 
0.0 0.0 0.0 
0.0 0.0 0.0 
0.0 0.0 0.0 
0.0 0.0 0.0 
0.0 0.0 0.0 
0.0 0.0 0.0 
0.0 0.0 0.0 
0.0 0.0 0.0 
0.0 0.0 0.0 
0.0 0.0 0.0 
0.0 0.0 0.0 
0.0 0.0 0.0 
0.0 0.0 0.0 
0.0 0.0 0.0 
0.0 0.0 0.0 
0.0 0.0 0.0 
0.0 0.0 0.0 
0.0 0.0 0.0 
0.0 0.0 0.0 
0.0 0.0 0.0 
0.0 0.0 0.0 
0.0 0.0 0.0 
0.0 0.0 0.0 
0.0 0.0 0.0 
0.0 0.0 0.0 
0.0 0.0 0.0 
0.0 0.0 0.0 
0.0 0.0 0.0 
0.0 0.0 0.0 
0.0 0.0 0.0 
0.0 0.0 0.0 
0.0 0.0 0.0 
0.0 0.0 0.0 
0.0 0.0 0.0 
0.0 0.0 0.0 
0.0 0.0 0.0 
0.0 0.0 0.0 
0.0 0.0 0.0 
0.0 0.0 0.0 
0.0 0.0 0.0 
0.0 0.0 0.0 
0.0 0.0 0.0 
0.0 0.0 0.0 
0.0 0.0 0.0 
0.0 0.0 0.0 
0.0 0.0 0.0 
0.0 0.0 0.0 
0.0 0.0 0.0 
0.0 0.0 0.0 
0.0 0.0 0.0 
0.0 0.0 0.0 
0.0 0.0 0.0 
0.0 0.0 0.0 
0.0 0.0 0.0 
0.0 0.0 0.0 
0.0 0.0 0.0 
0.0 0.0 0.0 
0.0 0.0 0.0 
0.0 0.0 0.0 
0.0 0.0 0.0 
0.0 0.0 0.0 
0.0 0.0 0.0 
0.0 0.0 0.0 
0.0 0.0 0.0 
0.0 0.0 0.0 
0.0 0.0 0.0 
0.0 0.0 0.0 
0.0 0.0 0.0 
0.0 0.0 0.0 
0.0 0.0 0.0 
0.0 0.0 0.0 
0.0 0.0 0.0 
0.0 0.0 0.0 
0.0 0.0 0.0 
0.0 0.0 0.0 
0.0 0.0 0.0 
0.0 0.0 0.0 
0.0 0.0 0.0 
0.0 0.0 0.0 
0.0 0.0 0.0 
0.0 0.0 0.0 
0.0 0.0 0.0 
0.0 0.0 0.0 
0.0 0.0 0.0 
0.0 0.0 0.0 
0.0 0.0 0.0 
0.0 0.0 0.0 
0.0 0.0 0.0 
0.0 0.0 0.0 
0.0 0.0 0.0 
0.0 0.0 0.0 
0.0 0.0 0.0 
0.0 0.0 0.0 
0.0 0.0 0.0 
0.0 0.0 0.0 
0.0 0.0 0.0 
0.0 0.0 0.0 
0.0 0.0 0.0 
0.0 0.0 0.0 
0.0 0.0 0.0 
0.0 0.0 0.0 
0.0 0.0 0.0 
0.0 0.0 0.0 
0.0 0.0 0.0 
0.0 0.0 0.0 
0.0 0.0 0.0 
0.0 0.0 0.0 
0.0 0.0 0.0 
0.0 0.0 0.0 
0.0 0.0 0.0 
0.0 0.0 0.0 
0.0 0.0 0.0 
0.0 0.0 0.0 
0.0 0.0 0.0 
0.0 0.0 0.0 
0.0 0.0 0.0 
0.0 0.0 0.0 
0.0 0.0 0.0 
0.0 0.0 0.0 
0.0 0.0 0.0 
0.0 0.0 0.0 
0.0 0.0 0.0 
0.0 0.0 0.0 
0.0 0.0 0.0 
0.0 0.0 0.0 
0.0 0.0 0.0 
0.0 0.0 0.0 
0.0 0.0 0.0 
0.0 0.0 0.0 
0.0 0.0 0.0 
0.0 0.0 0.0 
0.0 0.0 0.0 
0.0 0.0 0.0 
0.0 0.0 0.0 
0.0 0.0 0.0 
0.0 0.0 0.0 
0.0 0.0 0.0 
0.0 0.0 0.0 
0.0 0.0 0.0 
0.0 0.0 0.0 
0.0 0.0 0.0 
0.0 0.0 0.0 
0.0 0.0 0.0 
0.0 0.0 0.0 
0.0 0.0 0.0 
0.0 0.0 0.0 
0.0 0.0 0.0 
0.0 0.0 0.0 
0.0 0.0 0.0 
0.0 0.0 0.0 
0.0 0.0 0.0 
0.0 0.0 0.0 
0.0 0.0 0.0 
0.0 0.0 0.0 
0.0 0.0 0.0 
0.0 0.0 0.0 
0.0 0.0 0.0 
0.0 0.0 0.0 
0.0 0.0 0.0 
0.0 0.0 0.0 
0.0 0.0 0.0 
0.0 0.0 0.0 
0.0 0.0 0.0 
0.0 0.0 0.0 
0.0 0.0 0.0 
0.0 0.0 0.0 
0.0 0.0 0.0 
0.0 0.0 0.0 
0.0 0.0 0.0 
0.0 0.0 0.0 
0.0 0.0 0.0 
0.0 0.0 0.0 
0.0 0.0 0.0 
0.0 0.0 0.0 
0.0 0.0 0.0 
0.0 0.0 0.0 
0.0 0.0 0.0 
0.0 0.0 0.0 
0.0 0.0 0.0 
0.0 0.0 0.0 
0.0 0.0 0.0 
0.0 0.0 0.0 
0.0 0.0 0.0 
0.0 0.0 0.0 
0.0 0.0 0.0 
0.0 0.0 0.0 
0.0 0.0 0.0 
0.0 0.0 0.0 
0.0 0.0 0.0 
0.0 0.0 0.0 
0.0 0.0 0.0 
0.0 0.0 0.0 
0.0 0.0 0.0 
0.0 0.0 0.0 
0.0 0.0 0.0 
0.0 0.0 0.0 
0.0 0.0 0.0 
0.0 0.0 0.0 
0.0 0.0 0.0 
0.0 0.0 0.0 
0.0 0.0 0.0 
0.0 0.0 0.0 
0.0 0.0 0.0 
0.0 0.0 0.0 
0.0 0.0 0.0 
0.0 0.0 0.0 
0.0 0.0 0.0 
0.0 0.0 0.0 
0.0 0.0 0.0 
0.0 0.0 0.0 
0.0 0.0 0.0 
0.0 0.0 0.0 
0.0 0.0 0.0 
0.0 0.0 0.0 
0.0 0.0 0.0 
0.0 0.0 0.0 
0.0 0.0 0.0 
0.0 0.0 0.0 
0.0 0.0 0.0 
0.0 0.0 0.0 
0.0 0.0 0.0 
0.0 0.0 0.0 
0.0 0.0 0.0 
0.0 0.0 0.0 
0.0 0.0 0.0 
0.0 0.0 0.0 
0.0 0.0 0.0 
0.0 0.0 0.0 
0.0 0.0 0.0 
0.0 0.0 0.0 
0.0 0.0 0.0 
0.0 0.0 0.0 
0.0 0.0 0.0 
0.0 0.0 0.0 
0.0 0.0 0.0 
0.0 0.0 0.0 
0.0 0.0 0.0 
0.0 0.0 0.0 
0.0 0.0 0.0 
0.0 0.0 0.0 
0.0 0.0 0.0 
0.0 0.0 0.0 
0.0 0.0 0.0 
0.0 0.0 0.0 
0.0 0.0 0.0 
0.0 0.0 0.0 
0.0 0.0 0.0 
0.0 0.0 0.0 
0.0 0.0 0.0 
0.0 0.0 0.0 
0.0 0.0 0.0 
0.0 0.0 0.0 
0.0 0.0 0.0 
0.0 0.0 0.0 
0.0 0.0 0.0 
0.0 0.0 0.0 
0.0 0.0 0.0 
0.0 0.0 0.0 
0.0 0.0 0.0 
0.0 0.0 0.0 
0.0 0.0 0.0 
0.0 0.0 0.0 
0.0 0.0 0.0 
0.0 0.0 0.0 
0.0 0.0 0.0 
0.0 0.0 0.0 
0.0 0.0 0.0 
0.0 0.0 0.0 
0.0 0.0 0.0 
0.0 0.0 0.0 
0.0 0.0 0.0 
0.0 0.0 0.0 
0.0 0.0 0.0 
0.0 0.0 0.0 
0.0 0.0 0.0 
0.0 0.0 0.0 
0.0 0.0 0.0 
0.0 0.0 0.0 
0.0 0.0 0.0 
0.0 0.0 0.0 
0.0 0.0 0.0 
0.0 0.0 0.0 
0.0 0.0 0.0 
0.0 0.0 0.0 
0.0 0.0 0.0 
0.0 0.0 0.0 
0.0 0.0 0.0 
0.0 0.0 0.0 
0.0 0.0 0.0 
0.0 0.0 0.0 
0.0 0.0 0.0 
0.0 0.0 0.0 
0.0 0.0 0.0 
0.0 0.0 0.0 
0.0 0.0 0.0 
0.0 0.0 0.0 
0.0 0.0 0.0 
0.0 0.0 0.0 
0.0 0.0 0.0 
0.0 0.0 0.0 
0.0 0.0 0.0 
0.0 0.0 0.0 
0.0 0.0 0.0 
0.0 0.0 0.0 
0.0 0.0 0.0 
0.0 0.0 0.0 
0.0 0.0 0.0 
0.0 0.0 0.0 
0.0 0.0 0.0 
0.0 0.0 0.0 
0.0 0.0 0.0 
0.0 0.0 0.0 
0.0 0.0 0.0 
0.0 0.0 0.0 
0.0 0.0 0.0 
0.0 0.0 0.0 
0.0 0.0 0.0 
0.0 0.0 0.0 
0.0 0.0 0.0 
0.0 0.0 0.0 
0.0 0.0 0.0 
0.0 0.0 0.0 
0.0 0.0 0.0 
0.0 0.0 0.0 
0.0 0.0 0.0 
0.0 0.0 0.0 
0.0 0.0 0.0 
0.0 0.0 0.0 
0.0 0.0 0.0 
0.0 0.0 0.0 
0.0 0.0 0.0 
0.0 0.0 0.0 
0.0 0.0 0.0 
0.0 0.0 0.0 
0.0 0.0 0.0 
0.0 0.0 0.0 
0.0 0.0 0.0 
0.0 0.0 0.0 
0.0 0.0 0.0 
0.0 0.0 0.0 
0.0 0.0 0.0 
0.0 0.0 0.0 
0.0 0.0 0.0 
0.0 0.0 0.0 
0.0 0.0 0.0 
0.0 0.0 0.0 
0.0 0.0 0.0 
0.0 0.0 0.0 
0.0 0.0 0.0 
0.0 0.0 0.0 
0.0 0.0 0.0 
0.0 0.0 0.0 
0.0 0.0 0.0 
0.0 0.0 0.0 
0.0 0.0 0.0 
0.0 0.0 0.0 
0.0 0.0 0.0 
0.0 0.0 0.0 
0.0 0.0 0.0 
0.0 0.0 0.0 
0.0 0.0 0.0 
0.0 0.0 0.0 
0.0 0.0 0.0 
0.0 0.0 0.0 
0.0 0.0 0.0 
0.0 0.0 0.0 
0.0 0.0 0.0 
0.0 0.0 0.0 
0.0 0.0 0.0 
0.0 0.0 0.0 
0.0 0.0 0.0 
0.0 0.0 0.0 
0.0 0.0 0.0 
0.0 0.0 0.0 
0.0 0.0 0.0 
0.0 0.0 0.0 
0.0 0.0 0.0 
0.0 0.0 0.0 
0.0 0.0 0.0 
0.0 0.0 0.0 
0.0 0.0 0.0 
0.0 0.0 0.0 
0.0 0.0 0.0 
0.0 0.0 0.0 
0.0 0.0 0.0 
0.0 0.0 0.0 
0.0 0.0 0.0 
0.0 0.0 0.0 
0.0 0.0 0.0 
0.0 0.0 0.0 
0.0 0.0 0.0 
0.0 0.0 0.0 
0.0 0.0 0.0 
0.0 0.0 0.0 
0.0 0.0 0.0 
0.0 0.0 0.0 
0.0 0.0 0.0 
0.0 0.0 0.0 
0.0 0.0 0.0 
0.0 0.0 0.0 
0.0 0.0 0.0 
0.0 0.0 0.0 
0.0 0.0 0.0 
0.0 0.0 0.0 
0.0 0.0 0.0 
0.0 0.0 0.0 
0.0 0.0 0.0 
0.0 0.0 0.0 
0.0 0.0 0.0 
0.0 0.0 0.0 
0.0 0.0 0.0 
0.0 0.0 0.0 
0.0 0.0 0.0 
0.0 0.0 0.0 
0.0 0.0 0.0 
0.0 0.0 0.0 
0.0 0.0 0.0 
0.0 0.0 0.0 
0.0 0.0 0.0 
0.0 0.0 0.0 
0.0 0.0 0.0 
0.0 0.0 0.0 
0.0 0.0 0.0 
0.0 0.0 0.0 
0.0 0.0 0.0 
0.0 0.0 0.0 
0.0 0.0 0.0 
0.0 0.0 0.0 
0.0 0.0 0.0 
0.0 0.0 0.0 
0.0 0.0 0.0 
0.0 0.0 0.0 
0.0 0.0 0.0 
0.0 0.0 0.0 
0.0 0.0 0.0 
0.0 0.0 0.0 
0.0 0.0 0.0 
0.0 0.0 0.0 
0.0 0.0 0.0 
0.0 0.0 0.0 
0.0 0.0 0.0 
0.0 0.0 0.0 
0.0 0.0 0.0 
0.0 0.0 0.0 
0.0 0.0 0.0 
0.0 0.0 0.0 
0.0 0.0 0.0 
0.0 0.0 0.0 
0.0 0.0 0.0 
0.0 0.0 0.0 
0.0 0.0 0.0 
0.0 0.0 0.0 
0.0 0.0 0.0 
0.0 0.0 0.0 
0.0 0.0 0.0 
0.0 0.0 0.0 
0.0 0.0 0.0 
0.0 0.0 0.0 
0.0 0.0 0.0 
0.0 0.0 0.0 
0.0 0.0 0.0 
0.0 0.0 0.0 
0.0 0.0 0.0 
0.0 0.0 0.0 
0.0 0.0 0.0 
0.0 0.0 0.0 
0.0 0.0 0.0 
0.0 0.0 0.0 
0.0 0.0 0.0 
0.0 0.0 0.0 
0.0 0.0 0.0 
0.0 0.0 0.0 
0.0 0.0 0.0 
0.0 0.0 0.0 
0.0 0.0 0.0 
0.0 0.0 0.0 
0.0 0.0 0.0 
0.0 0.0 0.0 
0.0 0.0 0.0 
0.0 0.0 0.0 
0.0 0.0 0.0 
0.0 0.0 0.0 
0.0 0.0 0.0 
0.0 0.0 0.0 
0.0 0.0 0.0 
0.0 0.0 0.0 
0.0 0.0 0.0 
0.0 0.0 0.0 
0.0 0.0 0.0 
0.0 0.0 0.0 
0.0 0.0 0.0 
0.0 0.0 0.0 
0.0 0.0 0.0 
0.0 0.0 0.0 
0.0 0.0 0.0 
0.0 0.0 0.0 
0.0 0.0 0.0 
0.0 0.0 0.0 
0.0 0.0 0.0 
0.0 0.0 0.0 
0.0 0.0 0.0 
0.0 0.0 0.0 
0.0 0.0 0.0 
0.0 0.0 0.0 
0.0 0.0 0.0 
0.0 0.0 0.0 
0.0 0.0 0.0 
0.0 0.0 0.0 
0.0 0.0 0.0 
0.0 0.0 0.0 
0.0 0.0 0.0 
0.0 0.0 0.0 
0.0 0.0 0.0 
0.0 0.0 0.0 
0.0 0.0 0.0 
0.0 0.0 0.0 
0.0 0.0 0.0 
0.0 0.0 0.0 
0.0 0.0 0.0 
0.0 0.0 0.0 
0.0 0.0 0.0 
0.0 0.0 0.0 
0.0 0.0 0.0 
0.0 0.0 0.0 
0.0 0.0 0.0 
0.0 0.0 0.0 
0.0 0.0 0.0 
0.0 0.0 0.0 
0.0 0.0 0.0 
0.0 0.0 0.0 
0.0 0.0 0.0 
0.0 0.0 0.0 
0.0 0.0 0.0 
0.0 0.0 0.0 
0.0 0.0 0.0 
0.0 0.0 0.0 
0.0 0.0 0.0 
0.0 0.0 0.0 
0.0 0.0 0.0 
0.0 0.0 0.0 
0.0 0.0 0.0 
0.0 0.0 0.0 
0.0 0.0 0.0 
0.0 0.0 0.0 
0.0 0.0 0.0 
0.0 0.0 0.0 
0.0 0.0 0.0 
0.0 0.0 0.0 
0.0 0.0 0.0 
0.0 0.0 0.0 
0.0 0.0 0.0 
0.0 0.0 0.0 
0.0 0.0 0.0 
0.0 0.0 0.0 
0.0 0.0 0.0 
0.0 0.0 0.0 
0.0 0.0 0.0 
0.0 0.0 0.0 
0.0 0.0 0.0 
0.0 0.0 0.0 
0.0 0.0 0.0 
0.0 0.0 0.0 
0.0 0.0 0.0 
0.0 0.0 0.0 
0.0 0.0 0.0 
0.0 0.0 0.0 
0.0 0.0 0.0 
0.0 0.0 0.0 
0.0 0.0 0.0 
0.0 0.0 0.0 
0.0 0.0 0.0 
0.0 0.0 0.0 
0.0 0.0 0.0 
0.0 0.0 0.0 
0.0 0.0 0.0 
0.0 0.0 0.0 
0.0 0.0 0.0 
0.0 0.0 0.0 
0.0 0.0 0.0 
0.0 0.0 0.0 
0.0 0.0 0.0 
0.0 0.0 0.0 
0.0 0.0 0.0 
0.0 0.0 0.0 
0.0 0.0 0.0 
0.0 0.0 0.0 
0.0 0.0 0.0 
0.0 0.0 0.0 
0.0 0.0 0.0 
0.0 0.0 0.0 
0.0 0.0 0.0 

SCALARS node_boundary float
LOOKUP_TABLE default
1.000000000000e+00 
1.000000000000e+00 
1.000000000000e+00 
1.000000000000e+00 
1.000000000000e+00 
1.000000000000e+00 
1.000000000000e+00 
1.000000000000e+00 
1.000000000000e+00 
1.000000000000e+00 
1.000000000000e+00 
1.000000000000e+00 
1.000000000000e+00 
1.000000000000e+00 
1.000000000000e+00 
1.000000000000e+00 
1.000000000000e+00 
1.000000000000e+00 
1.000000000000e+00 
1.000000000000e+00 
1.000000000000e+00 
1.000000000000e+00 
1.000000000000e+00 
1.000000000000e+00 
1.000000000000e+00 
1.000000000000e+00 
1.000000000000e+00 
1.000000000000e+00 
1.000000000000e+00 
1.000000000000e+00 
1.000000000000e+00 
1.000000000000e+00 
1.000000000000e+00 
1.000000000000e+00 
1.000000000000e+00 
1.000000000000e+00 
1.000000000000e+00 
1.000000000000e+00 
1.000000000000e+00 
1.000000000000e+00 
1.000000000000e+00 
1.000000000000e+00 
1.000000000000e+00 
1.000000000000e+00 
1.000000000000e+00 
1.000000000000e+00 
1.000000000000e+00 
1.000000000000e+00 
1.000000000000e+00 
1.000000000000e+00 
1.000000000000e+00 
1.000000000000e+00 
1.000000000000e+00 
1.000000000000e+00 
1.000000000000e+00 
1.000000000000e+00 
1.000000000000e+00 
1.000000000000e+00 
1.000000000000e+00 
1.000000000000e+00 
1.000000000000e+00 
1.000000000000e+00 
1.000000000000e+00 
1.000000000000e+00 
1.000000000000e+00 
1.000000000000e+00 
1.000000000000e+00 
1.000000000000e+00 
1.000000000000e+00 
1.000000000000e+00 
1.000000000000e+00 
1.000000000000e+00 
1.000000000000e+00 
1.000000000000e+00 
1.000000000000e+00 
1.000000000000e+00 
1.000000000000e+00 
1.000000000000e+00 
1.000000000000e+00 
1.000000000000e+00 
1.000000000000e+00 
1.000000000000e+00 
0.0
1.000000000000e+00 
1.000000000000e+00 
0.0
0.0
0.0
0.0
0.0
0.0
0.0
1.000000000000e+00 
1.000000000000e+00 
1.000000000000e+00 
1.000000000000e+00 
1.000000000000e+00 
1.000000000000e+00 
1.000000000000e+00 
1.000000000000e+00 
0.0
0.0
0.0
0.0
0.0
0.0
0.0
0.0
0.0
0.0
0.0
0.0
0.0
0.0
1.000000000000e+00 
1.000000000000e+00 
1.000000000000e+00 
1.000000000000e+00 
1.000000000000e+00 
1.000000000000e+00 
1.000000000000e+00 
1.000000000000e+00 
1.000000000000e+00 
1.000000000000e+00 
1.000000000000e+00 
1.000000000000e+00 
1.000000000000e+00 
1.000000000000e+00 
1.000000000000e+00 
1.000000000000e+00 
1.000000000000e+00 
1.000000000000e+00 
1.000000000000e+00 
1.000000000000e+00 
1.000000000000e+00 
1.000000000000e+00 
1.000000000000e+00 
1.000000000000e+00 
1.000000000000e+00 
1.000000000000e+00 
1.000000000000e+00 
1.000000000000e+00 
1.000000000000e+00 
1.000000000000e+00 
1.000000000000e+00 
1.000000000000e+00 
1.000000000000e+00 
1.000000000000e+00 
1.000000000000e+00 
1.000000000000e+00 
1.000000000000e+00 
1.000000000000e+00 
1.000000000000e+00 
1.000000000000e+00 
1.000000000000e+00 
1.000000000000e+00 
1.000000000000e+00 
1.000000000000e+00 
1.000000000000e+00 
0.0
0.0
0.0
0.0
0.0
0.0
0.0
0.0
0.0
0.0
0.0
0.0
0.0
0.0
0.0
0.0
0.0
0.0
0.0
0.0
0.0
0.0
0.0
0.0
0.0
0.0
0.0
0.0
0.0
0.0
0.0
0.0
0.0
0.0
0.0
0.0
0.0
0.0
0.0
0.0
0.0
0.0
0.0
0.0
0.0
0.0
0.0
0.0
0.0
0.0
0.0
0.0
0.0
0.0
0.0
0.0
0.0
0.0
0.0
0.0
0.0
0.0
0.0
0.0
0.0
0.0
0.0
0.0
0.0
0.0
0.0
0.0
0.0
0.0
0.0
0.0
0.0
0.0
0.0
0.0
0.0
0.0
0.0
0.0
0.0
0.0
0.0
0.0
0.0
0.0
0.0
0.0
0.0
0.0
0.0
0.0
0.0
0.0
0.0
0.0
0.0
0.0
0.0
0.0
0.0
0.0
0.0
0.0
0.0
0.0
0.0
0.0
0.0
0.0
0.0
0.0
0.0
0.0
0.0
0.0
0.0
0.0
0.0
0.0
0.0
0.0
0.0
0.0
0.0
0.0
0.0
0.0
0.0
0.0
0.0
0.0
0.0
0.0
0.0
0.0
0.0
0.0
1.000000000000e+00 
1.000000000000e+00 
0.0
0.0
0.0
0.0
0.0
0.0
0.0
0.0
0.0
0.0
0.0
0.0
0.0
0.0
0.0
0.0
0.0
0.0
0.0
0.0
0.0
0.0
0.0
0.0
0.0
0.0
0.0
0.0
0.0
0.0
0.0
0.0
0.0
0.0
0.0
0.0
0.0
0.0
0.0
0.0
0.0
0.0
0.0
0.0
0.0
0.0
0.0
0.0
0.0
0.0
0.0
0.0
0.0
0.0
0.0
0.0
0.0
0.0
0.0
0.0
0.0
0.0
0.0
0.0
0.0
0.0
0.0
0.0
0.0
0.0
0.0
0.0
0.0
0.0
0.0
0.0
0.0
0.0
0.0
0.0
0.0
0.0
0.0
0.0
0.0
0.0
0.0
0.0
0.0
0.0
0.0
0.0
0.0
0.0
0.0
0.0
0.0
0.0
0.0
0.0
0.0
0.0
0.0
0.0
0.0
0.0
0.0
0.0
0.0
0.0
0.0
0.0
0.0
0.0
0.0
0.0
0.0
0.0
0.0
0.0
0.0
0.0
0.0
0.0
0.0
0.0
0.0
0.0
0.0
0.0
0.0
0.0
0.0
0.0
0.0
0.0
0.0
0.0
0.0
0.0
0.0
0.0
0.0
0.0
0.0
0.0
0.0
0.0
0.0
0.0
0.0
0.0
0.0
0.0
0.0
0.0
0.0
0.0
0.0
0.0
0.0
0.0
0.0
0.0
0.0
0.0
0.0
0.0
0.0
0.0
0.0
0.0
0.0
0.0
0.0
0.0
0.0
0.0
0.0
0.0
0.0
0.0
0.0
0.0
0.0
0.0
0.0
0.0
0.0
0.0
0.0
0.0
0.0
0.0
0.0
0.0
0.0
0.0
0.0
0.0
0.0
0.0
0.0
0.0
0.0
0.0
0.0
0.0
0.0
0.0
0.0
0.0
0.0
0.0
0.0
0.0
0.0
0.0
0.0
0.0
0.0
0.0
0.0
0.0
0.0
0.0
0.0
0.0
0.0
0.0
0.0
0.0
0.0
0.0
0.0
0.0
0.0
0.0
0.0
0.0
0.0
0.0
0.0
0.0
0.0
0.0
0.0
0.0
0.0
0.0
0.0
0.0
0.0
0.0
0.0
0.0
0.0
0.0
0.0
0.0
0.0
0.0
0.0
0.0
0.0
0.0
0.0
0.0
0.0
0.0
0.0
0.0
0.0
0.0
0.0
0.0
0.0
0.0
0.0
0.0
0.0
0.0
0.0
0.0
0.0
0.0
0.0
0.0
0.0
0.0
0.0
0.0
0.0
0.0
0.0
0.0
0.0
0.0
0.0
0.0
0.0
0.0
0.0
0.0
0.0
0.0
0.0
0.0
0.0
0.0
0.0
0.0
0.0
0.0
0.0
0.0
0.0
0.0
0.0
0.0
0.0
0.0
0.0
0.0
0.0
0.0
0.0
0.0
0.0
0.0
0.0
0.0
0.0
0.0
0.0
0.0
0.0
0.0
0.0
0.0
0.0
0.0
0.0
0.0
0.0
0.0
0.0
0.0
0.0
0.0
0.0
0.0
0.0
0.0
0.0
0.0
0.0
0.0
0.0
0.0
0.0
0.0
0.0
0.0
0.0
0.0
0.0
0.0
0.0
0.0
0.0
0.0
0.0
0.0
0.0
0.0
0.0
0.0
0.0
0.0
0.0
0.0
0.0
0.0
0.0
0.0
0.0
0.0
0.0
0.0
0.0
0.0
0.0
0.0
0.0
0.0
0.0
0.0
0.0
0.0
0.0
0.0
0.0
0.0
0.0
0.0
0.0
0.0
0.0
0.0
0.0
0.0
0.0
0.0
0.0
0.0
0.0
0.0
0.0
0.0
0.0
0.0
0.0
0.0
0.0
0.0
0.0
0.0
0.0
0.0
0.0
0.0
0.0
0.0
0.0
0.0
0.0
0.0
0.0
0.0
0.0
0.0
0.0
0.0
0.0
0.0
0.0
0.0
0.0
0.0
0.0
0.0
0.0
0.0
0.0
0.0
0.0
0.0
0.0
0.0
0.0
0.0
0.0
0.0
0.0
0.0
0.0
0.0
0.0
0.0
0.0
0.0
0.0
0.0
0.0
0.0
0.0
0.0
0.0
0.0
0.0
0.0
0.0
0.0
0.0
0.0
0.0
0.0
0.0
0.0
0.0
0.0
0.0
0.0
0.0
0.0
0.0
0.0
0.0
0.0
0.0
0.0
0.0
0.0
0.0
0.0
0.0
0.0
0.0
0.0
0.0
0.0
0.0
0.0
0.0
0.0
0.0
0.0
0.0
0.0
0.0
0.0
0.0
0.0
0.0
0.0
0.0
0.0
0.0
0.0
0.0
0.0
0.0
0.0
0.0
0.0
0.0
0.0
0.0
0.0
0.0
0.0
0.0
0.0
0.0
0.0
0.0
0.0
0.0
0.0
0.0
0.0
0.0
0.0
0.0
0.0
0.0
0.0
0.0
0.0
0.0
0.0
0.0
0.0
0.0
0.0
0.0
0.0
0.0
0.0
0.0
0.0
0.0
0.0
0.0
0.0
0.0
0.0
0.0
0.0
0.0
0.0
0.0
0.0
0.0
0.0
0.0
0.0
0.0
0.0
0.0
0.0
0.0
0.0
0.0
0.0
0.0
0.0
0.0
0.0
0.0
0.0
0.0
0.0
0.0
0.0
0.0
0.0
0.0
0.0
0.0
0.0
0.0
0.0
0.0
0.0
0.0
0.0
0.0
0.0
0.0
0.0
0.0
0.0
0.0
0.0
0.0
0.0
0.0
0.0
0.0
0.0
0.0
0.0
0.0
0.0
0.0
0.0
0.0
0.0
0.0
0.0
0.0
0.0
0.0
0.0
0.0
0.0
0.0
0.0
0.0
0.0
0.0
0.0
0.0
0.0
0.0
0.0
0.0
0.0
0.0
0.0
0.0
0.0
0.0
0.0
0.0
0.0
0.0
0.0
0.0
0.0
0.0
0.0
0.0
0.0
0.0
0.0
0.0
0.0
0.0
0.0
0.0
0.0
0.0
0.0
0.0
0.0
0.0
0.0
0.0
0.0
0.0
0.0
0.0
0.0
0.0
0.0
0.0
0.0
0.0
0.0
0.0
0.0
0.0
0.0
0.0
0.0
0.0
0.0
0.0
0.0
0.0
0.0
0.0
0.0
0.0
0.0
0.0
0.0
0.0
0.0
0.0
0.0
0.0
0.0
0.0
0.0
0.0
0.0
0.0
0.0
0.0
0.0
0.0
0.0
0.0
0.0
0.0
0.0
0.0
0.0
0.0
0.0
0.0
0.0
0.0
0.0
0.0
0.0
0.0
0.0
0.0
0.0
0.0
0.0
0.0
0.0
0.0
0.0
0.0
0.0
0.0
0.0
0.0
0.0
0.0
0.0
0.0
0.0
0.0
0.0
0.0
0.0
0.0
0.0
0.0
0.0
0.0
0.0
0.0
0.0
0.0
0.0
0.0
0.0
0.0
0.0
0.0
0.0
0.0
0.0
0.0
0.0
0.0
0.0
0.0
0.0
0.0
0.0
0.0
0.0
0.0
0.0
0.0
0.0
0.0
0.0
0.0
0.0
0.0
0.0
0.0
0.0
0.0
0.0
0.0
0.0
0.0
0.0
0.0
0.0
0.0
0.0
0.0
0.0
0.0
0.0
0.0
0.0
0.0
0.0
0.0
0.0
0.0
0.0
0.0
0.0
0.0
0.0
0.0
0.0
0.0
0.0
0.0
0.0
0.0
0.0
0.0
0.0
0.0
0.0
0.0
0.0
0.0
0.0
0.0
0.0
0.0
0.0
0.0
0.0
0.0
0.0
0.0
0.0
0.0
0.0
0.0
0.0
0.0
0.0
0.0
0.0
0.0
0.0
0.0
0.0
0.0
0.0
0.0
0.0
0.0
0.0
0.0
0.0
0.0
0.0
0.0
0.0
0.0
0.0
0.0
0.0
0.0
0.0
0.0
0.0
0.0
0.0
0.0
0.0
0.0
0.0
0.0
0.0
0.0
0.0
0.0
0.0
0.0
0.0
0.0
0.0
0.0
0.0
0.0

VECTORS node_force_edge float
0.0 0.0 0.0 
0.0 0.0 0.0 
0.0 0.0 0.0 
0.0 0.0 0.0 
0.0 0.0 0.0 
0.0 0.0 0.0 
0.0 0.0 0.0 
0.0 0.0 0.0 
0.0 0.0 0.0 
0.0 0.0 0.0 
0.0 0.0 0.0 
0.0 0.0 0.0 
0.0 0.0 0.0 
0.0 0.0 0.0 
0.0 0.0 0.0 
0.0 0.0 0.0 
0.0 0.0 0.0 
0.0 0.0 0.0 
0.0 0.0 0.0 
0.0 0.0 0.0 
0.0 0.0 0.0 
0.0 0.0 0.0 
0.0 0.0 0.0 
0.0 0.0 0.0 
0.0 0.0 0.0 
0.0 0.0 0.0 
0.0 0.0 0.0 
0.0 0.0 0.0 
0.0 0.0 0.0 
0.0 0.0 0.0 
0.0 0.0 0.0 
0.0 0.0 0.0 
0.0 0.0 0.0 
0.0 0.0 0.0 
0.0 0.0 0.0 
0.0 0.0 0.0 
0.0 0.0 0.0 
0.0 0.0 0.0 
0.0 0.0 0.0 
0.0 0.0 0.0 
0.0 0.0 0.0 
0.0 0.0 0.0 
0.0 0.0 0.0 
0.0 0.0 0.0 
0.0 0.0 0.0 
0.0 0.0 0.0 
0.0 0.0 0.0 
0.0 0.0 0.0 
0.0 0.0 0.0 
0.0 0.0 0.0 
0.0 0.0 0.0 
0.0 0.0 0.0 
0.0 0.0 0.0 
0.0 0.0 0.0 
0.0 0.0 0.0 
0.0 0.0 0.0 
0.0 0.0 0.0 
0.0 0.0 0.0 
0.0 0.0 0.0 
0.0 0.0 0.0 
0.0 0.0 0.0 
0.0 0.0 0.0 
0.0 0.0 0.0 
0.0 0.0 0.0 
0.0 0.0 0.0 
0.0 0.0 0.0 
0.0 0.0 0.0 
0.0 0.0 0.0 
0.0 0.0 0.0 
0.0 0.0 0.0 
0.0 0.0 0.0 
0.0 0.0 0.0 
0.0 0.0 0.0 
0.0 0.0 0.0 
0.0 0.0 0.0 
0.0 0.0 0.0 
0.0 0.0 0.0 
0.0 0.0 0.0 
0.0 0.0 0.0 
0.0 0.0 0.0 
0.0 0.0 0.0 
0.0 -1.000000000000e+02 0.0 
0.0 0.0 0.0 
0.0 0.0 0.0 
0.0 0.0 0.0 
0.0 0.0 0.0 
0.0 0.0 0.0 
0.0 0.0 0.0 
0.0 0.0 0.0 
0.0 0.0 0.0 
0.0 0.0 0.0 
0.0 0.0 0.0 
0.0 0.0 0.0 
0.0 0.0 0.0 
0.0 0.0 0.0 
0.0 0.0 0.0 
0.0 0.0 0.0 
0.0 0.0 0.0 
0.0 0.0 0.0 
0.0 0.0 0.0 
0.0 0.0 0.0 
0.0 0.0 0.0 
0.0 0.0 0.0 
0.0 0.0 0.0 
0.0 0.0 0.0 
0.0 0.0 0.0 
0.0 0.0 0.0 
0.0 0.0 0.0 
0.0 0.0 0.0 
0.0 0.0 0.0 
0.0 0.0 0.0 
0.0 0.0 0.0 
0.0 0.0 0.0 
0.0 0.0 0.0 
0.0 -1.000000000000e+02 0.0 
0.0 -1.000000000000e+02 0.0 
0.0 -1.000000000000e+02 0.0 
0.0 -1.000000000000e+02 0.0 
0.0 -1.000000000000e+02 0.0 
0.0 0.0 0.0 
0.0 0.0 0.0 
0.0 0.0 0.0 
0.0 0.0 0.0 
0.0 0.0 0.0 
0.0 0.0 0.0 
0.0 0.0 0.0 
0.0 0.0 0.0 
0.0 0.0 0.0 
0.0 0.0 0.0 
0.0 0.0 0.0 
0.0 0.0 0.0 
0.0 0.0 0.0 
0.0 0.0 0.0 
0.0 0.0 0.0 
0.0 0.0 0.0 
0.0 0.0 0.0 
0.0 0.0 0.0 
0.0 0.0 0.0 
0.0 0.0 0.0 
0.0 0.0 0.0 
0.0 0.0 0.0 
0.0 0.0 0.0 
0.0 0.0 0.0 
0.0 0.0 0.0 
0.0 0.0 0.0 
0.0 0.0 0.0 
0.0 0.0 0.0 
0.0 0.0 0.0 
0.0 0.0 0.0 
0.0 0.0 0.0 
0.0 0.0 0.0 
0.0 0.0 0.0 
0.0 0.0 0.0 
0.0 0.0 0.0 
0.0 0.0 0.0 
0.0 0.0 0.0 
0.0 0.0 0.0 
0.0 0.0 0.0 
0.0 0.0 0.0 
0.0 0.0 0.0 
0.0 0.0 0.0 
0.0 0.0 0.0 
0.0 0.0 0.0 
0.0 0.0 0.0 
0.0 0.0 0.0 
0.0 0.0 0.0 
0.0 0.0 0.0 
0.0 0.0 0.0 
0.0 0.0 0.0 
0.0 0.0 0.0 
0.0 0.0 0.0 
0.0 0.0 0.0 
0.0 0.0 0.0 
0.0 0.0 0.0 
0.0 0.0 0.0 
0.0 0.0 0.0 
0.0 0.0 0.0 
0.0 0.0 0.0 
0.0 0.0 0.0 
0.0 0.0 0.0 
0.0 0.0 0.0 
0.0 0.0 0.0 
0.0 0.0 0.0 
0.0 0.0 0.0 
0.0 0.0 0.0 
0.0 0.0 0.0 
0.0 0.0 0.0 
0.0 0.0 0.0 
0.0 0.0 0.0 
0.0 0.0 0.0 
0.0 0.0 0.0 
0.0 0.0 0.0 
0.0 0.0 0.0 
0.0 0.0 0.0 
0.0 0.0 0.0 
0.0 0.0 0.0 
0.0 0.0 0.0 
0.0 0.0 0.0 
0.0 0.0 0.0 
0.0 0.0 0.0 
0.0 0.0 0.0 
0.0 0.0 0.0 
0.0 0.0 0.0 
0.0 0.0 0.0 
0.0 0.0 0.0 
0.0 0.0 0.0 
0.0 0.0 0.0 
0.0 0.0 0.0 
0.0 0.0 0.0 
0.0 0.0 0.0 
0.0 0.0 0.0 
0.0 0.0 0.0 
0.0 0.0 0.0 
0.0 0.0 0.0 
0.0 0.0 0.0 
0.0 0.0 0.0 
0.0 0.0 0.0 
0.0 0.0 0.0 
0.0 0.0 0.0 
0.0 0.0 0.0 
0.0 0.0 0.0 
0.0 0.0 0.0 
0.0 0.0 0.0 
0.0 0.0 0.0 
0.0 0.0 0.0 
0.0 0.0 0.0 
0.0 0.0 0.0 
0.0 0.0 0.0 
0.0 0.0 0.0 
0.0 0.0 0.0 
0.0 0.0 0.0 
0.0 0.0 0.0 
0.0 0.0 0.0 
0.0 0.0 0.0 
0.0 0.0 0.0 
0.0 0.0 0.0 
0.0 0.0 0.0 
0.0 0.0 0.0 
0.0 0.0 0.0 
0.0 0.0 0.0 
0.0 0.0 0.0 
0.0 0.0 0.0 
0.0 0.0 0.0 
0.0 0.0 0.0 
0.0 0.0 0.0 
0.0 0.0 0.0 
0.0 0.0 0.0 
0.0 0.0 0.0 
0.0 0.0 0.0 
0.0 0.0 0.0 
0.0 0.0 0.0 
0.0 0.0 0.0 
0.0 0.0 0.0 
0.0 0.0 0.0 
0.0 0.0 0.0 
0.0 0.0 0.0 
0.0 0.0 0.0 
0.0 0.0 0.0 
0.0 0.0 0.0 
0.0 0.0 0.0 
0.0 0.0 0.0 
0.0 0.0 0.0 
0.0 0.0 0.0 
0.0 0.0 0.0 
0.0 0.0 0.0 
0.0 0.0 0.0 
0.0 0.0 0.0 
0.0 0.0 0.0 
0.0 0.0 0.0 
0.0 0.0 0.0 
0.0 0.0 0.0 
0.0 0.0 0.0 
0.0 0.0 0.0 
0.0 0.0 0.0 
0.0 0.0 0.0 
0.0 0.0 0.0 
0.0 0.0 0.0 
0.0 0.0 0.0 
0.0 0.0 0.0 
0.0 0.0 0.0 
0.0 0.0 0.0 
0.0 0.0 0.0 
0.0 0.0 0.0 
0.0 0.0 0.0 
0.0 0.0 0.0 
0.0 0.0 0.0 
0.0 0.0 0.0 
0.0 0.0 0.0 
0.0 0.0 0.0 
0.0 0.0 0.0 
0.0 0.0 0.0 
0.0 0.0 0.0 
0.0 0.0 0.0 
0.0 0.0 0.0 
0.0 0.0 0.0 
0.0 0.0 0.0 
0.0 0.0 0.0 
0.0 0.0 0.0 
0.0 0.0 0.0 
0.0 0.0 0.0 
0.0 0.0 0.0 
0.0 0.0 0.0 
0.0 0.0 0.0 
0.0 0.0 0.0 
0.0 0.0 0.0 
0.0 0.0 0.0 
0.0 0.0 0.0 
0.0 0.0 0.0 
0.0 0.0 0.0 
0.0 0.0 0.0 
0.0 0.0 0.0 
0.0 0.0 0.0 
0.0 0.0 0.0 
0.0 0.0 0.0 
0.0 0.0 0.0 
0.0 0.0 0.0 
0.0 0.0 0.0 
0.0 0.0 0.0 
0.0 0.0 0.0 
0.0 0.0 0.0 
0.0 0.0 0.0 
0.0 0.0 0.0 
0.0 0.0 0.0 
0.0 0.0 0.0 
0.0 0.0 0.0 
0.0 0.0 0.0 
0.0 0.0 0.0 
0.0 0.0 0.0 
0.0 0.0 0.0 
0.0 0.0 0.0 
0.0 0.0 0.0 
0.0 0.0 0.0 
0.0 0.0 0.0 
0.0 0.0 0.0 
0.0 0.0 0.0 
0.0 0.0 0.0 
0.0 0.0 0.0 
0.0 0.0 0.0 
0.0 0.0 0.0 
0.0 0.0 0.0 
0.0 0.0 0.0 
0.0 0.0 0.0 
0.0 0.0 0.0 
0.0 0.0 0.0 
0.0 0.0 0.0 
0.0 0.0 0.0 
0.0 0.0 0.0 
0.0 0.0 0.0 
0.0 0.0 0.0 
0.0 0.0 0.0 
0.0 0.0 0.0 
0.0 0.0 0.0 
0.0 0.0 0.0 
0.0 0.0 0.0 
0.0 0.0 0.0 
0.0 0.0 0.0 
0.0 0.0 0.0 
0.0 0.0 0.0 
0.0 0.0 0.0 
0.0 0.0 0.0 
0.0 0.0 0.0 
0.0 0.0 0.0 
0.0 0.0 0.0 
0.0 0.0 0.0 
0.0 0.0 0.0 
0.0 0.0 0.0 
0.0 0.0 0.0 
0.0 0.0 0.0 
0.0 0.0 0.0 
0.0 0.0 0.0 
0.0 0.0 0.0 
0.0 0.0 0.0 
0.0 0.0 0.0 
0.0 0.0 0.0 
0.0 0.0 0.0 
0.0 0.0 0.0 
0.0 0.0 0.0 
0.0 0.0 0.0 
0.0 0.0 0.0 
0.0 0.0 0.0 
0.0 0.0 0.0 
0.0 0.0 0.0 
0.0 0.0 0.0 
0.0 0.0 0.0 
0.0 0.0 0.0 
0.0 0.0 0.0 
0.0 0.0 0.0 
0.0 0.0 0.0 
0.0 0.0 0.0 
0.0 0.0 0.0 
0.0 0.0 0.0 
0.0 0.0 0.0 
0.0 0.0 0.0 
0.0 0.0 0.0 
0.0 0.0 0.0 
0.0 0.0 0.0 
0.0 0.0 0.0 
0.0 0.0 0.0 
0.0 0.0 0.0 
0.0 0.0 0.0 
0.0 0.0 0.0 
0.0 0.0 0.0 
0.0 0.0 0.0 
0.0 0.0 0.0 
0.0 0.0 0.0 
0.0 0.0 0.0 
0.0 0.0 0.0 
0.0 0.0 0.0 
0.0 0.0 0.0 
0.0 0.0 0.0 
0.0 0.0 0.0 
0.0 0.0 0.0 
0.0 0.0 0.0 
0.0 0.0 0.0 
0.0 0.0 0.0 
0.0 0.0 0.0 
0.0 0.0 0.0 
0.0 0.0 0.0 
0.0 0.0 0.0 
0.0 0.0 0.0 
0.0 0.0 0.0 
0.0 0.0 0.0 
0.0 0.0 0.0 
0.0 0.0 0.0 
0.0 0.0 0.0 
0.0 0.0 0.0 
0.0 0.0 0.0 
0.0 0.0 0.0 
0.0 0.0 0.0 
0.0 0.0 0.0 
0.0 0.0 0.0 
0.0 0.0 0.0 
0.0 0.0 0.0 
0.0 0.0 0.0 
0.0 0.0 0.0 
0.0 0.0 0.0 
0.0 0.0 0.0 
0.0 0.0 0.0 
0.0 0.0 0.0 
0.0 0.0 0.0 
0.0 0.0 0.0 
0.0 0.0 0.0 
0.0 0.0 0.0 
0.0 0.0 0.0 
0.0 0.0 0.0 
0.0 0.0 0.0 
0.0 0.0 0.0 
0.0 0.0 0.0 
0.0 0.0 0.0 
0.0 0.0 0.0 
0.0 0.0 0.0 
0.0 0.0 0.0 
0.0 0.0 0.0 
0.0 0.0 0.0 
0.0 0.0 0.0 
0.0 0.0 0.0 
0.0 0.0 0.0 
0.0 0.0 0.0 
0.0 0.0 0.0 
0.0 0.0 0.0 
0.0 0.0 0.0 
0.0 0.0 0.0 
0.0 0.0 0.0 
0.0 0.0 0.0 
0.0 0.0 0.0 
0.0 0.0 0.0 
0.0 0.0 0.0 
0.0 0.0 0.0 
0.0 0.0 0.0 
0.0 0.0 0.0 
0.0 0.0 0.0 
0.0 0.0 0.0 
0.0 0.0 0.0 
0.0 0.0 0.0 
0.0 0.0 0.0 
0.0 0.0 0.0 
0.0 0.0 0.0 
0.0 0.0 0.0 
0.0 0.0 0.0 
0.0 0.0 0.0 
0.0 0.0 0.0 
0.0 0.0 0.0 
0.0 0.0 0.0 
0.0 0.0 0.0 
0.0 0.0 0.0 
0.0 0.0 0.0 
0.0 0.0 0.0 
0.0 0.0 0.0 
0.0 0.0 0.0 
0.0 0.0 0.0 
0.0 0.0 0.0 
0.0 0.0 0.0 
0.0 0.0 0.0 
0.0 0.0 0.0 
0.0 0.0 0.0 
0.0 0.0 0.0 
0.0 0.0 0.0 
0.0 0.0 0.0 
0.0 0.0 0.0 
0.0 0.0 0.0 
0.0 0.0 0.0 
0.0 0.0 0.0 
0.0 0.0 0.0 
0.0 0.0 0.0 
0.0 0.0 0.0 
0.0 0.0 0.0 
0.0 0.0 0.0 
0.0 0.0 0.0 
0.0 0.0 0.0 
0.0 0.0 0.0 
0.0 0.0 0.0 
0.0 0.0 0.0 
0.0 0.0 0.0 
0.0 0.0 0.0 
0.0 0.0 0.0 
0.0 0.0 0.0 
0.0 0.0 0.0 
0.0 0.0 0.0 
0.0 0.0 0.0 
0.0 0.0 0.0 
0.0 0.0 0.0 
0.0 0.0 0.0 
0.0 0.0 0.0 
0.0 0.0 0.0 
0.0 0.0 0.0 
0.0 0.0 0.0 
0.0 0.0 0.0 
0.0 0.0 0.0 
0.0 0.0 0.0 
0.0 0.0 0.0 
0.0 0.0 0.0 
0.0 0.0 0.0 
0.0 0.0 0.0 
0.0 0.0 0.0 
0.0 0.0 0.0 
0.0 0.0 0.0 
0.0 0.0 0.0 
0.0 0.0 0.0 
0.0 0.0 0.0 
0.0 0.0 0.0 
0.0 0.0 0.0 
0.0 0.0 0.0 
0.0 0.0 0.0 
0.0 0.0 0.0 
0.0 0.0 0.0 
0.0 0.0 0.0 
0.0 0.0 0.0 
0.0 0.0 0.0 
0.0 0.0 0.0 
0.0 0.0 0.0 
0.0 0.0 0.0 
0.0 0.0 0.0 
0.0 0.0 0.0 
0.0 0.0 0.0 
0.0 0.0 0.0 
0.0 0.0 0.0 
0.0 0.0 0.0 
0.0 0.0 0.0 
0.0 0.0 0.0 
0.0 0.0 0.0 
0.0 0.0 0.0 
0.0 0.0 0.0 
0.0 0.0 0.0 
0.0 0.0 0.0 
0.0 0.0 0.0 
0.0 0.0 0.0 
0.0 0.0 0.0 
0.0 0.0 0.0 
0.0 0.0 0.0 
0.0 0.0 0.0 
0.0 0.0 0.0 
0.0 0.0 0.0 
0.0 0.0 0.0 
0.0 0.0 0.0 
0.0 0.0 0.0 
0.0 0.0 0.0 
0.0 0.0 0.0 
0.0 0.0 0.0 
0.0 0.0 0.0 
0.0 0.0 0.0 
0.0 0.0 0.0 
0.0 0.0 0.0 
0.0 0.0 0.0 
0.0 0.0 0.0 
0.0 0.0 0.0 
0.0 0.0 0.0 
0.0 0.0 0.0 
0.0 0.0 0.0 
0.0 0.0 0.0 
0.0 0.0 0.0 
0.0 0.0 0.0 
0.0 0.0 0.0 
0.0 0.0 0.0 
0.0 0.0 0.0 
0.0 0.0 0.0 
0.0 0.0 0.0 
0.0 0.0 0.0 
0.0 0.0 0.0 
0.0 0.0 0.0 
0.0 0.0 0.0 
0.0 0.0 0.0 
0.0 0.0 0.0 
0.0 0.0 0.0 
0.0 0.0 0.0 
0.0 0.0 0.0 
0.0 0.0 0.0 
0.0 0.0 0.0 
0.0 0.0 0.0 
0.0 0.0 0.0 
0.0 0.0 0.0 
0.0 0.0 0.0 
0.0 0.0 0.0 
0.0 0.0 0.0 
0.0 0.0 0.0 
0.0 0.0 0.0 
0.0 0.0 0.0 
0.0 0.0 0.0 
0.0 0.0 0.0 
0.0 0.0 0.0 
0.0 0.0 0.0 
0.0 0.0 0.0 
0.0 0.0 0.0 
0.0 0.0 0.0 
0.0 0.0 0.0 
0.0 0.0 0.0 
0.0 0.0 0.0 
0.0 0.0 0.0 
0.0 0.0 0.0 
0.0 0.0 0.0 
0.0 0.0 0.0 
0.0 0.0 0.0 
0.0 0.0 0.0 
0.0 0.0 0.0 
0.0 0.0 0.0 
0.0 0.0 0.0 
0.0 0.0 0.0 
0.0 0.0 0.0 
0.0 0.0 0.0 
0.0 0.0 0.0 
0.0 0.0 0.0 
0.0 0.0 0.0 
0.0 0.0 0.0 
0.0 0.0 0.0 
0.0 0.0 0.0 
0.0 0.0 0.0 
0.0 0.0 0.0 
0.0 0.0 0.0 
0.0 0.0 0.0 
0.0 0.0 0.0 
0.0 0.0 0.0 
0.0 0.0 0.0 
0.0 0.0 0.0 
0.0 0.0 0.0 
0.0 0.0 0.0 
0.0 0.0 0.0 
0.0 0.0 0.0 
0.0 0.0 0.0 
0.0 0.0 0.0 
0.0 0.0 0.0 
0.0 0.0 0.0 
0.0 0.0 0.0 
0.0 0.0 0.0 
0.0 0.0 0.0 
0.0 0.0 0.0 
0.0 0.0 0.0 
0.0 0.0 0.0 
0.0 0.0 0.0 
0.0 0.0 0.0 
0.0 0.0 0.0 
0.0 0.0 0.0 
0.0 0.0 0.0 
0.0 0.0 0.0 
0.0 0.0 0.0 
0.0 0.0 0.0 
0.0 0.0 0.0 
0.0 0.0 0.0 
0.0 0.0 0.0 
0.0 0.0 0.0 
0.0 0.0 0.0 
0.0 0.0 0.0 
0.0 0.0 0.0 
0.0 0.0 0.0 
0.0 0.0 0.0 
0.0 0.0 0.0 
0.0 0.0 0.0 
0.0 0.0 0.0 
0.0 0.0 0.0 
0.0 0.0 0.0 
0.0 0.0 0.0 
0.0 0.0 0.0 
0.0 0.0 0.0 
0.0 0.0 0.0 
0.0 0.0 0.0 
0.0 0.0 0.0 
0.0 0.0 0.0 
0.0 0.0 0.0 
0.0 0.0 0.0 
0.0 0.0 0.0 
0.0 0.0 0.0 
0.0 0.0 0.0 
0.0 0.0 0.0 
0.0 0.0 0.0 
0.0 0.0 0.0 
0.0 0.0 0.0 
0.0 0.0 0.0 
0.0 0.0 0.0 
0.0 0.0 0.0 
0.0 0.0 0.0 
0.0 0.0 0.0 
0.0 0.0 0.0 
0.0 0.0 0.0 
0.0 0.0 0.0 
0.0 0.0 0.0 
0.0 0.0 0.0 
0.0 0.0 0.0 
0.0 0.0 0.0 
0.0 0.0 0.0 
0.0 0.0 0.0 
0.0 0.0 0.0 
0.0 0.0 0.0 
0.0 0.0 0.0 
0.0 0.0 0.0 
0.0 0.0 0.0 
0.0 0.0 0.0 
0.0 0.0 0.0 
0.0 0.0 0.0 
0.0 0.0 0.0 
0.0 0.0 0.0 
0.0 0.0 0.0 
0.0 0.0 0.0 
0.0 0.0 0.0 
0.0 0.0 0.0 
0.0 0.0 0.0 
0.0 0.0 0.0 
0.0 0.0 0.0 
0.0 0.0 0.0 
0.0 0.0 0.0 
0.0 0.0 0.0 
0.0 0.0 0.0 
0.0 0.0 0.0 
0.0 0.0 0.0 
0.0 0.0 0.0 
0.0 0.0 0.0 
0.0 0.0 0.0 
0.0 0.0 0.0 
0.0 0.0 0.0 
0.0 0.0 0.0 
0.0 0.0 0.0 
0.0 0.0 0.0 
0.0 0.0 0.0 
0.0 0.0 0.0 
0.0 0.0 0.0 
0.0 0.0 0.0 
0.0 0.0 0.0 
0.0 0.0 0.0 
0.0 0.0 0.0 
0.0 0.0 0.0 
0.0 0.0 0.0 
0.0 0.0 0.0 
0.0 0.0 0.0 
0.0 0.0 0.0 
0.0 0.0 0.0 
0.0 0.0 0.0 
0.0 0.0 0.0 
0.0 0.0 0.0 
0.0 0.0 0.0 
0.0 0.0 0.0 
0.0 0.0 0.0 
0.0 0.0 0.0 
0.0 0.0 0.0 
0.0 0.0 0.0 
0.0 0.0 0.0 
0.0 0.0 0.0 
0.0 0.0 0.0 
0.0 0.0 0.0 
0.0 0.0 0.0 
0.0 0.0 0.0 
0.0 0.0 0.0 
0.0 0.0 0.0 
0.0 0.0 0.0 
0.0 0.0 0.0 
0.0 0.0 0.0 
0.0 0.0 0.0 
0.0 0.0 0.0 
0.0 0.0 0.0 
0.0 0.0 0.0 
0.0 0.0 0.0 
0.0 0.0 0.0 
0.0 0.0 0.0 
0.0 0.0 0.0 
0.0 0.0 0.0 
0.0 0.0 0.0 
0.0 0.0 0.0 
0.0 0.0 0.0 
0.0 0.0 0.0 
0.0 0.0 0.0 
0.0 0.0 0.0 
0.0 0.0 0.0 
0.0 0.0 0.0 
0.0 0.0 0.0 
0.0 0.0 0.0 
0.0 0.0 0.0 
0.0 0.0 0.0 
0.0 0.0 0.0 
0.0 0.0 0.0 
0.0 0.0 0.0 
0.0 0.0 0.0 
0.0 0.0 0.0 
0.0 0.0 0.0 
0.0 0.0 0.0 
0.0 0.0 0.0 
0.0 0.0 0.0 
0.0 0.0 0.0 
0.0 0.0 0.0 
0.0 0.0 0.0 
0.0 0.0 0.0 
0.0 0.0 0.0 
0.0 0.0 0.0 
0.0 0.0 0.0 
0.0 0.0 0.0 
0.0 0.0 0.0 
0.0 0.0 0.0 
0.0 0.0 0.0 
0.0 0.0 0.0 
0.0 0.0 0.0 
0.0 0.0 0.0 
0.0 0.0 0.0 
0.0 0.0 0.0 
0.0 0.0 0.0 
0.0 0.0 0.0 
0.0 0.0 0.0 
0.0 0.0 0.0 
0.0 0.0 0.0 
0.0 0.0 0.0 
0.0 0.0 0.0 
0.0 0.0 0.0 
0.0 0.0 0.0 
0.0 0.0 0.0 
0.0 0.0 0.0 
0.0 0.0 0.0 
0.0 0.0 0.0 
0.0 0.0 0.0 
0.0 0.0 0.0 
0.0 0.0 0.0 
0.0 0.0 0.0 
0.0 0.0 0.0 
0.0 0.0 0.0 
0.0 0.0 0.0 
0.0 0.0 0.0 
0.0 0.0 0.0 
0.0 0.0 0.0 
0.0 0.0 0.0 
0.0 0.0 0.0 
0.0 0.0 0.0 
0.0 0.0 0.0 
0.0 0.0 0.0 
0.0 0.0 0.0 
0.0 0.0 0.0 
0.0 0.0 0.0 
0.0 0.0 0.0 
0.0 0.0 0.0 
0.0 0.0 0.0 
0.0 0.0 0.0 
0.0 0.0 0.0 
0.0 0.0 0.0 
0.0 0.0 0.0 
0.0 0.0 0.0 
0.0 0.0 0.0 
0.0 0.0 0.0 
0.0 0.0 0.0 
0.0 0.0 0.0 
0.0 0.0 0.0 
0.0 0.0 0.0 
0.0 0.0 0.0 
0.0 0.0 0.0 
0.0 0.0 0.0 
0.0 0.0 0.0 
0.0 0.0 0.0 
0.0 0.0 0.0 
0.0 0.0 0.0 
0.0 0.0 0.0 
0.0 0.0 0.0 
0.0 0.0 0.0 
0.0 0.0 0.0 
0.0 0.0 0.0 
0.0 0.0 0.0 
0.0 0.0 0.0 
0.0 0.0 0.0 
0.0 0.0 0.0 
0.0 0.0 0.0 
0.0 0.0 0.0 
0.0 0.0 0.0 
0.0 0.0 0.0 
0.0 0.0 0.0 
0.0 0.0 0.0 
0.0 0.0 0.0 
0.0 0.0 0.0 
0.0 0.0 0.0 
0.0 0.0 0.0 
0.0 0.0 0.0 
0.0 0.0 0.0 
0.0 0.0 0.0 
0.0 0.0 0.0 
0.0 0.0 0.0 
0.0 0.0 0.0 
0.0 0.0 0.0 
0.0 0.0 0.0 
0.0 0.0 0.0 
0.0 0.0 0.0 
0.0 0.0 0.0 
0.0 0.0 0.0 
0.0 0.0 0.0 
0.0 0.0 0.0 
0.0 0.0 0.0 
0.0 0.0 0.0 
0.0 0.0 0.0 
0.0 0.0 0.0 
0.0 0.0 0.0 
0.0 0.0 0.0 
0.0 0.0 0.0 
0.0 0.0 0.0 
0.0 0.0 0.0 
0.0 0.0 0.0 
0.0 0.0 0.0 
0.0 0.0 0.0 
0.0 0.0 0.0 
0.0 0.0 0.0 
0.0 0.0 0.0 
0.0 0.0 0.0 
0.0 0.0 0.0 
0.0 0.0 0.0 
0.0 0.0 0.0 
0.0 0.0 0.0 
0.0 0.0 0.0 
0.0 0.0 0.0 
0.0 0.0 0.0 
0.0 0.0 0.0 
0.0 0.0 0.0 
0.0 0.0 0.0 
0.0 0.0 0.0 
0.0 0.0 0.0 
0.0 0.0 0.0 
0.0 0.0 0.0 
0.0 0.0 0.0 
0.0 0.0 0.0 
0.0 0.0 0.0 
0.0 0.0 0.0 
0.0 0.0 0.0 
0.0 0.0 0.0 
0.0 0.0 0.0 
0.0 0.0 0.0 
0.0 0.0 0.0 
0.0 0.0 0.0 
0.0 0.0 0.0 
0.0 0.0 0.0 
0.0 0.0 0.0 
0.0 0.0 0.0 
0.0 0.0 0.0 
0.0 0.0 0.0 
0.0 0.0 0.0 
0.0 0.0 0.0 
0.0 0.0 0.0 
0.0 0.0 0.0 
0.0 0.0 0.0 
0.0 0.0 0.0 
0.0 0.0 0.0 
0.0 0.0 0.0 
0.0 0.0 0.0 
0.0 0.0 0.0 
0.0 0.0 0.0 
0.0 0.0 0.0 
0.0 0.0 0.0 
0.0 0.0 0.0 
0.0 0.0 0.0 
0.0 0.0 0.0 
0.0 0.0 0.0 
0.0 0.0 0.0 
0.0 0.0 0.0 
0.0 0.0 0.0 
0.0 0.0 0.0 
0.0 0.0 0.0 
0.0 0.0 0.0 
0.0 0.0 0.0 
0.0 0.0 0.0 
0.0 0.0 0.0 
0.0 0.0 0.0 
0.0 0.0 0.0 
0.0 0.0 0.0 
0.0 0.0 0.0 
0.0 0.0 0.0 
0.0 0.0 0.0 
0.0 0.0 0.0 
0.0 0.0 0.0 
0.0 0.0 0.0 
0.0 0.0 0.0 
0.0 0.0 0.0 
0.0 0.0 0.0 
0.0 0.0 0.0 
0.0 0.0 0.0 
0.0 0.0 0.0 
0.0 0.0 0.0 
0.0 0.0 0.0 
0.0 0.0 0.0 
0.0 0.0 0.0 
0.0 0.0 0.0 
0.0 0.0 0.0 
0.0 0.0 0.0 
0.0 0.0 0.0 
0.0 0.0 0.0 
0.0 0.0 0.0 
0.0 0.0 0.0 
0.0 0.0 0.0 
0.0 0.0 0.0 
0.0 0.0 0.0 
0.0 0.0 0.0 
0.0 0.0 0.0 
0.0 0.0 0.0 
0.0 0.0 0.0 
0.0 0.0 0.0 
0.0 0.0 0.0 
0.0 0.0 0.0 
0.0 0.0 0.0 
0.0 0.0 0.0 
0.0 0.0 0.0 
0.0 0.0 0.0 
0.0 0.0 0.0 
0.0 0.0 0.0 
0.0 0.0 0.0 
0.0 0.0 0.0 
0.0 0.0 0.0 
0.0 0.0 0.0 
0.0 0.0 0.0 
0.0 0.0 0.0 
0.0 0.0 0.0 
0.0 0.0 0.0 
0.0 0.0 0.0 
0.0 0.0 0.0 
0.0 0.0 0.0 
0.0 0.0 0.0 
0.0 0.0 0.0 
0.0 0.0 0.0 
0.0 0.0 0.0 
0.0 0.0 0.0 
0.0 0.0 0.0 
0.0 0.0 0.0 
0.0 0.0 0.0 
0.0 0.0 0.0 
0.0 0.0 0.0 
0.0 0.0 0.0 
0.0 0.0 0.0 
0.0 0.0 0.0 
0.0 0.0 0.0 
0.0 0.0 0.0 
0.0 0.0 0.0 
0.0 0.0 0.0 
0.0 0.0 0.0 
0.0 0.0 0.0 
0.0 0.0 0.0 
0.0 0.0 0.0 
0.0 0.0 0.0 
0.0 0.0 0.0 
0.0 0.0 0.0 
0.0 0.0 0.0 
0.0 0.0 0.0 
0.0 0.0 0.0 
0.0 0.0 0.0 
0.0 0.0 0.0 
0.0 0.0 0.0 
0.0 0.0 0.0 
0.0 0.0 0.0 
0.0 0.0 0.0 
0.0 0.0 0.0 
0.0 0.0 0.0 
0.0 0.0 0.0 
0.0 0.0 0.0 
0.0 0.0 0.0 
0.0 0.0 0.0 
0.0 0.0 0.0 
0.0 0.0 0.0 
0.0 0.0 0.0 
0.0 0.0 0.0 
0.0 0.0 0.0 
0.0 0.0 0.0 
0.0 0.0 0.0 
0.0 0.0 0.0 
0.0 0.0 0.0 
0.0 0.0 0.0 
0.0 0.0 0.0 
0.0 0.0 0.0 
0.0 0.0 0.0 
0.0 0.0 0.0 
0.0 0.0 0.0 
0.0 0.0 0.0 
0.0 0.0 0.0 
0.0 0.0 0.0 
0.0 0.0 0.0 
0.0 0.0 0.0 
0.0 0.0 0.0 
0.0 0.0 0.0 
0.0 0.0 0.0 
0.0 0.0 0.0 
0.0 0.0 0.0 
0.0 0.0 0.0 
0.0 0.0 0.0 
0.0 0.0 0.0 
0.0 0.0 0.0 
0.0 0.0 0.0 
0.0 0.0 0.0 
0.0 0.0 0.0 
0.0 0.0 0.0 
0.0 0.0 0.0 
0.0 0.0 0.0 
0.0 0.0 0.0 
0.0 0.0 0.0 
0.0 0.0 0.0 
0.0 0.0 0.0 
0.0 0.0 0.0 
0.0 0.0 0.0 
0.0 0.0 0.0 
0.0 0.0 0.0 
0.0 0.0 0.0 
0.0 0.0 0.0 
0.0 0.0 0.0 
0.0 0.0 0.0 
0.0 0.0 0.0 
0.0 0.0 0.0 
0.0 0.0 0.0 
0.0 0.0 0.0 
0.0 0.0 0.0 
0.0 0.0 0.0 
0.0 0.0 0.0 
0.0 0.0 0.0 
0.0 0.0 0.0 
0.0 0.0 0.0 
0.0 0.0 0.0 
0.0 0.0 0.0 
0.0 0.0 0.0 
0.0 0.0 0.0 
0.0 0.0 0.0 
0.0 0.0 0.0 
0.0 0.0 0.0 
0.0 0.0 0.0 
0.0 0.0 0.0 
0.0 0.0 0.0 
0.0 0.0 0.0 
0.0 0.0 0.0 
0.0 0.0 0.0 
0.0 0.0 0.0 
0.0 0.0 0.0 
0.0 0.0 0.0 
0.0 0.0 0.0 
0.0 0.0 0.0 
0.0 0.0 0.0 
0.0 0.0 0.0 
0.0 0.0 0.0 
0.0 0.0 0.0 
0.0 0.0 0.0 
0.0 0.0 0.0 
0.0 0.0 0.0 
0.0 0.0 0.0 
0.0 0.0 0.0 
0.0 0.0 0.0 
0.0 0.0 0.0 
0.0 0.0 0.0 
0.0 0.0 0.0 
0.0 0.0 0.0 
0.0 0.0 0.0 
0.0 0.0 0.0 
0.0 0.0 0.0 
0.0 0.0 0.0 
0.0 0.0 0.0 
0.0 0.0 0.0 
0.0 0.0 0.0 
0.0 0.0 0.0 
0.0 0.0 0.0 
0.0 0.0 0.0 
0.0 0.0 0.0 
0.0 0.0 0.0 
0.0 0.0 0.0 
0.0 0.0 0.0 
0.0 0.0 0.0 
0.0 0.0 0.0 
0.0 0.0 0.0 
0.0 0.0 0.0 
0.0 0.0 0.0 
0.0 0.0 0.0 
0.0 0.0 0.0 
0.0 0.0 0.0 
0.0 0.0 0.0 
0.0 0.0 0.0 
0.0 0.0 0.0 
0.0 0.0 0.0 
0.0 0.0 0.0 
0.0 0.0 0.0 
0.0 0.0 0.0 
0.0 0.0 0.0 
0.0 0.0 0.0 
0.0 0.0 0.0 
0.0 0.0 0.0 
0.0 0.0 0.0 
0.0 0.0 0.0 
0.0 0.0 0.0 
0.0 0.0 0.0 
0.0 0.0 0.0 
0.0 0.0 0.0 
0.0 0.0 0.0 
0.0 0.0 0.0 
0.0 0.0 0.0 
0.0 0.0 0.0 
0.0 0.0 0.0 
0.0 0.0 0.0 
0.0 0.0 0.0 
0.0 0.0 0.0 
0.0 0.0 0.0 
0.0 0.0 0.0 
0.0 0.0 0.0 
0.0 0.0 0.0 
0.0 0.0 0.0 
0.0 0.0 0.0 
0.0 0.0 0.0 

VECTORS node_force_gravity float
0.0 -1.962000000000e+01 0.0 
0.0 -1.962000000000e+01 0.0 
0.0 -1.962000000000e+01 0.0 
0.0 -1.962000000000e+01 0.0 
0.0 -1.962000000000e+01 0.0 
0.0 -1.962000000000e+01 0.0 
0.0 -1.962000000000e+01 0.0 
0.0 -1.962000000000e+01 0.0 
0.0 -1.962000000000e+01 0.0 
0.0 -1.962000000000e+01 0.0 
0.0 -1.962000000000e+01 0.0 
0.0 -1.962000000000e+01 0.0 
0.0 -1.962000000000e+01 0.0 
0.0 -1.962000000000e+01 0.0 
0.0 -1.962000000000e+01 0.0 
0.0 -1.962000000000e+01 0.0 
0.0 -1.962000000000e+01 0.0 
0.0 -1.962000000000e+01 0.0 
0.0 -1.962000000000e+01 0.0 
0.0 -1.962000000000e+01 0.0 
0.0 -1.962000000000e+01 0.0 
0.0 -1.962000000000e+01 0.0 
0.0 -1.962000000000e+01 0.0 
0.0 -1.962000000000e+01 0.0 
0.0 -1.962000000000e+01 0.0 
0.0 -1.962000000000e+01 0.0 
0.0 -1.962000000000e+01 0.0 
0.0 -1.962000000000e+01 0.0 
0.0 -1.962000000000e+01 0.0 
0.0 -1.962000000000e+01 0.0 
0.0 -1.962000000000e+01 0.0 
0.0 -1.962000000000e+01 0.0 
0.0 -1.962000000000e+01 0.0 
0.0 -1.962000000000e+01 0.0 
0.0 -1.962000000000e+01 0.0 
0.0 -1.962000000000e+01 0.0 
0.0 -1.962000000000e+01 0.0 
0.0 -1.962000000000e+01 0.0 
0.0 -1.962000000000e+01 0.0 
0.0 -1.962000000000e+01 0.0 
0.0 -1.962000000000e+01 0.0 
0.0 -1.962000000000e+01 0.0 
0.0 -1.962000000000e+01 0.0 
0.0 -1.962000000000e+01 0.0 
0.0 -1.962000000000e+01 0.0 
0.0 -1.962000000000e+01 0.0 
0.0 -1.962000000000e+01 0.0 
0.0 -1.962000000000e+01 0.0 
0.0 -1.962000000000e+01 0.0 
0.0 -1.962000000000e+01 0.0 
0.0 -1.962000000000e+01 0.0 
0.0 -1.962000000000e+01 0.0 
0.0 -1.962000000000e+01 0.0 
0.0 -1.962000000000e+01 0.0 
0.0 -1.962000000000e+01 0.0 
0.0 -1.962000000000e+01 0.0 
0.0 -1.962000000000e+01 0.0 
0.0 -1.962000000000e+01 0.0 
0.0 -1.962000000000e+01 0.0 
0.0 -1.962000000000e+01 0.0 
0.0 -1.962000000000e+01 0.0 
0.0 -1.962000000000e+01 0.0 
0.0 -1.962000000000e+01 0.0 
0.0 -1.962000000000e+01 0.0 
0.0 -1.962000000000e+01 0.0 
0.0 -1.962000000000e+01 0.0 
0.0 -1.962000000000e+01 0.0 
0.0 -1.962000000000e+01 0.0 
0.0 -1.962000000000e+01 0.0 
0.0 -1.962000000000e+01 0.0 
0.0 -1.962000000000e+01 0.0 
0.0 -1.962000000000e+01 0.0 
0.0 -1.962000000000e+01 0.0 
0.0 -1.962000000000e+01 0.0 
0.0 -1.962000000000e+01 0.0 
0.0 -1.962000000000e+01 0.0 
0.0 -1.962000000000e+01 0.0 
0.0 -1.962000000000e+01 0.0 
0.0 -1.962000000000e+01 0.0 
0.0 -1.962000000000e+01 0.0 
0.0 -1.962000000000e+01 0.0 
0.0 -1.962000000000e+01 0.0 
0.0 -1.962000000000e+01 0.0 
0.0 -1.962000000000e+01 0.0 
0.0 -1.962000000000e+01 0.0 
0.0 -1.962000000000e+01 0.0 
0.0 -1.962000000000e+01 0.0 
0.0 -1.962000000000e+01 0.0 
0.0 -1.962000000000e+01 0.0 
0.0 -1.962000000000e+01 0.0 
0.0 -1.962000000000e+01 0.0 
0.0 -1.962000000000e+01 0.0 
0.0 -1.962000000000e+01 0.0 
0.0 -1.962000000000e+01 0.0 
0.0 -1.962000000000e+01 0.0 
0.0 -1.962000000000e+01 0.0 
0.0 -1.962000000000e+01 0.0 
0.0 -1.962000000000e+01 0.0 
0.0 -1.962000000000e+01 0.0 
0.0 -1.962000000000e+01 0.0 
0.0 -1.962000000000e+01 0.0 
0.0 -1.962000000000e+01 0.0 
0.0 -1.962000000000e+01 0.0 
0.0 -1.962000000000e+01 0.0 
0.0 -1.962000000000e+01 0.0 
0.0 -1.962000000000e+01 0.0 
0.0 -1.962000000000e+01 0.0 
0.0 -1.962000000000e+01 0.0 
0.0 -1.962000000000e+01 0.0 
0.0 -1.962000000000e+01 0.0 
0.0 -1.962000000000e+01 0.0 
0.0 -1.962000000000e+01 0.0 
0.0 -1.962000000000e+01 0.0 
0.0 -1.962000000000e+01 0.0 
0.0 -1.962000000000e+01 0.0 
0.0 -1.962000000000e+01 0.0 
0.0 -1.962000000000e+01 0.0 
0.0 -1.962000000000e+01 0.0 
0.0 -1.962000000000e+01 0.0 
0.0 -1.962000000000e+01 0.0 
0.0 -1.962000000000e+01 0.0 
0.0 -1.962000000000e+01 0.0 
0.0 -1.962000000000e+01 0.0 
0.0 -1.962000000000e+01 0.0 
0.0 -1.962000000000e+01 0.0 
0.0 -1.962000000000e+01 0.0 
0.0 -1.962000000000e+01 0.0 
0.0 -1.962000000000e+01 0.0 
0.0 -1.962000000000e+01 0.0 
0.0 -1.962000000000e+01 0.0 
0.0 -1.962000000000e+01 0.0 
0.0 -1.962000000000e+01 0.0 
0.0 -1.962000000000e+01 0.0 
0.0 -1.962000000000e+01 0.0 
0.0 -1.962000000000e+01 0.0 
0.0 -1.962000000000e+01 0.0 
0.0 -1.962000000000e+01 0.0 
0.0 -1.962000000000e+01 0.0 
0.0 -1.962000000000e+01 0.0 
0.0 -1.962000000000e+01 0.0 
0.0 -1.962000000000e+01 0.0 
0.0 -1.962000000000e+01 0.0 
0.0 -1.962000000000e+01 0.0 
0.0 -1.962000000000e+01 0.0 
0.0 -1.962000000000e+01 0.0 
0.0 -1.962000000000e+01 0.0 
0.0 -1.962000000000e+01 0.0 
0.0 -1.962000000000e+01 0.0 
0.0 -1.962000000000e+01 0.0 
0.0 -1.962000000000e+01 0.0 
0.0 -1.962000000000e+01 0.0 
0.0 -1.962000000000e+01 0.0 
0.0 -1.962000000000e+01 0.0 
0.0 -1.962000000000e+01 0.0 
0.0 -1.962000000000e+01 0.0 
0.0 -1.962000000000e+01 0.0 
0.0 -1.962000000000e+01 0.0 
0.0 -1.962000000000e+01 0.0 
0.0 -1.962000000000e+01 0.0 
0.0 -1.962000000000e+01 0.0 
0.0 -1.962000000000e+01 0.0 
0.0 -1.962000000000e+01 0.0 
0.0 -1.962000000000e+01 0.0 
0.0 -1.962000000000e+01 0.0 
0.0 -1.962000000000e+01 0.0 
0.0 -1.962000000000e+01 0.0 
0.0 -1.962000000000e+01 0.0 
0.0 -1.962000000000e+01 0.0 
0.0 -1.962000000000e+01 0.0 
0.0 -1.962000000000e+01 0.0 
0.0 -1.962000000000e+01 0.0 
0.0 -1.962000000000e+01 0.0 
0.0 -1.962000000000e+01 0.0 
0.0 -1.962000000000e+01 0.0 
0.0 -1.962000000000e+01 0.0 
0.0 -1.962000000000e+01 0.0 
0.0 -1.962000000000e+01 0.0 
0.0 -1.962000000000e+01 0.0 
0.0 -1.962000000000e+01 0.0 
0.0 -1.962000000000e+01 0.0 
0.0 -1.962000000000e+01 0.0 
0.0 -1.962000000000e+01 0.0 
0.0 -1.962000000000e+01 0.0 
0.0 -1.962000000000e+01 0.0 
0.0 -1.962000000000e+01 0.0 
0.0 -1.962000000000e+01 0.0 
0.0 -1.962000000000e+01 0.0 
0.0 -1.962000000000e+01 0.0 
0.0 -1.962000000000e+01 0.0 
0.0 -1.962000000000e+01 0.0 
0.0 -1.962000000000e+01 0.0 
0.0 -1.962000000000e+01 0.0 
0.0 -1.962000000000e+01 0.0 
0.0 -1.962000000000e+01 0.0 
0.0 -1.962000000000e+01 0.0 
0.0 -1.962000000000e+01 0.0 
0.0 -1.962000000000e+01 0.0 
0.0 -1.962000000000e+01 0.0 
0.0 -1.962000000000e+01 0.0 
0.0 -1.962000000000e+01 0.0 
0.0 -1.962000000000e+01 0.0 
0.0 -1.962000000000e+01 0.0 
0.0 -1.962000000000e+01 0.0 
0.0 -1.962000000000e+01 0.0 
0.0 -1.962000000000e+01 0.0 
0.0 -1.962000000000e+01 0.0 
0.0 -1.962000000000e+01 0.0 
0.0 -1.962000000000e+01 0.0 
0.0 -1.962000000000e+01 0.0 
0.0 -1.962000000000e+01 0.0 
0.0 -1.962000000000e+01 0.0 
0.0 -1.962000000000e+01 0.0 
0.0 -1.962000000000e+01 0.0 
0.0 -1.962000000000e+01 0.0 
0.0 -1.962000000000e+01 0.0 
0.0 -1.962000000000e+01 0.0 
0.0 -1.962000000000e+01 0.0 
0.0 -1.962000000000e+01 0.0 
0.0 -1.962000000000e+01 0.0 
0.0 -1.962000000000e+01 0.0 
0.0 -1.962000000000e+01 0.0 
0.0 -1.962000000000e+01 0.0 
0.0 -1.962000000000e+01 0.0 
0.0 -1.962000000000e+01 0.0 
0.0 -1.962000000000e+01 0.0 
0.0 -1.962000000000e+01 0.0 
0.0 -1.962000000000e+01 0.0 
0.0 -1.962000000000e+01 0.0 
0.0 -1.962000000000e+01 0.0 
0.0 -1.962000000000e+01 0.0 
0.0 -1.962000000000e+01 0.0 
0.0 -1.962000000000e+01 0.0 
0.0 -1.962000000000e+01 0.0 
0.0 -1.962000000000e+01 0.0 
0.0 -1.962000000000e+01 0.0 
0.0 -1.962000000000e+01 0.0 
0.0 -1.962000000000e+01 0.0 
0.0 -1.962000000000e+01 0.0 
0.0 -1.962000000000e+01 0.0 
0.0 -1.962000000000e+01 0.0 
0.0 -1.962000000000e+01 0.0 
0.0 -1.962000000000e+01 0.0 
0.0 -1.962000000000e+01 0.0 
0.0 -1.962000000000e+01 0.0 
0.0 -1.962000000000e+01 0.0 
0.0 -1.962000000000e+01 0.0 
0.0 -1.962000000000e+01 0.0 
0.0 -1.962000000000e+01 0.0 
0.0 -1.962000000000e+01 0.0 
0.0 -1.962000000000e+01 0.0 
0.0 -1.962000000000e+01 0.0 
0.0 -1.962000000000e+01 0.0 
0.0 -1.962000000000e+01 0.0 
0.0 -1.962000000000e+01 0.0 
0.0 -1.962000000000e+01 0.0 
0.0 -1.962000000000e+01 0.0 
0.0 -1.962000000000e+01 0.0 
0.0 -1.962000000000e+01 0.0 
0.0 -1.962000000000e+01 0.0 
0.0 -1.962000000000e+01 0.0 
0.0 -1.962000000000e+01 0.0 
0.0 -1.962000000000e+01 0.0 
0.0 -1.962000000000e+01 0.0 
0.0 -1.962000000000e+01 0.0 
0.0 -1.962000000000e+01 0.0 
0.0 -1.962000000000e+01 0.0 
0.0 -1.962000000000e+01 0.0 
0.0 -1.962000000000e+01 0.0 
0.0 -1.962000000000e+01 0.0 
0.0 -1.962000000000e+01 0.0 
0.0 -1.962000000000e+01 0.0 
0.0 -1.962000000000e+01 0.0 
0.0 -1.962000000000e+01 0.0 
0.0 -1.962000000000e+01 0.0 
0.0 -1.962000000000e+01 0.0 
0.0 -1.962000000000e+01 0.0 
0.0 -1.962000000000e+01 0.0 
0.0 -1.962000000000e+01 0.0 
0.0 -1.962000000000e+01 0.0 
0.0 -1.962000000000e+01 0.0 
0.0 -1.962000000000e+01 0.0 
0.0 -1.962000000000e+01 0.0 
0.0 -1.962000000000e+01 0.0 
0.0 -1.962000000000e+01 0.0 
0.0 -1.962000000000e+01 0.0 
0.0 -1.962000000000e+01 0.0 
0.0 -1.962000000000e+01 0.0 
0.0 -1.962000000000e+01 0.0 
0.0 -1.962000000000e+01 0.0 
0.0 -1.962000000000e+01 0.0 
0.0 -1.962000000000e+01 0.0 
0.0 -1.962000000000e+01 0.0 
0.0 -1.962000000000e+01 0.0 
0.0 -1.962000000000e+01 0.0 
0.0 -1.962000000000e+01 0.0 
0.0 -1.962000000000e+01 0.0 
0.0 -1.962000000000e+01 0.0 
0.0 -1.962000000000e+01 0.0 
0.0 -1.962000000000e+01 0.0 
0.0 -1.962000000000e+01 0.0 
0.0 -1.962000000000e+01 0.0 
0.0 -1.962000000000e+01 0.0 
0.0 -1.962000000000e+01 0.0 
0.0 -1.962000000000e+01 0.0 
0.0 -1.962000000000e+01 0.0 
0.0 -1.962000000000e+01 0.0 
0.0 -1.962000000000e+01 0.0 
0.0 -1.962000000000e+01 0.0 
0.0 -1.962000000000e+01 0.0 
0.0 -1.962000000000e+01 0.0 
0.0 -1.962000000000e+01 0.0 
0.0 -1.962000000000e+01 0.0 
0.0 -1.962000000000e+01 0.0 
0.0 -1.962000000000e+01 0.0 
0.0 -1.962000000000e+01 0.0 
0.0 -1.962000000000e+01 0.0 
0.0 -1.962000000000e+01 0.0 
0.0 -1.962000000000e+01 0.0 
0.0 -1.962000000000e+01 0.0 
0.0 -1.962000000000e+01 0.0 
0.0 -1.962000000000e+01 0.0 
0.0 -1.962000000000e+01 0.0 
0.0 -1.962000000000e+01 0.0 
0.0 -1.962000000000e+01 0.0 
0.0 -1.962000000000e+01 0.0 
0.0 -1.962000000000e+01 0.0 
0.0 -1.962000000000e+01 0.0 
0.0 -1.962000000000e+01 0.0 
0.0 -1.962000000000e+01 0.0 
0.0 -1.962000000000e+01 0.0 
0.0 -1.962000000000e+01 0.0 
0.0 -1.962000000000e+01 0.0 
0.0 -1.962000000000e+01 0.0 
0.0 -1.962000000000e+01 0.0 
0.0 -1.962000000000e+01 0.0 
0.0 -1.962000000000e+01 0.0 
0.0 -1.962000000000e+01 0.0 
0.0 -1.962000000000e+01 0.0 
0.0 -1.962000000000e+01 0.0 
0.0 -1.962000000000e+01 0.0 
0.0 -1.962000000000e+01 0.0 
0.0 -1.962000000000e+01 0.0 
0.0 -1.962000000000e+01 0.0 
0.0 -1.962000000000e+01 0.0 
0.0 -1.962000000000e+01 0.0 
0.0 -1.962000000000e+01 0.0 
0.0 -1.962000000000e+01 0.0 
0.0 -1.962000000000e+01 0.0 
0.0 -1.962000000000e+01 0.0 
0.0 -1.962000000000e+01 0.0 
0.0 -1.962000000000e+01 0.0 
0.0 -1.962000000000e+01 0.0 
0.0 -1.962000000000e+01 0.0 
0.0 -1.962000000000e+01 0.0 
0.0 -1.962000000000e+01 0.0 
0.0 -1.962000000000e+01 0.0 
0.0 -1.962000000000e+01 0.0 
0.0 -1.962000000000e+01 0.0 
0.0 -1.962000000000e+01 0.0 
0.0 -1.962000000000e+01 0.0 
0.0 -1.962000000000e+01 0.0 
0.0 -1.962000000000e+01 0.0 
0.0 -1.962000000000e+01 0.0 
0.0 -1.962000000000e+01 0.0 
0.0 -1.962000000000e+01 0.0 
0.0 -1.962000000000e+01 0.0 
0.0 -1.962000000000e+01 0.0 
0.0 -1.962000000000e+01 0.0 
0.0 -1.962000000000e+01 0.0 
0.0 -1.962000000000e+01 0.0 
0.0 -1.962000000000e+01 0.0 
0.0 -1.962000000000e+01 0.0 
0.0 -1.962000000000e+01 0.0 
0.0 -1.962000000000e+01 0.0 
0.0 -1.962000000000e+01 0.0 
0.0 -1.962000000000e+01 0.0 
0.0 -1.962000000000e+01 0.0 
0.0 -1.962000000000e+01 0.0 
0.0 -1.962000000000e+01 0.0 
0.0 -1.962000000000e+01 0.0 
0.0 -1.962000000000e+01 0.0 
0.0 -1.962000000000e+01 0.0 
0.0 -1.962000000000e+01 0.0 
0.0 -1.962000000000e+01 0.0 
0.0 -1.962000000000e+01 0.0 
0.0 -1.962000000000e+01 0.0 
0.0 -1.962000000000e+01 0.0 
0.0 -1.962000000000e+01 0.0 
0.0 -1.962000000000e+01 0.0 
0.0 -1.962000000000e+01 0.0 
0.0 -1.962000000000e+01 0.0 
0.0 -1.962000000000e+01 0.0 
0.0 -1.962000000000e+01 0.0 
0.0 -1.962000000000e+01 0.0 
0.0 -1.962000000000e+01 0.0 
0.0 -1.962000000000e+01 0.0 
0.0 -1.962000000000e+01 0.0 
0.0 -1.962000000000e+01 0.0 
0.0 -1.962000000000e+01 0.0 
0.0 -1.962000000000e+01 0.0 
0.0 -1.962000000000e+01 0.0 
0.0 -1.962000000000e+01 0.0 
0.0 -1.962000000000e+01 0.0 
0.0 -1.962000000000e+01 0.0 
0.0 -1.962000000000e+01 0.0 
0.0 -1.962000000000e+01 0.0 
0.0 -1.962000000000e+01 0.0 
0.0 -1.962000000000e+01 0.0 
0.0 -1.962000000000e+01 0.0 
0.0 -1.962000000000e+01 0.0 
0.0 -1.962000000000e+01 0.0 
0.0 -1.962000000000e+01 0.0 
0.0 -1.962000000000e+01 0.0 
0.0 -1.962000000000e+01 0.0 
0.0 -1.962000000000e+01 0.0 
0.0 -1.962000000000e+01 0.0 
0.0 -1.962000000000e+01 0.0 
0.0 -1.962000000000e+01 0.0 
0.0 -1.962000000000e+01 0.0 
0.0 -1.962000000000e+01 0.0 
0.0 -1.962000000000e+01 0.0 
0.0 -1.962000000000e+01 0.0 
0.0 -1.962000000000e+01 0.0 
0.0 -1.962000000000e+01 0.0 
0.0 -1.962000000000e+01 0.0 
0.0 -1.962000000000e+01 0.0 
0.0 -1.962000000000e+01 0.0 
0.0 -1.962000000000e+01 0.0 
0.0 -1.962000000000e+01 0.0 
0.0 -1.962000000000e+01 0.0 
0.0 -1.962000000000e+01 0.0 
0.0 -1.962000000000e+01 0.0 
0.0 -1.962000000000e+01 0.0 
0.0 -1.962000000000e+01 0.0 
0.0 -1.962000000000e+01 0.0 
0.0 -1.962000000000e+01 0.0 
0.0 -1.962000000000e+01 0.0 
0.0 -1.962000000000e+01 0.0 
0.0 -1.962000000000e+01 0.0 
0.0 -1.962000000000e+01 0.0 
0.0 -1.962000000000e+01 0.0 
0.0 -1.962000000000e+01 0.0 
0.0 -1.962000000000e+01 0.0 
0.0 -1.962000000000e+01 0.0 
0.0 -1.962000000000e+01 0.0 
0.0 -1.962000000000e+01 0.0 
0.0 -1.962000000000e+01 0.0 
0.0 -1.962000000000e+01 0.0 
0.0 -1.962000000000e+01 0.0 
0.0 -1.962000000000e+01 0.0 
0.0 -1.962000000000e+01 0.0 
0.0 -1.962000000000e+01 0.0 
0.0 -1.962000000000e+01 0.0 
0.0 -1.962000000000e+01 0.0 
0.0 -1.962000000000e+01 0.0 
0.0 -1.962000000000e+01 0.0 
0.0 -1.962000000000e+01 0.0 
0.0 -1.962000000000e+01 0.0 
0.0 -1.962000000000e+01 0.0 
0.0 -1.962000000000e+01 0.0 
0.0 -1.962000000000e+01 0.0 
0.0 -1.962000000000e+01 0.0 
0.0 -1.962000000000e+01 0.0 
0.0 -1.962000000000e+01 0.0 
0.0 -1.962000000000e+01 0.0 
0.0 -1.962000000000e+01 0.0 
0.0 -1.962000000000e+01 0.0 
0.0 -1.962000000000e+01 0.0 
0.0 -1.962000000000e+01 0.0 
0.0 -1.962000000000e+01 0.0 
0.0 -1.962000000000e+01 0.0 
0.0 -1.962000000000e+01 0.0 
0.0 -1.962000000000e+01 0.0 
0.0 -1.962000000000e+01 0.0 
0.0 -1.962000000000e+01 0.0 
0.0 -1.962000000000e+01 0.0 
0.0 -1.962000000000e+01 0.0 
0.0 -1.962000000000e+01 0.0 
0.0 -1.962000000000e+01 0.0 
0.0 -1.962000000000e+01 0.0 
0.0 -1.962000000000e+01 0.0 
0.0 -1.962000000000e+01 0.0 
0.0 -1.962000000000e+01 0.0 
0.0 -1.962000000000e+01 0.0 
0.0 -1.962000000000e+01 0.0 
0.0 -1.962000000000e+01 0.0 
0.0 -1.962000000000e+01 0.0 
0.0 -1.962000000000e+01 0.0 
0.0 -1.962000000000e+01 0.0 
0.0 -1.962000000000e+01 0.0 
0.0 -1.962000000000e+01 0.0 
0.0 -1.962000000000e+01 0.0 
0.0 -1.962000000000e+01 0.0 
0.0 -1.962000000000e+01 0.0 
0.0 -1.962000000000e+01 0.0 
0.0 -1.962000000000e+01 0.0 
0.0 -1.962000000000e+01 0.0 
0.0 -1.962000000000e+01 0.0 
0.0 -1.962000000000e+01 0.0 
0.0 -1.962000000000e+01 0.0 
0.0 -1.962000000000e+01 0.0 
0.0 -1.962000000000e+01 0.0 
0.0 -1.962000000000e+01 0.0 
0.0 -1.962000000000e+01 0.0 
0.0 -1.962000000000e+01 0.0 
0.0 -1.962000000000e+01 0.0 
0.0 -1.962000000000e+01 0.0 
0.0 -1.962000000000e+01 0.0 
0.0 -1.962000000000e+01 0.0 
0.0 -1.962000000000e+01 0.0 
0.0 -1.962000000000e+01 0.0 
0.0 -1.962000000000e+01 0.0 
0.0 -1.962000000000e+01 0.0 
0.0 -1.962000000000e+01 0.0 
0.0 -1.962000000000e+01 0.0 
0.0 -1.962000000000e+01 0.0 
0.0 -1.962000000000e+01 0.0 
0.0 -1.962000000000e+01 0.0 
0.0 -1.962000000000e+01 0.0 
0.0 -1.962000000000e+01 0.0 
0.0 -1.962000000000e+01 0.0 
0.0 -1.962000000000e+01 0.0 
0.0 -1.962000000000e+01 0.0 
0.0 -1.962000000000e+01 0.0 
0.0 -1.962000000000e+01 0.0 
0.0 -1.962000000000e+01 0.0 
0.0 -1.962000000000e+01 0.0 
0.0 -1.962000000000e+01 0.0 
0.0 -1.962000000000e+01 0.0 
0.0 -1.962000000000e+01 0.0 
0.0 -1.962000000000e+01 0.0 
0.0 -1.962000000000e+01 0.0 
0.0 -1.962000000000e+01 0.0 
0.0 -1.962000000000e+01 0.0 
0.0 -1.962000000000e+01 0.0 
0.0 -1.962000000000e+01 0.0 
0.0 -1.962000000000e+01 0.0 
0.0 -1.962000000000e+01 0.0 
0.0 -1.962000000000e+01 0.0 
0.0 -1.962000000000e+01 0.0 
0.0 -1.962000000000e+01 0.0 
0.0 -1.962000000000e+01 0.0 
0.0 -1.962000000000e+01 0.0 
0.0 -1.962000000000e+01 0.0 
0.0 -1.962000000000e+01 0.0 
0.0 -1.962000000000e+01 0.0 
0.0 -1.962000000000e+01 0.0 
0.0 -1.962000000000e+01 0.0 
0.0 -1.962000000000e+01 0.0 
0.0 -1.962000000000e+01 0.0 
0.0 -1.962000000000e+01 0.0 
0.0 -1.962000000000e+01 0.0 
0.0 -1.962000000000e+01 0.0 
0.0 -1.962000000000e+01 0.0 
0.0 -1.962000000000e+01 0.0 
0.0 -1.962000000000e+01 0.0 
0.0 -1.962000000000e+01 0.0 
0.0 -1.962000000000e+01 0.0 
0.0 -1.962000000000e+01 0.0 
0.0 -1.962000000000e+01 0.0 
0.0 -1.962000000000e+01 0.0 
0.0 -1.962000000000e+01 0.0 
0.0 -1.962000000000e+01 0.0 
0.0 -1.962000000000e+01 0.0 
0.0 -1.962000000000e+01 0.0 
0.0 -1.962000000000e+01 0.0 
0.0 -1.962000000000e+01 0.0 
0.0 -1.962000000000e+01 0.0 
0.0 -1.962000000000e+01 0.0 
0.0 -1.962000000000e+01 0.0 
0.0 -1.962000000000e+01 0.0 
0.0 -1.962000000000e+01 0.0 
0.0 -1.962000000000e+01 0.0 
0.0 -1.962000000000e+01 0.0 
0.0 -1.962000000000e+01 0.0 
0.0 -1.962000000000e+01 0.0 
0.0 -1.962000000000e+01 0.0 
0.0 -1.962000000000e+01 0.0 
0.0 -1.962000000000e+01 0.0 
0.0 -1.962000000000e+01 0.0 
0.0 -1.962000000000e+01 0.0 
0.0 -1.962000000000e+01 0.0 
0.0 -1.962000000000e+01 0.0 
0.0 -1.962000000000e+01 0.0 
0.0 -1.962000000000e+01 0.0 
0.0 -1.962000000000e+01 0.0 
0.0 -1.962000000000e+01 0.0 
0.0 -1.962000000000e+01 0.0 
0.0 -1.962000000000e+01 0.0 
0.0 -1.962000000000e+01 0.0 
0.0 -1.962000000000e+01 0.0 
0.0 -1.962000000000e+01 0.0 
0.0 -1.962000000000e+01 0.0 
0.0 -1.962000000000e+01 0.0 
0.0 -1.962000000000e+01 0.0 
0.0 -1.962000000000e+01 0.0 
0.0 -1.962000000000e+01 0.0 
0.0 -1.962000000000e+01 0.0 
0.0 -1.962000000000e+01 0.0 
0.0 -1.962000000000e+01 0.0 
0.0 -1.962000000000e+01 0.0 
0.0 -1.962000000000e+01 0.0 
0.0 -1.962000000000e+01 0.0 
0.0 -1.962000000000e+01 0.0 
0.0 -1.962000000000e+01 0.0 
0.0 -1.962000000000e+01 0.0 
0.0 -1.962000000000e+01 0.0 
0.0 -1.962000000000e+01 0.0 
0.0 -1.962000000000e+01 0.0 
0.0 -1.962000000000e+01 0.0 
0.0 -1.962000000000e+01 0.0 
0.0 -1.962000000000e+01 0.0 
0.0 -1.962000000000e+01 0.0 
0.0 -1.962000000000e+01 0.0 
0.0 -1.962000000000e+01 0.0 
0.0 -1.962000000000e+01 0.0 
0.0 -1.962000000000e+01 0.0 
0.0 -1.962000000000e+01 0.0 
0.0 -1.962000000000e+01 0.0 
0.0 -1.962000000000e+01 0.0 
0.0 -1.962000000000e+01 0.0 
0.0 -1.962000000000e+01 0.0 
0.0 -1.962000000000e+01 0.0 
0.0 -1.962000000000e+01 0.0 
0.0 -1.962000000000e+01 0.0 
0.0 -1.962000000000e+01 0.0 
0.0 -1.962000000000e+01 0.0 
0.0 -1.962000000000e+01 0.0 
0.0 -1.962000000000e+01 0.0 
0.0 -1.962000000000e+01 0.0 
0.0 -1.962000000000e+01 0.0 
0.0 -1.962000000000e+01 0.0 
0.0 -1.962000000000e+01 0.0 
0.0 -1.962000000000e+01 0.0 
0.0 -1.962000000000e+01 0.0 
0.0 -1.962000000000e+01 0.0 
0.0 -1.962000000000e+01 0.0 
0.0 -1.962000000000e+01 0.0 
0.0 -1.962000000000e+01 0.0 
0.0 -1.962000000000e+01 0.0 
0.0 -1.962000000000e+01 0.0 
0.0 -1.962000000000e+01 0.0 
0.0 -1.962000000000e+01 0.0 
0.0 -1.962000000000e+01 0.0 
0.0 -1.962000000000e+01 0.0 
0.0 -1.962000000000e+01 0.0 
0.0 -1.962000000000e+01 0.0 
0.0 -1.962000000000e+01 0.0 
0.0 -1.962000000000e+01 0.0 
0.0 -1.962000000000e+01 0.0 
0.0 -1.962000000000e+01 0.0 
0.0 -1.962000000000e+01 0.0 
0.0 -1.962000000000e+01 0.0 
0.0 -1.962000000000e+01 0.0 
0.0 -1.962000000000e+01 0.0 
0.0 -1.962000000000e+01 0.0 
0.0 -1.962000000000e+01 0.0 
0.0 -1.962000000000e+01 0.0 
0.0 -1.962000000000e+01 0.0 
0.0 -1.962000000000e+01 0.0 
0.0 -1.962000000000e+01 0.0 
0.0 -1.962000000000e+01 0.0 
0.0 -1.962000000000e+01 0.0 
0.0 -1.962000000000e+01 0.0 
0.0 -1.962000000000e+01 0.0 
0.0 -1.962000000000e+01 0.0 
0.0 -1.962000000000e+01 0.0 
0.0 -1.962000000000e+01 0.0 
0.0 -1.962000000000e+01 0.0 
0.0 -1.962000000000e+01 0.0 
0.0 -1.962000000000e+01 0.0 
0.0 -1.962000000000e+01 0.0 
0.0 -1.962000000000e+01 0.0 
0.0 -1.962000000000e+01 0.0 
0.0 -1.962000000000e+01 0.0 
0.0 -1.962000000000e+01 0.0 
0.0 -1.962000000000e+01 0.0 
0.0 -1.962000000000e+01 0.0 
0.0 -1.962000000000e+01 0.0 
0.0 -1.962000000000e+01 0.0 
0.0 -1.962000000000e+01 0.0 
0.0 -1.962000000000e+01 0.0 
0.0 -1.962000000000e+01 0.0 
0.0 -1.962000000000e+01 0.0 
0.0 -1.962000000000e+01 0.0 
0.0 -1.962000000000e+01 0.0 
0.0 -1.962000000000e+01 0.0 
0.0 -1.962000000000e+01 0.0 
0.0 -1.962000000000e+01 0.0 
0.0 -1.962000000000e+01 0.0 
0.0 -1.962000000000e+01 0.0 
0.0 -1.962000000000e+01 0.0 
0.0 -1.962000000000e+01 0.0 
0.0 -1.962000000000e+01 0.0 
0.0 -1.962000000000e+01 0.0 
0.0 -1.962000000000e+01 0.0 
0.0 -1.962000000000e+01 0.0 
0.0 -1.962000000000e+01 0.0 
0.0 -1.962000000000e+01 0.0 
0.0 -1.962000000000e+01 0.0 
0.0 -1.962000000000e+01 0.0 
0.0 -1.962000000000e+01 0.0 
0.0 -1.962000000000e+01 0.0 
0.0 -1.962000000000e+01 0.0 
0.0 -1.962000000000e+01 0.0 
0.0 -1.962000000000e+01 0.0 
0.0 -1.962000000000e+01 0.0 
0.0 -1.962000000000e+01 0.0 
0.0 -1.962000000000e+01 0.0 
0.0 -1.962000000000e+01 0.0 
0.0 -1.962000000000e+01 0.0 
0.0 -1.962000000000e+01 0.0 
0.0 -1.962000000000e+01 0.0 
0.0 -1.962000000000e+01 0.0 
0.0 -1.962000000000e+01 0.0 
0.0 -1.962000000000e+01 0.0 
0.0 -1.962000000000e+01 0.0 
0.0 -1.962000000000e+01 0.0 
0.0 -1.962000000000e+01 0.0 
0.0 -1.962000000000e+01 0.0 
0.0 -1.962000000000e+01 0.0 
0.0 -1.962000000000e+01 0.0 
0.0 -1.962000000000e+01 0.0 
0.0 -1.962000000000e+01 0.0 
0.0 -1.962000000000e+01 0.0 
0.0 -1.962000000000e+01 0.0 
0.0 -1.962000000000e+01 0.0 
0.0 -1.962000000000e+01 0.0 
0.0 -1.962000000000e+01 0.0 
0.0 -1.962000000000e+01 0.0 
0.0 -1.962000000000e+01 0.0 
0.0 -1.962000000000e+01 0.0 
0.0 -1.962000000000e+01 0.0 
0.0 -1.962000000000e+01 0.0 
0.0 -1.962000000000e+01 0.0 
0.0 -1.962000000000e+01 0.0 
0.0 -1.962000000000e+01 0.0 
0.0 -1.962000000000e+01 0.0 
0.0 -1.962000000000e+01 0.0 
0.0 -1.962000000000e+01 0.0 
0.0 -1.962000000000e+01 0.0 
0.0 -1.962000000000e+01 0.0 
0.0 -1.962000000000e+01 0.0 
0.0 -1.962000000000e+01 0.0 
0.0 -1.962000000000e+01 0.0 
0.0 -1.962000000000e+01 0.0 
0.0 -1.962000000000e+01 0.0 
0.0 -1.962000000000e+01 0.0 
0.0 -1.962000000000e+01 0.0 
0.0 -1.962000000000e+01 0.0 
0.0 -1.962000000000e+01 0.0 
0.0 -1.962000000000e+01 0.0 
0.0 -1.962000000000e+01 0.0 
0.0 -1.962000000000e+01 0.0 
0.0 -1.962000000000e+01 0.0 
0.0 -1.962000000000e+01 0.0 
0.0 -1.962000000000e+01 0.0 
0.0 -1.962000000000e+01 0.0 
0.0 -1.962000000000e+01 0.0 
0.0 -1.962000000000e+01 0.0 
0.0 -1.962000000000e+01 0.0 
0.0 -1.962000000000e+01 0.0 
0.0 -1.962000000000e+01 0.0 
0.0 -1.962000000000e+01 0.0 
0.0 -1.962000000000e+01 0.0 
0.0 -1.962000000000e+01 0.0 
0.0 -1.962000000000e+01 0.0 
0.0 -1.962000000000e+01 0.0 
0.0 -1.962000000000e+01 0.0 
0.0 -1.962000000000e+01 0.0 
0.0 -1.962000000000e+01 0.0 
0.0 -1.962000000000e+01 0.0 
0.0 -1.962000000000e+01 0.0 
0.0 -1.962000000000e+01 0.0 
0.0 -1.962000000000e+01 0.0 
0.0 -1.962000000000e+01 0.0 
0.0 -1.962000000000e+01 0.0 
0.0 -1.962000000000e+01 0.0 
0.0 -1.962000000000e+01 0.0 
0.0 -1.962000000000e+01 0.0 
0.0 -1.962000000000e+01 0.0 
0.0 -1.962000000000e+01 0.0 
0.0 -1.962000000000e+01 0.0 
0.0 -1.962000000000e+01 0.0 
0.0 -1.962000000000e+01 0.0 
0.0 -1.962000000000e+01 0.0 
0.0 -1.962000000000e+01 0.0 
0.0 -1.962000000000e+01 0.0 
0.0 -1.962000000000e+01 0.0 
0.0 -1.962000000000e+01 0.0 
0.0 -1.962000000000e+01 0.0 
0.0 -1.962000000000e+01 0.0 
0.0 -1.962000000000e+01 0.0 
0.0 -1.962000000000e+01 0.0 
0.0 -1.962000000000e+01 0.0 
0.0 -1.962000000000e+01 0.0 
0.0 -1.962000000000e+01 0.0 
0.0 -1.962000000000e+01 0.0 
0.0 -1.962000000000e+01 0.0 
0.0 -1.962000000000e+01 0.0 
0.0 -1.962000000000e+01 0.0 
0.0 -1.962000000000e+01 0.0 
0.0 -1.962000000000e+01 0.0 
0.0 -1.962000000000e+01 0.0 
0.0 -1.962000000000e+01 0.0 
0.0 -1.962000000000e+01 0.0 
0.0 -1.962000000000e+01 0.0 
0.0 -1.962000000000e+01 0.0 
0.0 -1.962000000000e+01 0.0 
0.0 -1.962000000000e+01 0.0 
0.0 -1.962000000000e+01 0.0 
0.0 -1.962000000000e+01 0.0 
0.0 -1.962000000000e+01 0.0 
0.0 -1.962000000000e+01 0.0 
0.0 -1.962000000000e+01 0.0 
0.0 -1.962000000000e+01 0.0 
0.0 -1.962000000000e+01 0.0 
0.0 -1.962000000000e+01 0.0 
0.0 -1.962000000000e+01 0.0 
0.0 -1.962000000000e+01 0.0 
0.0 -1.962000000000e+01 0.0 
0.0 -1.962000000000e+01 0.0 
0.0 -1.962000000000e+01 0.0 
0.0 -1.962000000000e+01 0.0 
0.0 -1.962000000000e+01 0.0 
0.0 -1.962000000000e+01 0.0 
0.0 -1.962000000000e+01 0.0 
0.0 -1.962000000000e+01 0.0 
0.0 -1.962000000000e+01 0.0 
0.0 -1.962000000000e+01 0.0 
0.0 -1.962000000000e+01 0.0 
0.0 -1.962000000000e+01 0.0 
0.0 -1.962000000000e+01 0.0 
0.0 -1.962000000000e+01 0.0 
0.0 -1.962000000000e+01 0.0 
0.0 -1.962000000000e+01 0.0 
0.0 -1.962000000000e+01 0.0 
0.0 -1.962000000000e+01 0.0 
0.0 -1.962000000000e+01 0.0 
0.0 -1.962000000000e+01 0.0 
0.0 -1.962000000000e+01 0.0 
0.0 -1.962000000000e+01 0.0 
0.0 -1.962000000000e+01 0.0 
0.0 -1.962000000000e+01 0.0 
0.0 -1.962000000000e+01 0.0 
0.0 -1.962000000000e+01 0.0 
0.0 -1.962000000000e+01 0.0 
0.0 -1.962000000000e+01 0.0 
0.0 -1.962000000000e+01 0.0 
0.0 -1.962000000000e+01 0.0 
0.0 -1.962000000000e+01 0.0 
0.0 -1.962000000000e+01 0.0 
0.0 -1.962000000000e+01 0.0 
0.0 -1.962000000000e+01 0.0 
0.0 -1.962000000000e+01 0.0 
0.0 -1.962000000000e+01 0.0 
0.0 -1.962000000000e+01 0.0 
0.0 -1.962000000000e+01 0.0 
0.0 -1.962000000000e+01 0.0 
0.0 -1.962000000000e+01 0.0 
0.0 -1.962000000000e+01 0.0 
0.0 -1.962000000000e+01 0.0 
0.0 -1.962000000000e+01 0.0 
0.0 -1.962000000000e+01 0.0 
0.0 -1.962000000000e+01 0.0 
0.0 -1.962000000000e+01 0.0 
0.0 -1.962000000000e+01 0.0 
0.0 -1.962000000000e+01 0.0 
0.0 -1.962000000000e+01 0.0 
0.0 -1.962000000000e+01 0.0 
0.0 -1.962000000000e+01 0.0 
0.0 -1.962000000000e+01 0.0 
0.0 -1.962000000000e+01 0.0 
0.0 -1.962000000000e+01 0.0 
0.0 -1.962000000000e+01 0.0 
0.0 -1.962000000000e+01 0.0 
0.0 -1.962000000000e+01 0.0 
0.0 -1.962000000000e+01 0.0 
0.0 -1.962000000000e+01 0.0 
0.0 -1.962000000000e+01 0.0 
0.0 -1.962000000000e+01 0.0 
0.0 -1.962000000000e+01 0.0 
0.0 -1.962000000000e+01 0.0 
0.0 -1.962000000000e+01 0.0 
0.0 -1.962000000000e+01 0.0 
0.0 -1.962000000000e+01 0.0 
0.0 -1.962000000000e+01 0.0 
0.0 -1.962000000000e+01 0.0 
0.0 -1.962000000000e+01 0.0 
0.0 -1.962000000000e+01 0.0 
0.0 -1.962000000000e+01 0.0 
0.0 -1.962000000000e+01 0.0 
0.0 -1.962000000000e+01 0.0 
0.0 -1.962000000000e+01 0.0 
0.0 -1.962000000000e+01 0.0 
0.0 -1.962000000000e+01 0.0 
0.0 -1.962000000000e+01 0.0 
0.0 -1.962000000000e+01 0.0 
0.0 -1.962000000000e+01 0.0 
0.0 -1.962000000000e+01 0.0 
0.0 -1.962000000000e+01 0.0 
0.0 -1.962000000000e+01 0.0 
0.0 -1.962000000000e+01 0.0 
0.0 -1.962000000000e+01 0.0 
0.0 -1.962000000000e+01 0.0 
0.0 -1.962000000000e+01 0.0 
0.0 -1.962000000000e+01 0.0 
0.0 -1.962000000000e+01 0.0 
0.0 -1.962000000000e+01 0.0 
0.0 -1.962000000000e+01 0.0 
0.0 -1.962000000000e+01 0.0 
0.0 -1.962000000000e+01 0.0 
0.0 -1.962000000000e+01 0.0 
0.0 -1.962000000000e+01 0.0 
0.0 -1.962000000000e+01 0.0 
0.0 -1.962000000000e+01 0.0 
0.0 -1.962000000000e+01 0.0 
0.0 -1.962000000000e+01 0.0 
0.0 -1.962000000000e+01 0.0 
0.0 -1.962000000000e+01 0.0 
0.0 -1.962000000000e+01 0.0 
0.0 -1.962000000000e+01 0.0 
0.0 -1.962000000000e+01 0.0 
0.0 -1.962000000000e+01 0.0 
0.0 -1.962000000000e+01 0.0 
0.0 -1.962000000000e+01 0.0 
0.0 -1.962000000000e+01 0.0 
0.0 -1.962000000000e+01 0.0 
0.0 -1.962000000000e+01 0.0 
0.0 -1.962000000000e+01 0.0 
0.0 -1.962000000000e+01 0.0 
0.0 -1.962000000000e+01 0.0 
0.0 -1.962000000000e+01 0.0 
0.0 -1.962000000000e+01 0.0 
0.0 -1.962000000000e+01 0.0 
0.0 -1.962000000000e+01 0.0 
0.0 -1.962000000000e+01 0.0 
0.0 -1.962000000000e+01 0.0 
0.0 -1.962000000000e+01 0.0 
0.0 -1.962000000000e+01 0.0 
0.0 -1.962000000000e+01 0.0 
0.0 -1.962000000000e+01 0.0 
0.0 -1.962000000000e+01 0.0 
0.0 -1.962000000000e+01 0.0 
0.0 -1.962000000000e+01 0.0 
0.0 -1.962000000000e+01 0.0 
0.0 -1.962000000000e+01 0.0 
0.0 -1.962000000000e+01 0.0 
0.0 -1.962000000000e+01 0.0 
0.0 -1.962000000000e+01 0.0 
0.0 -1.962000000000e+01 0.0 
0.0 -1.962000000000e+01 0.0 
0.0 -1.962000000000e+01 0.0 
0.0 -1.962000000000e+01 0.0 
0.0 -1.962000000000e+01 0.0 
0.0 -1.962000000000e+01 0.0 
0.0 -1.962000000000e+01 0.0 
0.0 -1.962000000000e+01 0.0 
0.0 -1.962000000000e+01 0.0 
0.0 -1.962000000000e+01 0.0 
0.0 -1.962000000000e+01 0.0 
0.0 -1.962000000000e+01 0.0 
0.0 -1.962000000000e+01 0.0 
0.0 -1.962000000000e+01 0.0 
0.0 -1.962000000000e+01 0.0 
0.0 -1.962000000000e+01 0.0 
0.0 -1.962000000000e+01 0.0 
0.0 -1.962000000000e+01 0.0 
0.0 -1.962000000000e+01 0.0 
0.0 -1.962000000000e+01 0.0 
0.0 -1.962000000000e+01 0.0 
0.0 -1.962000000000e+01 0.0 
0.0 -1.962000000000e+01 0.0 
0.0 -1.962000000000e+01 0.0 
0.0 -1.962000000000e+01 0.0 
0.0 -1.962000000000e+01 0.0 
0.0 -1.962000000000e+01 0.0 
0.0 -1.962000000000e+01 0.0 
0.0 -1.962000000000e+01 0.0 
0.0 -1.962000000000e+01 0.0 
0.0 -1.962000000000e+01 0.0 
0.0 -1.962000000000e+01 0.0 
0.0 -1.962000000000e+01 0.0 
0.0 -1.962000000000e+01 0.0 
0.0 -1.962000000000e+01 0.0 
0.0 -1.962000000000e+01 0.0 
0.0 -1.962000000000e+01 0.0 
0.0 -1.962000000000e+01 0.0 
0.0 -1.962000000000e+01 0.0 
0.0 -1.962000000000e+01 0.0 
0.0 -1.962000000000e+01 0.0 
0.0 -1.962000000000e+01 0.0 
0.0 -1.962000000000e+01 0.0 
0.0 -1.962000000000e+01 0.0 
0.0 -1.962000000000e+01 0.0 
0.0 -1.962000000000e+01 0.0 
0.0 -1.962000000000e+01 0.0 
0.0 -1.962000000000e+01 0.0 
0.0 -1.962000000000e+01 0.0 
0.0 -1.962000000000e+01 0.0 
0.0 -1.962000000000e+01 0.0 
0.0 -1.962000000000e+01 0.0 
0.0 -1.962000000000e+01 0.0 
0.0 -1.962000000000e+01 0.0 
0.0 -1.962000000000e+01 0.0 
0.0 -1.962000000000e+01 0.0 
0.0 -1.962000000000e+01 0.0 
0.0 -1.962000000000e+01 0.0 
0.0 -1.962000000000e+01 0.0 
0.0 -1.962000000000e+01 0.0 
0.0 -1.962000000000e+01 0.0 
0.0 -1.962000000000e+01 0.0 
0.0 -1.962000000000e+01 0.0 
0.0 -1.962000000000e+01 0.0 
0.0 -1.962000000000e+01 0.0 
0.0 -1.962000000000e+01 0.0 
0.0 -1.962000000000e+01 0.0 
0.0 -1.962000000000e+01 0.0 
0.0 -1.962000000000e+01 0.0 
0.0 -1.962000000000e+01 0.0 
0.0 -1.962000000000e+01 0.0 
0.0 -1.962000000000e+01 0.0 
0.0 -1.962000000000e+01 0.0 
0.0 -1.962000000000e+01 0.0 
0.0 -1.962000000000e+01 0.0 
0.0 -1.962000000000e+01 0.0 
0.0 -1.962000000000e+01 0.0 
0.0 -1.962000000000e+01 0.0 
0.0 -1.962000000000e+01 0.0 
0.0 -1.962000000000e+01 0.0 
0.0 -1.962000000000e+01 0.0 
0.0 -1.962000000000e+01 0.0 
0.0 -1.962000000000e+01 0.0 
0.0 -1.962000000000e+01 0.0 
0.0 -1.962000000000e+01 0.0 
0.0 -1.962000000000e+01 0.0 
0.0 -1.962000000000e+01 0.0 
0.0 -1.962000000000e+01 0.0 
0.0 -1.962000000000e+01 0.0 
0.0 -1.962000000000e+01 0.0 
0.0 -1.962000000000e+01 0.0 
0.0 -1.962000000000e+01 0.0 
0.0 -1.962000000000e+01 0.0 
0.0 -1.962000000000e+01 0.0 
0.0 -1.962000000000e+01 0.0 
0.0 -1.962000000000e+01 0.0 
0.0 -1.962000000000e+01 0.0 
0.0 -1.962000000000e+01 0.0 
0.0 -1.962000000000e+01 0.0 
0.0 -1.962000000000e+01 0.0 
0.0 -1.962000000000e+01 0.0 
0.0 -1.962000000000e+01 0.0 
0.0 -1.962000000000e+01 0.0 
0.0 -1.962000000000e+01 0.0 
0.0 -1.962000000000e+01 0.0 
0.0 -1.962000000000e+01 0.0 
0.0 -1.962000000000e+01 0.0 
0.0 -1.962000000000e+01 0.0 
0.0 -1.962000000000e+01 0.0 
0.0 -1.962000000000e+01 0.0 
0.0 -1.962000000000e+01 0.0 
0.0 -1.962000000000e+01 0.0 
0.0 -1.962000000000e+01 0.0 
0.0 -1.962000000000e+01 0.0 
0.0 -1.962000000000e+01 0.0 
0.0 -1.962000000000e+01 0.0 
0.0 -1.962000000000e+01 0.0 
0.0 -1.962000000000e+01 0.0 
0.0 -1.962000000000e+01 0.0 
0.0 -1.962000000000e+01 0.0 
0.0 -1.962000000000e+01 0.0 
0.0 -1.962000000000e+01 0.0 
0.0 -1.962000000000e+01 0.0 
0.0 -1.962000000000e+01 0.0 
0.0 -1.962000000000e+01 0.0 
0.0 -1.962000000000e+01 0.0 
0.0 -1.962000000000e+01 0.0 
0.0 -1.962000000000e+01 0.0 
0.0 -1.962000000000e+01 0.0 
0.0 -1.962000000000e+01 0.0 
0.0 -1.962000000000e+01 0.0 
0.0 -1.962000000000e+01 0.0 
0.0 -1.962000000000e+01 0.0 
0.0 -1.962000000000e+01 0.0 
0.0 -1.962000000000e+01 0.0 
0.0 -1.962000000000e+01 0.0 
0.0 -1.962000000000e+01 0.0 
0.0 -1.962000000000e+01 0.0 
0.0 -1.962000000000e+01 0.0 
0.0 -1.962000000000e+01 0.0 
0.0 -1.962000000000e+01 0.0 
0.0 -1.962000000000e+01 0.0 
0.0 -1.962000000000e+01 0.0 
0.0 -1.962000000000e+01 0.0 
0.0 -1.962000000000e+01 0.0 
0.0 -1.962000000000e+01 0.0 
0.0 -1.962000000000e+01 0.0 
0.0 -1.962000000000e+01 0.0 
0.0 -1.962000000000e+01 0.0 
0.0 -1.962000000000e+01 0.0 
0.0 -1.962000000000e+01 0.0 
0.0 -1.962000000000e+01 0.0 
0.0 -1.962000000000e+01 0.0 
0.0 -1.962000000000e+01 0.0 
0.0 -1.962000000000e+01 0.0 
0.0 -1.962000000000e+01 0.0 
0.0 -1.962000000000e+01 0.0 
0.0 -1.962000000000e+01 0.0 
0.0 -1.962000000000e+01 0.0 
0.0 -1.962000000000e+01 0.0 
0.0 -1.962000000000e+01 0.0 
0.0 -1.962000000000e+01 0.0 
0.0 -1.962000000000e+01 0.0 
0.0 -1.962000000000e+01 0.0 
0.0 -1.962000000000e+01 0.0 
0.0 -1.962000000000e+01 0.0 
0.0 -1.962000000000e+01 0.0 
0.0 -1.962000000000e+01 0.0 
0.0 -1.962000000000e+01 0.0 
0.0 -1.962000000000e+01 0.0 
0.0 -1.962000000000e+01 0.0 
0.0 -1.962000000000e+01 0.0 
0.0 -1.962000000000e+01 0.0 
0.0 -1.962000000000e+01 0.0 
0.0 -1.962000000000e+01 0.0 
0.0 -1.962000000000e+01 0.0 
0.0 -1.962000000000e+01 0.0 
0.0 -1.962000000000e+01 0.0 
0.0 -1.962000000000e+01 0.0 
0.0 -1.962000000000e+01 0.0 
0.0 -1.962000000000e+01 0.0 
0.0 -1.962000000000e+01 0.0 
0.0 -1.962000000000e+01 0.0 
0.0 -1.962000000000e+01 0.0 
0.0 -1.962000000000e+01 0.0 
0.0 -1.962000000000e+01 0.0 
0.0 -1.962000000000e+01 0.0 
0.0 -1.962000000000e+01 0.0 
0.0 -1.962000000000e+01 0.0 
0.0 -1.962000000000e+01 0.0 
0.0 -1.962000000000e+01 0.0 
0.0 -1.962000000000e+01 0.0 
0.0 -1.962000000000e+01 0.0 
0.0 -1.962000000000e+01 0.0 
0.0 -1.962000000000e+01 0.0 
0.0 -1.962000000000e+01 0.0 
0.0 -1.962000000000e+01 0.0 
0.0 -1.962000000000e+01 0.0 
0.0 -1.962000000000e+01 0.0 
0.0 -1.962000000000e+01 0.0 
0.0 -1.962000000000e+01 0.0 
0.0 -1.962000000000e+01 0.0 
0.0 -1.962000000000e+01 0.0 
0.0 -1.962000000000e+01 0.0 
0.0 -1.962000000000e+01 0.0 
0.0 -1.962000000000e+01 0.0 
0.0 -1.962000000000e+01 0.0 
0.0 -1.962000000000e+01 0.0 
0.0 -1.962000000000e+01 0.0 
0.0 -1.962000000000e+01 0.0 
0.0 -1.962000000000e+01 0.0 
0.0 -1.962000000000e+01 0.0 
0.0 -1.962000000000e+01 0.0 
0.0 -1.962000000000e+01 0.0 
0.0 -1.962000000000e+01 0.0 
0.0 -1.962000000000e+01 0.0 
0.0 -1.962000000000e+01 0.0 
0.0 -1.962000000000e+01 0.0 
0.0 -1.962000000000e+01 0.0 
0.0 -1.962000000000e+01 0.0 
0.0 -1.962000000000e+01 0.0 
0.0 -1.962000000000e+01 0.0 
0.0 -1.962000000000e+01 0.0 
0.0 -1.962000000000e+01 0.0 
0.0 -1.962000000000e+01 0.0 
0.0 -1.962000000000e+01 0.0 
0.0 -1.962000000000e+01 0.0 
0.0 -1.962000000000e+01 0.0 
0.0 -1.962000000000e+01 0.0 
0.0 -1.962000000000e+01 0.0 
0.0 -1.962000000000e+01 0.0 
0.0 -1.962000000000e+01 0.0 
0.0 -1.962000000000e+01 0.0 
0.0 -1.962000000000e+01 0.0 
0.0 -1.962000000000e+01 0.0 
0.0 -1.962000000000e+01 0.0 
0.0 -1.962000000000e+01 0.0 
0.0 -1.962000000000e+01 0.0 
0.0 -1.962000000000e+01 0.0 
0.0 -1.962000000000e+01 0.0 
0.0 -1.962000000000e+01 0.0 
0.0 -1.962000000000e+01 0.0 
0.0 -1.962000000000e+01 0.0 
0.0 -1.962000000000e+01 0.0 
0.0 -1.962000000000e+01 0.0 
0.0 -1.962000000000e+01 0.0 
0.0 -1.962000000000e+01 0.0 
0.0 -1.962000000000e+01 0.0 
0.0 -1.962000000000e+01 0.0 
0.0 -1.962000000000e+01 0.0 
0.0 -1.962000000000e+01 0.0 
0.0 -1.962000000000e+01 0.0 
0.0 -1.962000000000e+01 0.0 
0.0 -1.962000000000e+01 0.0 
0.0 -1.962000000000e+01 0.0 
0.0 -1.962000000000e+01 0.0 
0.0 -1.962000000000e+01 0.0 
0.0 -1.962000000000e+01 0.0 
0.0 -1.962000000000e+01 0.0 
0.0 -1.962000000000e+01 0.0 
0.0 -1.962000000000e+01 0.0 
0.0 -1.962000000000e+01 0.0 
0.0 -1.962000000000e+01 0.0 
0.0 -1.962000000000e+01 0.0 
0.0 -1.962000000000e+01 0.0 
0.0 -1.962000000000e+01 0.0 
0.0 -1.962000000000e+01 0.0 
0.0 -1.962000000000e+01 0.0 
0.0 -1.962000000000e+01 0.0 
0.0 -1.962000000000e+01 0.0 

VECTORS node_rhside_materi_fixed float
-6.258655441321e+00 0.0 0.0 
7.460477792368e+01 0.0 0.0 
-8.425659765266e+01 -2.009748945171e+02 0.0 
7.466355058176e+01 -1.782164156745e+02 0.0 
-1.100060742985e+01 0.0 0.0 
-1.431142964005e+01 0.0 0.0 
-1.727738230522e+01 0.0 0.0 
-2.861330959682e+01 0.0 0.0 
-4.462882731252e+01 0.0 0.0 
-5.877208517998e+01 0.0 0.0 
-7.132773608294e+01 0.0 0.0 
-8.238792468462e+01 0.0 0.0 
-9.187186086672e+01 0.0 0.0 
-1.002025511003e+02 0.0 0.0 
-1.076776967591e+02 0.0 0.0 
-1.141854138174e+02 0.0 0.0 
-1.198381645923e+02 0.0 0.0 
-1.253335233931e+02 0.0 0.0 
-1.302778810416e+02 0.0 0.0 
-1.367645359617e+02 0.0 0.0 
-1.453562085586e+02 0.0 0.0 
-1.540384317836e+02 0.0 0.0 
-1.632188944684e+02 0.0 0.0 
4.006471076600e-01 -3.553357958547e+02 0.0 
6.258887217847e-01 -3.565376166599e+02 0.0 
2.506067714754e+00 -3.558035859896e+02 0.0 
1.393651747742e+00 -3.560461621523e+02 0.0 
3.006456647879e+00 -3.568740646763e+02 0.0 
3.439859570235e+00 -3.564746785388e+02 0.0 
3.788174611428e+00 -3.572724054211e+02 0.0 
4.485623697898e+00 -3.580183872063e+02 0.0 
5.909426264011e+00 -3.578181081664e+02 0.0 
5.127012232776e+00 -3.585532817469e+02 0.0 
6.765013475318e+00 -3.599253554456e+02 0.0 
7.418955482358e+00 -3.599708963382e+02 0.0 
7.880660183838e+00 -3.614509233427e+02 0.0 
8.485814628603e+00 -3.621675198809e+02 0.0 
9.298325477489e+00 -3.632079488399e+02 0.0 
9.640032891880e+00 -3.648432115436e+02 0.0 
1.092382415815e+01 -3.661172909582e+02 0.0 
1.141272115245e+01 -3.677025009091e+02 0.0 
1.198184285628e+01 -3.692559500101e+02 0.0 
1.244647616271e+01 -3.707057710969e+02 0.0 
1.249324155244e+01 -3.725952535506e+02 0.0 
1.312060262426e+01 -3.747625894670e+02 0.0 
1.318513522576e+01 -3.765481930265e+02 0.0 
1.334665762625e+01 -3.784926481517e+02 0.0 
1.333671941049e+01 -3.807207518957e+02 0.0 
1.310726719213e+01 -3.824907666114e+02 0.0 
1.282611299933e+01 -3.842736923645e+02 0.0 
1.239171398153e+01 -3.862564618036e+02 0.0 
1.196565359169e+01 -3.883031450699e+02 0.0 
1.170214948979e+01 -3.898680248099e+02 0.0 
1.054102341780e+01 -3.913626942069e+02 0.0 
1.007274994483e+01 -3.937278986964e+02 0.0 
9.424770878159e+00 -3.949239308956e+02 0.0 
8.653996549211e+00 -3.966277367166e+02 0.0 
7.614024240850e+00 -3.979404811207e+02 0.0 
6.800066884572e+00 -3.990210736220e+02 0.0 
5.803668063410e+00 -4.001299333174e+02 0.0 
4.850145124667e+00 -4.007980866293e+02 0.0 
4.063879031849e+00 -4.013203200912e+02 0.0 
3.263037183592e+00 -4.020436046760e+02 0.0 
2.804066305776e+00 -4.019555731791e+02 0.0 
2.111133813942e+00 -4.019667200737e+02 0.0 
1.675708662404e+00 -4.017474758262e+02 0.0 
1.194991768319e+00 -4.024375549649e+02 0.0 
7.406279492477e-01 -4.015399690865e+02 0.0 
4.520334964831e-01 -4.021493887126e+02 0.0 
8.817746436098e-01 -4.014062060439e+02 0.0 
1.088616299746e-01 -4.015975064759e+02 0.0 
1.707622503896e-01 -4.013795539454e+02 0.0 
8.255450044903e+01 0.0 0.0 
9.114012969771e+01 0.0 0.0 
9.917288113431e+01 0.0 0.0 
1.069540440259e+02 0.0 0.0 
1.147330223755e+02 0.0 0.0 
1.227415812456e+02 0.0 0.0 
1.301907503079e+02 0.0 0.0 
1.372040564666e+02 0.0 0.0 
1.454119979577e+02 0.0 0.0 
0.0 0.0 0.0 
0.0 0.0 0.0 
0.0 0.0 0.0 
0.0 0.0 0.0 
0.0 0.0 0.0 
0.0 0.0 0.0 
0.0 0.0 0.0 
0.0 0.0 0.0 
0.0 0.0 0.0 
0.0 0.0 0.0 
0.0 0.0 0.0 
5.114709747597e+00 0.0 0.0 
1.621303430433e+01 0.0 0.0 
2.444381054060e+01 0.0 0.0 
3.239404590281e+01 0.0 0.0 
4.086467801299e+01 0.0 0.0 
4.934108310783e+01 0.0 0.0 
5.786775755356e+01 0.0 0.0 
6.635025601548e+01 0.0 0.0 
0.0 0.0 0.0 
0.0 0.0 0.0 
0.0 0.0 0.0 
0.0 0.0 0.0 
0.0 0.0 0.0 
0.0 0.0 0.0 
0.0 0.0 0.0 
0.0 0.0 0.0 
0.0 0.0 0.0 
0.0 0.0 0.0 
0.0 0.0 0.0 
0.0 0.0 0.0 
0.0 0.0 0.0 
0.0 0.0 0.0 
0.0 0.0 0.0 
0.0 0.0 0.0 
0.0 0.0 0.0 
0.0 0.0 0.0 
0.0 0.0 0.0 
0.0 0.0 0.0 
0.0 0.0 0.0 
0.0 0.0 0.0 
0.0 0.0 0.0 
0.0 0.0 0.0 
0.0 0.0 0.0 
0.0 0.0 0.0 
0.0 0.0 0.0 
0.0 0.0 0.0 
0.0 0.0 0.0 
0.0 0.0 0.0 
0.0 0.0 0.0 
0.0 0.0 0.0 
0.0 0.0 0.0 
0.0 0.0 0.0 
0.0 0.0 0.0 
0.0 0.0 0.0 
0.0 0.0 0.0 
0.0 0.0 0.0 
0.0 0.0 0.0 
0.0 0.0 0.0 
0.0 0.0 0.0 
0.0 0.0 0.0 
0.0 0.0 0.0 
0.0 0.0 0.0 
0.0 0.0 0.0 
0.0 0.0 0.0 
0.0 0.0 0.0 
0.0 0.0 0.0 
0.0 0.0 0.0 
0.0 0.0 0.0 
0.0 0.0 0.0 
0.0 0.0 0.0 
0.0 0.0 0.0 
0.0 0.0 0.0 
0.0 0.0 0.0 
0.0 0.0 0.0 
0.0 0.0 0.0 
0.0 0.0 0.0 
0.0 0.0 0.0 
0.0 0.0 0.0 
0.0 0.0 0.0 
0.0 0.0 0.0 
0.0 0.0 0.0 
0.0 0.0 0.0 
0.0 0.0 0.0 
0.0 0.0 0.0 
0.0 0.0 0.0 
0.0 0.0 0.0 
0.0 0.0 0.0 
0.0 0.0 0.0 
0.0 0.0 0.0 
0.0 0.0 0.0 
0.0 0.0 0.0 
0.0 0.0 0.0 
0.0 0.0 0.0 
0.0 0.0 0.0 
0.0 0.0 0.0 
0.0 0.0 0.0 
0.0 0.0 0.0 
0.0 0.0 0.0 
0.0 0.0 0.0 
0.0 0.0 0.0 
0.0 0.0 0.0 
0.0 0.0 0.0 
0.0 0.0 0.0 
0.0 0.0 0.0 
0.0 0.0 0.0 
0.0 0.0 0.0 
0.0 0.0 0.0 
0.0 0.0 0.0 
0.0 0.0 0.0 
0.0 0.0 0.0 
0.0 0.0 0.0 
0.0 0.0 0.0 
0.0 0.0 0.0 
0.0 0.0 0.0 
0.0 0.0 0.0 
0.0 0.0 0.0 
0.0 0.0 0.0 
0.0 0.0 0.0 
0.0 0.0 0.0 
0.0 0.0 0.0 
0.0 0.0 0.0 
0.0 0.0 0.0 
0.0 0.0 0.0 
0.0 0.0 0.0 
0.0 0.0 0.0 
0.0 0.0 0.0 
0.0 0.0 0.0 
0.0 0.0 0.0 
0.0 0.0 0.0 
0.0 0.0 0.0 
0.0 0.0 0.0 
0.0 0.0 0.0 
0.0 0.0 0.0 
0.0 0.0 0.0 
0.0 0.0 0.0 
0.0 0.0 0.0 
0.0 0.0 0.0 
0.0 0.0 0.0 
0.0 0.0 0.0 
0.0 0.0 0.0 
0.0 0.0 0.0 
0.0 0.0 0.0 
0.0 0.0 0.0 
0.0 0.0 0.0 
0.0 0.0 0.0 
0.0 0.0 0.0 
0.0 0.0 0.0 
0.0 0.0 0.0 
0.0 0.0 0.0 
0.0 0.0 0.0 
0.0 0.0 0.0 
0.0 0.0 0.0 
0.0 0.0 0.0 
0.0 0.0 0.0 
0.0 0.0 0.0 
0.0 0.0 0.0 
0.0 0.0 0.0 
0.0 0.0 0.0 
0.0 0.0 0.0 
0.0 0.0 0.0 
0.0 0.0 0.0 
0.0 0.0 0.0 
0.0 0.0 0.0 
0.0 0.0 0.0 
0.0 0.0 0.0 
0.0 0.0 0.0 
0.0 0.0 0.0 
0.0 0.0 0.0 
0.0 0.0 0.0 
0.0 0.0 0.0 
0.0 0.0 0.0 
0.0 0.0 0.0 
0.0 0.0 0.0 
0.0 0.0 0.0 
0.0 0.0 0.0 
0.0 0.0 0.0 
0.0 0.0 0.0 
0.0 0.0 0.0 
0.0 0.0 0.0 
0.0 0.0 0.0 
0.0 0.0 0.0 
0.0 0.0 0.0 
0.0 0.0 0.0 
0.0 0.0 0.0 
0.0 0.0 0.0 
0.0 0.0 0.0 
0.0 0.0 0.0 
0.0 0.0 0.0 
0.0 0.0 0.0 
0.0 0.0 0.0 
0.0 0.0 0.0 
0.0 0.0 0.0 
0.0 0.0 0.0 
0.0 0.0 0.0 
0.0 0.0 0.0 
0.0 0.0 0.0 
0.0 0.0 0.0 
0.0 0.0 0.0 
0.0 0.0 0.0 
0.0 0.0 0.0 
0.0 0.0 0.0 
0.0 0.0 0.0 
0.0 0.0 0.0 
0.0 0.0 0.0 
0.0 0.0 0.0 
0.0 0.0 0.0 
0.0 0.0 0.0 
0.0 0.0 0.0 
0.0 0.0 0.0 
0.0 0.0 0.0 
0.0 0.0 0.0 
0.0 0.0 0.0 
0.0 0.0 0.0 
0.0 0.0 0.0 
0.0 0.0 0.0 
0.0 0.0 0.0 
0.0 0.0 0.0 
0.0 0.0 0.0 
0.0 0.0 0.0 
0.0 0.0 0.0 
0.0 0.0 0.0 
0.0 0.0 0.0 
0.0 0.0 0.0 
0.0 0.0 0.0 
0.0 0.0 0.0 
0.0 0.0 0.0 
0.0 0.0 0.0 
0.0 0.0 0.0 
0.0 0.0 0.0 
0.0 0.0 0.0 
0.0 0.0 0.0 
0.0 0.0 0.0 
0.0 0.0 0.0 
0.0 0.0 0.0 
0.0 0.0 0.0 
0.0 0.0 0.0 
0.0 0.0 0.0 
0.0 0.0 0.0 
0.0 0.0 0.0 
0.0 0.0 0.0 
0.0 0.0 0.0 
0.0 0.0 0.0 
0.0 0.0 0.0 
0.0 0.0 0.0 
0.0 0.0 0.0 
0.0 0.0 0.0 
0.0 0.0 0.0 
0.0 0.0 0.0 
0.0 0.0 0.0 
0.0 0.0 0.0 
0.0 0.0 0.0 
0.0 0.0 0.0 
0.0 0.0 0.0 
0.0 0.0 0.0 
0.0 0.0 0.0 
0.0 0.0 0.0 
0.0 0.0 0.0 
0.0 0.0 0.0 
0.0 0.0 0.0 
0.0 0.0 0.0 
0.0 0.0 0.0 
0.0 0.0 0.0 
0.0 0.0 0.0 
0.0 0.0 0.0 
0.0 0.0 0.0 
0.0 0.0 0.0 
0.0 0.0 0.0 
0.0 0.0 0.0 
0.0 0.0 0.0 
0.0 0.0 0.0 
0.0 0.0 0.0 
0.0 0.0 0.0 
0.0 0.0 0.0 
0.0 0.0 0.0 
0.0 0.0 0.0 
0.0 0.0 0.0 
0.0 0.0 0.0 
0.0 0.0 0.0 
0.0 0.0 0.0 
0.0 0.0 0.0 
0.0 0.0 0.0 
0.0 0.0 0.0 
0.0 0.0 0.0 
0.0 0.0 0.0 
0.0 0.0 0.0 
0.0 0.0 0.0 
0.0 0.0 0.0 
0.0 0.0 0.0 
0.0 0.0 0.0 
0.0 0.0 0.0 
0.0 0.0 0.0 
0.0 0.0 0.0 
0.0 0.0 0.0 
0.0 0.0 0.0 
0.0 0.0 0.0 
0.0 0.0 0.0 
0.0 0.0 0.0 
0.0 0.0 0.0 
0.0 0.0 0.0 
0.0 0.0 0.0 
0.0 0.0 0.0 
0.0 0.0 0.0 
0.0 0.0 0.0 
0.0 0.0 0.0 
0.0 0.0 0.0 
0.0 0.0 0.0 
0.0 0.0 0.0 
0.0 0.0 0.0 
0.0 0.0 0.0 
0.0 0.0 0.0 
0.0 0.0 0.0 
0.0 0.0 0.0 
0.0 0.0 0.0 
0.0 0.0 0.0 
0.0 0.0 0.0 
0.0 0.0 0.0 
0.0 0.0 0.0 
0.0 0.0 0.0 
0.0 0.0 0.0 
0.0 0.0 0.0 
0.0 0.0 0.0 
0.0 0.0 0.0 
0.0 0.0 0.0 
0.0 0.0 0.0 
0.0 0.0 0.0 
0.0 0.0 0.0 
0.0 0.0 0.0 
0.0 0.0 0.0 
0.0 0.0 0.0 
0.0 0.0 0.0 
0.0 0.0 0.0 
0.0 0.0 0.0 
0.0 0.0 0.0 
0.0 0.0 0.0 
0.0 0.0 0.0 
0.0 0.0 0.0 
0.0 0.0 0.0 
0.0 0.0 0.0 
0.0 0.0 0.0 
0.0 0.0 0.0 
0.0 0.0 0.0 
0.0 0.0 0.0 
0.0 0.0 0.0 
0.0 0.0 0.0 
0.0 0.0 0.0 
0.0 0.0 0.0 
0.0 0.0 0.0 
0.0 0.0 0.0 
0.0 0.0 0.0 
0.0 0.0 0.0 
0.0 0.0 0.0 
0.0 0.0 0.0 
0.0 0.0 0.0 
0.0 0.0 0.0 
0.0 0.0 0.0 
0.0 0.0 0.0 
0.0 0.0 0.0 
0.0 0.0 0.0 
0.0 0.0 0.0 
0.0 0.0 0.0 
0.0 0.0 0.0 
0.0 0.0 0.0 
0.0 0.0 0.0 
0.0 0.0 0.0 
0.0 0.0 0.0 
0.0 0.0 0.0 
0.0 0.0 0.0 
0.0 0.0 0.0 
0.0 0.0 0.0 
0.0 0.0 0.0 
0.0 0.0 0.0 
0.0 0.0 0.0 
0.0 0.0 0.0 
0.0 0.0 0.0 
0.0 0.0 0.0 
0.0 0.0 0.0 
0.0 0.0 0.0 
0.0 0.0 0.0 
0.0 0.0 0.0 
0.0 0.0 0.0 
0.0 0.0 0.0 
0.0 0.0 0.0 
0.0 0.0 0.0 
0.0 0.0 0.0 
0.0 0.0 0.0 
0.0 0.0 0.0 
0.0 0.0 0.0 
0.0 0.0 0.0 
0.0 0.0 0.0 
0.0 0.0 0.0 
0.0 0.0 0.0 
0.0 0.0 0.0 
0.0 0.0 0.0 
0.0 0.0 0.0 
0.0 0.0 0.0 
0.0 0.0 0.0 
0.0 0.0 0.0 
0.0 0.0 0.0 
0.0 0.0 0.0 
0.0 0.0 0.0 
0.0 0.0 0.0 
0.0 0.0 0.0 
0.0 0.0 0.0 
0.0 0.0 0.0 
0.0 0.0 0.0 
0.0 0.0 0.0 
0.0 0.0 0.0 
0.0 0.0 0.0 
0.0 0.0 0.0 
0.0 0.0 0.0 
0.0 0.0 0.0 
0.0 0.0 0.0 
0.0 0.0 0.0 
0.0 0.0 0.0 
0.0 0.0 0.0 
0.0 0.0 0.0 
0.0 0.0 0.0 
0.0 0.0 0.0 
0.0 0.0 0.0 
0.0 0.0 0.0 
0.0 0.0 0.0 
0.0 0.0 0.0 
0.0 0.0 0.0 
0.0 0.0 0.0 
0.0 0.0 0.0 
0.0 0.0 0.0 
0.0 0.0 0.0 
0.0 0.0 0.0 
0.0 0.0 0.0 
0.0 0.0 0.0 
0.0 0.0 0.0 
0.0 0.0 0.0 
0.0 0.0 0.0 
0.0 0.0 0.0 
0.0 0.0 0.0 
0.0 0.0 0.0 
0.0 0.0 0.0 
0.0 0.0 0.0 
0.0 0.0 0.0 
0.0 0.0 0.0 
0.0 0.0 0.0 
0.0 0.0 0.0 
0.0 0.0 0.0 
0.0 0.0 0.0 
0.0 0.0 0.0 
0.0 0.0 0.0 
0.0 0.0 0.0 
0.0 0.0 0.0 
0.0 0.0 0.0 
0.0 0.0 0.0 
0.0 0.0 0.0 
0.0 0.0 0.0 
0.0 0.0 0.0 
0.0 0.0 0.0 
0.0 0.0 0.0 
0.0 0.0 0.0 
0.0 0.0 0.0 
0.0 0.0 0.0 
0.0 0.0 0.0 
0.0 0.0 0.0 
0.0 0.0 0.0 
0.0 0.0 0.0 
0.0 0.0 0.0 
0.0 0.0 0.0 
0.0 0.0 0.0 
0.0 0.0 0.0 
0.0 0.0 0.0 
0.0 0.0 0.0 
0.0 0.0 0.0 
0.0 0.0 0.0 
0.0 0.0 0.0 
0.0 0.0 0.0 
0.0 0.0 0.0 
0.0 0.0 0.0 
0.0 0.0 0.0 
0.0 0.0 0.0 
0.0 0.0 0.0 
0.0 0.0 0.0 
0.0 0.0 0.0 
0.0 0.0 0.0 
0.0 0.0 0.0 
0.0 0.0 0.0 
0.0 0.0 0.0 
0.0 0.0 0.0 
0.0 0.0 0.0 
0.0 0.0 0.0 
0.0 0.0 0.0 
0.0 0.0 0.0 
0.0 0.0 0.0 
0.0 0.0 0.0 
0.0 0.0 0.0 
0.0 0.0 0.0 
0.0 0.0 0.0 
0.0 0.0 0.0 
0.0 0.0 0.0 
0.0 0.0 0.0 
0.0 0.0 0.0 
0.0 0.0 0.0 
0.0 0.0 0.0 
0.0 0.0 0.0 
0.0 0.0 0.0 
0.0 0.0 0.0 
0.0 0.0 0.0 
0.0 0.0 0.0 
0.0 0.0 0.0 
0.0 0.0 0.0 
0.0 0.0 0.0 
0.0 0.0 0.0 
0.0 0.0 0.0 
0.0 0.0 0.0 
0.0 0.0 0.0 
0.0 0.0 0.0 
0.0 0.0 0.0 
0.0 0.0 0.0 
0.0 0.0 0.0 
0.0 0.0 0.0 
0.0 0.0 0.0 
0.0 0.0 0.0 
0.0 0.0 0.0 
0.0 0.0 0.0 
0.0 0.0 0.0 
0.0 0.0 0.0 
0.0 0.0 0.0 
0.0 0.0 0.0 
0.0 0.0 0.0 
0.0 0.0 0.0 
0.0 0.0 0.0 
0.0 0.0 0.0 
0.0 0.0 0.0 
0.0 0.0 0.0 
0.0 0.0 0.0 
0.0 0.0 0.0 
0.0 0.0 0.0 
0.0 0.0 0.0 
0.0 0.0 0.0 
0.0 0.0 0.0 
0.0 0.0 0.0 
0.0 0.0 0.0 
0.0 0.0 0.0 
0.0 0.0 0.0 
0.0 0.0 0.0 
0.0 0.0 0.0 
0.0 0.0 0.0 
0.0 0.0 0.0 
0.0 0.0 0.0 
0.0 0.0 0.0 
0.0 0.0 0.0 
0.0 0.0 0.0 
0.0 0.0 0.0 
0.0 0.0 0.0 
0.0 0.0 0.0 
0.0 0.0 0.0 
0.0 0.0 0.0 
0.0 0.0 0.0 
0.0 0.0 0.0 
0.0 0.0 0.0 
0.0 0.0 0.0 
0.0 0.0 0.0 
0.0 0.0 0.0 
0.0 0.0 0.0 
0.0 0.0 0.0 
0.0 0.0 0.0 
0.0 0.0 0.0 
0.0 0.0 0.0 
0.0 0.0 0.0 
0.0 0.0 0.0 
0.0 0.0 0.0 
0.0 0.0 0.0 
0.0 0.0 0.0 
0.0 0.0 0.0 
0.0 0.0 0.0 
0.0 0.0 0.0 
0.0 0.0 0.0 
0.0 0.0 0.0 
0.0 0.0 0.0 
0.0 0.0 0.0 
0.0 0.0 0.0 
0.0 0.0 0.0 
0.0 0.0 0.0 
0.0 0.0 0.0 
0.0 0.0 0.0 
0.0 0.0 0.0 
0.0 0.0 0.0 
0.0 0.0 0.0 
0.0 0.0 0.0 
0.0 0.0 0.0 
0.0 0.0 0.0 
0.0 0.0 0.0 
0.0 0.0 0.0 
0.0 0.0 0.0 
0.0 0.0 0.0 
0.0 0.0 0.0 
0.0 0.0 0.0 
0.0 0.0 0.0 
0.0 0.0 0.0 
0.0 0.0 0.0 
0.0 0.0 0.0 
0.0 0.0 0.0 
0.0 0.0 0.0 
0.0 0.0 0.0 
0.0 0.0 0.0 
0.0 0.0 0.0 
0.0 0.0 0.0 
0.0 0.0 0.0 
0.0 0.0 0.0 
0.0 0.0 0.0 
0.0 0.0 0.0 
0.0 0.0 0.0 
0.0 0.0 0.0 
0.0 0.0 0.0 
0.0 0.0 0.0 
0.0 0.0 0.0 
0.0 0.0 0.0 
0.0 0.0 0.0 
0.0 0.0 0.0 
0.0 0.0 0.0 
0.0 0.0 0.0 
0.0 0.0 0.0 
0.0 0.0 0.0 
0.0 0.0 0.0 
0.0 0.0 0.0 
0.0 0.0 0.0 
0.0 0.0 0.0 
0.0 0.0 0.0 
0.0 0.0 0.0 
0.0 0.0 0.0 
0.0 0.0 0.0 
0.0 0.0 0.0 
0.0 0.0 0.0 
0.0 0.0 0.0 
0.0 0.0 0.0 
0.0 0.0 0.0 
0.0 0.0 0.0 
0.0 0.0 0.0 
0.0 0.0 0.0 
0.0 0.0 0.0 
0.0 0.0 0.0 
0.0 0.0 0.0 
0.0 0.0 0.0 
0.0 0.0 0.0 
0.0 0.0 0.0 
0.0 0.0 0.0 
0.0 0.0 0.0 
0.0 0.0 0.0 
0.0 0.0 0.0 
0.0 0.0 0.0 
0.0 0.0 0.0 
0.0 0.0 0.0 
0.0 0.0 0.0 
0.0 0.0 0.0 
0.0 0.0 0.0 
0.0 0.0 0.0 
0.0 0.0 0.0 
0.0 0.0 0.0 
0.0 0.0 0.0 
0.0 0.0 0.0 
0.0 0.0 0.0 
0.0 0.0 0.0 
0.0 0.0 0.0 
0.0 0.0 0.0 
0.0 0.0 0.0 
0.0 0.0 0.0 
0.0 0.0 0.0 
0.0 0.0 0.0 
0.0 0.0 0.0 
0.0 0.0 0.0 
0.0 0.0 0.0 
0.0 0.0 0.0 
0.0 0.0 0.0 
0.0 0.0 0.0 
0.0 0.0 0.0 
0.0 0.0 0.0 
0.0 0.0 0.0 
0.0 0.0 0.0 
0.0 0.0 0.0 
0.0 0.0 0.0 
0.0 0.0 0.0 
0.0 0.0 0.0 
0.0 0.0 0.0 
0.0 0.0 0.0 
0.0 0.0 0.0 
0.0 0.0 0.0 
0.0 0.0 0.0 
0.0 0.0 0.0 
0.0 0.0 0.0 
0.0 0.0 0.0 
0.0 0.0 0.0 
0.0 0.0 0.0 
0.0 0.0 0.0 
0.0 0.0 0.0 
0.0 0.0 0.0 
0.0 0.0 0.0 
0.0 0.0 0.0 
0.0 0.0 0.0 
0.0 0.0 0.0 
0.0 0.0 0.0 
0.0 0.0 0.0 
0.0 0.0 0.0 
0.0 0.0 0.0 
0.0 0.0 0.0 
0.0 0.0 0.0 
0.0 0.0 0.0 
0.0 0.0 0.0 
0.0 0.0 0.0 
0.0 0.0 0.0 
0.0 0.0 0.0 
0.0 0.0 0.0 
0.0 0.0 0.0 
0.0 0.0 0.0 
0.0 0.0 0.0 
0.0 0.0 0.0 
0.0 0.0 0.0 
0.0 0.0 0.0 
0.0 0.0 0.0 
0.0 0.0 0.0 
0.0 0.0 0.0 
0.0 0.0 0.0 
0.0 0.0 0.0 
0.0 0.0 0.0 
0.0 0.0 0.0 
0.0 0.0 0.0 
0.0 0.0 0.0 
0.0 0.0 0.0 
0.0 0.0 0.0 
0.0 0.0 0.0 
0.0 0.0 0.0 
0.0 0.0 0.0 
0.0 0.0 0.0 
0.0 0.0 0.0 
0.0 0.0 0.0 
0.0 0.0 0.0 
0.0 0.0 0.0 
0.0 0.0 0.0 
0.0 0.0 0.0 
0.0 0.0 0.0 
0.0 0.0 0.0 
0.0 0.0 0.0 
0.0 0.0 0.0 
0.0 0.0 0.0 
0.0 0.0 0.0 
0.0 0.0 0.0 
0.0 0.0 0.0 
0.0 0.0 0.0 
0.0 0.0 0.0 
0.0 0.0 0.0 
0.0 0.0 0.0 
0.0 0.0 0.0 
0.0 0.0 0.0 
0.0 0.0 0.0 
0.0 0.0 0.0 
0.0 0.0 0.0 
0.0 0.0 0.0 
0.0 0.0 0.0 
0.0 0.0 0.0 
0.0 0.0 0.0 
0.0 0.0 0.0 
0.0 0.0 0.0 
0.0 0.0 0.0 
0.0 0.0 0.0 
0.0 0.0 0.0 
0.0 0.0 0.0 
0.0 0.0 0.0 
0.0 0.0 0.0 
0.0 0.0 0.0 
0.0 0.0 0.0 
0.0 0.0 0.0 
0.0 0.0 0.0 
0.0 0.0 0.0 
0.0 0.0 0.0 
0.0 0.0 0.0 
0.0 0.0 0.0 
0.0 0.0 0.0 
0.0 0.0 0.0 
0.0 0.0 0.0 
0.0 0.0 0.0 
0.0 0.0 0.0 
0.0 0.0 0.0 
0.0 0.0 0.0 
0.0 0.0 0.0 
0.0 0.0 0.0 
0.0 0.0 0.0 
0.0 0.0 0.0 
0.0 0.0 0.0 
0.0 0.0 0.0 
0.0 0.0 0.0 
0.0 0.0 0.0 
0.0 0.0 0.0 
0.0 0.0 0.0 
0.0 0.0 0.0 
0.0 0.0 0.0 
0.0 0.0 0.0 
0.0 0.0 0.0 
0.0 0.0 0.0 
0.0 0.0 0.0 
0.0 0.0 0.0 
0.0 0.0 0.0 
0.0 0.0 0.0 
0.0 0.0 0.0 
0.0 0.0 0.0 
0.0 0.0 0.0 
0.0 0.0 0.0 
0.0 0.0 0.0 
0.0 0.0 0.0 
0.0 0.0 0.0 
0.0 0.0 0.0 
0.0 0.0 0.0 
0.0 0.0 0.0 
0.0 0.0 0.0 
0.0 0.0 0.0 
0.0 0.0 0.0 
0.0 0.0 0.0 
0.0 0.0 0.0 
0.0 0.0 0.0 
0.0 0.0 0.0 
0.0 0.0 0.0 
0.0 0.0 0.0 
0.0 0.0 0.0 
0.0 0.0 0.0 
0.0 0.0 0.0 
0.0 0.0 0.0 
0.0 0.0 0.0 
0.0 0.0 0.0 
0.0 0.0 0.0 
0.0 0.0 0.0 
0.0 0.0 0.0 
0.0 0.0 0.0 
0.0 0.0 0.0 
0.0 0.0 0.0 
0.0 0.0 0.0 
0.0 0.0 0.0 
0.0 0.0 0.0 
0.0 0.0 0.0 
0.0 0.0 0.0 
0.0 0.0 0.0 
0.0 0.0 0.0 
0.0 0.0 0.0 
0.0 0.0 0.0 
0.0 0.0 0.0 
0.0 0.0 0.0 
0.0 0.0 0.0 
0.0 0.0 0.0 
0.0 0.0 0.0 
0.0 0.0 0.0 
0.0 0.0 0.0 
0.0 0.0 0.0 
0.0 0.0 0.0 
0.0 0.0 0.0 
0.0 0.0 0.0 
0.0 0.0 0.0 
0.0 0.0 0.0 
0.0 0.0 0.0 
0.0 0.0 0.0 
0.0 0.0 0.0 
0.0 0.0 0.0 
0.0 0.0 0.0 
0.0 0.0 0.0 
0.0 0.0 0.0 
0.0 0.0 0.0 
0.0 0.0 0.0 
0.0 0.0 0.0 
0.0 0.0 0.0 
0.0 0.0 0.0 
0.0 0.0 0.0 
0.0 0.0 0.0 
0.0 0.0 0.0 
0.0 0.0 0.0 
0.0 0.0 0.0 
0.0 0.0 0.0 
0.0 0.0 0.0 
0.0 0.0 0.0 
0.0 0.0 0.0 
0.0 0.0 0.0 
0.0 0.0 0.0 
0.0 0.0 0.0 
0.0 0.0 0.0 
0.0 0.0 0.0 
0.0 0.0 0.0 
0.0 0.0 0.0 
0.0 0.0 0.0 
0.0 0.0 0.0 
0.0 0.0 0.0 
0.0 0.0 0.0 
0.0 0.0 0.0 
0.0 0.0 0.0 
0.0 0.0 0.0 
0.0 0.0 0.0 
0.0 0.0 0.0 
0.0 0.0 0.0 
0.0 0.0 0.0 
0.0 0.0 0.0 
0.0 0.0 0.0 
0.0 0.0 0.0 
0.0 0.0 0.0 
0.0 0.0 0.0 
0.0 0.0 0.0 
0.0 0.0 0.0 
0.0 0.0 0.0 
0.0 0.0 0.0 
0.0 0.0 0.0 
0.0 0.0 0.0 
0.0 0.0 0.0 
0.0 0.0 0.0 
0.0 0.0 0.0 
0.0 0.0 0.0 
0.0 0.0 0.0 
0.0 0.0 0.0 
0.0 0.0 0.0 
0.0 0.0 0.0 
0.0 0.0 0.0 
0.0 0.0 0.0 
0.0 0.0 0.0 
0.0 0.0 0.0 
0.0 0.0 0.0 
0.0 0.0 0.0 
0.0 0.0 0.0 
0.0 0.0 0.0 
0.0 0.0 0.0 
0.0 0.0 0.0 
0.0 0.0 0.0 
0.0 0.0 0.0 
0.0 0.0 0.0 
0.0 0.0 0.0 
0.0 0.0 0.0 
0.0 0.0 0.0 
0.0 0.0 0.0 
0.0 0.0 0.0 
0.0 0.0 0.0 
0.0 0.0 0.0 
0.0 0.0 0.0 
0.0 0.0 0.0 
0.0 0.0 0.0 
0.0 0.0 0.0 
0.0 0.0 0.0 
0.0 0.0 0.0 
0.0 0.0 0.0 
0.0 0.0 0.0 
0.0 0.0 0.0 
0.0 0.0 0.0 
0.0 0.0 0.0 
0.0 0.0 0.0 
0.0 0.0 0.0 
0.0 0.0 0.0 
0.0 0.0 0.0 
0.0 0.0 0.0 
0.0 0.0 0.0 
0.0 0.0 0.0 
0.0 0.0 0.0 
0.0 0.0 0.0 
0.0 0.0 0.0 
0.0 0.0 0.0 
0.0 0.0 0.0 
0.0 0.0 0.0 
0.0 0.0 0.0 
0.0 0.0 0.0 
0.0 0.0 0.0 
0.0 0.0 0.0 
0.0 0.0 0.0 
0.0 0.0 0.0 
0.0 0.0 0.0 
0.0 0.0 0.0 
0.0 0.0 0.0 
0.0 0.0 0.0 
0.0 0.0 0.0 
0.0 0.0 0.0 
0.0 0.0 0.0 
0.0 0.0 0.0 
0.0 0.0 0.0 
0.0 0.0 0.0 
0.0 0.0 0.0 
0.0 0.0 0.0 
0.0 0.0 0.0 
0.0 0.0 0.0 
0.0 0.0 0.0 
0.0 0.0 0.0 
0.0 0.0 0.0 
0.0 0.0 0.0 
0.0 0.0 0.0 
0.0 0.0 0.0 
0.0 0.0 0.0 
0.0 0.0 0.0 
0.0 0.0 0.0 
0.0 0.0 0.0 
0.0 0.0 0.0 
0.0 0.0 0.0 
0.0 0.0 0.0 
0.0 0.0 0.0 
0.0 0.0 0.0 
0.0 0.0 0.0 
0.0 0.0 0.0 
0.0 0.0 0.0 
0.0 0.0 0.0 
0.0 0.0 0.0 
0.0 0.0 0.0 
0.0 0.0 0.0 
0.0 0.0 0.0 
0.0 0.0 0.0 
0.0 0.0 0.0 
0.0 0.0 0.0 
0.0 0.0 0.0 
0.0 0.0 0.0 
0.0 0.0 0.0 
0.0 0.0 0.0 
0.0 0.0 0.0 
0.0 0.0 0.0 
0.0 0.0 0.0 
0.0 0.0 0.0 
0.0 0.0 0.0 
0.0 0.0 0.0 
0.0 0.0 0.0 
0.0 0.0 0.0 
0.0 0.0 0.0 
0.0 0.0 0.0 
0.0 0.0 0.0 
0.0 0.0 0.0 
0.0 0.0 0.0 
0.0 0.0 0.0 
0.0 0.0 0.0 
0.0 0.0 0.0 
0.0 0.0 0.0 
0.0 0.0 0.0 
0.0 0.0 0.0 
0.0 0.0 0.0 
0.0 0.0 0.0 
0.0 0.0 0.0 
0.0 0.0 0.0 
0.0 0.0 0.0 
0.0 0.0 0.0 
0.0 0.0 0.0 
0.0 0.0 0.0 
0.0 0.0 0.0 
0.0 0.0 0.0 
0.0 0.0 0.0 
0.0 0.0 0.0 
0.0 0.0 0.0 
0.0 0.0 0.0 
0.0 0.0 0.0 
0.0 0.0 0.0 
0.0 0.0 0.0 
0.0 0.0 0.0 
0.0 0.0 0.0 
0.0 0.0 0.0 
0.0 0.0 0.0 
0.0 0.0 0.0 
0.0 0.0 0.0 
0.0 0.0 0.0 
0.0 0.0 0.0 
0.0 0.0 0.0 
0.0 0.0 0.0 
0.0 0.0 0.0 
0.0 0.0 0.0 
0.0 0.0 0.0 
0.0 0.0 0.0 
0.0 0.0 0.0 
0.0 0.0 0.0 
0.0 0.0 0.0 
0.0 0.0 0.0 
0.0 0.0 0.0 
0.0 0.0 0.0 
0.0 0.0 0.0 
0.0 0.0 0.0 
0.0 0.0 0.0 
0.0 0.0 0.0 
0.0 0.0 0.0 
0.0 0.0 0.0 
0.0 0.0 0.0 
0.0 0.0 0.0 
0.0 0.0 0.0 
0.0 0.0 0.0 
0.0 0.0 0.0 
0.0 0.0 0.0 
0.0 0.0 0.0 
0.0 0.0 0.0 
0.0 0.0 0.0 
0.0 0.0 0.0 
0.0 0.0 0.0 
0.0 0.0 0.0 
0.0 0.0 0.0 
0.0 0.0 0.0 
0.0 0.0 0.0 
0.0 0.0 0.0 
0.0 0.0 0.0 
0.0 0.0 0.0 
0.0 0.0 0.0 
0.0 0.0 0.0 
0.0 0.0 0.0 
0.0 0.0 0.0 
0.0 0.0 0.0 
0.0 0.0 0.0 
0.0 0.0 0.0 
0.0 0.0 0.0 
0.0 0.0 0.0 
0.0 0.0 0.0 
0.0 0.0 0.0 
0.0 0.0 0.0 
0.0 0.0 0.0 
0.0 0.0 0.0 
0.0 0.0 0.0 
0.0 0.0 0.0 
0.0 0.0 0.0 
0.0 0.0 0.0 
0.0 0.0 0.0 
0.0 0.0 0.0 
0.0 0.0 0.0 
0.0 0.0 0.0 
0.0 0.0 0.0 
0.0 0.0 0.0 
0.0 0.0 0.0 
0.0 0.0 0.0 
0.0 0.0 0.0 
0.0 0.0 0.0 
0.0 0.0 0.0 
0.0 0.0 0.0 
0.0 0.0 0.0 
0.0 0.0 0.0 
0.0 0.0 0.0 
0.0 0.0 0.0 
0.0 0.0 0.0 
0.0 0.0 0.0 
0.0 0.0 0.0 
0.0 0.0 0.0 
0.0 0.0 0.0 
0.0 0.0 0.0 
0.0 0.0 0.0 
0.0 0.0 0.0 
0.0 0.0 0.0 
0.0 0.0 0.0 
0.0 0.0 0.0 
0.0 0.0 0.0 
0.0 0.0 0.0 
0.0 0.0 0.0 
0.0 0.0 0.0 
0.0 0.0 0.0 
0.0 0.0 0.0 
0.0 0.0 0.0 
0.0 0.0 0.0 
0.0 0.0 0.0 
0.0 0.0 0.0 
0.0 0.0 0.0 

VECTORS node_materi_velocity float
0.0 -8.446261488038e-04 0.0 
0.0 9.834954134422e-03 0.0 
0.0 0.0 0.0 
0.0 0.0 0.0 
0.0 -8.356900871569e-04 0.0 
0.0 -8.206481898507e-04 0.0 
0.0 -7.981857924878e-04 0.0 
0.0 -7.671820758647e-04 0.0 
0.0 -7.257923404669e-04 0.0 
0.0 -6.754912938564e-04 0.0 
0.0 -6.171563212861e-04 0.0 
0.0 -5.516602401569e-04 0.0 
0.0 -4.807278461855e-04 0.0 
0.0 -4.061594687669e-04 0.0 
0.0 -3.301557606577e-04 0.0 
0.0 -2.555500585968e-04 0.0 
0.0 -1.846533162488e-04 0.0 
0.0 -1.186638282799e-04 0.0 
0.0 -6.173165720353e-05 0.0 
0.0 -1.625490779003e-05 0.0 
0.0 1.546047624962e-05 0.0 
0.0 2.997039351064e-05 0.0 
0.0 2.410659499649e-05 0.0 
0.0 0.0 0.0 
0.0 0.0 0.0 
0.0 0.0 0.0 
0.0 0.0 0.0 
0.0 0.0 0.0 
0.0 0.0 0.0 
0.0 0.0 0.0 
0.0 0.0 0.0 
0.0 0.0 0.0 
0.0 0.0 0.0 
0.0 0.0 0.0 
0.0 0.0 0.0 
0.0 0.0 0.0 
0.0 0.0 0.0 
0.0 0.0 0.0 
0.0 0.0 0.0 
0.0 0.0 0.0 
0.0 0.0 0.0 
0.0 0.0 0.0 
0.0 0.0 0.0 
0.0 0.0 0.0 
0.0 0.0 0.0 
0.0 0.0 0.0 
0.0 0.0 0.0 
0.0 0.0 0.0 
0.0 0.0 0.0 
0.0 0.0 0.0 
0.0 0.0 0.0 
0.0 0.0 0.0 
0.0 0.0 0.0 
0.0 0.0 0.0 
0.0 0.0 0.0 
0.0 0.0 0.0 
0.0 0.0 0.0 
0.0 0.0 0.0 
0.0 0.0 0.0 
0.0 0.0 0.0 
0.0 0.0 0.0 
0.0 0.0 0.0 
0.0 0.0 0.0 
0.0 0.0 0.0 
0.0 0.0 0.0 
0.0 0.0 0.0 
0.0 0.0 0.0 
0.0 0.0 0.0 
0.0 0.0 0.0 
0.0 0.0 0.0 
0.0 0.0 0.0 
0.0 0.0 0.0 
0.0 8.833884230121e-03 0.0 
0.0 7.833550021599e-03 0.0 
0.0 6.835303390228e-03 0.0 
0.0 5.839919331110e-03 0.0 
0.0 4.848985339904e-03 0.0 
0.0 3.863503869957e-03 0.0 
0.0 2.884799257192e-03 0.0 
0.0 1.914074099935e-03 0.0 
0.0 9.525101120964e-04 0.0 
-9.715473314545e-04 4.316822781132e-03 0.0 
1.627761281722e-03 9.831608330079e-03 0.0 
-6.603650263003e-05 6.293429338387e-03 0.0 
-4.849186026486e-04 9.709501824434e-03 0.0 
3.704909911338e-04 1.172022565045e-02 0.0 
1.099748416440e-03 1.241296125172e-02 0.0 
1.573591244525e-03 1.259104314645e-02 0.0 
1.844406845148e-03 1.245085433648e-02 0.0 
1.946018571550e-03 1.205518723667e-02 0.0 
1.920928424259e-03 1.145419614844e-02 0.0 
1.805079123740e-03 1.069782629403e-02 0.0 
0.0 1.788180048774e-02 0.0 
0.0 1.685919134010e-02 0.0 
0.0 1.584915775923e-02 0.0 
0.0 1.484262860716e-02 0.0 
0.0 1.384033894352e-02 0.0 
0.0 1.283870551870e-02 0.0 
0.0 1.183776749146e-02 0.0 
0.0 1.083635150406e-02 0.0 
8.372976927082e-05 9.837369865295e-03 0.0 
1.685736691347e-04 9.844940323073e-03 0.0 
2.546374610981e-04 9.857033219530e-03 0.0 
3.425797326817e-04 9.873354582833e-03 0.0 
4.330182052244e-04 9.892489232419e-03 0.0 
5.262069962906e-04 9.913379990656e-03 0.0 
6.232715414093e-04 9.935350144554e-03 0.0 
7.245936235867e-04 9.955496085598e-03 0.0 
8.310865107784e-04 9.973178630011e-03 0.0 
9.439331104849e-04 9.985316040197e-03 0.0 
1.063549724980e-03 9.988446899759e-03 0.0 
1.191205872938e-03 9.978830604673e-03 0.0 
1.327384404459e-03 9.952975876364e-03 0.0 
1.472685626106e-03 9.905483544311e-03 0.0 
-1.039612397550e-03 3.608427527639e-03 0.0 
-9.886607938452e-04 2.853615820434e-03 0.0 
-8.787057297644e-04 2.191923999852e-03 0.0 
-7.406607891985e-04 1.629908026522e-03 0.0 
-6.089880755355e-04 1.161692841727e-03 0.0 
-4.857058618965e-04 7.707412203756e-04 0.0 
-3.726550311647e-04 4.450984172466e-04 0.0 
-2.734199101901e-04 1.752178193765e-04 0.0 
-1.886176931996e-04 -4.664384122104e-05 0.0 
-1.188330305391e-04 -2.278372409836e-04 0.0 
-6.358415077591e-05 -3.767731229518e-04 0.0 
-2.102875573921e-05 -4.949636965472e-04 0.0 
7.689139789677e-06 -5.907501099564e-04 0.0 
2.771841960758e-05 -6.669154182129e-04 0.0 
3.791063761954e-05 -7.266530856347e-04 0.0 
3.972043246458e-05 -7.715159387775e-04 0.0 
3.494550442256e-05 -8.044209329858e-04 0.0 
2.547435485137e-05 -8.273414038067e-04 0.0 
1.346525652880e-05 -8.398040150038e-04 0.0 
-1.347884524713e-03 1.209627336497e-02 0.0 
-1.144096635287e-03 1.342617491490e-02 0.0 
-9.546923022590e-04 1.440968645544e-02 0.0 
-7.502385485169e-04 1.515654474875e-02 0.0 
-5.686859731118e-04 1.578681231178e-02 0.0 
-4.025983412763e-04 1.632392029426e-02 0.0 
-1.948279137783e-04 1.677655983272e-02 0.0 
2.858472876572e-05 1.715058527976e-02 0.0 
2.523029048075e-04 1.744238884322e-02 0.0 
4.621983373508e-04 1.765658066207e-02 0.0 
6.488909829011e-04 1.781186764541e-02 0.0 
8.051430050073e-04 1.791833611561e-02 0.0 
9.260821681921e-04 1.798651959356e-02 0.0 
1.010135728854e-03 1.802585533640e-02 0.0 
1.057573164268e-03 1.804407065544e-02 0.0 
1.071009271796e-03 1.804782337349e-02 0.0 
1.054392944994e-03 1.804191344550e-02 0.0 
1.012397249677e-03 1.802967465953e-02 0.0 
9.491069534299e-04 1.801370631608e-02 0.0 
8.682168115682e-04 1.799596357327e-02 0.0 
7.727609923086e-04 1.797755712051e-02 0.0 
6.661824938746e-04 1.795935646758e-02 0.0 
5.509121750126e-04 1.794133227734e-02 0.0 
4.273716951753e-04 1.792205409179e-02 0.0 
2.952785982739e-04 1.790075826053e-02 0.0 
1.511175695905e-04 1.788921316150e-02 0.0 
2.019695879668e-04 1.295068055203e-02 0.0 
1.639204574782e-04 1.383536812808e-02 0.0 
1.821919028507e-04 1.452953082901e-02 0.0 
2.359895617633e-04 1.511046994368e-02 0.0 
3.125119812311e-04 1.560897875675e-02 0.0 
4.072006163891e-04 1.602157531112e-02 0.0 
5.100616115258e-04 1.635230239811e-02 0.0 
6.141783360671e-04 1.660498515347e-02 0.0 
7.141717194315e-04 1.678917380693e-02 0.0 
8.034527127507e-04 1.691788941428e-02 0.0 
8.772117374205e-04 1.700156177421e-02 0.0 
9.320605536188e-04 1.705032302232e-02 0.0 
9.660307580114e-04 1.707299415772e-02 0.0 
9.785388347352e-04 1.707718140885e-02 0.0 
9.700795748699e-04 1.706906684872e-02 0.0 
9.420217306585e-04 1.705321996037e-02 0.0 
8.962907684815e-04 1.703275734827e-02 0.0 
8.349696133191e-04 1.701000622968e-02 0.0 
7.600982230606e-04 1.698659174376e-02 0.0 
6.736551586868e-04 1.696366223086e-02 0.0 
5.773869371052e-04 1.694166204944e-02 0.0 
4.727034860697e-04 1.692022482962e-02 0.0 
3.610565593951e-04 1.689879817229e-02 0.0 
2.444265243647e-04 1.687824263661e-02 0.0 
1.222292124324e-04 1.686782354901e-02 0.0 
1.099989940848e-04 1.585232858657e-02 0.0 
2.200474364901e-04 1.586646776533e-02 0.0 
3.280460262900e-04 1.588649480925e-02 0.0 
4.321473964147e-04 1.590945484223e-02 0.0 
5.305928481253e-04 1.593408684102e-02 0.0 
6.219575641874e-04 1.596025053042e-02 0.0 
7.050209748857e-04 1.598784361460e-02 0.0 
7.785916239988e-04 1.601618143893e-02 0.0 
8.414877428916e-04 1.604391115060e-02 0.0 
8.926516122487e-04 1.606904458495e-02 0.0 
9.312661576723e-04 1.608874366798e-02 0.0 
9.569727192512e-04 1.609904247807e-02 0.0 
9.699924014553e-04 1.609447044524e-02 0.0 
9.712247313740e-04 1.606799325840e-02 0.0 
9.623553600719e-04 1.601113612305e-02 0.0 
9.459597561444e-04 1.591420271152e-02 0.0 
9.253825978987e-04 1.576651421147e-02 0.0 
9.049167279096e-04 1.555666752659e-02 0.0 
8.884472829590e-04 1.527359544021e-02 0.0 
8.804847749204e-04 1.490899709416e-02 0.0 
8.867810668704e-04 1.445462591547e-02 0.0 
9.167596414181e-04 1.390902731209e-02 0.0 
9.757209317778e-04 1.325068889259e-02 0.0 
1.457988780216e-03 1.318995035127e-02 0.0 
1.374663602227e-03 1.368064352782e-02 0.0 
1.302915456739e-03 1.407978723146e-02 0.0 
1.245000162447e-03 1.439926190958e-02 0.0 
1.196566799714e-03 1.464511947692e-02 0.0 
1.155267127844e-03 1.482710375642e-02 0.0 
1.118239150548e-03 1.495432734938e-02 0.0 
1.082847283790e-03 1.503678249419e-02 0.0 
1.046668028448e-03 1.508366992026e-02 0.0 
1.007660687646e-03 1.510345494549e-02 0.0 
9.641795764380e-04 1.510350089639e-02 0.0 
9.150028089224e-04 1.508996103849e-02 0.0 
8.593329737794e-04 1.506770268636e-02 0.0 
7.968044991697e-04 1.504040386418e-02 0.0 
7.274172200673e-04 1.501075927390e-02 0.0 
6.514471447506e-04 1.498069851421e-02 0.0 
5.693591453686e-04 1.495153740318e-02 0.0 
4.817997791131e-04 1.492407974989e-02 0.0 
3.896835840083e-04 1.489884024738e-02 0.0 
2.942427901782e-04 1.487648739670e-02 0.0 
1.968577930506e-04 1.485842000802e-02 0.0 
9.852652184112e-05 1.484759831080e-02 0.0 
9.435239627076e-05 1.384353556967e-02 0.0 
1.891695702209e-04 1.385516061975e-02 0.0 
2.834997535289e-04 1.387291299040e-02 0.0 
3.766237324921e-04 1.389557291355e-02 0.0 
4.676910808253e-04 1.392186411349e-02 0.0 
5.559783758032e-04 1.395083583948e-02 0.0 
6.410041791213e-04 1.398157284182e-02 0.0 
7.225401001187e-04 1.401287849250e-02 0.0 
8.006022885328e-04 1.404302727963e-02 0.0 
8.754806532853e-04 1.406960382957e-02 0.0 
9.477892172319e-04 1.408933411597e-02 0.0 
1.018480003054e-03 1.409790523090e-02 0.0 
1.088815459405e-03 1.408984272832e-02 0.0 
1.160305157823e-03 1.405844019491e-02 0.0 
1.234706159083e-03 1.399590083914e-02 0.0 
1.313847989074e-03 1.389342577548e-02 0.0 
1.399776853573e-03 1.374177557987e-02 0.0 
1.494114258328e-03 1.353087748680e-02 0.0 
1.599193304486e-03 1.325298194817e-02 0.0 
1.712560169106e-03 1.289735045523e-02 0.0 
1.802424216026e-03 1.236057914383e-02 0.0 
1.671908612065e-03 1.259740145936e-02 0.0 
1.548219932836e-03 1.277604507925e-02 0.0 
1.433793834986e-03 1.290543890109e-02 0.0 
1.327247751954e-03 1.299273304911e-02 0.0 
1.227553803197e-03 1.304611546931e-02 0.0 
1.133326288381e-03 1.307264107896e-02 0.0 
1.043280901833e-03 1.307889335634e-02 0.0 
9.561199227946e-04 1.307040818153e-02 0.0 
8.706606498802e-04 1.305181600322e-02 0.0 
7.858894796992e-04 1.302686033704e-02 0.0 
7.010535835042e-04 1.299849440854e-02 0.0 
6.156510814522e-04 1.296896268506e-02 0.0 
5.293749095406e-04 1.293993139727e-02 0.0 
4.421660632033e-04 1.291266807983e-02 0.0 
3.541758018029e-04 1.288821748822e-02 0.0 
2.657012799925e-04 1.286757553784e-02 0.0 
1.770756630411e-04 1.285184414937e-02 0.0 
8.853521034730e-05 1.284237749161e-02 0.0 
8.790854105998e-05 1.184070197283e-02 0.0 
1.764162389464e-04 1.185030112282e-02 0.0 
2.654198885470e-04 1.186552767415e-02 0.0 
3.549794918010e-04 1.188564700266e-02 0.0 
4.451487689392e-04 1.190954311140e-02 0.0 
5.360623264521e-04 1.193609601918e-02 0.0 
6.278725555397e-04 1.196407252931e-02 0.0 
7.210724814506e-04 1.199182055653e-02 0.0 
8.162299552110e-04 1.201740916513e-02 0.0 
9.140846909231e-04 1.203817034071e-02 0.0 
1.015670415339e-03 1.205063768002e-02 0.0 
1.122146010712e-03 1.205069797444e-02 0.0 
1.234706930853e-03 1.203336227886e-02 0.0 
1.354516228779e-03 1.199289626537e-02 0.0 
1.482431913379e-03 1.192226588138e-02 0.0 
1.619420372382e-03 1.181485469416e-02 0.0 
1.764217845049e-03 1.166217978232e-02 0.0 
1.650226729766e-03 1.082517160719e-02 0.0 
1.506463748354e-03 1.091330453732e-02 0.0 
1.369681008595e-03 1.097125417241e-02 0.0 
1.241647413428e-03 1.100512858833e-02 0.0 
1.121459848372e-03 1.101980224563e-02 0.0 
1.008350526603e-03 1.101988780671e-02 0.0 
9.012724022233e-04 1.100931431789e-02 0.0 
7.992174370148e-04 1.099142755242e-02 0.0 
7.013361605814e-04 1.096940053898e-02 0.0 
6.070127917968e-04 1.094549964281e-02 0.0 
5.153675795493e-04 1.092108193535e-02 0.0 
4.260345105245e-04 1.089810194403e-02 0.0 
3.385389783941e-04 1.087739241960e-02 0.0 
2.525092946046e-04 1.086002640953e-02 0.0 
1.677019089864e-04 1.084708423703e-02 0.0 
8.377422300656e-05 1.083929762698e-02 0.0 
-5.373863848809e-04 5.359684193053e-03 0.0 
-1.421001000785e-04 7.962020130627e-03 0.0 
-7.168796363352e-05 1.089092862511e-02 0.0 
7.849249178505e-04 1.215060821345e-02 0.0 
1.374347662086e-03 1.254633978513e-02 0.0 
1.736473145211e-03 1.255335388093e-02 0.0 
1.915753516428e-03 1.228118792467e-02 0.0 
1.947837673115e-03 1.177671639329e-02 0.0 
1.873208356438e-03 1.109179278966e-02 0.0 
1.722707212942e-03 1.027547424754e-02 0.0 
3.723205390805e-04 7.673054282505e-03 0.0 
5.047577271560e-04 2.184227881379e-04 0.0 
1.538670128486e-05 -1.610977413756e-04 0.0 
-2.895384986207e-04 1.362655881141e-03 0.0 
3.444416709387e-04 1.055246351036e-04 0.0 
1.595357173885e-03 1.125557534915e-02 0.0 
1.232222920880e-04 -3.641907764950e-04 0.0 
5.941675534866e-04 3.523739331563e-04 0.0 
2.128361655504e-03 1.161802635602e-02 0.0 
5.840373403074e-04 4.888719259514e-04 0.0 
2.126160456707e-03 1.083171163222e-02 0.0 
1.972749401930e-04 5.182712886484e-05 0.0 
9.166640435838e-05 -6.420266003887e-04 0.0 
5.120701473707e-04 6.337523853365e-04 0.0 
1.776961704476e-03 9.327104585070e-03 0.0 
8.960504722114e-05 -6.429143663803e-04 0.0 
1.254425325101e-04 -1.612502677584e-04 0.0 
4.366863835798e-04 7.409159394819e-04 0.0 
2.834058821685e-04 7.710688122178e-04 0.0 
7.332074444922e-05 8.138192355279e-04 0.0 
1.400513235406e-04 8.790326453846e-04 0.0 
1.932117935640e-04 7.767621346567e-04 0.0 
1.407632715933e-03 9.009608543088e-03 0.0 
8.855829688516e-04 9.053934336968e-03 0.0 
5.664513380193e-04 8.983026175708e-03 0.0 
5.071766946115e-05 5.329152916819e-03 0.0 
1.217153915878e-04 3.479642555639e-05 0.0 
-4.807030447237e-04 3.245946916397e-03 0.0 
7.174505743412e-05 -7.852316635404e-04 0.0 
8.592199603318e-05 6.976136124269e-07 0.0 
2.865873268113e-04 8.997351129186e-03 0.0 
5.676189906122e-05 -7.818540891123e-04 0.0 
4.007608222645e-04 8.632284183437e-04 0.0 
5.537219953884e-04 3.880328029872e-04 0.0 
5.499893939249e-04 5.575350979032e-04 0.0 
5.925904501231e-04 3.013652420147e-04 0.0 
4.217698322063e-04 1.572044695835e-04 0.0 
-1.341541367326e-04 5.673027207266e-04 0.0 
1.131176674204e-03 9.113318241924e-03 0.0 
3.159006880831e-04 8.652294779628e-05 0.0 
3.763812967060e-05 3.415390833502e-03 0.0 
7.289503793815e-05 -4.503719278771e-04 0.0 
1.125096471763e-04 -5.141865139091e-04 0.0 
3.645494136168e-05 6.603965510374e-04 0.0 
1.951264461380e-03 1.157396514604e-02 0.0 
1.073481037886e-03 1.010218080898e-02 0.0 
2.183841020307e-03 1.134049404705e-02 0.0 
1.981660711549e-03 1.014512148199e-02 0.0 
-1.772683145145e-04 5.376009396759e-03 0.0 
6.306615380842e-05 7.215662566855e-03 0.0 
5.526502498835e-05 2.181511500511e-05 0.0 
3.365904408745e-05 -8.284359987074e-04 0.0 
2.009633850085e-05 1.503394782425e-03 0.0 
1.684967509906e-03 8.863517065777e-03 0.0 
1.803734304031e-03 8.365443768552e-03 0.0 
1.639126050442e-03 7.985595242246e-03 0.0 
1.778656635813e-03 7.415685199835e-03 0.0 
1.619535924183e-03 6.949311659374e-03 0.0 
1.722488552968e-03 6.446319451709e-03 0.0 
1.899784532737e-03 6.882826030120e-03 0.0 
1.816406827993e-03 5.934216638632e-03 0.0 
2.008950487477e-03 6.349114942587e-03 0.0 
1.542427662298e-03 5.976764475242e-03 0.0 
1.894931349520e-03 5.416533828816e-03 0.0 
2.102087429964e-03 5.807859393077e-03 0.0 
1.955023171039e-03 4.898648729355e-03 0.0 
2.174501447733e-03 5.263330347994e-03 0.0 
2.303581934161e-03 6.166161123491e-03 0.0 
2.387704435335e-03 5.595354027811e-03 0.0 
2.495560552255e-03 6.483327124198e-03 0.0 
2.590223077213e-03 5.881693166107e-03 0.0 
2.446042145874e-03 5.029959107706e-03 0.0 
2.656728058712e-03 5.287046919840e-03 0.0 
2.778714461969e-03 6.117557495309e-03 0.0 
2.850868458488e-03 5.490418913169e-03 0.0 
2.949333393974e-03 6.295054754042e-03 0.0 
3.024409050454e-03 5.631072119629e-03 0.0 
3.099727928949e-03 6.407837362032e-03 0.0 
3.174281961481e-03 5.705878295820e-03 0.0 
3.062346160117e-03 4.986331935301e-03 0.0 
3.208784414738e-03 5.030411505478e-03 0.0 
3.295143635196e-03 5.708559481227e-03 0.0 
3.322879732184e-03 5.003177665462e-03 0.0 
3.382103953239e-03 5.634023581197e-03 0.0 
3.399446728724e-03 4.901227194614e-03 0.0 
3.307678634330e-03 4.339925262761e-03 0.0 
3.372833068160e-03 4.222143076663e-03 0.0 
3.433198806255e-03 4.724367543657e-03 0.0 
3.393084291135e-03 4.038429379823e-03 0.0 
3.418659026465e-03 4.475859314344e-03 0.0 
3.364906285575e-03 3.794040458099e-03 0.0 
3.352005939645e-03 4.162238127413e-03 0.0 
3.285889733916e-03 3.495640885329e-03 0.0 
3.276085769127e-03 3.186819186128e-03 0.0 
3.189035024381e-03 2.908661443400e-03 0.0 
3.155979814079e-03 3.155990621912e-03 0.0 
3.055787871854e-03 2.600299676809e-03 0.0 
3.066844452572e-03 2.400636172090e-03 0.0 
2.933951809421e-03 2.124659190170e-03 0.0 
2.923844583090e-03 1.964767771685e-03 0.0 
2.794303120183e-03 1.720064498506e-03 0.0 
2.765559344039e-03 1.836692937104e-03 0.0 
2.632682613996e-03 1.465969115758e-03 0.0 
2.640309763389e-03 1.378801389985e-03 0.0 
2.486556629781e-03 1.155721199288e-03 0.0 
2.444150723015e-03 1.209630637802e-03 0.0 
2.310072770318e-03 9.325520193239e-04 0.0 
2.330870859486e-03 8.992555111472e-04 0.0 
2.165397583744e-03 7.042362181269e-04 0.0 
2.116574493641e-03 7.145131972875e-04 0.0 
1.985255344098e-03 5.147497672991e-04 0.0 
2.013990739860e-03 5.195554564908e-04 0.0 
1.845566717637e-03 3.537468862493e-04 0.0 
1.794859728468e-03 3.335209792111e-04 0.0 
1.668994633903e-03 1.963722479539e-04 0.0 
1.700321867463e-03 2.269748240813e-04 0.0 
1.535649036638e-03 8.891993504361e-05 0.0 
1.549749129987e-03 1.282995686791e-04 0.0 
1.485290158591e-03 4.672017111251e-05 0.0 
1.365846892904e-03 -4.114178290583e-05 0.0 
1.300613010186e-03 -9.167492353008e-05 0.0 
1.195024242009e-03 -1.616204711871e-04 0.0 
3.251935670018e-03 3.726426352850e-03 0.0 
1.121802575358e-03 -2.158664377678e-04 0.0 
1.207904489457e-03 -1.386685822053e-04 0.0 
1.027496292481e-03 -2.712171087337e-04 0.0 
1.081106520137e-03 -2.120322813956e-04 0.0 
9.497299095026e-04 -3.273236143247e-04 0.0 
8.658816832124e-04 -3.697709395541e-04 0.0 
7.874796578916e-04 -4.257574760537e-04 0.0 
3.377238441093e-03 4.929377162154e-03 0.0 
2.474337392993e-03 4.475011814614e-03 0.0 
7.129596615663e-04 -4.571194404314e-04 0.0 
6.376251308799e-04 -5.113667544677e-04 0.0 
6.913714563538e-04 -4.749875613622e-04 0.0 
5.485531325767e-04 -5.577058266690e-04 0.0 
1.451321129748e-03 6.474237286767e-03 0.0 
1.360656961082e-03 5.490334446117e-03 0.0 
1.284606238470e-03 5.981014077559e-03 0.0 
1.179843266679e-03 4.994822252153e-03 0.0 
1.118429064287e-03 5.470270508804e-03 0.0 
5.017430053938e-04 -5.848533959918e-04 0.0 
1.731818270943e-03 4.479199780900e-03 0.0 
1.229442045177e-03 4.510371375514e-03 0.0 
2.840231497318e-03 6.970462659951e-03 0.0 
3.318213775205e-03 6.410312971300e-03 0.0 
3.014955521275e-03 2.190325722739e-03 0.0 
7.721023645706e-04 -3.967167875515e-04 0.0 
6.275421656375e-04 -4.748866170935e-04 0.0 
6.696594806059e-04 -4.106124721028e-04 0.0 
1.692693570886e-03 2.536415942769e-04 0.0 
1.526865525953e-03 1.627802942290e-04 0.0 
1.644386152920e-03 2.735201958573e-04 0.0 
1.466501619497e-03 1.902256370411e-04 0.0 
1.555077248283e-03 2.845786363769e-04 0.0 
1.368616000668e-03 2.085812623119e-04 0.0 
1.290303205139e-03 1.273678255353e-04 0.0 
1.186619606692e-03 1.512954172586e-04 0.0 
1.117611701981e-03 8.146550914310e-05 0.0 
1.424910646816e-03 2.847720132736e-04 0.0 
1.621409382977e-03 3.739981322067e-04 0.0 
1.010991014003e-03 1.092546664272e-04 0.0 
9.501910934821e-04 4.933194821179e-05 0.0 
8.435524678767e-04 7.930027461772e-05 0.0 
7.898835885794e-04 2.826958298968e-05 0.0 
8.709460096747e-04 -1.386153285159e-05 0.0 
7.173580935194e-04 -2.632121604217e-05 0.0 
7.768016044239e-04 -7.838135869224e-05 0.0 
2.852501246983e-03 1.793037254944e-03 0.0 
2.901741181951e-03 1.969688080718e-03 0.0 
2.721076998951e-03 1.610312450085e-03 0.0 
2.727448831046e-03 1.738774768187e-03 0.0 
2.529823720476e-03 1.416915255907e-03 0.0 
2.492169763737e-03 1.498501695380e-03 0.0 
2.278274490498e-03 1.213323883668e-03 0.0 
2.319649438355e-03 1.144876629302e-03 0.0 
1.995213205090e-03 4.377292604859e-03 0.0 
2.978629585148e-03 2.787751589914e-03 0.0 
3.053791245940e-03 3.391074208769e-03 0.0 
2.830975794378e-03 2.961974573648e-03 0.0 
2.876620119708e-03 3.609589796030e-03 0.0 
2.607132887360e-03 3.119022143359e-03 0.0 
2.616793354846e-03 3.810386213405e-03 0.0 
2.299629581460e-03 3.260101778667e-03 0.0 
2.307093618717e-03 2.637260143635e-03 0.0 
1.961756781933e-03 2.734689786092e-03 0.0 
1.991255489564e-03 2.179668896292e-03 0.0 
1.622720750637e-03 2.246237205541e-03 0.0 
1.673338530756e-03 1.756370031039e-03 0.0 
3.061547187964e-03 4.370363176410e-03 0.0 
2.690902267249e-03 1.833540929526e-03 0.0 
2.411292249228e-03 1.544602673496e-03 0.0 
2.610030695715e-03 1.887301357121e-03 0.0 
5.805380440213e-04 -5.157890915905e-04 0.0 
6.382523292591e-04 1.605057666622e-05 0.0 
1.454894277612e-03 3.526434871063e-04 0.0 
1.661920194148e-03 4.547466964639e-04 0.0 
2.054060438211e-03 9.729256886852e-04 0.0 
4.224962309903e-04 -6.272716358589e-04 0.0 
2.265094784183e-03 3.994028575604e-03 0.0 
2.593507245212e-03 4.622296908918e-03 0.0 
1.004146094394e-03 4.482629985966e-03 0.0 
9.572070557048e-04 4.948556092218e-03 0.0 
1.454377280451e-03 4.085003691038e-04 0.0 
3.809175519771e-04 -6.472214680333e-04 0.0 
1.049469111180e-03 1.634665928680e-04 0.0 
1.537523988942e-03 2.826629648978e-03 0.0 
5.710785079783e-04 -3.078806579400e-05 0.0 
4.968169603766e-04 1.077223673153e-05 0.0 
1.194226797455e-03 4.405300809931e-05 0.0 
2.286261527163e-03 1.549874135096e-03 0.0 
2.490592165170e-03 1.900830349751e-03 0.0 
1.995929206129e-03 1.711058851723e-03 0.0 
1.697099318495e-03 1.343429339539e-03 0.0 
1.365147287638e-03 1.371489265912e-03 0.0 
1.415625880708e-03 9.997751842052e-04 0.0 
1.698017392971e-03 9.949734135502e-04 0.0 
1.428168479693e-03 7.048258240283e-04 0.0 
1.144593857388e-03 7.008503765748e-04 0.0 
1.173536119264e-03 4.457389353168e-04 0.0 
1.421395073315e-03 4.575893982572e-04 0.0 
1.182825780651e-03 2.338942413930e-04 0.0 
9.382294788061e-04 2.193849068745e-04 0.0 
9.625232390306e-04 3.826182269260e-05 0.0 
5.402434375483e-04 4.621337322268e-05 0.0 
1.188120631411e-03 2.313787636707e-03 0.0 
2.377049938703e-03 7.083086479379e-03 0.0 
1.244807301809e-03 3.173660644578e-04 0.0 
1.970518706215e-03 1.003860403165e-03 0.0 
8.360334748267e-04 3.961519221416e-03 0.0 
8.028426575419e-04 4.419125114506e-03 0.0 
9.005984611478e-04 5.415936073850e-03 0.0 
7.591441437571e-04 4.876221647048e-03 0.0 
6.574153617321e-04 3.884339879567e-03 0.0 
6.261722547973e-04 4.335166896512e-03 0.0 
7.075750524441e-04 5.332418575654e-03 0.0 
5.859521398387e-04 4.784862418035e-03 0.0 
6.500410342384e-04 5.785745004884e-03 0.0 
5.387049630461e-04 5.232443391744e-03 0.0 
4.732310287041e-04 4.237129470309e-03 0.0 
4.354903726502e-04 4.681306594648e-03 0.0 
4.861654243031e-04 5.678496672317e-03 0.0 
3.914097340641e-04 5.124457557745e-03 0.0 
4.296424181134e-04 6.122387078740e-03 0.0 
3.421632846074e-04 5.566495916760e-03 0.0 
3.049162379580e-04 4.573638364864e-03 0.0 
3.178112019731e-04 -6.833283805367e-04 0.0 
2.101287188475e-03 9.177446640228e-04 0.0 
1.823490432579e-03 7.729425890231e-04 0.0 
5.365575184825e-04 -4.799411545594e-04 0.0 
5.644941014475e-04 -4.120421046852e-04 0.0 
6.965983567534e-04 -3.424030009365e-04 0.0 
5.743386875187e-04 -3.428345057372e-04 0.0 
2.611040449278e-04 5.018579679191e-03 0.0 
2.276348763683e-04 4.027371900998e-03 0.0 
2.198715582038e-03 4.860826141140e-03 0.0 
2.529125130501e-03 5.578100787359e-03 0.0 
8.558384576293e-04 3.504073385001e-03 0.0 
4.335189788977e-04 -2.925894515021e-05 0.0 
4.879871808955e-04 -8.001600413353e-05 0.0 
3.377652944844e-03 6.284353902959e-03 0.0 
3.274994814221e-03 7.132627787903e-03 0.0 
3.305246007645e-03 6.957950268080e-03 0.0 
3.156470135353e-03 7.895086740927e-03 0.0 
3.123213896962e-03 8.006385463183e-03 0.0 
3.153279323035e-03 7.670313705717e-03 0.0 
1.822346205262e-03 4.874342761065e-04 0.0 
3.707174685901e-04 3.691621674933e-03 0.0 
7.307329930578e-04 -4.217820223485e-04 0.0 
5.953624946635e-04 -4.571884131293e-04 0.0 
3.671412871483e-04 9.971864300725e-06 0.0 
2.320827456751e-03 1.049789249911e-03 0.0 
2.888771839879e-03 4.285420341675e-03 0.0 
2.852591665379e-03 3.723464047513e-03 0.0 
2.652186671140e-03 3.598877352892e-03 0.0 
2.580334667472e-03 3.089395589463e-03 0.0 
2.351188145005e-03 2.926165774065e-03 0.0 
2.241406627077e-03 2.468355348346e-03 0.0 
2.472898762216e-03 2.616813896630e-03 0.0 
2.115895895670e-03 1.508222783013e-03 0.0 
2.096590768066e-03 2.046207536587e-03 0.0 
2.934497933983e-04 6.017433296283e-03 0.0 
2.872006731499e-03 2.223077215266e-03 0.0 
1.394813342057e-03 2.555090228627e-04 0.0 
3.422158443542e-04 -6.567158541934e-04 0.0 
7.212740233298e-04 2.414436817448e-05 0.0 
2.766824795361e-04 -6.979779991155e-04 0.0 
3.257499861338e-04 -6.551826649924e-04 0.0 
1.200924634845e-03 3.476015474888e-04 0.0 
1.982586534096e-03 2.266995070364e-03 0.0 
2.098179659318e-03 2.709810468573e-03 0.0 
2.954401367656e-03 8.849965962513e-03 0.0 
2.927532311388e-03 8.884737098228e-03 0.0 
1.895107681857e-03 1.207193794647e-03 0.0 
1.199311760228e-03 6.476031410602e-03 0.0 
7.680927783263e-04 6.339806054108e-03 0.0 
6.960115379683e-04 6.794390630022e-03 0.0 
2.265378062371e-04 -7.302076515177e-04 0.0 
6.738120999390e-04 2.162196093627e-04 0.0 
5.232402415226e-04 3.348263915740e-03 0.0 
2.865188822859e-03 5.246921677464e-03 0.0 
2.790384354432e-03 6.263776883720e-03 0.0 
1.042285238607e-03 2.916615846619e-03 0.0 
6.959896302002e-04 2.385651913650e-03 0.0 
1.918686282097e-04 4.460174629274e-03 0.0 
1.617271986908e-04 3.483628637326e-03 0.0 
7.054938861107e-04 -2.733301623672e-04 0.0 
5.734510058122e-04 -2.718734199572e-04 0.0 
1.419057372709e-03 4.485479164896e-04 0.0 
7.641409674600e-04 -1.311317151074e-04 0.0 
1.851414138420e-04 3.045732163110e-03 0.0 
2.108651204263e-03 8.372657191272e-04 0.0 
2.284444478564e-03 9.330106426322e-04 0.0 
4.435069523140e-04 -4.075830440090e-04 0.0 
2.083419071455e-03 5.888773168074e-03 0.0 
1.697859013434e-03 5.078172271711e-03 0.0 
1.630516242603e-03 4.727784005500e-04 0.0 
9.644379803075e-04 -1.073065975338e-04 0.0 
2.247207931661e-04 -7.016667266852e-04 0.0 
1.118322459575e-03 3.585811935314e-04 0.0 
5.313182390759e-04 2.903814354813e-03 0.0 
2.330371231003e-03 2.187944141448e-03 0.0 
2.671979977001e-03 2.715167854288e-03 0.0 
1.919906233820e-03 1.665184512116e-03 0.0 
5.465583370720e-04 -1.438489790857e-04 0.0 
9.913116165387e-04 2.661935595249e-04 0.0 
3.063975509154e-04 -2.324319595820e-05 0.0 
1.717717775590e-03 2.050350813291e-03 0.0 
1.824385137498e-03 2.447371716851e-03 0.0 
3.068291932603e-03 5.826370440309e-03 0.0 
2.978920820396e-03 6.868412967419e-03 0.0 
2.647436441372e-03 7.433027823310e-03 0.0 
2.807956378447e-03 8.012964666089e-03 0.0 
2.072362839324e-03 7.297399813273e-03 0.0 
3.205192407743e-03 6.323780251269e-03 0.0 
2.546013314127e-03 7.387261479984e-03 0.0 
2.397850266887e-03 8.011285430713e-03 0.0 
2.539838702709e-03 8.304542804213e-03 0.0 
3.056783715534e-03 8.032860069515e-03 0.0 
2.866473010276e-03 8.846077677872e-03 0.0 
3.099589174128e-03 4.093141354738e-03 0.0 
3.064195231124e-03 2.389461184852e-03 0.0 
8.350559199711e-04 -2.651516808762e-04 0.0 
9.289517451926e-04 -6.457620460960e-05 0.0 
1.822087935289e-03 3.814200913784e-04 0.0 
3.912570507622e-04 3.250689460743e-03 0.0 
2.919123235326e-04 2.710974387424e-03 0.0 
5.235169018877e-04 6.681683982705e-03 0.0 
4.569079725628e-04 7.125306369145e-03 0.0 
4.591702443101e-04 -5.466936897494e-04 0.0 
4.509424487981e-04 -4.806758444192e-04 0.0 
1.395820823582e-03 5.351867280701e-05 0.0 
1.043670184475e-03 2.456367620259e-04 0.0 
6.838286095328e-04 2.985660767601e-03 0.0 
6.728428056355e-04 2.538091245768e-03 0.0 
8.590386260969e-04 3.046792539817e-03 0.0 
1.344521015045e-03 4.687311444624e-04 0.0 
2.762439452933e-03 2.410032967055e-03 0.0 
2.674557461349e-03 1.455639004473e-03 0.0 
8.638387989176e-04 1.863082536650e-03 0.0 
3.156222742635e-03 3.790956662494e-03 0.0 
3.323890143352e-04 -5.660444239259e-04 0.0 
2.244307730892e-03 4.200236270219e-03 0.0 
2.512957690907e-04 1.281470362783e-05 0.0 
2.896871564175e-04 3.512009906644e-05 0.0 
1.679702216926e-03 1.122603833391e-03 0.0 
1.935552233507e-03 8.797033965848e-03 0.0 
3.071572164756e-03 3.238318019701e-03 0.0 
3.159949311599e-03 3.170321957982e-03 0.0 
2.366837760131e-03 8.944564558674e-03 0.0 
2.478763663835e-03 9.228923996905e-03 0.0 
2.665035948488e-03 8.546418613129e-03 0.0 
2.570668622805e-03 9.468062198342e-03 0.0 
1.569786772764e-03 2.817829000715e-04 0.0 
1.349647247504e-03 9.359379884792e-05 0.0 
1.526360180678e-03 1.604315527453e-03 0.0 
1.664154580359e-03 1.501543301134e-03 0.0 
1.432054687702e-03 1.775090364970e-03 0.0 
1.535855061473e-03 2.136999534563e-03 0.0 
1.434754348817e-03 8.611647293138e-04 0.0 
1.656888550764e-03 9.467883904156e-04 0.0 
2.579115408240e-04 -6.537603207649e-04 0.0 
2.701602756239e-03 9.731109378835e-03 0.0 
3.987252828356e-04 2.372091679285e-03 0.0 
2.239472530810e-03 8.621658686344e-03 0.0 
7.994641053980e-04 2.030112364973e-04 0.0 
8.542457079806e-04 1.880013299326e-04 0.0 
3.843666878902e-04 1.927430794034e-03 0.0 
5.665450524827e-04 1.407647985369e-03 0.0 
1.250514987994e-04 2.528507595087e-03 0.0 
2.417264023787e-03 8.701235030240e-03 0.0 
2.551895710674e-03 9.203190383689e-03 0.0 
2.212518753647e-03 7.993404063319e-03 0.0 
3.832987930838e-05 3.214275058283e-05 0.0 
1.232158401692e-04 8.990270955517e-03 0.0 
1.880952655861e-04 3.368219693775e-05 0.0 
2.958260375611e-03 7.976068647943e-03 0.0 
1.345558504374e-04 2.056052918767e-03 0.0 
2.953781921596e-03 2.744838773627e-03 0.0 
3.394440707789e-03 6.077084996815e-03 0.0 
1.643373497478e-03 5.749514031806e-04 0.0 
1.023226611489e-04 3.043936667181e-03 0.0 
7.440501683878e-05 1.973909115769e-03 0.0 
8.063835406904e-04 7.337155527250e-03 0.0 
7.256216231719e-04 7.808285037829e-03 0.0 
8.914935381158e-04 6.892187074687e-03 0.0 
1.425089973152e-03 3.511884028083e-03 0.0 
8.107587417311e-04 3.718441031354e-03 0.0 
2.795663992417e-04 3.148920956608e-03 0.0 
4.931145291858e-04 -5.435755235990e-04 0.0 
4.012810377539e-04 -5.382339640511e-04 0.0 
7.703826822644e-04 -2.527320191821e-04 0.0 
9.420666124081e-04 -2.222594222842e-04 0.0 
8.365144293182e-04 -1.990696734254e-04 0.0 
9.743992403043e-04 -1.817791326212e-04 0.0 
2.230883960272e-03 3.680719133301e-03 0.0 
1.981805499805e-03 3.390558113334e-03 0.0 
2.688807507184e-03 4.142798616242e-03 0.0 
2.079476348843e-03 7.376751547588e-04 0.0 
2.214488007452e-03 8.009852821002e-04 0.0 
2.406878213311e-03 1.018860764501e-03 0.0 
2.968246047242e-04 2.305355856848e-03 0.0 
1.950547205665e-04 1.692368322802e-03 0.0 
1.795084018805e-03 4.919897954881e-04 0.0 
1.872206642915e-03 7.149394837921e-04 0.0 
1.491673203350e-03 1.281040070721e-04 0.0 
3.838907589474e-04 1.952157367112e-03 0.0 
2.069163944436e-04 4.373966742474e-05 0.0 
3.075498794944e-04 5.240066206699e-05 0.0 
3.053858382693e-04 -4.940780359588e-04 0.0 
4.266560381101e-04 -3.919572182767e-04 0.0 
1.522956006749e-03 6.159476898952e-03 0.0 
1.089012534123e-03 5.275751961601e-03 0.0 
6.511496067258e-04 2.130473451618e-03 0.0 
8.444309988412e-04 2.600390332879e-03 0.0 
4.563371266791e-04 1.589852227126e-03 0.0 
1.576710164430e-04 -6.991237105145e-04 0.0 
2.522704044583e-03 2.276284698629e-03 0.0 
1.019109001895e-03 3.606553582039e-04 0.0 
1.255045696912e-03 4.783218709954e-04 0.0 
7.506834145915e-04 2.480172747786e-04 0.0 
1.919282023630e-03 1.434348293923e-03 0.0 
1.448375003488e-03 1.007526799712e-03 0.0 
1.432806254152e-03 1.152017495426e-03 0.0 
1.743648515644e-04 2.447592492300e-03 0.0 
5.607217006925e-05 2.372313118721e-03 0.0 
5.486961025250e-04 7.690273666979e-03 0.0 
-4.503636688764e-05 2.050019039207e-03 0.0 
4.734107229207e-04 8.168251994039e-03 0.0 
3.908273272689e-04 7.574741979930e-03 0.0 
4.101987356692e-04 8.642115360644e-03 0.0 
1.387754089808e-04 -7.393555012566e-04 0.0 
9.301308683018e-04 8.064719839996e-03 0.0 
1.027650091196e-03 7.483741080451e-03 0.0 
2.260974987700e-04 -3.972780863263e-04 0.0 
2.560878075766e-04 1.436890885012e-03 0.0 
2.178144248726e-04 -5.694532556799e-04 0.0 
2.447860743682e-04 -6.302420096253e-04 0.0 
6.158264321593e-04 1.489820093362e-04 0.0 
6.777362971065e-04 1.436712663603e-04 0.0 
4.515654492325e-04 1.097363469614e-04 0.0 
5.288265904464e-04 1.123767156032e-04 0.0 
7.114345853198e-04 1.259873863537e-04 0.0 
5.558072551005e-04 9.764344299395e-05 0.0 
6.511558558642e-04 8.346609314345e-03 0.0 
3.638750256639e-04 8.117554529291e-05 0.0 
4.133487432905e-04 7.642014369650e-05 0.0 
2.415072167503e-04 5.573173000956e-05 0.0 
2.355869512744e-03 1.016143889415e-02 0.0 
2.889601415421e-03 8.452428005322e-03 0.0 
2.625298158303e-03 9.571185774230e-03 0.0 
2.198577197135e-03 1.045764073023e-02 0.0 
1.034609671796e-03 1.309714893306e-03 0.0 
1.260179772662e-03 1.826986799208e-03 0.0 
1.908468854372e-04 -1.359049429656e-05 0.0 
2.191319853255e-04 -5.884639904774e-05 0.0 
3.236141235041e-04 8.097071036077e-03 0.0 
2.358302703361e-04 8.127659479090e-03 0.0 
2.541092097202e-04 7.216351190378e-03 0.0 
1.832506321209e-04 7.319135416935e-03 0.0 
1.952782281612e-04 6.426402704481e-03 0.0 
1.256683607628e-04 6.534989415306e-03 0.0 
1.468385796237e-04 5.644250509093e-03 0.0 
1.136823837498e-03 9.636994892913e-04 0.0 
1.876323887222e-03 9.357600528983e-03 0.0 
2.184055550681e-03 9.572210222482e-03 0.0 
1.174469905779e-03 6.365853035524e-04 0.0 
1.445185659941e-03 7.529034052784e-04 0.0 
2.652586151117e-03 9.632294959104e-03 0.0 
2.452915070092e-03 1.056389815012e-02 0.0 
6.570731674676e-04 1.868380096280e-04 0.0 
3.258657138068e-03 5.387278197423e-03 0.0 
1.931299797286e-04 9.068341279086e-04 0.0 
-5.186017525172e-04 3.961237995879e-03 0.0 
8.970618211972e-05 3.644464716365e-03 0.0 
3.353032880616e-03 5.791349474501e-03 0.0 
2.774572040465e-03 8.731390386732e-03 0.0 
2.938446714648e-03 8.725729091145e-03 0.0 
2.695837229349e-03 9.716695994725e-03 0.0 
1.891793346442e-03 6.635125497516e-04 0.0 
3.754839202374e-04 -2.787177578694e-04 0.0 
1.914537800924e-03 7.107686562971e-03 0.0 
2.145398540529e-04 5.550870616773e-03 0.0 
1.245832462120e-03 7.413377343502e-03 0.0 
1.002466293102e-04 -3.841428292077e-05 0.0 
3.266852494121e-03 4.540209092113e-03 0.0 
3.111526615699e-03 7.209694091124e-03 0.0 
2.410312666220e-03 6.694939163535e-03 0.0 
3.102726903901e-03 7.337669378663e-03 0.0 
2.197925352885e-03 6.736717824080e-03 0.0 
1.938574756112e-03 7.842529094576e-03 0.0 
2.087510550651e-03 8.258796876918e-03 0.0 
3.229395118013e-03 3.801103504300e-03 0.0 
2.718816716328e-03 9.764373318830e-03 0.0 
2.404376151235e-03 1.072902331062e-02 0.0 
2.676618968716e-03 6.754530736528e-03 0.0 
1.056925436072e-03 3.546011345766e-03 0.0 
1.054961677800e-03 3.080182607373e-03 0.0 
8.134739793861e-04 2.185407600305e-03 0.0 
1.031258436284e-03 2.630368315557e-03 0.0 
1.276295848818e-03 3.552781838483e-03 0.0 
1.266831447859e-03 3.083749946502e-03 0.0 
9.830043626827e-04 2.200223170079e-03 0.0 
1.233001960100e-03 2.627525550842e-03 0.0 
8.308195972397e-04 1.605780682842e-03 0.0 
1.159972062976e-03 2.166695300808e-03 0.0 
1.491526516943e-03 3.057637578413e-03 0.0 
1.446049498198e-03 2.615862874959e-03 0.0 
1.109876701291e-03 1.847918283463e-03 0.0 
1.759056035863e-03 3.510913837167e-03 0.0 
9.164256821419e-04 5.202733224986e-04 0.0 
3.430322992558e-03 5.244881000881e-03 0.0 
4.872879526359e-04 3.013011411306e-03 0.0 
4.239905347438e-04 4.352994032560e-03 0.0 
2.985515750584e-03 7.124282619294e-03 0.0 
4.017918280914e-04 7.679400046375e-04 0.0 
3.238629875262e-04 7.837620348253e-04 0.0 
2.889304443683e-03 4.366864189513e-03 0.0 
5.326386213161e-04 5.937672259953e-04 0.0 
2.237770324937e-03 7.676814246679e-03 0.0 
1.901897956262e-03 3.392151133075e-03 0.0 
5.758384724104e-04 5.303996132187e-04 0.0 
1.262911700790e-03 4.027649017324e-03 0.0 
1.473972598895e-03 4.512961382857e-03 0.0 
1.424678202206e-03 5.002900149104e-03 0.0 
2.441284028441e-04 7.468635088431e-04 0.0 
9.738220788261e-04 6.432058026871e-03 0.0 
5.574188980606e-04 3.590600927702e-04 0.0 
2.908382298654e-03 2.115270888247e-03 0.0 
3.070458439847e-03 2.554212091744e-03 0.0 
3.204163009444e-03 2.873798331974e-03 0.0 
1.511169693498e-03 3.545236446762e-03 0.0 
5.249617557039e-04 2.444911925366e-04 0.0 
9.489241767792e-04 4.341166350852e-04 0.0 
8.973518357974e-04 3.783728614337e-04 0.0 
1.331866990960e-03 5.951722500327e-04 0.0 
4.666314782086e-04 1.879763837236e-04 0.0 
4.278426218093e-04 6.497330301383e-04 0.0 
4.358135034331e-04 5.942571128768e-04 0.0 
1.673576515651e-03 7.088111903738e-04 0.0 
1.934149739607e-03 9.866653386935e-04 0.0 
2.114485934744e-03 9.779976912615e-04 0.0 
2.193325776081e-03 1.289736648492e-03 0.0 
1.976099782025e-03 1.316901115025e-03 0.0 
2.252292816233e-03 1.662650620507e-03 0.0 
2.442142304526e-03 1.610725292699e-03 0.0 
2.289849058321e-03 2.109176614003e-03 0.0 
1.644327478230e-03 2.585678969508e-03 0.0 
3.900159108514e-04 1.362506565997e-04 0.0 
1.744104517021e-03 3.829350223728e-04 0.0 
1.933539553213e-03 5.078093869356e-04 0.0 
1.996887589995e-03 5.177183150089e-04 0.0 
9.608382209559e-04 -2.454454191753e-04 0.0 
1.109249779198e-03 -1.518181676039e-04 0.0 
1.110631457821e-03 -9.314816367268e-05 0.0 
8.133399843054e-04 -3.319892231280e-04 0.0 
2.779654557340e-03 3.199016673615e-03 0.0 
3.596542308311e-04 1.175417015791e-04 0.0 
2.484197139861e-03 1.171160134723e-03 0.0 
1.240124339111e-03 -1.060863001061e-04 0.0 
1.266490312258e-03 9.068908682042e-03 0.0 
1.330836535600e-03 8.167162996302e-03 0.0 
1.470978060056e-03 8.102087247060e-03 0.0 
1.364554477879e-03 7.129249736486e-03 0.0 
1.172200824235e-03 8.077994300394e-03 0.0 
6.973841475744e-04 -2.053599883447e-04 0.0 
5.586928541486e-04 -2.026159934006e-04 0.0 
4.399177881065e-04 -2.623443232441e-04 0.0 
4.217268490987e-04 -1.925900327700e-04 0.0 
3.070067920645e-04 -2.459479988294e-04 0.0 
3.205515903841e-04 -3.169531854236e-04 0.0 
2.852112191209e-04 -1.767636762584e-04 0.0 
1.779832684102e-04 -2.315272254268e-04 0.0 
1.003248868490e-03 9.094935812578e-03 0.0 
-1.985723035579e-04 9.342036105110e-04 0.0 
1.671148197002e-04 7.292573448305e-04 0.0 
1.733275547909e-04 4.009990046899e-04 0.0 
4.495361417627e-04 5.502118472093e-04 0.0 
4.979662021932e-04 8.933579515062e-04 0.0 
8.062670650386e-04 7.028154849095e-04 0.0 
8.212895550493e-04 1.080144613449e-03 0.0 
1.552047661411e-04 1.140667882293e-03 0.0 
-7.519932734824e-05 2.755871385122e-04 0.0 
1.879764047191e-04 1.369831581859e-04 0.0 
-2.488043149589e-05 3.455104799590e-05 0.0 
1.895071514423e-04 -7.418010778878e-05 0.0 
4.436322958618e-04 2.090519057877e-05 0.0 
5.983226138290e-04 -3.766366332655e-04 0.0 
1.075409393428e-04 3.394626138927e-05 0.0 
1.192783203726e-04 -4.409347404001e-04 0.0 
2.278362617960e-04 -4.709969557494e-04 0.0 
2.140390949891e-04 -5.392823010219e-04 0.0 
3.403749588065e-04 -4.894557102477e-04 0.0 
2.286248468507e-04 -4.043135663732e-04 0.0 
1.024394337597e-04 -5.818656718527e-04 0.0 
1.944500991821e-04 -5.972794320509e-04 0.0 
5.402205584109e-05 -8.113010513020e-04 0.0 
6.714445033264e-05 -8.102943121405e-04 0.0 
2.957141200440e-05 -8.250564623040e-04 0.0 
6.991954648367e-05 -8.012959543036e-04 0.0 
1.130993843260e-04 -7.857946212262e-04 0.0 
9.813405908409e-05 -7.894740011885e-04 0.0 
1.265008268839e-04 -7.601200910245e-04 0.0 
8.516561798167e-05 -7.488882598917e-04 0.0 
1.512206403651e-04 -7.210271261709e-04 0.0 
1.986670176158e-04 -7.295735511245e-04 0.0 
9.151293621041e-05 -7.027038446196e-04 0.0 
4.637505155277e-05 4.349304871273e-03 0.0 
8.767349032672e-05 3.863978610490e-03 0.0 
3.156495169784e-04 9.127991708370e-05 0.0 
7.639042736904e-04 8.990861743545e-03 0.0 
5.157446400852e-05 -3.221009633210e-04 0.0 
6.903054718542e-05 9.781178638637e-04 0.0 
1.084829604938e-04 8.109216793139e-04 0.0 
8.604232292701e-05 7.853118599199e-04 0.0 
6.299438244004e-05 2.574835150174e-05 0.0 
1.020944059947e-04 3.345845760020e-05 0.0 
3.742374401584e-05 9.503442415511e-04 0.0 
8.488289485003e-04 -3.788781026902e-04 0.0 
7.597705624645e-04 1.789034699049e-03 0.0 
2.004696882328e-04 2.607528965145e-03 0.0 
1.820994046612e-03 4.161685870062e-03 0.0 
1.139496242094e-03 -7.412855959080e-05 0.0 
3.481199308191e-04 -7.174110303294e-05 0.0 
1.030424422858e-03 8.962635085465e-06 0.0 
4.080384668814e-04 3.919346685442e-05 0.0 
6.294025955340e-04 -8.274313007187e-05 0.0 
6.860378401013e-04 5.902017174641e-05 0.0 
8.645171680904e-04 3.330992550005e-04 0.0 
1.918488413659e-04 -7.380140862789e-04 0.0 
5.881465101952e-04 6.235391077444e-03 0.0 
3.734885524745e-04 6.569277714864e-03 0.0 
3.415125516267e-04 4.132943394802e-03 0.0 
5.709677451518e-04 -5.335254487683e-04 0.0 
4.518616952093e-04 -3.301963372814e-04 0.0 
4.501739372860e-04 -5.940411658019e-04 0.0 
1.029388433328e-03 1.059974371953e-03 0.0 
2.698245333570e-03 7.646944216346e-03 0.0 
1.855556941940e-03 3.707556579748e-04 0.0 
9.242012738472e-04 -3.089999261241e-04 0.0 
1.022715103008e-03 -2.664870457225e-04 0.0 
1.171422710933e-03 6.236516000455e-05 0.0 
3.429789665788e-03 5.479429937823e-03 0.0 
1.397591301196e-03 7.807357239593e-06 0.0 
1.233643813252e-03 2.158280139606e-04 0.0 
2.577387302608e-04 3.588004786051e-03 0.0 
1.006088125859e-04 -5.627533928682e-04 0.0 
1.254429577271e-03 2.724577460938e-04 0.0 
1.360289462094e-03 9.423190165792e-05 0.0 
8.370721010982e-04 5.881192316357e-03 0.0 
2.195672451155e-03 1.250528831456e-03 0.0 
9.002378283555e-04 4.334524638993e-04 0.0 
5.033333708738e-04 3.794085944037e-03 0.0 
5.104637360555e-04 2.080550509363e-03 0.0 
1.112024191287e-03 6.974401395379e-03 0.0 
3.433080199475e-04 -6.214912698481e-04 0.0 
6.243397012032e-04 7.259221691924e-03 0.0 
9.001965142977e-04 2.703844906458e-04 0.0 
1.038361007795e-03 4.012858787175e-03 0.0 
4.415231465371e-04 -5.995134939057e-04 0.0 
2.764248678758e-03 1.594209803528e-03 0.0 
3.224332816649e-03 6.446725724132e-03 0.0 
1.889589332571e-03 9.746990745328e-03 0.0 
2.076746270561e-04 2.206672375163e-03 0.0 
3.306597717241e-03 3.605398622394e-03 0.0 
1.729894828914e-03 7.923664910145e-04 0.0 
2.526189265933e-03 1.305545929164e-03 0.0 
3.710325112572e-04 -6.017846176164e-04 0.0 
8.796393934575e-04 1.616769922977e-04 0.0 
3.157498742456e-03 2.652153634687e-03 0.0 
4.021733622433e-04 2.816854226794e-03 0.0 
2.426486373204e-03 3.417675658156e-03 0.0 
2.881746998678e-03 2.274584260686e-03 0.0 
6.775282814941e-04 3.434614352355e-03 0.0 
2.166759941567e-03 6.882291321259e-04 0.0 
2.067697744393e-03 1.249159219581e-03 0.0 
2.837447201276e-03 7.841842552241e-03 0.0 
2.887985888031e-03 4.877048828483e-03 0.0 
2.225553096059e-03 4.731274312703e-03 0.0 
3.202348276762e-03 4.388998481791e-03 0.0 
2.384880946076e-04 -1.159518322316e-04 0.0 
1.061923680432e-03 2.097738451184e-04 0.0 
1.298921946202e-03 1.814711239080e-03 0.0 
3.287335089715e-03 6.695519641349e-03 0.0 
1.048163646484e-03 5.949395411614e-03 0.0 
1.847626598525e-03 1.876638767438e-03 0.0 
2.810706546743e-04 1.843767988116e-03 0.0 
3.209031589944e-03 7.213118944160e-03 0.0 
8.750089716970e-04 1.247073834119e-04 0.0 
5.288074042651e-04 2.490651061021e-03 0.0 
1.255500944553e-03 -5.173016118823e-05 0.0 
6.716146474744e-05 -7.436345931770e-04 0.0 
1.294529246201e-03 4.325909545464e-03 0.0 
2.572364033180e-03 2.530505142499e-03 0.0 
3.315211063353e-03 3.423344422335e-03 0.0 
1.240436313409e-03 -9.148704699352e-07 0.0 
5.765759214856e-04 1.606540031623e-03 0.0 
7.116263827649e-04 9.610068932607e-05 0.0 
1.669521697035e-03 5.224321049729e-04 0.0 
1.698820430659e-04 6.408097522558e-03 0.0 
2.071002286807e-03 9.192074883763e-03 0.0 
5.611606577091e-04 7.562624502808e-05 0.0 
2.591277848394e-03 1.281693564655e-03 0.0 
1.838479205517e-03 9.963613687326e-04 0.0 
1.936662006859e-04 -2.971346027689e-04 0.0 
1.071812361672e-03 1.000783780286e-03 0.0 
2.428269898487e-03 1.036476296677e-02 0.0 
4.250499850975e-04 6.139779032765e-05 0.0 
1.876929251198e-03 7.292770896733e-04 0.0 
3.106556906422e-03 4.898971877763e-03 0.0 
2.048787570292e-04 8.998359648707e-03 0.0 
2.689351790431e-04 5.822895605664e-05 0.0 
1.575752617411e-03 6.035253981605e-04 0.0 
3.021833746540e-03 3.789726169187e-03 0.0 
2.474186143517e-03 1.092814343434e-03 0.0 
2.067340410932e-03 1.050901863732e-02 0.0 
1.084202226788e-03 -3.919019206380e-05 0.0 
2.691547283240e-03 4.707636403462e-03 0.0 
2.084557006174e-04 7.345483976504e-04 0.0 
1.495137423695e-03 6.226834220045e-04 0.0 
1.622518007837e-03 5.498479551575e-03 0.0 
9.640971903710e-04 -1.207189552605e-04 0.0 
2.799522738743e-03 2.295000930495e-03 0.0 
1.550049298438e-04 -7.625511643113e-04 0.0 
2.277627990823e-03 9.881530982836e-03 0.0 
8.169864877992e-04 -1.360945819759e-04 0.0 
2.516612674952e-03 2.031369286532e-03 0.0 
2.299182029014e-03 8.560630405317e-04 0.0 
1.202344407462e-03 7.544776785818e-04 0.0 
6.719725132477e-04 -1.411532877711e-04 0.0 
2.674399155241e-03 1.940315395557e-03 0.0 
5.300006227359e-04 -1.381391290514e-04 0.0 
2.174684820073e-03 1.110540841698e-02 0.0 
1.684939058139e-03 4.975360729090e-03 0.0 
3.872881109455e-04 -1.292857942233e-04 0.0 
2.468880135929e-03 3.936970748270e-03 0.0 
2.439066561180e-04 -6.840519415679e-04 0.0 
2.945598574242e-03 3.251710553499e-03 0.0 
1.477570061172e-04 1.878778954019e-05 0.0 
1.399855174916e-03 3.549959838287e-06 0.0 
2.119671289661e-03 6.638581546970e-04 0.0 
1.503132901005e-03 4.023893798682e-03 0.0 
2.167260258722e-03 1.152720644698e-02 0.0 
2.021768081944e-03 6.286583094369e-04 0.0 
2.182417566417e-03 3.186226147172e-03 0.0 
2.832897582011e-03 2.761708088635e-03 0.0 
3.204444020401e-03 3.049214473506e-03 0.0 
1.871636672657e-03 5.815951164753e-04 0.0 
2.460847135466e-03 1.062549846257e-02 0.0 
8.932430564544e-04 -3.160499346384e-04 0.0 
7.568143174333e-04 -3.497226924176e-04 0.0 
2.567594897040e-03 1.544028048701e-03 0.0 
1.918246883568e-03 2.904550624502e-03 0.0 
1.229973881875e-04 -7.712879219678e-04 0.0 
1.755720548433e-03 3.977560768618e-03 0.0 
5.808779725201e-04 -2.729005817232e-04 0.0 
2.348655557637e-03 1.256669062274e-03 0.0 
2.316938973325e-03 1.852947991065e-03 0.0 
5.674208844341e-05 6.282827383597e-03 0.0 
2.239388954872e-03 9.600616076242e-04 0.0 
7.682690587231e-05 -6.973500204655e-04 0.0 
2.020796065532e-03 7.202834419602e-04 0.0 
3.031895030088e-03 2.670767992289e-03 0.0 
1.914319865582e-03 5.072950563186e-04 0.0 
1.703607172991e-03 3.103724518363e-04 0.0 
1.376609346342e-04 1.678049244239e-03 0.0 
1.599951404808e-03 1.635592734286e-04 0.0 
1.867170335733e-05 7.860509083798e-04 0.0 
4.457613927927e-05 2.719203282508e-05 0.0 
7.607300762805e-05 8.236803068645e-03 0.0 
1.977429348625e-03 1.182805234934e-02 0.0 
-4.239578838289e-04 2.514222389330e-03 0.0 
2.398873793863e-03 1.042630602117e-02 0.0 
1.286066775825e-03 -3.524934468730e-05 0.0 
2.008067203049e-03 3.882386810733e-03 0.0 
1.582127413790e-04 8.196233824729e-03 0.0 
1.085530041565e-03 -1.838262992821e-04 0.0 
8.006237694135e-04 1.354861205845e-03 0.0 
5.561355466062e-04 4.248777791951e-04 0.0 
1.001469796612e-04 4.784500689526e-03 0.0 
1.620182608477e-03 7.969017158319e-04 0.0 
2.675683890506e-03 2.304183755801e-03 0.0 
2.788136674918e-05 2.468519847113e-03 0.0 
4.825174686284e-04 9.119806149617e-03 0.0 
1.920942470368e-04 -2.490851071586e-04 0.0 
1.143796412122e-04 -9.136164505952e-05 0.0 
1.671610050868e-03 1.166683506413e-02 0.0 
2.049247392410e-03 9.998450476065e-03 0.0 
1.583848924956e-03 8.501132370762e-03 0.0 
2.860109470388e-04 -6.007717925859e-04 0.0 
4.194594202125e-04 2.638286195235e-04 0.0 
1.375482785329e-03 1.080334508416e-02 0.0 
1.018794215897e-03 5.047805666987e-04 0.0 
8.229189686274e-04 8.266722686493e-03 0.0 
2.155410117269e-03 1.812242013351e-03 0.0 
7.488803449639e-04 9.033390796570e-03 0.0 
3.626905473475e-04 1.599115694716e-03 0.0 
1.129324500991e-03 8.090734085219e-04 0.0 
2.215372922698e-04 5.817118778983e-05 0.0 
1.690945393637e-03 1.311718268219e-03 0.0 
7.988717143322e-04 6.293422103559e-03 0.0 
1.239845184764e-03 7.368698133645e-03 0.0 
9.868631952385e-04 1.115838142753e-03 0.0 
1.344991528359e-04 4.004811400258e-03 0.0 
1.623135544818e-04 4.261003901180e-05 0.0 
1.055229207548e-03 8.363167200402e-03 0.0 
8.240313600648e-05 1.562494771989e-03 0.0 
1.008922862248e-03 1.447184268126e-03 0.0 
4.178282078493e-05 1.515592400579e-03 0.0 
1.717858029134e-03 3.030324060468e-03 0.0 
3.210542578976e-04 7.016276543453e-03 0.0 
1.513785225246e-03 7.330157343530e-03 0.0 
1.227365434757e-04 3.792258530505e-05 0.0 
6.835810532433e-04 1.442176324788e-03 0.0 
4.355810674848e-04 5.224781394342e-03 0.0 
1.577966550050e-04 4.887935703959e-03 0.0 
4.588371450404e-04 -4.674025474704e-04 0.0 
5.397213337881e-05 1.602904893592e-03 0.0 
5.474945000547e-04 1.465346513001e-04 0.0 
1.376814456131e-03 2.227415387424e-03 0.0 
2.046502937833e-04 4.773463660535e-05 0.0 
3.037172808371e-05 -8.089019254884e-04 0.0 
1.794584012541e-04 -5.006945181582e-04 0.0 
6.096512400665e-04 1.878416244127e-04 0.0 
8.433163652729e-04 1.159924800426e-03 0.0 
1.124925196896e-03 9.811432207020e-04 0.0 
1.178556107865e-04 6.318231685390e-04 0.0 
-6.343721613535e-05 4.427811352328e-03 0.0 
6.673731812677e-04 9.259216805170e-03 0.0 
1.622145159318e-04 -6.759146054436e-04 0.0 
1.294149407857e-04 3.562341719920e-05 0.0 
2.054984801511e-04 1.495840081244e-03 0.0 
3.213406916378e-04 -4.282940550810e-04 0.0 
1.539669474774e-03 8.877260593785e-03 0.0 
1.728367961590e-04 -6.536425110745e-04 0.0 
1.453943650541e-03 1.371343043366e-03 0.0 
3.578735449616e-04 -1.516462540497e-04 0.0 
1.375409316968e-04 1.411332178852e-03 0.0 
6.996612426630e-04 2.508847305977e-04 0.0 
4.512017605882e-04 1.369523941799e-03 0.0 
4.166652141322e-04 2.264373902822e-04 0.0 
-3.015372000624e-05 2.956337345759e-03 0.0 
9.748777917376e-04 7.467236463425e-04 0.0 
1.172894065227e-03 4.799296950236e-04 0.0 
3.596981843408e-04 9.139454241071e-03 0.0 
5.816085332523e-04 1.441426595943e-03 0.0 
2.966505277824e-04 -5.505732436551e-04 0.0 
2.672286513437e-04 -7.012436138525e-04 0.0 
7.859977056811e-06 6.960241640411e-04 0.0 
1.527659630029e-05 -8.359824656335e-04 0.0 
6.011808915639e-05 9.103433578890e-03 0.0 
1.731438155321e-05 2.083800700989e-05 0.0 
1.624193709231e-04 -7.601882881157e-04 0.0 
1.241846526696e-04 7.511605318743e-03 0.0 
7.636924623761e-04 1.156821051344e-03 0.0 
8.518680095164e-05 -2.891576188710e-04 0.0 
6.502966496150e-05 3.098836835839e-03 0.0 
6.483275899211e-04 4.080743705399e-04 0.0 
-4.411583283356e-04 1.865947126315e-03 0.0 
9.703317745024e-05 5.790144651993e-03 0.0 
1.010684071225e-03 6.635705231885e-04 0.0 
3.408508636646e-04 1.326414544773e-03 0.0 
2.546680676239e-04 6.468358646158e-03 0.0 
8.629076683037e-04 4.575083890406e-03 0.0 
1.079071850065e-03 1.641860531514e-03 0.0 
3.419433177681e-04 -3.703533125669e-04 0.0 
1.349848152675e-03 1.525683731476e-03 0.0 
1.299327468377e-03 6.260469475163e-04 0.0 
-4.539255408589e-04 4.582562315089e-03 0.0 
7.434470163577e-05 -2.181609622645e-04 0.0 
1.649452871551e-04 -6.225761316771e-04 0.0 
3.685123886594e-04 8.751227864516e-05 0.0 
2.269785069985e-04 -3.476190884599e-04 0.0 
-4.749704571858e-04 1.210021970855e-02 0.0 
6.785475831826e-05 1.737080981933e-02 0.0 
5.979428973440e-04 1.283208748716e-02 0.0 
5.672794555526e-05 1.635509129574e-02 0.0 
1.239084994984e-03 1.304404588803e-02 0.0 
5.181577754146e-05 1.534662984087e-02 0.0 
1.620616979755e-03 1.294238662304e-02 0.0 
4.743504784361e-05 1.434263007346e-02 0.0 
1.807028745786e-03 1.258099501258e-02 0.0 
4.521920779293e-05 1.334073020802e-02 0.0 
1.841587335942e-03 1.201367999282e-02 0.0 
4.344055885854e-05 1.233947055502e-02 0.0 
1.770539768999e-03 1.127257525019e-02 0.0 
4.229300488168e-05 1.133828815323e-02 0.0 
1.626407517560e-03 1.042531620832e-02 0.0 
4.116818683004e-05 1.033661995289e-02 0.0 

VECTORS node_materi_displacement float
0.0 6.733216143190e-02 0.0 
0.0 8.493624804130e-02 0.0 
0.0 0.0 0.0 
0.0 0.0 0.0 
0.0 6.820834888433e-02 0.0 
0.0 6.837249632707e-02 0.0 
0.0 6.786225010675e-02 0.0 
0.0 6.667257202067e-02 0.0 
0.0 6.482289558041e-02 0.0 
0.0 6.246169309046e-02 0.0 
0.0 5.967602873270e-02 0.0 
0.0 5.653230618205e-02 0.0 
0.0 5.309667792594e-02 0.0 
0.0 4.941250239715e-02 0.0 
0.0 4.549590356582e-02 0.0 
0.0 4.136727491251e-02 0.0 
0.0 3.702376273649e-02 0.0 
0.0 3.246148114418e-02 0.0 
0.0 2.766215415519e-02 0.0 
0.0 2.261629485055e-02 0.0 
0.0 1.732281285618e-02 0.0 
0.0 1.178041529701e-02 0.0 
0.0 6.005493708757e-03 0.0 
0.0 0.0 0.0 
0.0 0.0 0.0 
0.0 0.0 0.0 
0.0 0.0 0.0 
0.0 0.0 0.0 
0.0 0.0 0.0 
0.0 0.0 0.0 
0.0 0.0 0.0 
0.0 0.0 0.0 
0.0 0.0 0.0 
0.0 0.0 0.0 
0.0 0.0 0.0 
0.0 0.0 0.0 
0.0 0.0 0.0 
0.0 0.0 0.0 
0.0 0.0 0.0 
0.0 0.0 0.0 
0.0 0.0 0.0 
0.0 0.0 0.0 
0.0 0.0 0.0 
0.0 0.0 0.0 
0.0 0.0 0.0 
0.0 0.0 0.0 
0.0 0.0 0.0 
0.0 0.0 0.0 
0.0 0.0 0.0 
0.0 0.0 0.0 
0.0 0.0 0.0 
0.0 0.0 0.0 
0.0 0.0 0.0 
0.0 0.0 0.0 
0.0 0.0 0.0 
0.0 0.0 0.0 
0.0 0.0 0.0 
0.0 0.0 0.0 
0.0 0.0 0.0 
0.0 0.0 0.0 
0.0 0.0 0.0 
0.0 0.0 0.0 
0.0 0.0 0.0 
0.0 0.0 0.0 
0.0 0.0 0.0 
0.0 0.0 0.0 
0.0 0.0 0.0 
0.0 0.0 0.0 
0.0 0.0 0.0 
0.0 0.0 0.0 
0.0 0.0 0.0 
0.0 0.0 0.0 
0.0 7.805980648690e-02 0.0 
0.0 7.077739011001e-02 0.0 
0.0 6.310158273734e-02 0.0 
0.0 5.505802911599e-02 0.0 
0.0 4.665895588627e-02 0.0 
0.0 3.792662172018e-02 0.0 
0.0 2.887825719519e-02 0.0 
0.0 1.953006629957e-02 0.0 
0.0 9.902742311698e-03 0.0 
-5.787281180924e-03 -1.400531814903e-02 0.0 
2.130741562843e-02 7.645139636746e-02 0.0 
1.245462985275e-03 1.199939120365e-02 0.0 
7.221775290367e-03 3.232558207059e-02 0.0 
1.337090941050e-02 4.744690657094e-02 0.0 
1.831853455815e-02 5.898129595470e-02 0.0 
2.198113052534e-02 6.797497258034e-02 0.0 
2.426965629321e-02 7.443008213247e-02 0.0 
2.518304362430e-02 7.831073634993e-02 0.0 
2.485683745120e-02 7.976114695114e-02 0.0 
2.349969300773e-02 7.903490013535e-02 0.0 
0.0 1.236782496144e-01 0.0 
0.0 1.204851915274e-01 0.0 
0.0 1.167919599920e-01 0.0 
0.0 1.126599903415e-01 0.0 
0.0 1.080172057505e-01 0.0 
0.0 1.029486991948e-01 0.0 
0.0 9.737699960733e-02 0.0 
0.0 9.139153623721e-02 0.0 
1.193312325545e-03 8.492552827642e-02 0.0 
2.378360427714e-03 8.488847048366e-02 0.0 
3.584095902242e-03 8.482094817637e-02 0.0 
4.812658831913e-03 8.471285055960e-02 0.0 
6.069167507221e-03 8.456608795715e-02 0.0 
7.355214984762e-03 8.434687318310e-02 0.0 
8.686310462100e-03 8.406759181099e-02 0.0 
1.006031030904e-02 8.368707945200e-02 0.0 
1.149404304678e-02 8.321225640344e-02 0.0 
1.298919265358e-02 8.259442801430e-02 0.0 
1.454328719096e-02 8.181970222769e-02 0.0 
1.616424024739e-02 8.085087483040e-02 0.0 
1.783832427432e-02 7.965790429326e-02 0.0 
1.955263621161e-02 7.819924479263e-02 0.0 
-2.668003627900e-03 -2.773113445377e-02 0.0 
1.927479226897e-03 -3.444601662273e-02 0.0 
6.948318828216e-03 -3.615819683966e-02 0.0 
1.244216824870e-02 -3.249268350617e-02 0.0 
1.649103649056e-02 -2.099945244279e-02 0.0 
1.877288564996e-02 -6.720801194067e-03 0.0 
1.947069183320e-02 4.376061211036e-03 0.0 
1.949677219261e-02 1.367975737725e-02 0.0 
1.939103920705e-02 2.189689175700e-02 0.0 
1.904931765768e-02 2.945513173000e-02 0.0 
1.838324645004e-02 3.636303234451e-02 0.0 
1.744953712329e-02 4.255715558148e-02 0.0 
1.618275106184e-02 4.820372496746e-02 0.0 
1.450584006798e-02 5.322908379455e-02 0.0 
1.252364808706e-02 5.753621989349e-02 0.0 
1.032490050136e-02 6.103101187548e-02 0.0 
7.941970508246e-03 6.380008634953e-02 0.0 
5.408489893890e-03 6.581894302086e-02 0.0 
2.717390196836e-03 6.696659405527e-02 0.0 
5.359441664900e-03 4.503509589663e-02 0.0 
4.934294685771e-03 5.554811985720e-02 0.0 
4.660109287116e-03 6.496183660299e-02 0.0 
4.525252290304e-03 7.344549379206e-02 0.0 
4.482425520078e-03 8.111677008747e-02 0.0 
4.503520017559e-03 8.799137025097e-02 0.0 
4.678998907952e-03 9.407403039135e-02 0.0 
4.935479142874e-03 9.938908151388e-02 0.0 
5.224551378848e-03 1.039580254225e-01 0.0 
5.506473963326e-03 1.078223952504e-01 0.0 
5.752904694247e-03 1.110594276508e-01 0.0 
5.939830343258e-03 1.137351765631e-01 0.0 
6.048949472259e-03 1.159210929499e-01 0.0 
6.069734103415e-03 1.176874300338e-01 0.0 
5.996624074482e-03 1.190998011249e-01 0.0 
5.830163365410e-03 1.202184236132e-01 0.0 
5.575314164430e-03 1.210959548279e-01 0.0 
5.240714827202e-03 1.217801641056e-01 0.0 
4.835219600343e-03 1.223069624715e-01 0.0 
4.367030229337e-03 1.227080655419e-01 0.0 
3.844125660549e-03 1.230085886945e-01 0.0 
3.277064583208e-03 1.232284512977e-01 0.0 
2.675342428649e-03 1.233853161302e-01 0.0 
2.045597793378e-03 1.234955264556e-01 0.0 
1.393925866856e-03 1.235790042309e-01 0.0 
7.200149236041e-04 1.236831922765e-01 0.0 
1.245293470881e-02 5.734860971563e-02 0.0 
1.181321200982e-02 6.616471635529e-02 0.0 
1.127290085767e-02 7.413918727875e-02 0.0 
1.081326940814e-02 8.131849721128e-02 0.0 
1.042737009285e-02 8.775009536938e-02 0.0 
1.009257045337e-02 9.341101393343e-02 0.0 
9.786095846895e-03 9.832968638929e-02 0.0 
9.492643002838e-03 1.025391790501e-01 0.0 
9.218321901768e-03 1.060959102237e-01 0.0 
8.939495454173e-03 1.090653737979e-01 0.0 
8.642235827811e-03 1.115115225846e-01 0.0 
8.316784239818e-03 1.135044792605e-01 0.0 
7.953880413658e-03 1.151090148276e-01 0.0 
7.548676881132e-03 1.163885494165e-01 0.0 
7.099611881931e-03 1.173998266017e-01 0.0 
6.607593726593e-03 1.181922111023e-01 0.0 
6.074224817419e-03 1.188076006669e-01 0.0 
5.502633176917e-03 1.192797420922e-01 0.0 
4.896446136291e-03 1.196373889987e-01 0.0 
4.260125367228e-03 1.199044480892e-01 0.0 
3.598878654694e-03 1.200998089414e-01 0.0 
2.917984354048e-03 1.202393593098e-01 0.0 
2.222457226725e-03 1.203375352817e-01 0.0 
1.514444927213e-03 1.204060107615e-01 0.0 
7.649690003437e-04 1.204344459988e-01 0.0 
8.719616548900e-04 1.168161430425e-01 0.0 
1.694695528057e-03 1.167543841168e-01 0.0 
2.508702924926e-03 1.166888512707e-01 0.0 
3.315680675530e-03 1.165922481653e-01 0.0 
4.115460121365e-03 1.164523946262e-01 0.0 
4.906462183790e-03 1.162549401049e-01 0.0 
5.686932325753e-03 1.159826841972e-01 0.0 
6.455365395950e-03 1.156146024918e-01 0.0 
7.210713813929e-03 1.151244689980e-01 0.0 
7.952790549994e-03 1.144806864602e-01 0.0 
8.682557452123e-03 1.136455030182e-01 0.0 
9.401695868423e-03 1.125736056400e-01 0.0 
1.011280098692e-02 1.112111107257e-01 0.0 
1.082008854584e-02 1.094950203435e-01 0.0 
1.153110362863e-02 1.073534301212e-01 0.0 
1.225497049081e-02 1.047217546162e-01 0.0 
1.298020395662e-02 1.015313546217e-01 0.0 
1.370867906695e-02 9.771231958279e-02 0.0 
1.444412034226e-02 9.320650134250e-02 0.0 
1.518526056803e-02 8.795876140863e-02 0.0 
1.593678778367e-02 8.193203290491e-02 0.0 
1.669934666309e-02 7.512069434970e-02 0.0 
1.746082968880e-02 6.750654853048e-02 0.0 
2.102098305520e-02 7.494017596345e-02 0.0 
2.007090896778e-02 8.111993585884e-02 0.0 
1.905945649318e-02 8.655518313983e-02 0.0 
1.802410192487e-02 9.128944700266e-02 0.0 
1.697791820817e-02 9.535145438467e-02 0.0 
1.593028805278e-02 9.879449887314e-02 0.0 
1.488848512581e-02 1.016749873712e-01 0.0 
1.385525059771e-02 1.040575473564e-01 0.0 
1.283587737894e-02 1.059987202447e-01 0.0 
1.184672590150e-02 1.075556369595e-01 0.0 
1.088201847089e-02 1.087949310953e-01 0.0 
9.937014349865e-03 1.097729865613e-01 0.0 
9.007458100021e-03 1.105369992967e-01 0.0 
8.089585421796e-03 1.111268384549e-01 0.0 
7.180273519530e-03 1.115764466491e-01 0.0 
6.277539415634e-03 1.119148445718e-01 0.0 
5.380119679238e-03 1.121657792984e-01 0.0 
4.487023441211e-03 1.123481269988e-01 0.0 
3.597773220163e-03 1.124776068175e-01 0.0 
2.711994261427e-03 1.125662252324e-01 0.0 
1.828045993835e-03 1.126202663820e-01 0.0 
9.186671804255e-04 1.126155861776e-01 0.0 
1.008384886970e-03 1.080482370329e-01 0.0 
2.007776032230e-03 1.080033975810e-01 0.0 
3.009034118962e-03 1.079457462981e-01 0.0 
4.015775149736e-03 1.078527466827e-01 0.0 
5.032638803339e-03 1.077153558220e-01 0.0 
6.063590228439e-03 1.075207822126e-01 0.0 
7.111765225992e-03 1.072519331492e-01 0.0 
8.180061437942e-03 1.068890732443e-01 0.0 
9.271879214016e-03 1.064058693438e-01 0.0 
1.039143726752e-02 1.057697887909e-01 0.0 
1.154353132123e-02 1.049443578639e-01 0.0 
1.273337450774e-02 1.038869326942e-01 0.0 
1.396664213924e-02 1.025469108153e-01 0.0 
1.524920920126e-02 1.008618851726e-01 0.0 
1.655553019900e-02 9.877195966083e-02 0.0 
1.787654242437e-02 9.621794317738e-02 0.0 
1.920407372506e-02 9.313902939988e-02 0.0 
2.052693762256e-02 8.946980134568e-02 0.0 
2.182702590738e-02 8.517108062595e-02 0.0 
2.305883788344e-02 8.017306989927e-02 0.0 
2.378121098936e-02 8.268564591581e-02 0.0 
2.236683032917e-02 8.645265049713e-02 0.0 
2.089671129017e-02 8.964758246330e-02 0.0 
1.941653992868e-02 9.234883708561e-02 0.0 
1.794009746456e-02 9.459199415394e-02 0.0 
1.647655439774e-02 9.643515868058e-02 0.0 
1.505097158196e-02 9.793101884037e-02 0.0 
1.368035881163e-02 9.913211656075e-02 0.0 
1.236113602654e-02 1.000867168739e-01 0.0 
1.108895652069e-02 1.008369909257e-01 0.0 
9.858550670610e-03 1.014182832578e-01 0.0 
8.666812098148e-03 1.018628641086e-01 0.0 
7.509485795339e-03 1.022003256826e-01 0.0 
6.380639661494e-03 1.024529416826e-01 0.0 
5.279612561412e-03 1.026381825714e-01 0.0 
4.201238165877e-03 1.027698423051e-01 0.0 
3.139011150096e-03 1.028584469464e-01 0.0 
2.087318919540e-03 1.029104339776e-01 0.0 
1.042855706616e-03 1.029064435648e-01 0.0 
1.125020152326e-03 9.740108519056e-02 0.0 
2.254920530384e-03 9.735023515395e-02 0.0 
3.394960002663e-03 9.729005764898e-02 0.0 
4.551713101262e-03 9.719201207999e-02 0.0 
5.730658040468e-03 9.704657935590e-02 0.0 
6.939983696709e-03 9.684147693757e-02 0.0 
8.185265548855e-03 9.656401145454e-02 0.0 
9.475310729634e-03 9.619365779538e-02 0.0 
1.081780699073e-02 9.570793717228e-02 0.0 
1.220981886933e-02 9.507648060277e-02 0.0 
1.365420374887e-02 9.426167313717e-02 0.0 
1.515518398063e-02 9.322903616848e-02 0.0 
1.671552567072e-02 9.193380817463e-02 0.0 
1.833390700385e-02 9.033391243664e-02 0.0 
1.998085968738e-02 8.836941777960e-02 0.0 
2.162817224457e-02 8.599968888690e-02 0.0 
2.324175106085e-02 8.314423306227e-02 0.0 
2.182165522539e-02 8.144849531606e-02 0.0 
2.016501147207e-02 8.346219819785e-02 0.0 
1.849207907265e-02 8.511940880008e-02 0.0 
1.686408238023e-02 8.649842835264e-02 0.0 
1.528752203518e-02 8.762192224950e-02 0.0 
1.376662775994e-02 8.852543557866e-02 0.0 
1.229682572956e-02 8.924609537532e-02 0.0 
1.089160639401e-02 8.981254835055e-02 0.0 
9.541053186880e-03 9.025353053979e-02 0.0 
8.243303087391e-03 9.059819025279e-02 0.0 
6.987237481104e-03 9.085614757765e-02 0.0 
5.769847787615e-03 9.105216086082e-02 0.0 
4.580311994516e-03 9.118892792418e-02 0.0 
3.415712606244e-03 9.128415215156e-02 0.0 
2.270105807591e-03 9.134038867201e-02 0.0 
1.131539870222e-03 9.134415210162e-02 0.0 
-1.960658084388e-03 4.267003773661e-04 0.0 
4.464955986100e-03 2.264555537039e-02 0.0 
1.039690075442e-02 4.033722687212e-02 0.0 
1.600435836638e-02 5.353939199619e-02 0.0 
2.033009552241e-02 6.378956801243e-02 0.0 
2.330244257893e-02 7.152205056037e-02 0.0 
2.488668667181e-02 7.668129347710e-02 0.0 
2.515337216680e-02 7.932437343438e-02 0.0 
2.429039637238e-02 7.964940705534e-02 0.0 
2.249093380044e-02 7.795624314647e-02 0.0 
1.174122183835e-02 2.130817931664e-02 0.0 
1.300977988043e-03 3.500252684614e-03 0.0 
1.296397393380e-02 2.560634064770e-02 0.0 
8.159869721256e-03 -2.565107113358e-02 0.0 
-7.978613218787e-04 3.816210597544e-03 0.0 
2.126339727363e-02 5.127408610898e-02 0.0 
-1.407921526697e-03 4.720306629865e-02 0.0 
3.258155663805e-03 3.995888564641e-03 0.0 
2.645959582329e-02 6.776040483657e-02 0.0 
4.431192692774e-03 4.822830019994e-03 0.0 
2.669372991077e-02 7.459211335310e-02 0.0 
-1.242856191984e-03 4.135959075818e-03 0.0 
1.132942673638e-02 5.169657408724e-02 0.0 
4.746491090350e-03 6.045386348741e-03 0.0 
2.274978337201e-02 7.225290268828e-02 0.0 
-1.024415702663e-03 6.075702818309e-02 0.0 
-1.255249104859e-03 3.555610783949e-02 0.0 
4.536049509159e-03 7.115238248354e-03 0.0 
3.382621534050e-03 7.573155895530e-03 0.0 
1.139124041944e-03 8.394851664302e-03 0.0 
2.011654619843e-03 8.944349424037e-03 0.0 
2.542894827907e-03 7.774024799717e-03 0.0 
1.856614150685e-02 7.314652881625e-02 0.0 
1.226058492689e-02 7.674886767313e-02 0.0 
8.039819008640e-03 7.785574334013e-02 0.0 
7.841642012264e-04 5.076641945672e-02 0.0 
-1.057998980877e-03 4.920232531934e-03 0.0 
4.154290270178e-03 -2.839021799819e-02 0.0 
6.871416775051e-03 6.315933633349e-02 0.0 
-8.007277529271e-04 2.034427231920e-02 0.0 
4.123446908031e-03 7.888017326877e-02 0.0 
2.119643547021e-04 6.704102734021e-02 0.0 
4.473230050711e-03 8.345851124778e-03 0.0 
3.668631686204e-03 4.028106537386e-03 0.0 
4.653315332197e-03 5.351596463819e-03 0.0 
2.516060430962e-03 3.902001761028e-03 0.0 
2.934897433936e-04 3.336834522909e-03 0.0 
1.073229519528e-02 -1.155008622731e-03 0.0 
1.532887203830e-02 7.567485975717e-02 0.0 
-1.397344441112e-03 4.718091535937e-03 0.0 
5.894110798881e-04 3.382149930708e-02 0.0 
1.280190664159e-02 3.963620008774e-02 0.0 
-1.376261735217e-03 5.459988894778e-02 0.0 
5.805829469740e-04 6.870914303436e-03 0.0 
2.454668334071e-02 6.022122412802e-02 0.0 
1.692087390124e-02 3.839555170003e-02 0.0 
2.718243168230e-02 7.238392844920e-02 0.0 
2.514962302364e-02 7.443577711950e-02 0.0 
5.486561702889e-03 2.164103557910e-04 0.0 
9.494737206994e-04 6.606281524395e-02 0.0 
-5.243945106919e-04 4.049536656742e-03 0.0 
3.197277933457e-03 6.721589373727e-02 0.0 
3.240750115397e-04 1.546537286567e-02 0.0 
2.155723088960e-02 7.017947778488e-02 0.0 
2.256332111105e-02 6.617727716773e-02 0.0 
2.068227853031e-02 6.479804597599e-02 0.0 
2.176659867007e-02 5.999769417388e-02 0.0 
1.995839273966e-02 5.762449245482e-02 0.0 
2.063113333058e-02 5.336433757402e-02 0.0 
2.255203336872e-02 5.553439424570e-02 0.0 
2.109832121003e-02 4.904989147626e-02 0.0 
2.309547847587e-02 5.108927694354e-02 0.0 
1.868160695523e-02 5.070267508104e-02 0.0 
2.131347523620e-02 4.472228674161e-02 0.0 
2.336283230644e-02 4.662583639625e-02 0.0 
2.126022489766e-02 4.042946247248e-02 0.0 
2.332468444196e-02 4.219304715463e-02 0.0 
2.535433606993e-02 4.801963657981e-02 0.0 
2.531316302916e-02 4.344211389567e-02 0.0 
2.721184423042e-02 4.883570987477e-02 0.0 
2.717230350199e-02 4.408140766934e-02 0.0 
2.493221532054e-02 3.897847735795e-02 0.0 
2.674410804836e-02 3.947650941741e-02 0.0 
2.878354614944e-02 4.407156274259e-02 0.0 
2.830869207457e-02 3.930983391567e-02 0.0 
3.011207317511e-02 4.336824724601e-02 0.0 
2.955956090052e-02 3.843553853009e-02 0.0 
3.112241129848e-02 4.192872314479e-02 0.0 
3.046606570378e-02 3.684556337249e-02 0.0 
2.854209302232e-02 3.380805512799e-02 0.0 
2.931642825286e-02 3.214343988299e-02 0.0 
3.097049338086e-02 3.454938914946e-02 0.0 
2.966097242582e-02 2.980160816836e-02 0.0 
3.103663963581e-02 3.158223909764e-02 0.0 
2.954034109129e-02 2.685799701897e-02 0.0 
2.784253476925e-02 2.561938384127e-02 0.0 
2.750972700513e-02 2.279472589512e-02 0.0 
2.890191941242e-02 2.334193817084e-02 0.0 
2.655142251964e-02 1.933807271361e-02 0.0 
2.765024905289e-02 1.911711969158e-02 0.0 
2.494135962894e-02 1.528929366689e-02 0.0 
2.578107516493e-02 1.436480791803e-02 0.0 
2.270451166059e-02 1.093295985868e-02 0.0 
2.173122905857e-02 1.242936428322e-02 0.0 
1.918157520577e-02 8.629162784409e-03 0.0 
1.992840198060e-02 6.578093846138e-03 0.0 
1.617449516853e-02 5.061262724786e-03 0.0 
1.541350373545e-02 7.458041149065e-03 0.0 
1.229179976238e-02 4.747294528124e-03 0.0 
1.159477877590e-02 7.315495580803e-03 0.0 
8.470117236682e-03 5.489127354348e-03 0.0 
8.997322091585e-03 2.717081346709e-03 0.0 
5.296379657761e-03 4.441257583933e-03 0.0 
4.930629591495e-03 7.074123279034e-03 0.0 
1.976090075925e-03 6.887011547658e-03 0.0 
2.234873719796e-03 4.293238928253e-03 0.0 
-7.384599401553e-04 7.587588234910e-03 0.0 
-7.305740255848e-04 9.567814109129e-03 0.0 
-3.063706584907e-03 1.085545992730e-02 0.0 
-3.111310965826e-03 9.160898804294e-03 0.0 
-5.035019724122e-03 1.292366135445e-02 0.0 
-4.875272290448e-03 1.408829211551e-02 0.0 
-6.559241374883e-03 1.666519392283e-02 0.0 
-6.630059800783e-03 1.578538656815e-02 0.0 
-7.838468512689e-03 1.990212795591e-02 0.0 
-7.670654475264e-03 2.023476339176e-02 0.0 
-8.650032329665e-03 2.372975814083e-02 0.0 
-8.334104379565e-03 2.344009648435e-02 0.0 
-8.695838843356e-03 2.378763991406e-02 0.0 
-9.207725589505e-03 2.771366058486e-02 0.0 
-9.081044823225e-03 2.818619611680e-02 0.0 
-9.331763239632e-03 3.207792313087e-02 0.0 
2.555515383804e-02 2.205608751732e-02 0.0 
-8.968090231833e-03 3.291569045547e-02 0.0 
-8.565700945295e-03 2.846418464464e-02 0.0 
-9.019644707753e-03 3.669023918170e-02 0.0 
-9.220634323417e-03 3.533718657814e-02 0.0 
-8.386949772593e-03 3.786893982204e-02 0.0 
-8.307259385254e-03 4.142470600042e-02 0.0 
-7.396498957272e-03 4.288413738476e-02 0.0 
2.827437383620e-02 1.881228562848e-02 0.0 
2.420520682787e-02 3.468244369452e-02 0.0 
-7.251922016561e-03 4.612996439656e-02 0.0 
-6.084173044109e-03 4.779887961644e-02 0.0 
-5.895020537646e-03 4.415187594209e-02 0.0 
-4.304523097284e-03 4.922324950352e-02 0.0 
1.808714009246e-02 5.495791384214e-02 0.0 
1.670319324590e-02 4.767816411637e-02 0.0 
1.621039123245e-02 5.193347608130e-02 0.0 
1.471589924732e-02 4.435586633735e-02 0.0 
1.432362060414e-02 4.853778248644e-02 0.0 
-4.564789708407e-03 5.245871726526e-02 0.0 
1.910286088415e-02 3.798681941132e-02 0.0 
1.490514823227e-02 4.009177572739e-02 0.0 
3.021351870872e-02 4.852646133674e-02 0.0 
3.198074151712e-02 3.689911522133e-02 0.0 
1.447376426851e-02 9.684533073443e-03 0.0 
-7.895717922646e-03 4.423535161815e-02 0.0 
-6.781608006709e-03 4.860465535745e-02 0.0 
-7.180764207866e-03 4.628967345497e-02 0.0 
-7.245674232159e-03 2.027107498620e-02 0.0 
-7.745537095635e-03 2.282022483141e-02 0.0 
-6.564614953865e-03 1.992277261613e-02 0.0 
-6.945903958032e-03 2.179948204186e-02 0.0 
-5.723511523002e-03 1.911181581114e-02 0.0 
-6.060078328681e-03 2.032437265749e-02 0.0 
-6.999820866247e-03 2.320108838927e-02 0.0 
-6.100231854757e-03 2.109246094551e-02 0.0 
-6.781560956743e-03 2.410355882146e-02 0.0 
-4.896359778159e-03 1.777454401697e-02 0.0 
-4.265429702384e-03 1.682187563969e-02 0.0 
-5.881763915026e-03 2.140648101673e-02 0.0 
-6.337415319572e-03 2.450161910104e-02 0.0 
-5.454217331548e-03 2.126313997050e-02 0.0 
-5.711585989085e-03 2.441153811552e-02 0.0 
-6.521448891064e-03 2.778169900672e-02 0.0 
-5.702904024536e-03 2.769232867347e-02 0.0 
-6.431777908155e-03 3.118989448292e-02 0.0 
1.081860573055e-02 9.601434307411e-03 0.0 
1.337377002685e-02 1.153443917396e-02 0.0 
9.995091497969e-03 1.137180343695e-02 0.0 
1.204854836876e-02 1.263904102013e-02 0.0 
9.067885026481e-03 1.216793071792e-02 0.0 
1.064174712100e-02 1.281144969537e-02 0.0 
7.944899553588e-03 1.213877535545e-02 0.0 
6.374859032521e-03 1.198078330394e-02 0.0 
2.092817147734e-02 3.614137256758e-02 0.0 
1.676082398075e-02 2.521478203435e-03 0.0 
2.042752487897e-02 4.430260170735e-03 0.0 
1.707615457754e-02 -2.192627238442e-04 0.0 
2.050267277611e-02 2.200612374480e-03 0.0 
1.703751043000e-02 -3.065410917892e-03 0.0 
2.017300776892e-02 -6.133772478868e-05 0.0 
1.671221232941e-02 -6.028607744281e-03 0.0 
1.342042540873e-02 -7.558659408390e-03 0.0 
1.308134680227e-02 -1.118449954117e-02 0.0 
9.817475272248e-03 -1.085634520538e-02 0.0 
9.616524774709e-03 -1.492965773940e-02 0.0 
6.485577554519e-03 -1.253107984120e-02 0.0 
2.706120488926e-02 2.957353279011e-02 0.0 
1.356314019593e-02 1.378118016319e-02 0.0 
1.171391463671e-02 1.328789183207e-02 0.0 
1.451017485005e-02 1.466205284056e-02 0.0 
-3.724268453277e-03 4.523380878127e-02 0.0 
-4.940348417166e-03 2.385779953976e-02 0.0 
-3.593536196531e-03 1.554629973915e-02 0.0 
-2.702886912416e-03 1.492660403584e-02 0.0 
5.517054891814e-03 1.166463266056e-02 0.0 
-2.579455005726e-03 5.393348086138e-02 0.0 
1.942651525966e-02 -2.293432211388e-03 0.0 
2.261657400961e-02 4.789737660098e-03 0.0 
1.274680357835e-02 4.066675449553e-02 0.0 
1.246373604279e-02 4.482691063191e-02 0.0 
-2.235870327735e-03 1.361990844561e-02 0.0 
-2.975523669077e-03 5.672937644340e-02 0.0 
-5.223771479437e-03 1.851356144253e-02 0.0 
1.231169782784e-02 -1.500411334458e-02 0.0 
-4.774092123424e-03 2.712074406362e-02 0.0 
-4.063926831034e-03 2.287613442481e-02 0.0 
-7.646373502431e-03 2.637383278849e-02 0.0 
1.227768743991e-02 1.349607216856e-02 0.0 
1.496230075991e-02 1.520912663186e-02 0.0 
6.402298859379e-03 -8.556895297751e-03 0.0 
3.308636514092e-03 -8.435801614253e-03 0.0 
3.598028622064e-03 -1.225295555003e-02 0.0 
6.947637849363e-04 -6.228430403837e-03 0.0 
3.379529045051e-04 -3.210214606783e-03 0.0 
-1.703095700435e-03 -1.297874520473e-04 0.0 
-9.602409130762e-04 -2.541855071803e-03 0.0 
-2.884916918444e-03 4.460014231217e-03 0.0 
-3.804646308941e-03 6.294838193390e-03 0.0 
-4.514532127234e-03 1.126419268882e-02 0.0 
-2.991560386150e-03 1.017299753031e-02 0.0 
-4.233527840138e-03 1.702580779624e-02 0.0 
-4.132035126578e-03 1.966732630096e-02 0.0 
9.152001030778e-03 -1.917115474031e-02 0.0 
2.688838120442e-02 5.365554090560e-02 0.0 
-2.998966574155e-03 1.365442628154e-02 0.0 
6.680327828682e-03 1.134682917755e-02 0.0 
1.082005311229e-02 3.667908269722e-02 0.0 
1.064684122166e-02 4.083153609544e-02 0.0 
1.200746937597e-02 4.897939254889e-02 0.0 
1.029592318914e-02 4.495685258324e-02 0.0 
8.893376305785e-03 3.657616646038e-02 0.0 
8.650837297161e-03 4.070795881232e-02 0.0 
9.791030343549e-03 4.904000685267e-02 0.0 
8.248387084450e-03 4.479293851453e-02 0.0 
9.153242866626e-03 5.305253162047e-02 0.0 
7.707478083603e-03 4.881131153563e-02 0.0 
6.784693502698e-03 4.034335455934e-02 0.0 
6.336308231334e-03 4.439121616541e-02 0.0 
7.049560957052e-03 5.275808217776e-02 0.0 
5.762683022955e-03 4.836908958400e-02 0.0 
6.293124424185e-03 5.661591450503e-02 0.0 
5.081749880509e-03 5.226605837622e-02 0.0 
4.560649282985e-03 4.382376013249e-02 0.0 
-9.798291655573e-04 5.802334185869e-02 0.0 
3.999546527221e-03 1.198139004602e-02 0.0 
3.397105648151e-03 1.130921070379e-02 0.0 
-6.046241600146e-03 5.021686069027e-02 0.0 
-6.255705425015e-03 4.751396193099e-02 0.0 
-7.250934071808e-03 4.371401122104e-02 0.0 
-6.147237299097e-03 4.462673094477e-02 0.0 
3.936037533482e-03 4.780823403487e-02 0.0 
3.457167607678e-03 3.914352143884e-02 0.0 
2.130813225116e-02 3.540321137326e-03 0.0 
2.412173756376e-02 1.134040948192e-02 0.0 
1.079204596691e-02 3.251429779953e-02 0.0 
-3.775779169777e-03 2.610706166244e-02 0.0 
-4.364323066071e-03 3.040381514452e-02 0.0 
3.178407058467e-02 3.334664368173e-02 0.0 
3.231815117132e-02 3.922412840074e-02 0.0 
3.189110407726e-02 3.517580520285e-02 0.0 
3.194714801127e-02 4.163375029061e-02 0.0 
3.226759123981e-02 4.550388077402e-02 0.0 
3.125844532340e-02 3.709362512957e-02 0.0 
-3.298707530249e-03 1.556086038224e-02 0.0 
5.418880312103e-03 3.572066881012e-02 0.0 
-5.402948984030e-03 3.977289788174e-02 0.0 
-2.849535799912e-03 4.059333765583e-02 0.0 
-3.153240969707e-03 2.151462708105e-02 0.0 
4.413706061161e-03 1.186842868555e-02 0.0 
2.605085021633e-02 3.058460811920e-02 0.0 
2.432590534328e-02 2.674059807280e-02 0.0 
2.316680404661e-02 2.707731668946e-02 0.0 
2.131668507901e-02 2.355569286699e-02 0.0 
1.999501325753e-02 2.322477845311e-02 0.0 
1.803726220728e-02 1.998706194013e-02 0.0 
1.921029540708e-02 2.039368054498e-02 0.0 
1.232394631467e-02 1.334303319815e-02 0.0 
1.587822287743e-02 1.704564324049e-02 0.0 
4.379934240020e-03 5.614091619011e-02 0.0 
1.665148559638e-02 1.511753190082e-02 0.0 
-5.527373641871e-03 1.251434529263e-02 0.0 
-6.984442251001e-05 5.486964243260e-02 0.0 
-1.677985880935e-03 1.664275432877e-02 0.0 
-1.497659619353e-03 6.043743181267e-02 0.0 
-3.003601059016e-03 5.871330781632e-02 0.0 
-1.841341550212e-03 1.165531056073e-02 0.0 
1.648942601599e-02 1.898877228984e-02 0.0 
1.834712572278e-02 2.228932104936e-02 0.0 
3.139331255555e-02 4.852073792631e-02 0.0 
3.166447124020e-02 5.203814954485e-02 0.0 
9.872241914272e-03 1.163416815238e-02 0.0 
1.553476762622e-02 5.620436667999e-02 0.0 
1.065606074410e-02 5.709387219136e-02 0.0 
9.807886031081e-03 6.101082585535e-02 0.0 
6.439923561744e-04 6.141271034777e-02 0.0 
-5.508349793438e-04 9.401418595383e-03 0.0 
7.229923073605e-03 3.210051278665e-02 0.0 
2.538030243390e-02 1.182322152694e-02 0.0 
2.649227031323e-02 1.869708107359e-02 0.0 
1.126934211733e-02 -1.896967316217e-02 0.0 
8.435626486023e-03 -2.377313700304e-02 0.0 
2.927911509405e-03 4.308060565327e-02 0.0 
2.493951700740e-03 3.431796181284e-02 0.0 
-7.028246712082e-03 4.091344138279e-02 0.0 
-5.853213866891e-03 4.142396857682e-02 0.0 
-9.089619927531e-04 1.192422279458e-02 0.0 
-2.951499007894e-03 2.323823094956e-02 0.0 
2.841625233650e-03 3.019124177941e-02 0.0 
2.166328889105e-03 1.239587833292e-02 0.0 
2.145873197073e-03 1.195305394169e-02 0.0 
-5.039340436936e-03 4.821143926124e-02 0.0 
2.210443926925e-02 1.115448367706e-02 0.0 
1.932625607432e-02 2.554002018621e-03 0.0 
-4.447712405892e-03 8.228458041988e-03 0.0 
-5.290007846922e-03 2.325437630149e-02 0.0 
-1.662868643271e-03 6.197081230841e-02 0.0 
-7.701454662336e-04 9.806956678776e-03 0.0 
7.183427983738e-03 2.792840550405e-02 0.0 
1.693164123960e-02 1.762484141188e-02 0.0 
2.001247464614e-02 2.027803847869e-02 0.0 
1.359902115958e-02 1.443152787779e-02 0.0 
3.268483287475e-04 2.335651605384e-02 0.0 
-2.420037710170e-03 1.113517007432e-02 0.0 
-2.754512615931e-03 2.471344866057e-02 0.0 
1.477665391150e-02 1.767727301207e-02 0.0 
1.640174156506e-02 2.079195274574e-02 0.0 
2.771023481504e-02 1.852513768090e-02 0.0 
2.851364996214e-02 2.560110964543e-02 0.0 
2.660183064703e-02 2.663959098244e-02 0.0 
2.833033027144e-02 3.330840978615e-02 0.0 
2.445030907497e-02 5.729375086229e-02 0.0 
2.960458463821e-02 2.478815212724e-02 0.0 
2.850463708103e-02 5.405253179765e-02 0.0 
2.782517126730e-02 5.908525588280e-02 0.0 
2.916514407652e-02 5.910405460571e-02 0.0 
3.221342070095e-02 4.865403352506e-02 0.0 
3.155150194952e-02 5.489787636023e-02 0.0 
2.359753647600e-02 7.811696127574e-03 0.0 
1.694406936184e-02 1.229467349377e-02 0.0 
-8.019898415074e-03 3.974529958464e-02 0.0 
-7.294683823570e-03 3.078223680503e-02 0.0 
-5.787217273021e-03 1.762018037864e-02 0.0 
5.630463499783e-03 3.158574166615e-02 0.0 
4.295089740322e-03 2.676252069294e-02 0.0 
7.565169216840e-03 6.080471293691e-02 0.0 
6.653730422282e-03 6.452748558252e-02 0.0 
-7.787222929222e-04 4.610337273780e-02 0.0 
4.966655360799e-04 4.120496976927e-02 0.0 
-8.565230260183e-03 2.614094331377e-02 0.0 
-3.426147696570e-03 1.339791835902e-02 0.0 
8.816585304383e-03 2.826216751423e-02 0.0 
8.448276977285e-03 2.409833429145e-02 0.0 
1.053845178772e-02 2.834186175886e-02 0.0 
2.845205233534e-04 1.038934353371e-02 0.0 
1.330083712412e-02 -9.941684304472e-04 0.0 
7.448780161137e-03 1.012352917755e-02 0.0 
6.437478582953e-03 -2.136481979150e-02 0.0 
2.558014387035e-02 2.420351808776e-02 0.0 
2.959702856903e-03 4.673463573611e-02 0.0 
2.232222744497e-02 3.369089559482e-02 0.0 
-2.244707689850e-03 1.981695169195e-02 0.0 
-2.502626752410e-03 1.660697001783e-02 0.0 
9.547742676355e-03 1.086597728072e-02 0.0 
2.412293771635e-02 6.780711806457e-02 0.0 
2.308612828363e-02 2.105537614540e-02 0.0 
2.284714553883e-02 1.913768952667e-02 0.0 
2.814647031437e-02 6.428217854236e-02 0.0 
2.918461304281e-02 6.395749671389e-02 0.0 
3.024252330437e-02 5.848406968242e-02 0.0 
2.994057200584e-02 6.302537440184e-02 0.0 
-6.183232902306e-03 1.375938603048e-02 0.0 
-6.857009859441e-03 1.821355041569e-02 0.0 
1.248019716824e-02 1.421723126410e-02 0.0 
1.234767631188e-02 1.332339433592e-02 0.0 
1.267997956464e-02 1.573017128227e-02 0.0 
1.417681144706e-02 1.868723493422e-02 0.0 
7.285700156795e-03 9.097953642842e-03 0.0 
7.548762821269e-03 1.011440255080e-02 0.0 
-2.663848461037e-03 5.990265219631e-02 0.0 
3.059043461991e-02 5.857979746097e-02 0.0 
5.522787668262e-03 2.321904840991e-02 0.0 
2.687174982747e-02 6.403271541339e-02 0.0 
-2.688547243574e-03 1.043105072434e-02 0.0 
-3.546833227316e-03 1.281852442990e-02 0.0 
6.172312751785e-03 -2.632016638290e-02 0.0 
4.103813342171e-03 -2.042794527509e-02 0.0 
1.956644303278e-03 2.538757859808e-02 0.0 
2.573785338784e-02 3.510182453445e-02 0.0 
2.730984522501e-02 4.125302249245e-02 0.0 
2.384115697069e-02 2.796023600296e-02 0.0 
-3.741621160197e-04 8.914202721500e-03 0.0 
1.781529262293e-03 7.910989825865e-02 0.0 
-1.698838692254e-03 1.463599013585e-02 0.0 
3.176673800733e-02 5.118020435337e-02 0.0 
2.087457028015e-03 2.078722029808e-02 0.0 
2.036493191615e-02 1.849878043029e-02 0.0 
3.116862958137e-02 2.919882066347e-02 0.0 
3.974739786962e-04 1.200875758343e-02 0.0 
1.603177682863e-03 3.032544751914e-02 0.0 
1.183629663885e-03 2.007811648319e-02 0.0 
1.122171367251e-02 6.471902054805e-02 0.0 
1.022225960807e-02 6.864350130132e-02 0.0 
1.220027389773e-02 6.090827271559e-02 0.0 
1.454932372903e-02 -1.220200213066e-02 0.0 
1.255173039587e-02 -1.503279901175e-02 0.0 
4.169199494029e-03 3.093783132341e-02 0.0 
-5.471887452266e-03 5.274253262769e-02 0.0 
-4.687832074119e-03 5.389572226735e-02 0.0 
-3.904007553233e-03 2.924135768659e-02 0.0 
-6.141731653256e-03 2.901007891026e-02 0.0 
-7.652110410246e-03 3.714184086193e-02 0.0 
-8.493070390385e-03 3.577377203852e-02 0.0 
2.130438737513e-02 2.964892543826e-02 0.0 
1.931797807658e-02 2.818865593915e-02 0.0 
2.471868144638e-02 3.095964601373e-02 0.0 
1.118708003466e-04 1.305665384780e-02 0.0 
-2.885582282048e-04 1.239558952695e-02 0.0 
1.938226457236e-03 1.072593594066e-02 0.0 
4.297904352363e-03 2.283984768294e-02 0.0 
2.898066177404e-03 1.706334018686e-02 0.0 
-4.875461055179e-03 9.981145469964e-03 0.0 
-2.676691350798e-03 4.842912912093e-03 0.0 
-7.480664320852e-03 1.881743739236e-02 0.0 
5.194224073233e-03 1.917541803699e-02 0.0 
-1.814717234146e-03 1.153501044447e-02 0.0 
-2.553451334235e-03 1.357622292479e-02 0.0 
4.592233171457e-03 4.175803718186e-02 0.0 
1.835122042267e-03 3.575544983046e-02 0.0 
1.905620538711e-02 1.133636010431e-02 0.0 
1.608064039774e-02 2.004239729209e-03 0.0 
7.951963127318e-03 2.027598732027e-02 0.0 
1.006279932746e-02 2.425794771395e-02 0.0 
5.717043960557e-03 1.545633929754e-02 0.0 
-1.384308728901e-03 6.282980783635e-02 0.0 
1.756375028830e-02 1.769488080847e-02 0.0 
2.402507491462e-04 8.150728775100e-03 0.0 
1.380009516751e-03 9.022870756338e-03 0.0 
-5.276215363218e-04 6.769523726813e-03 0.0 
1.198623245310e-02 1.289530161404e-02 0.0 
8.815608642647e-03 9.837793980006e-03 0.0 
9.943556503437e-03 1.072689529676e-02 0.0 
7.139665097206e-03 -2.820375436454e-02 0.0 
8.955326156970e-04 2.396712270506e-02 0.0 
7.886748182667e-03 6.852021048361e-02 0.0 
6.315134382169e-03 -3.023449059394e-02 0.0 
6.833126545931e-03 7.235374472828e-02 0.0 
5.719280591577e-03 6.819246226543e-02 0.0 
5.909313173698e-03 7.600694326626e-02 0.0 
-6.176538729902e-04 6.457668863372e-02 0.0 
1.279413097868e-02 6.953027566567e-02 0.0 
1.388589147432e-02 6.473391423283e-02 0.0 
7.224292444266e-03 3.622223721526e-02 0.0 
3.567966589140e-03 1.435806067348e-02 0.0 
6.895169548361e-03 4.675746310588e-02 0.0 
4.997970634661e-03 5.120804698979e-02 0.0 
-2.610935583954e-03 9.279114906441e-03 0.0 
-3.390904196715e-03 1.187869730485e-02 0.0 
-2.332674029377e-03 7.897068350472e-03 0.0 
-3.082540745410e-03 1.081970234239e-02 0.0 
-4.067714690316e-03 1.470691739407e-02 0.0 
-3.602656203803e-03 1.358109914771e-02 0.0 
9.233406589250e-03 7.293742510794e-02 0.0 
-2.402310078730e-03 8.590171622173e-03 0.0 
-2.987463195999e-03 1.200347180440e-02 0.0 
-1.800706789775e-03 6.893248791766e-03 0.0 
2.850196054254e-02 6.878786903697e-02 0.0 
2.960057079949e-02 3.905100512628e-02 0.0 
2.851618478213e-02 4.682259449032e-02 0.0 
2.552763436987e-02 4.978040113185e-02 0.0 
9.429963478604e-03 1.202148451873e-02 0.0 
1.196389931223e-02 1.638696394217e-02 0.0 
-1.750200309345e-03 2.288220811754e-02 0.0 
-2.049695902578e-03 2.777613220673e-02 0.0 
4.730532471639e-03 7.230611681201e-02 0.0 
3.459126990297e-03 7.273061781307e-02 0.0 
3.778016667004e-03 6.580727604075e-02 0.0 
2.731852771629e-03 6.673858253550e-02 0.0 
2.936715992341e-03 5.968659470144e-02 0.0 
1.894786931932e-03 6.065942450848e-02 0.0 
2.238042899099e-03 5.333932035151e-02 0.0 
8.364002225841e-03 9.093734248725e-03 0.0 
2.206051738493e-02 3.653044340416e-02 0.0 
2.684838251114e-02 6.939897570203e-02 0.0 
5.194627667982e-03 7.454169443526e-03 0.0 
5.643498279986e-03 8.960367537846e-03 0.0 
3.046290352752e-02 6.109826992066e-02 0.0 
2.908853005721e-02 6.512205883167e-02 0.0 
-1.720102691740e-03 7.611763400099e-03 0.0 
2.829623587003e-02 1.857900568823e-02 0.0 
2.625458447930e-03 9.126284993533e-03 0.0 
3.145347361179e-03 -1.973974131371e-02 0.0 
8.521182402710e-03 -2.035343531440e-02 0.0 
3.001643992241e-02 2.421633622514e-02 0.0 
3.105045722086e-02 5.712037105148e-02 0.0 
3.066192227474e-02 4.416259603201e-02 0.0 
2.969459289059e-02 5.167873167430e-02 0.0 
3.273134327523e-04 1.293879169553e-02 0.0 
3.458569098091e-03 2.978992572315e-02 0.0 
2.162309489855e-02 1.998438254709e-02 0.0 
3.246909907146e-03 5.244243754019e-02 0.0 
1.750655536621e-02 2.047870601809e-02 0.0 
-9.465639547868e-04 2.540760485537e-02 0.0 
2.620144418220e-02 1.341695548564e-02 0.0 
3.202055311673e-02 4.532731580715e-02 0.0 
2.453683507159e-02 1.917062031596e-02 0.0 
3.015942607083e-02 3.188757769617e-02 0.0 
2.506892212684e-02 5.265707270249e-02 0.0 
2.359209433369e-02 6.182732523671e-02 0.0 
2.527191477445e-02 6.331497438408e-02 0.0 
2.335886681960e-02 9.395041589792e-03 0.0 
3.035590329796e-02 5.549847732307e-02 0.0 
2.812580748988e-02 5.938530883497e-02 0.0 
2.885052150172e-02 4.901489315711e-02 0.0 
1.268918876681e-02 3.228261246042e-02 0.0 
1.229486999535e-02 2.811328023047e-02 0.0 
9.411533250797e-03 2.044155811289e-02 0.0 
1.165856089990e-02 2.408207684251e-02 0.0 
1.456835465729e-02 3.168616206640e-02 0.0 
1.401093986582e-02 2.758639757826e-02 0.0 
1.077804284329e-02 2.023831788709e-02 0.0 
1.319139475631e-02 2.360790002148e-02 0.0 
8.812940496896e-03 1.496780824273e-02 0.0 
1.199502945515e-02 1.960818287958e-02 0.0 
1.562620626122e-02 2.678422120356e-02 0.0 
1.463871797196e-02 2.303867015822e-02 0.0 
1.110367365577e-02 1.678322108021e-02 0.0 
1.810815518378e-02 2.989512739134e-02 0.0 
4.545198370904e-03 5.984469026092e-03 0.0 
2.975691096804e-02 2.379480212194e-02 0.0 
9.611097563466e-03 -2.297839687056e-02 0.0 
1.135435700242e-02 -1.036859068316e-02 0.0 
3.128034191501e-02 4.732292132803e-02 0.0 
4.337357759304e-03 7.392758290981e-03 0.0 
3.738547937320e-03 7.650303500841e-03 0.0 
2.333040435700e-02 6.233121142792e-03 0.0 
4.718195661995e-03 5.683157928877e-03 0.0 
2.621714983283e-02 5.851261612706e-02 0.0 
1.590785284383e-02 -9.097977261987e-03 0.0 
4.629421700286e-03 5.147037860756e-03 0.0 
1.486217522064e-02 3.585003063857e-02 0.0 
1.705112747332e-02 3.922381987920e-02 0.0 
1.699093854229e-02 4.345522255858e-02 0.0 
3.004471960645e-03 7.392203091475e-03 0.0 
1.306990144527e-02 5.691849436208e-02 0.0 
3.375064827149e-03 3.876387882416e-03 0.0 
1.532119184680e-02 1.347682233080e-02 0.0 
1.875797808631e-02 1.476884574458e-02 0.0 
2.044599608150e-02 1.378316744142e-02 0.0 
1.639634445193e-02 3.092827162999e-02 0.0 
1.795385426303e-03 3.487133321856e-03 0.0 
2.872009991730e-03 6.241440980323e-03 0.0 
1.937702590489e-03 6.183268249727e-03 0.0 
3.480891457692e-03 8.613064493437e-03 0.0 
7.875825779085e-04 3.432553594670e-03 0.0 
4.282574423293e-03 6.221446352115e-03 0.0 
4.199951428219e-03 5.686887757038e-03 0.0 
-2.241207954301e-03 2.401840900481e-03 0.0 
-1.276582295202e-05 -1.997332285677e-04 0.0 
-3.386258680997e-04 2.575326798752e-03 0.0 
2.774106431653e-03 -1.542017937040e-03 0.0 
3.081315020599e-03 -4.846891551159e-03 0.0 
6.229082363717e-03 -4.908991811449e-03 0.0 
5.976452408059e-03 -1.551609758141e-03 0.0 
9.851918979725e-03 -7.078560805386e-03 0.0 
1.578874263242e-02 2.233500909193e-02 0.0 
-9.003817314324e-05 3.404391802200e-03 0.0 
-5.055043305054e-03 1.749337857691e-02 0.0 
-4.011400407314e-03 1.554042893553e-02 0.0 
-4.562516432295e-03 1.500464989662e-02 0.0 
-8.768269321177e-03 3.788995998975e-02 0.0 
-9.070269730952e-03 3.375677511229e-02 0.0 
-8.629924417812e-03 3.190873197792e-02 0.0 
-8.123839950827e-03 4.210837858027e-02 0.0 
2.229282170435e-02 2.330200389503e-02 0.0 
-4.825301231466e-04 3.523523667368e-03 0.0 
4.591192334819e-03 1.094516628268e-02 0.0 
-9.325931330684e-03 3.106362203877e-02 0.0 
1.694496911491e-02 7.450066252373e-02 0.0 
1.745790591086e-02 6.797467323321e-02 0.0 
1.896157568085e-02 6.665969745559e-02 0.0 
1.749097408298e-02 6.033919212701e-02 0.0 
1.565117978738e-02 6.829485189588e-02 0.0 
-6.608924899135e-03 3.786175054310e-02 0.0 
-5.427800173513e-03 3.797462662911e-02 0.0 
-4.556566105990e-03 4.132093460962e-02 0.0 
-4.163778523882e-03 3.753057269619e-02 0.0 
-3.199236408071e-03 4.065066741194e-02 0.0 
-3.496401211724e-03 4.439015252491e-02 0.0 
-2.840082355274e-03 3.659862079451e-02 0.0 
-1.856950402968e-03 3.993777767773e-02 0.0 
1.375074439456e-02 7.634672344999e-02 0.0 
9.032871360389e-03 -1.399094823087e-02 0.0 
4.709346395051e-03 -7.677060544997e-03 0.0 
5.716807014148e-03 3.502758187750e-03 0.0 
1.973506805423e-03 -1.873869386115e-03 0.0 
2.310110710249e-03 -1.123898417991e-02 0.0 
6.220427914852e-05 -4.947146179408e-03 0.0 
1.906449632907e-03 -1.270847206497e-02 0.0 
4.317402597118e-03 -1.866031104754e-02 0.0 
1.180614836315e-02 8.965675060233e-03 0.0 
6.585505391753e-03 1.287065445753e-02 0.0 
1.250612044014e-02 1.770059969969e-02 0.0 
7.387077823666e-03 2.116144369416e-02 0.0 
2.161575084501e-03 1.658402030697e-02 0.0 
-1.897440541496e-03 3.531590882906e-02 0.0 
-9.844443812838e-04 5.728967600464e-03 0.0 
-1.416714116507e-03 5.104432738251e-02 0.0 
-2.727242196398e-03 5.218905404066e-02 0.0 
-2.598464204846e-03 5.541087137394e-02 0.0 
-4.048767517697e-03 5.243402487348e-02 0.0 
-2.646008663377e-03 4.898604361483e-02 0.0 
-1.249177132007e-03 5.784270878734e-02 0.0 
-2.318052681001e-03 5.814701099776e-02 0.0 
5.053849340668e-03 6.558870453711e-02 0.0 
2.812174008299e-03 6.678298412850e-02 0.0 
1.401778836740e-03 6.812890345816e-02 0.0 
1.224857635675e-03 6.726652788841e-02 0.0 
2.035152353340e-03 6.560993329314e-02 0.0 
4.114152016127e-03 6.469191803419e-02 0.0 
5.322572820617e-03 6.182464242493e-02 0.0 
8.562823166936e-03 5.995793266318e-02 0.0 
6.318769096862e-03 5.829249569432e-02 0.0 
3.222131193707e-03 5.999653175883e-02 0.0 
1.004099873384e-02 5.620069037832e-02 0.0 
7.188235962310e-04 4.227006620656e-02 0.0 
1.364629238218e-03 3.789457272495e-02 0.0 
-1.077021586160e-03 4.030993161992e-03 0.0 
1.068540933956e-02 7.698169247875e-02 0.0 
1.297403237169e-02 3.302518077165e-02 0.0 
1.088647729915e-03 1.010921997924e-02 0.0 
1.598254169938e-03 8.298814977843e-03 0.0 
1.309982572363e-03 8.078806502817e-03 0.0 
-5.947675162527e-04 1.473912470325e-02 0.0 
-9.602835519256e-04 1.194673296189e-02 0.0 
5.990973261818e-04 9.867838204323e-03 0.0 
-7.203699014877e-03 3.892000395909e-02 0.0 
8.520862711278e-03 1.679031124426e-02 0.0 
3.050983861548e-03 2.599520470851e-02 0.0 
1.808872173472e-02 -4.399085695139e-03 0.0 
-6.838300678922e-03 2.333361179667e-02 0.0 
-3.196839685815e-03 2.930826220928e-02 0.0 
-7.183981338161e-03 2.734066812059e-02 0.0 
-3.335089513192e-03 1.833782031341e-02 0.0 
-5.439464603511e-03 3.104267515625e-02 0.0 
-4.857086540747e-03 2.067107939016e-02 0.0 
1.004467849834e-03 6.415425170842e-03 0.0 
-3.258762652469e-04 6.339268551052e-02 0.0 
8.403838604596e-03 5.697598132257e-02 0.0 
5.505971450617e-03 6.040441230185e-02 0.0 
5.056586215273e-03 3.980562607633e-02 0.0 
-5.938391456737e-03 5.066611086780e-02 0.0 
-4.893621469731e-03 4.465426939005e-02 0.0 
-1.867661900443e-03 5.034872256930e-02 0.0 
8.549682840695e-03 9.813454702908e-03 0.0 
2.986302868848e-02 5.386184155227e-02 0.0 
-6.294771761944e-03 1.731125882581e-02 0.0 
-8.729890388717e-03 3.976795235283e-02 0.0 
-8.133847274113e-03 3.362102384181e-02 0.0 
-5.813294701420e-03 1.758731322152e-02 0.0 
3.066082147684e-02 2.801987855213e-02 0.0 
-9.031225484473e-03 2.706439071417e-02 0.0 
-5.204094316305e-03 1.834732416757e-02 0.0 
3.884781037241e-03 3.507146364968e-02 0.0 
1.158357298019e-02 4.633037691124e-02 0.0 
-4.147119706108e-03 1.587258878698e-02 0.0 
-7.854517987202e-03 2.486491322105e-02 0.0 
1.140026426485e-02 5.308567087929e-02 0.0 
9.076946388806e-03 1.220426837112e-02 0.0 
-1.685342059348e-03 3.067145308529e-03 0.0 
7.092093480706e-03 3.625432059031e-02 0.0 
6.577846416398e-03 2.011704820124e-02 0.0 
1.473854238981e-02 6.046837225238e-02 0.0 
1.408076456270e-03 5.122486415200e-02 0.0 
8.901895174484e-03 6.492786173991e-02 0.0 
-1.447649139785e-03 9.014277481336e-03 0.0 
1.282793449518e-02 3.646404971901e-02 0.0 
-4.478752445401e-03 5.490593931099e-02 0.0 
7.936120579147e-03 8.034185409135e-03 0.0 
3.175545140831e-02 3.975326598684e-02 0.0 
2.408859718535e-02 7.351736531770e-02 0.0 
3.127458382133e-03 2.209691998015e-02 0.0 
2.498868095739e-02 1.939526632847e-02 0.0 
4.544311558719e-03 1.056676436431e-02 0.0 
7.024060812249e-03 1.149223035441e-02 0.0 
-4.078719994154e-03 5.648180072990e-02 0.0 
-4.342374424727e-03 1.544950301208e-02 0.0 
1.816915575522e-02 1.057252928399e-02 0.0 
5.683730015425e-03 2.746922248945e-02 0.0 
2.170264483167e-02 2.678268484062e-02 0.0 
1.287465987466e-02 2.013417684132e-03 0.0 
8.956303701814e-03 3.242622163104e-02 0.0 
-2.857555388972e-03 1.224710280059e-02 0.0 
9.719954954668e-03 1.206037984597e-02 0.0 
3.096743583523e-02 5.289679980710e-02 0.0 
2.739169416258e-02 3.479462298277e-02 0.0 
2.300474472128e-02 3.789554047389e-02 0.0 
2.767714392015e-02 2.790109906841e-02 0.0 
-2.297508159649e-03 3.246931072346e-02 0.0 
-4.386155835951e-03 1.584828173735e-02 0.0 
6.664547644547e-03 -1.683066292060e-02 0.0 
3.103249777063e-02 3.046206731843e-02 0.0 
1.376041634558e-02 5.273239783123e-02 0.0 
1.455513077875e-02 1.610460573999e-02 0.0 
3.999818445247e-03 1.835148014222e-02 0.0 
3.236639601681e-02 4.262116304927e-02 0.0 
-4.996429776685e-03 1.827488415503e-02 0.0 
6.984004177337e-03 2.401941130632e-02 0.0 
-9.006438847170e-03 2.980768184616e-02 0.0 
-3.639006066758e-04 6.544837318991e-02 0.0 
1.628811088472e-02 -6.215714412495e-03 0.0 
1.348300882275e-02 -4.187871186194e-03 0.0 
2.370135667674e-02 1.613480978274e-02 0.0 
-8.420185156068e-03 2.825716171779e-02 0.0 
6.818462162074e-03 1.538741847433e-02 0.0 
-4.565107398446e-03 1.762670860604e-02 0.0 
-1.124539753219e-03 1.335232334657e-02 0.0 
8.896065815594e-03 1.118088057885e-02 0.0 
2.563442210730e-02 6.878126916810e-02 0.0 
-3.975947693798e-03 1.658108378859e-02 0.0 
4.658017578559e-03 9.267082045256e-03 0.0 
7.367869757558e-03 1.086516108091e-02 0.0 
-2.117704958155e-03 4.358861404604e-02 0.0 
8.406884549798e-03 9.344854730655e-03 0.0 
2.904366982641e-02 6.711348939433e-02 0.0 
-3.280776360108e-03 1.517231816195e-02 0.0 
1.992746413695e-03 1.204502424223e-02 0.0 
2.605389757735e-02 1.253070552663e-02 0.0 
2.954699267411e-03 7.904721316116e-02 0.0 
-2.153766187039e-03 9.528754872390e-03 0.0 
1.690733820213e-03 1.083624842705e-02 0.0 
2.515520459194e-02 2.578104055828e-02 0.0 
1.874659943991e-03 9.057355142373e-03 0.0 
2.608040226293e-02 7.472845725337e-02 0.0 
-7.974270032574e-03 2.979483507429e-02 0.0 
2.593084634577e-02 3.509456619335e-02 0.0 
2.665097223115e-03 7.317872383661e-03 0.0 
2.778841956361e-03 9.859056165285e-03 0.0 
1.908598330279e-02 4.660068413566e-02 0.0 
-7.976583315062e-03 3.340922231207e-02 0.0 
1.747354359107e-02 1.639583105107e-02 0.0 
2.747862992787e-03 6.318645287219e-02 0.0 
2.778622622706e-02 6.937501778950e-02 0.0 
-7.098146374716e-03 3.429558581966e-02 0.0 
9.712812557109e-03 -3.572166117993e-03 0.0 
-5.692963341680e-04 1.114434180011e-02 0.0 
6.682146978253e-03 7.909580453009e-03 0.0 
-6.061280655885e-03 3.457980063069e-02 0.0 
9.420025254668e-03 -2.636285451899e-04 0.0 
-4.919318630609e-03 3.431867755867e-02 0.0 
2.713769584346e-02 7.360052318064e-02 0.0 
1.920030004725e-02 4.217846078757e-02 0.0 
-3.674972483961e-03 3.359094223884e-02 0.0 
2.312659064390e-02 3.061303510934e-02 0.0 
3.444173122868e-03 5.588730246594e-02 0.0 
2.290073609193e-02 2.247394269924e-02 0.0 
-1.360283077379e-03 1.749650934937e-02 0.0 
-8.460733750490e-03 2.370977110193e-02 0.0 
-2.530114581332e-03 1.335615459614e-02 0.0 
1.684994110350e-02 3.502261953951e-02 0.0 
2.693427139935e-02 7.037589099684e-02 0.0 
-1.977473746906e-03 1.405135443793e-02 0.0 
1.997830735180e-02 2.587462771032e-02 0.0 
2.042425736763e-02 1.965925142700e-02 0.0 
2.202121402601e-02 1.671284365728e-02 0.0 
-1.468827837445e-03 1.407495101518e-02 0.0 
2.890099171761e-02 6.234640898649e-02 0.0 
-6.706834051717e-03 3.443279609593e-02 0.0 
-4.720603415499e-03 3.482611000198e-02 0.0 
5.687199652491e-03 1.591081113736e-03 0.0 
1.798113512546e-02 2.436357720922e-02 0.0 
5.404439953347e-04 6.565398214728e-02 0.0 
1.871252410811e-02 3.378982177113e-02 0.0 
-8.007678351510e-04 2.955271434424e-02 0.0 
2.497197149924e-03 1.488334299332e-03 0.0 
1.484012830551e-02 1.530404232860e-02 0.0 
8.596054706405e-04 5.867151792288e-02 0.0 
-5.629246701645e-04 5.195397880718e-03 0.0 
-7.302574329041e-04 6.333587806454e-02 0.0 
-2.975791079714e-03 7.069049808521e-03 0.0 
1.982611211707e-02 1.686934168696e-02 0.0 
-5.059780983052e-03 1.156250776801e-02 0.0 
-6.545116355895e-03 1.478683647099e-02 0.0 
2.112683231204e-03 1.704292414826e-02 0.0 
-7.797773508770e-03 1.939299374978e-02 0.0 
2.972403721813e-04 8.192248752085e-03 0.0 
-4.370863684849e-04 5.355085082473e-03 0.0 
1.119885663143e-03 7.374639514260e-02 0.0 
2.507825716240e-02 6.548834276709e-02 0.0 
5.676782879467e-03 -3.297235404783e-02 0.0 
2.750181535190e-02 5.367958221431e-02 0.0 
-7.844951964793e-03 2.345850996712e-02 0.0 
2.031009842511e-02 3.211428604950e-02 0.0 
2.327149663554e-03 7.336131289334e-02 0.0 
-7.599905067736e-03 2.874298114787e-02 0.0 
8.163592945437e-03 1.262654621639e-02 0.0 
3.947048055312e-03 4.281307464424e-03 0.0 
1.544946840844e-03 4.606492702994e-02 0.0 
5.367997797944e-03 9.897926140069e-03 0.0 
1.770399553191e-02 1.724093358759e-02 0.0 
4.439230477742e-04 2.490763471780e-02 0.0 
6.860697882538e-03 7.911812041676e-02 0.0 
7.996642165684e-03 2.884823169908e-02 0.0 
-1.100183802391e-03 3.036658578138e-02 0.0 
2.219947876256e-02 5.687549078315e-02 0.0 
2.381348601893e-02 4.324596742531e-02 0.0 
1.976012821068e-02 2.892467864282e-02 0.0 
-3.302931193150e-03 5.754711808668e-02 0.0 
2.432434204990e-03 7.749487389371e-03 0.0 
1.928837721535e-02 4.517847529727e-02 0.0 
3.797972418578e-03 6.553027859063e-03 0.0 
1.146331275070e-02 7.152730893235e-02 0.0 
1.462484886496e-02 1.526287705341e-02 0.0 
1.448183730512e-02 3.033910918809e-02 0.0 
4.792212338188e-03 1.574381688671e-02 0.0 
7.291603496257e-03 8.031441406331e-03 0.0 
-1.190389935291e-03 3.899080217731e-03 0.0 
1.115801232445e-02 1.199886252189e-02 0.0 
1.472734580264e-02 1.101417897451e-02 0.0 
1.624016200979e-02 6.275285960535e-02 0.0 
8.581568869160e-03 1.029408496699e-02 0.0 
2.081968791690e-03 3.911531435265e-02 0.0 
-1.145546543928e-03 4.010716048600e-03 0.0 
1.432337358792e-02 7.096368205014e-02 0.0 
1.305052868356e-03 1.598984337022e-02 0.0 
4.294492891081e-03 -1.664149121831e-02 0.0 
6.668002949912e-04 1.556203798217e-02 0.0 
1.707255378495e-02 2.595585753738e-02 0.0 
4.749446832194e-03 6.408320037617e-02 0.0 
1.909630278469e-02 6.095894272761e-02 0.0 
-1.138052770112e-03 9.237060328079e-03 0.0 
7.465030874946e-03 1.360389260295e-02 0.0 
1.183210662920e-02 -4.816987106489e-04 0.0 
2.416287331173e-03 4.687499381888e-02 0.0 
-5.285973890874e-03 5.060017926440e-02 0.0 
5.595960049815e-03 -2.687138271175e-02 0.0 
-1.939229392480e-03 7.310839556892e-03 0.0 
1.350041721060e-02 1.975272193031e-02 0.0 
-1.744677170815e-03 9.116714144221e-03 0.0 
5.913857559111e-04 6.801473353137e-02 0.0 
8.719458289416e-03 4.237583150104e-02 0.0 
-1.024013756384e-03 6.225472695556e-03 0.0 
7.988211464008e-03 1.076943223426e-02 0.0 
9.269540414663e-04 -8.536208471087e-03 0.0 
1.646893282800e-03 6.419712817316e-03 0.0 
7.366874432919e-03 -1.138837840708e-02 0.0 
9.372687274320e-03 7.929587289955e-02 0.0 
7.381702760617e-03 5.450753240846e-02 0.0 
-1.039166393833e-03 4.237339508234e-03 0.0 
2.990591628906e-03 1.505797392411e-02 0.0 
-3.729110645500e-03 4.978483246231e-02 0.0 
2.000266150903e-02 7.135843837060e-02 0.0 
-1.884917503570e-03 6.077800819121e-02 0.0 
1.122424888101e-02 1.235851133183e-02 0.0 
3.913740444937e-03 2.401145490792e-02 0.0 
2.087992197800e-03 1.435771991180e-02 0.0 
2.177803667298e-04 5.684766011906e-03 0.0 
5.472738588120e-03 1.327701754507e-02 0.0 
2.013103192307e-03 2.766937156485e-03 0.0 
7.034473973099e-03 -2.738440213072e-02 0.0 
6.723835756036e-03 7.310825081436e-03 0.0 
2.108666557799e-03 8.081444382890e-03 0.0 
5.145442057462e-03 7.966787180264e-02 0.0 
6.672571003145e-03 1.375420589843e-02 0.0 
-3.540680126959e-03 5.539572728795e-02 0.0 
1.084402883804e-03 5.837670778107e-02 0.0 
1.273959244105e-04 7.268412022176e-03 0.0 
1.601845438077e-03 6.777209913822e-02 0.0 
8.663755852570e-04 7.993335119705e-02 0.0 
-1.692932393257e-04 4.400364146903e-03 0.0 
1.089725558430e-03 6.407167225712e-02 0.0 
1.850028326214e-03 6.827808227010e-02 0.0 
7.514968252398e-03 1.080016242464e-02 0.0 
-9.226814827961e-04 4.324856375092e-02 0.0 
1.028603994678e-03 3.085685601142e-02 0.0 
1.570654938576e-04 2.931224009796e-03 0.0 
7.606884586514e-03 -3.286087442653e-02 0.0 
1.480545350308e-03 5.460299343412e-02 0.0 
6.020405701621e-03 6.898513271685e-03 0.0 
4.398165173953e-03 1.305762605848e-02 0.0 
3.810116124981e-03 5.989345506935e-02 0.0 
1.412558731111e-02 -5.927655031452e-03 0.0 
1.049150117000e-02 1.494550794255e-02 0.0 
-3.856064679667e-03 4.695541237310e-02 0.0 
1.151341185436e-02 1.365423122677e-02 0.0 
4.292700666208e-03 8.218946009320e-03 0.0 
2.507659643262e-03 -9.468095027895e-03 0.0 
-7.795972557493e-04 3.915451273042e-02 0.0 
8.322012976895e-03 5.041846089337e-02 0.0 
-2.146244060417e-03 7.312483941578e-03 0.0 
-2.542803692440e-03 4.616133730010e-02 0.0 
8.892865416267e-03 4.717883878215e-02 0.0 
3.636385774711e-04 1.221307685427e-01 0.0 
1.490398542259e-02 5.906567930915e-02 0.0 
4.108204462098e-04 1.186981082715e-01 0.0 
1.935667406316e-02 6.852006908601e-02 0.0 
4.329361572402e-04 1.147849955591e-01 0.0 
2.232394758653e-02 7.548399394683e-02 0.0 
4.872045609197e-04 1.103995901054e-01 0.0 
2.387937606972e-02 7.994254131928e-02 0.0 
4.958422577343e-04 1.055432804099e-01 0.0 
2.410817852804e-02 8.196183694779e-02 0.0 
5.446421762259e-04 1.002206911041e-01 0.0 
2.322781842082e-02 8.175359304284e-02 0.0 
5.454082645012e-04 9.443870099878e-02 0.0 
2.144715249552e-02 7.967315944668e-02 0.0 
5.781363742100e-04 8.820807520442e-02 0.0 

TENSORS node_materi_stress float
-1.161811441587e+01 4.129378729624e-02 0.0 
4.129378729624e-02 -8.477508232153e+00 0.0 
0.0 0.0 -4.794418371710e+00 
-7.469679452452e+01 4.719740846074e-01 0.0 
4.719740846074e-01 -1.570308130532e+02 0.0 
0.0 0.0 -6.911828227331e+01 
-1.677047209284e+02 -3.333213438288e-01 0.0 
-3.333213438288e-01 -3.928257861054e+02 0.0 
0.0 0.0 -1.677591521102e+02 
-1.486778550406e+02 6.169698434540e-01 0.0 
6.169698434540e-01 -3.468455866262e+02 0.0 
0.0 0.0 -1.482570325000e+02 
-1.139836174081e+01 -1.279717639898e-01 0.0 
-1.279717639898e-01 -2.071749524271e+01 0.0 
0.0 0.0 -7.413864828045e+00 
-1.431242150557e+01 -4.952981396294e-01 0.0 
-4.952981396294e-01 -4.014242128034e+01 0.0 
0.0 0.0 -1.365869482502e+01 
-1.787681199808e+01 -5.724379444479e-01 0.0 
-5.724379444479e-01 -5.826987816545e+01 0.0 
0.0 0.0 -2.165160469516e+01 
-2.882884419994e+01 -7.079001275809e-01 0.0 
-7.079001275809e-01 -7.917839895703e+01 0.0 
0.0 0.0 -3.124882562743e+01 
-4.490296220778e+01 -6.909900511535e-01 0.0 
-6.909900511535e-01 -9.963392925016e+01 0.0 
0.0 0.0 -4.053153799485e+01 
-5.903157653909e+01 -7.032655555079e-01 0.0 
-7.032655555079e-01 -1.200410867257e+02 0.0 
0.0 0.0 -4.971888135700e+01 
-7.146316389397e+01 -7.425378862472e-01 0.0 
-7.425378862472e-01 -1.405755222574e+02 0.0 
0.0 0.0 -5.883413960404e+01 
-8.236743345543e+01 -7.214524458097e-01 0.0 
-7.214524458097e-01 -1.611655351125e+02 0.0 
0.0 0.0 -6.786576285089e+01 
-9.182906694049e+01 -6.975504211226e-01 0.0 
-6.975504211226e-01 -1.817858396490e+02 0.0 
0.0 0.0 -7.683897872775e+01 
-1.002070705229e+02 -7.073806844135e-01 0.0 
-7.073806844135e-01 -2.025426616718e+02 0.0 
0.0 0.0 -8.576966749060e+01 
-1.075520898077e+02 -7.823775816352e-01 0.0 
-7.823775816352e-01 -2.237439280144e+02 0.0 
0.0 0.0 -9.479169620632e+01 
-1.141194394444e+02 -6.941173644779e-01 0.0 
-6.941173644779e-01 -2.441481719879e+02 0.0 
0.0 0.0 -1.035935718262e+02 
-1.196836952732e+02 -8.461014211350e-01 0.0 
-8.461014211350e-01 -2.625565306872e+02 0.0 
0.0 0.0 -1.115462978941e+02 
-1.249671746747e+02 -4.123056889528e-01 0.0 
-4.123056889528e-01 -2.827046122937e+02 0.0 
0.0 0.0 -1.201338309268e+02 
-1.300923139647e+02 -3.293496091350e-01 0.0 
-3.293496091350e-01 -3.031967738698e+02 0.0 
0.0 0.0 -1.289404988083e+02 
-1.365431558782e+02 -2.942842979997e-01 0.0 
-2.942842979997e-01 -3.229308825405e+02 0.0 
0.0 0.0 -1.374360560724e+02 
-1.451771918443e+02 -2.336059357080e-01 0.0 
-2.336059357080e-01 -3.427060466261e+02 0.0 
0.0 0.0 -1.459649715411e+02 
-1.540062529844e+02 -2.720370820721e-01 0.0 
-2.720370820721e-01 -3.625907588559e+02 0.0 
0.0 0.0 -1.545791035521e+02 
-1.625858622698e+02 -3.497838592875e-01 0.0 
-3.497838592875e-01 -3.815742553472e+02 0.0 
0.0 0.0 -1.628480352851e+02 
-1.490856343232e+02 6.161189336211e-01 0.0 
6.161189336211e-01 -3.480006491786e+02 0.0 
0.0 0.0 -1.487258850505e+02 
-1.485418238685e+02 1.086556408909e+00 0.0 
1.086556408909e+00 -3.470054299995e+02 0.0 
0.0 0.0 -1.482641761604e+02 
-1.487006288474e+02 1.844324359794e+00 0.0 
1.844324359794e+00 -3.473510761177e+02 0.0 
0.0 0.0 -1.484155114895e+02 
-1.486980150617e+02 1.996390758572e+00 0.0 
1.996390758572e+00 -3.474843150932e+02 0.0 
0.0 0.0 -1.484546990465e+02 
-1.485901491121e+02 2.666716097626e+00 0.0 
2.666716097626e+00 -3.470382228791e+02 0.0 
0.0 0.0 -1.482885115973e+02 
-1.489813674672e+02 3.209489963626e+00 0.0 
3.209489963626e+00 -3.479181504843e+02 0.0 
0.0 0.0 -1.486698553854e+02 
-1.494147733595e+02 3.804838133553e+00 0.0 
3.804838133553e+00 -3.485124806890e+02 0.0 
0.0 0.0 -1.489781762145e+02 
-1.492679301380e+02 4.492888426109e+00 0.0 
4.492888426109e+00 -3.485827943269e+02 0.0 
0.0 0.0 -1.489552173395e+02 
-1.498664517107e+02 5.241566765076e+00 0.0 
5.241566765076e+00 -3.498149619850e+02 0.0 
0.0 0.0 -1.495044241087e+02 
-1.500020798341e+02 5.597419633151e+00 0.0 
5.597419633151e+00 -3.503399027481e+02 0.0 
0.0 0.0 -1.497025947747e+02 
-1.501135664497e+02 6.364763597289e+00 0.0 
6.364763597289e+00 -3.503570302820e+02 0.0 
0.0 0.0 -1.497411790195e+02 
-1.506357517824e+02 7.046216457480e+00 0.0 
7.046216457480e+00 -3.516954289352e+02 0.0 
0.0 0.0 -1.502993542153e+02 
-1.513983272849e+02 7.717742985725e+00 0.0 
7.717742985725e+00 -3.530618773783e+02 0.0 
0.0 0.0 -1.509380613989e+02 
-1.514494294097e+02 8.397861285253e+00 0.0 
8.397861285253e+00 -3.536474372710e+02 0.0 
0.0 0.0 -1.511290600042e+02 
-1.519703586937e+02 9.083974640396e+00 0.0 
9.083974640396e+00 -3.544919946417e+02 0.0 
0.0 0.0 -1.515387060006e+02 
-1.520059531060e+02 9.622315215992e+00 0.0 
9.622315215992e+00 -3.550046310887e+02 0.0 
0.0 0.0 -1.517031752584e+02 
-1.525434382639e+02 1.029267428623e+01 0.0 
1.029267428623e+01 -3.562381038701e+02 0.0 
0.0 0.0 -1.522344626402e+02 
-1.536730107410e+02 1.089709953984e+01 0.0 
1.089709953984e+01 -3.585321763589e+02 0.0 
0.0 0.0 -1.532615561300e+02 
-1.543843465656e+02 1.146631612556e+01 0.0 
1.146631612556e+01 -3.605681953878e+02 0.0 
0.0 0.0 -1.540857625860e+02 
-1.551873462898e+02 1.195166697703e+01 0.0 
1.195166697703e+01 -3.626786908912e+02 0.0 
0.0 0.0 -1.549598111543e+02 
-1.558345197838e+02 1.224400346957e+01 0.0 
1.224400346957e+01 -3.644434937935e+02 0.0 
0.0 0.0 -1.556834040732e+02 
-1.566302808909e+02 1.261188332739e+01 0.0 
1.261188332739e+01 -3.662396907203e+02 0.0 
0.0 0.0 -1.564609914834e+02 
-1.573213407369e+02 1.277758912596e+01 0.0 
1.277758912596e+01 -3.682146794814e+02 0.0 
0.0 0.0 -1.572608060655e+02 
-1.580748342773e+02 1.285566834042e+01 0.0 
1.285566834042e+01 -3.701928962119e+02 0.0 
0.0 0.0 -1.580803191468e+02 
-1.589433753344e+02 1.279970645074e+01 0.0 
1.279970645074e+01 -3.724237727490e+02 0.0 
0.0 0.0 -1.590101444250e+02 
-1.599000633448e+02 1.266276542058e+01 0.0 
1.266276542058e+01 -3.746812908792e+02 0.0 
0.0 0.0 -1.599744062672e+02 
-1.606074136595e+02 1.239017705112e+01 0.0 
1.239017705112e+01 -3.767477700353e+02 0.0 
0.0 0.0 -1.608065551084e+02 
-1.614929056325e+02 1.201944851948e+01 0.0 
1.201944851948e+01 -3.787395552207e+02 0.0 
0.0 0.0 -1.616697382560e+02 
-1.620403881241e+02 1.157018897736e+01 0.0 
1.157018897736e+01 -3.803738484837e+02 0.0 
0.0 0.0 -1.623242709823e+02 
-1.631637116325e+02 1.120348222278e+01 0.0 
1.120348222278e+01 -3.828164876280e+02 0.0 
0.0 0.0 -1.633940597782e+02 
-1.636414977762e+02 1.032160088595e+01 0.0 
1.032160088595e+01 -3.844015868100e+02 0.0 
0.0 0.0 -1.640129253758e+02 
-1.639161260553e+02 9.762187565139e+00 0.0 
9.762187565139e+00 -3.851888665064e+02 0.0 
0.0 0.0 -1.643314977685e+02 
-1.646438271832e+02 9.012642906436e+00 0.0 
9.012642906436e+00 -3.869232672174e+02 0.0 
0.0 0.0 -1.650701283202e+02 
-1.653789693835e+02 8.250608190437e+00 0.0 
8.250608190437e+00 -3.887281209734e+02 0.0 
0.0 0.0 -1.658321271071e+02 
-1.660215712425e+02 7.379813017747e+00 0.0 
7.379813017747e+00 -3.902656405277e+02 0.0 
0.0 0.0 -1.664861635311e+02 
-1.665291759693e+02 6.524938359008e+00 0.0 
6.524938359008e+00 -3.915111581138e+02 0.0 
0.0 0.0 -1.670121002249e+02 
-1.670336908079e+02 5.630019676537e+00 0.0 
5.630019676537e+00 -3.925712271603e+02 0.0 
0.0 0.0 -1.674814753905e+02 
-1.672017524747e+02 4.760595416411e+00 0.0 
4.760595416411e+00 -3.930293767463e+02 0.0 
0.0 0.0 -1.676693387663e+02 
-1.673833045383e+02 4.004609834605e+00 0.0 
4.004609834605e+00 -3.932734718076e+02 0.0 
0.0 0.0 -1.677970329038e+02 
-1.673014020892e+02 3.229221823770e+00 0.0 
3.229221823770e+00 -3.931738012176e+02 0.0 
0.0 0.0 -1.677425609921e+02 
-1.676051767961e+02 2.687664758302e+00 0.0 
2.687664758302e+00 -3.936457468183e+02 0.0 
0.0 0.0 -1.679752770843e+02 
-1.681876739741e+02 2.038928947868e+00 0.0 
2.038928947868e+00 -3.945574576167e+02 0.0 
0.0 0.0 -1.684235394773e+02 
-1.684105451567e+02 1.681997689169e+00 0.0 
1.681997689169e+00 -3.948037603448e+02 0.0 
0.0 0.0 -1.685642916504e+02 
-1.670626105230e+02 1.252613788623e+00 0.0 
1.252613788623e+00 -3.921629158497e+02 0.0 
0.0 0.0 -1.673676579118e+02 
-1.681946704038e+02 8.669951852779e-01 0.0 
8.669951852779e-01 -3.940960520006e+02 0.0 
0.0 0.0 -1.682872167213e+02 
-1.676496481928e+02 6.357096920201e-01 0.0 
6.357096920201e-01 -3.931097631088e+02 0.0 
0.0 0.0 -1.678278233905e+02 
-1.678860091624e+02 6.153796802685e-01 0.0 
6.153796802685e-01 -3.934828885251e+02 0.0 
0.0 0.0 -1.680106693062e+02 
-1.681936266728e+02 2.151673744996e-01 0.0 
2.151673744996e-01 -3.940564600503e+02 0.0 
0.0 0.0 -1.682750260169e+02 
-1.681018537608e+02 1.548871954300e-01 0.0 
1.548871954300e-01 -3.938964342009e+02 0.0 
0.0 0.0 -1.681994863885e+02 
-8.330949237174e+01 3.546720722166e-01 0.0 
3.546720722166e-01 -1.769145161089e+02 0.0 
0.0 0.0 -7.766720254420e+01 
-9.134304538817e+01 4.187046651140e-01 0.0 
4.187046651140e-01 -1.967494820653e+02 0.0 
0.0 0.0 -8.602775823605e+01 
-9.937614807587e+01 4.229939532657e-01 0.0 
4.229939532657e-01 -2.164342401830e+02 0.0 
0.0 0.0 -9.434311647767e+01 
-1.070713851282e+02 4.679329206812e-01 0.0 
4.679329206812e-01 -2.357587885184e+02 0.0 
0.0 0.0 -1.024490520940e+02 
-1.148032839771e+02 4.400949255713e-01 0.0 
4.400949255713e-01 -2.555609145119e+02 0.0 
0.0 0.0 -1.107092595467e+02 
-1.226555703433e+02 4.946918272940e-01 0.0 
4.946918272940e-01 -2.755019828220e+02 0.0 
0.0 0.0 -1.190472659496e+02 
-1.300396148143e+02 4.625176058609e-01 0.0 
4.625176058609e-01 -2.952276565350e+02 0.0 
0.0 0.0 -1.271801814048e+02 
-1.372502268444e+02 5.427488726896e-01 0.0 
5.427488726896e-01 -3.148221738094e+02 0.0 
0.0 0.0 -1.352217201962e+02 
-1.447512084333e+02 5.922670479644e-01 0.0 
5.922670479644e-01 -3.350584656754e+02 0.0 
0.0 0.0 -1.435429022326e+02 
-6.485523341824e+01 3.098476655969e+01 0.0 
3.098476655969e+01 -6.935978007418e+01 0.0 
0.0 0.0 -4.068788820363e+01 
-8.200918707184e+01 4.050880839578e+00 0.0 
4.050880839578e+00 -1.607635318154e+02 0.0 
0.0 0.0 -7.192975621509e+01 
-4.436435289544e+01 3.174905128235e+01 0.0 
3.174905128235e+01 -3.190861810894e+01 0.0 
0.0 0.0 -2.147822078768e+01 
-4.093403303859e+01 1.870387920720e+01 0.0 
1.870387920720e+01 -2.267482508454e+01 0.0 
0.0 0.0 -1.524641380589e+01 
-3.087716819441e+01 1.007088468706e+01 0.0 
1.007088468706e+01 -2.366326705256e+01 0.0 
0.0 0.0 -1.299794043621e+01 
-3.483412911989e+01 9.015170217290e+00 0.0 
9.015170217290e+00 -4.188361139078e+01 0.0 
0.0 0.0 -1.993962019342e+01 
-4.222733172025e+01 8.161699947158e+00 0.0 
8.161699947158e+00 -6.198268525922e+01 0.0 
0.0 0.0 -2.776607635147e+01 
-5.127906270880e+01 6.635388431184e+00 0.0 
6.635388431184e+00 -8.256830412704e+01 0.0 
0.0 0.0 -3.534426067157e+01 
-6.025282942437e+01 5.053847286097e+00 0.0 
5.053847286097e+00 -1.026319935228e+02 0.0 
0.0 0.0 -4.400861568643e+01 
-6.832867274913e+01 4.227903051934e+00 0.0 
4.227903051934e+00 -1.218355102594e+02 0.0 
0.0 0.0 -5.376687557846e+01 
-7.539556990860e+01 3.973116951430e+00 0.0 
3.973116951430e+00 -1.407526978221e+02 0.0 
0.0 0.0 -6.286202433256e+01 
-1.097410804304e+01 7.569713829918e-01 0.0 
7.569713829918e-01 -7.274856200172e+00 0.0 
0.0 0.0 -4.783078105548e+00 
-1.619186736433e+01 6.267934346642e-01 0.0 
6.267934346642e-01 -1.960672329668e+01 0.0 
0.0 0.0 -1.001762101138e+01 
-2.450307039573e+01 7.514300093973e-01 0.0 
7.514300093973e-01 -3.913519320702e+01 0.0 
0.0 0.0 -1.849301265315e+01 
-3.238366906964e+01 6.416600617502e-01 0.0 
6.416600617502e-01 -5.864975999031e+01 0.0 
0.0 0.0 -2.691002871799e+01 
-4.086542624928e+01 7.831258599601e-01 0.0 
7.831258599601e-01 -7.818925410879e+01 0.0 
0.0 0.0 -3.531640410742e+01 
-4.934329920399e+01 6.379102279571e-01 0.0 
6.379102279571e-01 -9.772372940163e+01 0.0 
0.0 0.0 -4.372010858169e+01 
-5.785196499909e+01 7.790135828795e-01 0.0 
7.790135828795e-01 -1.172474114562e+02 0.0 
0.0 0.0 -5.212981293660e+01 
-6.632193042910e+01 5.675098798584e-01 0.0 
5.675098798584e-01 -1.366923873470e+02 0.0 
0.0 0.0 -6.050429533283e+01 
-7.383560633437e+01 -1.663598686499e-01 0.0 
-1.663598686499e-01 -1.544080861546e+02 0.0 
0.0 0.0 -6.807310774669e+01 
-7.452491033478e+01 1.033059392476e-01 0.0 
1.033059392476e-01 -1.556024292867e+02 0.0 
0.0 0.0 -6.863820188643e+01 
-7.460096990115e+01 1.772607465613e-01 0.0 
1.772607465613e-01 -1.556479243724e+02 0.0 
0.0 0.0 -6.867466828207e+01 
-7.472237812033e+01 3.102668495895e-01 0.0 
3.102668495895e-01 -1.554394727173e+02 0.0 
0.0 0.0 -6.864855525128e+01 
-7.618367530264e+01 4.167720260111e-01 0.0 
4.167720260111e-01 -1.581451767283e+02 0.0 
0.0 0.0 -6.989865560929e+01 
-7.540521317980e+01 5.216561139405e-01 0.0 
5.216561139405e-01 -1.558314664557e+02 0.0 
0.0 0.0 -6.897100389065e+01 
-7.582605247105e+01 7.315352577787e-01 0.0 
7.315352577787e-01 -1.557335307783e+02 0.0 
0.0 0.0 -6.906787497482e+01 
-7.624585660581e+01 8.739240321565e-01 0.0 
8.739240321565e-01 -1.560308355451e+02 0.0 
0.0 0.0 -6.928300764527e+01 
-7.681224241967e+01 1.183334084868e+00 0.0 
1.183334084868e+00 -1.566178233911e+02 0.0 
0.0 0.0 -6.962901974324e+01 
-7.730200634686e+01 1.465748087157e+00 0.0 
1.465748087157e+00 -1.567559565993e+02 0.0 
0.0 0.0 -6.981738888385e+01 
-7.794814576661e+01 1.885893981287e+00 0.0 
1.885893981287e+00 -1.570020258934e+02 0.0 
0.0 0.0 -7.008505149801e+01 
-7.850933432239e+01 2.346634464437e+00 0.0 
2.346634464437e+00 -1.573351486167e+02 0.0 
0.0 0.0 -7.033043979444e+01 
-7.935196083059e+01 2.792771404011e+00 0.0 
2.792771404011e+00 -1.579695699536e+02 0.0 
0.0 0.0 -7.069853832699e+01 
-8.025752762893e+01 3.297978485884e+00 0.0 
3.297978485884e+00 -1.589528546714e+02 0.0 
0.0 0.0 -7.114152693810e+01 
-8.963364719809e+01 1.475740248471e+01 0.0 
1.475740248471e+01 -9.640307304678e+01 0.0 
0.0 0.0 -5.617214909003e+01 
-1.063229663094e+02 3.086606949350e+00 0.0 
3.086606949350e+00 -1.045074634967e+02 0.0 
0.0 0.0 -6.361620373036e+01 
-1.125594806604e+02 -2.176367421740e+00 0.0 
-2.176367421740e+00 -1.040334137005e+02 0.0 
0.0 0.0 -6.531203865711e+01 
-1.021176568575e+02 -1.016498885630e+01 0.0 
-1.016498885630e+01 -9.511815464270e+01 0.0 
0.0 0.0 -5.950436101486e+01 
-6.690936070554e+01 -2.114892043775e+01 0.0 
-2.114892043775e+01 -5.668733718643e+01 0.0 
0.0 0.0 -3.745789961103e+01 
-3.471132631950e+01 -1.487360403535e+01 0.0 
-1.487360403535e+01 -1.984051610700e+01 0.0 
0.0 0.0 -1.609141178743e+01 
-1.839550530144e+01 -3.708013229106e+00 0.0 
-3.708013229106e+00 -1.079621110888e+01 0.0 
0.0 0.0 -8.189333598670e+00 
-1.273412898522e+01 -5.905922770050e-01 0.0 
-5.905922770050e-01 -9.196941944309e+00 0.0 
0.0 0.0 -5.952740978421e+00 
-1.073039978344e+01 4.281434637136e-01 0.0 
4.281434637136e-01 -8.528022871202e+00 0.0 
0.0 0.0 -5.406828747986e+00 
-1.054750451771e+01 7.203783691662e-01 0.0 
7.203783691662e-01 -7.861432209617e+00 0.0 
0.0 0.0 -5.090386770979e+00 
-1.066037443118e+01 4.815763884418e-01 0.0 
4.815763884418e-01 -7.944207426176e+00 0.0 
0.0 0.0 -4.927354317899e+00 
-1.117659285454e+01 1.677716544230e-01 0.0 
1.677716544230e-01 -8.702153473723e+00 0.0 
0.0 0.0 -5.101829906193e+00 
-1.134630983348e+01 6.541885984497e-03 0.0 
6.541885984497e-03 -8.506407157197e+00 0.0 
0.0 0.0 -4.634771621961e+00 
-1.114384593901e+01 3.833511342414e-02 0.0 
3.833511342414e-02 -7.844433063732e+00 0.0 
0.0 0.0 -4.382217186924e+00 
-1.094218227162e+01 5.554541906130e-02 0.0 
5.554541906130e-02 -7.930135123198e+00 0.0 
0.0 0.0 -4.338060799383e+00 
-1.098654511485e+01 5.917438541641e-02 0.0 
5.917438541641e-02 -8.188448429116e+00 0.0 
0.0 0.0 -4.410044533605e+00 
-1.103834441553e+01 9.480136651114e-02 0.0 
9.480136651114e-02 -8.232584453517e+00 0.0 
0.0 0.0 -4.412623509735e+00 
-1.116142537280e+01 2.665212389953e-02 0.0 
2.665212389953e-02 -7.782704429851e+00 0.0 
0.0 0.0 -4.354006949714e+00 
-1.153381847506e+01 -9.188047677398e-02 0.0 
-9.188047677398e-02 -7.116103791877e+00 0.0 
0.0 0.0 -4.347694434558e+00 
-2.514870020532e+01 6.003688997156e+00 0.0 
6.003688997156e+00 -5.624195811252e+00 0.0 
0.0 0.0 -5.667566395232e+00 
-1.658923396784e+01 3.636475503101e+00 0.0 
3.636475503101e+00 -9.847237082351e+00 0.0 
0.0 0.0 -4.770289756602e+00 
-1.076504239703e+01 1.854662690739e+00 0.0 
1.854662690739e+00 -9.930205599290e+00 0.0 
0.0 0.0 -3.411855734709e+00 
-7.297226408529e+00 1.105949496282e+00 0.0 
1.105949496282e+00 -9.725934481683e+00 0.0 
0.0 0.0 -3.318955385456e+00 
-4.962479435736e+00 5.481711101487e-01 0.0 
5.481711101487e-01 -9.708926616929e+00 0.0 
0.0 0.0 -3.553621993743e+00 
-3.417864710298e+00 2.789519265887e-01 0.0 
2.789519265887e-01 -9.607046073209e+00 0.0 
0.0 0.0 -3.368308996802e+00 
-2.541930199350e+00 1.324214556834e-01 0.0 
1.324214556834e-01 -9.672733361648e+00 0.0 
0.0 0.0 -3.103197623510e+00 
-2.125474309839e+00 3.679052544458e-03 0.0 
3.679052544458e-03 -9.719245700774e+00 0.0 
0.0 0.0 -2.939620411775e+00 
-2.074326863467e+00 -1.525240763642e-01 0.0 
-1.525240763642e-01 -9.732203584649e+00 0.0 
0.0 0.0 -2.879243589709e+00 
-2.221985211220e+00 -2.901676313180e-01 0.0 
-2.901676313180e-01 -9.707064320931e+00 0.0 
0.0 0.0 -2.879133637639e+00 
-2.683612014999e+00 -3.991819555807e-01 0.0 
-3.991819555807e-01 -9.699358953308e+00 0.0 
0.0 0.0 -2.988001357564e+00 
-3.352615282665e+00 -4.802571153287e-01 0.0 
-4.802571153287e-01 -9.680593988630e+00 0.0 
0.0 0.0 -3.202007848578e+00 
-4.154810620640e+00 -5.232274338072e-01 0.0 
-5.232274338072e-01 -9.665978960864e+00 0.0 
0.0 0.0 -3.463122729279e+00 
-5.042522262932e+00 -5.348500283692e-01 0.0 
-5.348500283692e-01 -9.656978968830e+00 0.0 
0.0 0.0 -3.737060629102e+00 
-5.951807686287e+00 -5.143498568459e-01 0.0 
-5.143498568459e-01 -9.651098507239e+00 0.0 
0.0 0.0 -4.007956160352e+00 
-6.832475594992e+00 -4.725773121355e-01 0.0 
-4.725773121355e-01 -9.653597994833e+00 0.0 
0.0 0.0 -4.265665309171e+00 
-7.654532122296e+00 -4.218117687658e-01 0.0 
-4.218117687658e-01 -9.662502029462e+00 0.0 
0.0 0.0 -4.503489391059e+00 
-8.401659065445e+00 -3.686610801392e-01 0.0 
-3.686610801392e-01 -9.674102715136e+00 0.0 
0.0 0.0 -4.718143883040e+00 
-9.067630578701e+00 -3.168136025671e-01 0.0 
-3.168136025671e-01 -9.686048682682e+00 0.0 
0.0 0.0 -4.908175558401e+00 
-9.650120825084e+00 -2.677000856176e-01 0.0 
-2.677000856176e-01 -9.697529254267e+00 0.0 
0.0 0.0 -5.073589128646e+00 
-1.015037358082e+01 -2.227633150123e-01 0.0 
-2.227633150123e-01 -9.708407213908e+00 0.0 
0.0 0.0 -5.215154332642e+00 
-1.057076929331e+01 -1.827485803444e-01 0.0 
-1.827485803444e-01 -9.718789562900e+00 0.0 
0.0 0.0 -5.334546428848e+00 
-1.091516344593e+01 -1.481096026575e-01 0.0 
-1.481096026575e-01 -9.728654372531e+00 0.0 
0.0 0.0 -5.433203643558e+00 
-1.119055079678e+01 -1.205948850842e-01 0.0 
-1.205948850842e-01 -9.739086328591e+00 0.0 
0.0 0.0 -5.513053648531e+00 
-1.145566822624e+01 -1.533585385794e-01 0.0 
-1.533585385794e-01 -9.809635862982e+00 0.0 
0.0 0.0 -5.614233635283e+00 
-1.154635421860e+01 -3.008920497618e-01 0.0 
-3.008920497618e-01 -9.513041968058e+00 0.0 
0.0 0.0 -5.547859822277e+00 
-2.227705845130e+01 5.510811728669e+00 0.0 
5.510811728669e+00 -1.880161440043e+01 0.0 
0.0 0.0 -9.350797476864e+00 
-1.997305978454e+01 4.397706412935e+00 0.0 
4.397706412935e+00 -2.188453583611e+01 0.0 
0.0 0.0 -9.869690690458e+00 
-1.550084760969e+01 2.769071976843e+00 0.0 
2.769071976843e+00 -2.051493757409e+01 0.0 
0.0 0.0 -8.644350246237e+00 
-1.316050686064e+01 1.948656901354e+00 0.0 
1.948656901354e+00 -2.003837999081e+01 0.0 
0.0 0.0 -8.291196765770e+00 
-1.142811257851e+01 1.245073686536e+00 0.0 
1.245073686536e+00 -1.992179266127e+01 0.0 
0.0 0.0 -8.047144923528e+00 
-1.030782949433e+01 6.882947208351e-01 0.0 
6.882947208351e-01 -1.988628298267e+01 0.0 
0.0 0.0 -7.892554063247e+00 
-9.710123653767e+00 2.047277690713e-01 0.0 
2.047277690713e-01 -1.990884512790e+01 0.0 
0.0 0.0 -7.825593216543e+00 
-9.556275112352e+00 -1.743363013594e-01 0.0 
-1.743363013594e-01 -1.982932552459e+01 0.0 
0.0 0.0 -7.756166921641e+00 
-9.736940242365e+00 -4.341043183686e-01 0.0 
-4.341043183686e-01 -1.975942678022e+01 0.0 
0.0 0.0 -7.822842039314e+00 
-1.011934804461e+01 -5.998458183890e-01 0.0 
-5.998458183890e-01 -1.970555660785e+01 0.0 
0.0 0.0 -7.967375638250e+00 
-1.057413945466e+01 -7.031266089318e-01 0.0 
-7.031266089318e-01 -1.966310974205e+01 0.0 
0.0 0.0 -8.150703173781e+00 
-1.112140454435e+01 -7.712632550102e-01 0.0 
-7.712632550102e-01 -1.962424533578e+01 0.0 
0.0 0.0 -8.347835077049e+00 
-1.172695296040e+01 -7.933620498835e-01 0.0 
-7.933620498835e-01 -1.957961248472e+01 0.0 
0.0 0.0 -8.540713302121e+00 
-1.234835408193e+01 -7.733109795769e-01 0.0 
-7.733109795769e-01 -1.954961731904e+01 0.0 
0.0 0.0 -8.728219289242e+00 
-1.295560863259e+01 -7.266203549872e-01 0.0 
-7.266203549872e-01 -1.953480757308e+01 0.0 
0.0 0.0 -8.906469681829e+00 
-1.352922857878e+01 -6.657071784568e-01 0.0 
-6.657071784568e-01 -1.952959792729e+01 0.0 
0.0 0.0 -9.071789283262e+00 
-1.405669302799e+01 -5.977806075486e-01 0.0 
-5.977806075486e-01 -1.952945826203e+01 0.0 
0.0 0.0 -9.221830622881e+00 
-1.453034038615e+01 -5.266448300903e-01 0.0 
-5.266448300903e-01 -1.953218311571e+01 0.0 
0.0 0.0 -9.355287433114e+00 
-1.494488782292e+01 -4.546587399319e-01 0.0 
-4.546587399319e-01 -1.953669758218e+01 0.0 
0.0 0.0 -9.471465015123e+00 
-1.529798988582e+01 -3.834752576168e-01 0.0 
-3.834752576168e-01 -1.954182688990e+01 0.0 
0.0 0.0 -9.570346952250e+00 
-1.558867418514e+01 -3.130257935113e-01 0.0 
-3.130257935113e-01 -1.954596474505e+01 0.0 
0.0 0.0 -9.651819513116e+00 
-1.581575457423e+01 -2.419145079871e-01 0.0 
-2.419145079871e-01 -1.954549892126e+01 0.0 
0.0 0.0 -9.714206000620e+00 
-1.597921755597e+01 -1.648171491302e-01 0.0 
-1.648171491302e-01 -1.952973706348e+01 0.0 
0.0 0.0 -9.755962386875e+00 
-1.610453417256e+01 -5.382520312755e-02 0.0 
-5.382520312755e-02 -1.954061515606e+01 0.0 
0.0 0.0 -9.848293032844e+00 
-1.615932448494e+01 -4.361103981190e-01 0.0 
-4.361103981190e-01 -1.961422101632e+01 0.0 
0.0 0.0 -9.995669362421e+00 
-2.427731790811e+01 -3.902844455779e-01 0.0 
-3.902844455779e-01 -3.912543178608e+01 0.0 
0.0 0.0 -1.842833461898e+01 
-2.422050021352e+01 -2.884273176233e-01 0.0 
-2.884273176233e-01 -3.906454639801e+01 0.0 
0.0 0.0 -1.824300503805e+01 
-2.415167172574e+01 -3.484065210949e-01 0.0 
-3.484065210949e-01 -3.908883881911e+01 0.0 
0.0 0.0 -1.822809800242e+01 
-2.407741252136e+01 -4.734350990017e-01 0.0 
-4.734350990017e-01 -3.909445262322e+01 0.0 
0.0 0.0 -1.820183824899e+01 
-2.398219282816e+01 -6.023324017006e-01 0.0 
-6.023324017006e-01 -3.909496346284e+01 0.0 
0.0 0.0 -1.816478370422e+01 
-2.386244166939e+01 -7.313369460424e-01 0.0 
-7.313369460424e-01 -3.909446611140e+01 0.0 
0.0 0.0 -1.811745050730e+01 
-2.371878875131e+01 -8.603235322335e-01 0.0 
-8.603235322335e-01 -3.909468355354e+01 0.0 
0.0 0.0 -1.806046044033e+01 
-2.355282698138e+01 -9.869278232753e-01 0.0 
-9.869278232753e-01 -3.909905962794e+01 0.0 
0.0 0.0 -1.799472844269e+01 
-2.337025182472e+01 -1.106316288893e+00 0.0 
-1.106316288893e+00 -3.910896976748e+01 0.0 
0.0 0.0 -1.792090281657e+01 
-2.317961175719e+01 -1.213421435212e+00 0.0 
-1.213421435212e+00 -3.912656461162e+01 0.0 
0.0 0.0 -1.784041326680e+01 
-2.298986298912e+01 -1.300321467783e+00 0.0 
-1.300321467783e+00 -3.915906758542e+01 0.0 
0.0 0.0 -1.775592497314e+01 
-2.281128390501e+01 -1.352712026099e+00 0.0 
-1.352712026099e+00 -3.921663474192e+01 0.0 
0.0 0.0 -1.767086351456e+01 
-2.265629442662e+01 -1.349433521626e+00 0.0 
-1.349433521626e+00 -3.930823763013e+01 0.0 
0.0 0.0 -1.758768217441e+01 
-2.254350263357e+01 -1.263321027801e+00 0.0 
-1.263321027801e+00 -3.942042735061e+01 0.0 
0.0 0.0 -1.750175374001e+01 
-2.242602296354e+01 -1.092287209461e+00 0.0 
-1.092287209461e+00 -3.953275659576e+01 0.0 
0.0 0.0 -1.738637539299e+01 
-2.240714483626e+01 -7.973348744686e-01 0.0 
-7.973348744686e-01 -3.966606877438e+01 0.0 
0.0 0.0 -1.721740415634e+01 
-2.256797377841e+01 -3.430699191456e-01 0.0 
-3.430699191456e-01 -3.984760157228e+01 0.0 
0.0 0.0 -1.699169361410e+01 
-2.293593541647e+01 3.189014085099e-01 0.0 
3.189014085099e-01 -4.006098432366e+01 0.0 
0.0 0.0 -1.682721612254e+01 
-2.363775084044e+01 1.186065232596e+00 0.0 
1.186065232596e+00 -4.027706555782e+01 0.0 
0.0 0.0 -1.686442330133e+01 
-2.471666446031e+01 2.266874420584e+00 0.0 
2.266874420584e+00 -4.036423432194e+01 0.0 
0.0 0.0 -1.689687378360e+01 
-2.618269426715e+01 3.453649257937e+00 0.0 
3.453649257937e+00 -4.072132817947e+01 0.0 
0.0 0.0 -1.711941664688e+01 
-2.922448167723e+01 5.174099357121e+00 0.0 
5.174099357121e+00 -4.218216156030e+01 0.0 
0.0 0.0 -1.826629100764e+01 
-3.003354921599e+01 6.364112159070e+00 0.0 
6.364112159070e+00 -3.891421132878e+01 0.0 
0.0 0.0 -1.766173950378e+01 
-3.900360007872e+01 5.947597069629e+00 0.0 
5.947597069629e+00 -5.926536120137e+01 0.0 
0.0 0.0 -2.564217604919e+01 
-3.931346719154e+01 4.654409890254e+00 0.0 
4.654409890254e+00 -6.262109615309e+01 0.0 
0.0 0.0 -2.652015305638e+01 
-3.730457689278e+01 2.879146286163e+00 0.0 
2.879146286163e+00 -6.122566389500e+01 0.0 
0.0 0.0 -2.584853481620e+01 
-3.637568193617e+01 1.701182192833e+00 0.0 
1.701182192833e+00 -6.070714589714e+01 0.0 
0.0 0.0 -2.586578450568e+01 
-3.551959668432e+01 7.453479402584e-01 0.0 
7.453479402584e-01 -6.029366924373e+01 0.0 
0.0 0.0 -2.609719981894e+01 
-3.481342775226e+01 1.554149203180e-02 0.0 
1.554149203180e-02 -5.984067099230e+01 0.0 
0.0 0.0 -2.632107740656e+01 
-3.426080938780e+01 -5.351930721867e-01 0.0 
-5.351930721867e-01 -5.953083527260e+01 0.0 
0.0 0.0 -2.651007217692e+01 
-3.389990401510e+01 -9.073969714234e-01 0.0 
-9.073969714234e-01 -5.926904791232e+01 0.0 
0.0 0.0 -2.662253023690e+01 
-3.362020966659e+01 -1.130688416122e+00 0.0 
-1.130688416122e+00 -5.907038840344e+01 0.0 
0.0 0.0 -2.667139430869e+01 
-3.333841567026e+01 -1.229952348033e+00 0.0 
-1.229952348033e+00 -5.887550771608e+01 0.0 
0.0 0.0 -2.664073418197e+01 
-3.311550405472e+01 -1.247563152005e+00 0.0 
-1.247563152005e+00 -5.874573209351e+01 0.0 
0.0 0.0 -2.662733872093e+01 
-3.294438847001e+01 -1.211084077968e+00 0.0 
-1.211084077968e+00 -5.866633611180e+01 0.0 
0.0 0.0 -2.662872382382e+01 
-3.281422540030e+01 -1.138172520362e+00 0.0 
-1.138172520362e+00 -5.862075956230e+01 0.0 
0.0 0.0 -2.663921330738e+01 
-3.271514593105e+01 -1.041055481800e+00 0.0 
-1.041055481800e+00 -5.859369733698e+01 0.0 
0.0 0.0 -2.665320243928e+01 
-3.263784959421e+01 -9.252028198092e-01 0.0 
-9.252028198092e-01 -5.857775656961e+01 0.0 
0.0 0.0 -2.666780076209e+01 
-3.257455698800e+01 -7.978485203077e-01 0.0 
-7.978485203077e-01 -5.857323073844e+01 0.0 
0.0 0.0 -2.668284358185e+01 
-3.251997832533e+01 -6.655304333896e-01 0.0 
-6.655304333896e-01 -5.857348272896e+01 0.0 
0.0 0.0 -2.669579626272e+01 
-3.246991891912e+01 -5.289095276594e-01 0.0 
-5.289095276594e-01 -5.857159830889e+01 0.0 
0.0 0.0 -2.670347443874e+01 
-3.242220040518e+01 -3.893045389666e-01 0.0 
-3.893045389666e-01 -5.856583085555e+01 0.0 
0.0 0.0 -2.670528173690e+01 
-3.237272606478e+01 -2.498104116032e-01 0.0 
-2.498104116032e-01 -5.854876185630e+01 0.0 
0.0 0.0 -2.670057870235e+01 
-3.232024199846e+01 -1.091652508603e-01 0.0 
-1.091652508603e-01 -5.856545418001e+01 0.0 
0.0 0.0 -2.675410874539e+01 
-3.237325885554e+01 -4.756654462624e-01 0.0 
-4.756654462624e-01 -5.865346977396e+01 0.0 
0.0 0.0 -2.689145800061e+01 
-4.084313660775e+01 -3.755294597920e-01 0.0 
-3.755294597920e-01 -7.815333864069e+01 0.0 
0.0 0.0 -3.528460406288e+01 
-4.075891627474e+01 -2.271941538518e-01 0.0 
-2.271941538518e-01 -7.806104201210e+01 0.0 
0.0 0.0 -3.520857155079e+01 
-4.078901813417e+01 -2.754531196838e-01 0.0 
-2.754531196838e-01 -7.805757987377e+01 0.0 
0.0 0.0 -3.521220223213e+01 
-4.086949622356e+01 -3.997472614857e-01 0.0 
-3.997472614857e-01 -7.805721013906e+01 0.0 
0.0 0.0 -3.522327703813e+01 
-4.099299293596e+01 -5.257710958298e-01 0.0 
-5.257710958298e-01 -7.805895790704e+01 0.0 
0.0 0.0 -3.524281915519e+01 
-4.116281566045e+01 -6.502847910892e-01 0.0 
-6.502847910892e-01 -7.806569487682e+01 0.0 
0.0 0.0 -3.526764932914e+01 
-4.139285020366e+01 -7.682639530674e-01 0.0 
-7.682639530674e-01 -7.807609482573e+01 0.0 
0.0 0.0 -3.529188795734e+01 
-4.166637428707e+01 -8.725034854749e-01 0.0 
-8.725034854749e-01 -7.810144291168e+01 0.0 
0.0 0.0 -3.532532812616e+01 
-4.198356031841e+01 -9.549769994260e-01 0.0 
-9.549769994260e-01 -7.814877649321e+01 0.0 
0.0 0.0 -3.536922834625e+01 
-4.234440648951e+01 -1.007431217242e+00 0.0 
-1.007431217242e+00 -7.821641544073e+01 0.0 
0.0 0.0 -3.541870600691e+01 
-4.276603112752e+01 -1.017294596627e+00 0.0 
-1.017294596627e+00 -7.832350788610e+01 0.0 
0.0 0.0 -3.548436211913e+01 
-4.326164439807e+01 -9.677857516019e-01 0.0 
-9.677857516019e-01 -7.849178898111e+01 0.0 
0.0 0.0 -3.557583057243e+01 
-4.384692946353e+01 -8.369006054940e-01 0.0 
-8.369006054940e-01 -7.874980585685e+01 0.0 
0.0 0.0 -3.570373397698e+01 
-4.446514476774e+01 -5.931036359684e-01 0.0 
-5.931036359684e-01 -7.909292125581e+01 0.0 
0.0 0.0 -3.578910617005e+01 
-4.517959784970e+01 -1.882024519044e-01 0.0 
-1.882024519044e-01 -7.946492449744e+01 0.0 
0.0 0.0 -3.574674178909e+01 
-4.598121491074e+01 3.684768374130e-01 0.0 
3.684768374130e-01 -7.997517137310e+01 0.0 
0.0 0.0 -3.567829826506e+01 
-4.687604613959e+01 1.139274483326e+00 0.0 
1.139274483326e+00 -8.051704952201e+01 0.0 
0.0 0.0 -3.552530687018e+01 
-4.775977007446e+01 2.054494699908e+00 0.0 
2.054494699908e+00 -8.125148193681e+01 0.0 
0.0 0.0 -3.534092787318e+01 
-4.946530302865e+01 3.475802662512e+00 0.0 
3.475802662512e+00 -8.304075556549e+01 0.0 
0.0 0.0 -3.547756400058e+01 
-4.889215713854e+01 4.620888064800e+00 0.0 
4.620888064800e+00 -7.989280818366e+01 0.0 
0.0 0.0 -3.382104196171e+01 
-5.811341569182e+01 3.589106755277e+00 0.0 
3.589106755277e+00 -9.956435418124e+01 0.0 
0.0 0.0 -4.350168760321e+01 
-5.859247025463e+01 2.878217551623e+00 0.0 
2.878217551623e+00 -1.025233314624e+02 0.0 
0.0 0.0 -4.521735363692e+01 
-5.694689462924e+01 1.764030466599e+00 0.0 
1.764030466599e+00 -1.006803820963e+02 0.0 
0.0 0.0 -4.483776665651e+01 
-5.600696505806e+01 1.064231215254e+00 0.0 
1.064231215254e+00 -9.985545274855e+01 0.0 
0.0 0.0 -4.480352350704e+01 
-5.506219991082e+01 5.057430612066e-01 0.0 
5.057430612066e-01 -9.929868480101e+01 0.0 
0.0 0.0 -4.482679092631e+01 
-5.414990776533e+01 1.377736740170e-01 0.0 
1.377736740170e-01 -9.878536282468e+01 0.0 
0.0 0.0 -4.473264896969e+01 
-5.330144715740e+01 -1.346167640418e-01 0.0 
-1.346167640418e-01 -9.839594317644e+01 0.0 
0.0 0.0 -4.454835351293e+01 
-5.254493022625e+01 -3.204609359647e-01 0.0 
-3.204609359647e-01 -9.811198683506e+01 0.0 
0.0 0.0 -4.437083992282e+01 
-5.187858215217e+01 -4.260599136962e-01 0.0 
-4.260599136962e-01 -9.791700291916e+01 0.0 
0.0 0.0 -4.423017511863e+01 
-5.129472598419e+01 -4.678445015674e-01 0.0 
-4.678445015674e-01 -9.778438191829e+01 0.0 
0.0 0.0 -4.412110704341e+01 
-5.078706978802e+01 -4.522670943161e-01 0.0 
-4.522670943161e-01 -9.770376923170e+01 0.0 
0.0 0.0 -4.402806977582e+01 
-5.037626323989e+01 -4.186818688544e-01 0.0 
-4.186818688544e-01 -9.765881848527e+01 0.0 
0.0 0.0 -4.393924844864e+01 
-5.004776354831e+01 -3.802326336118e-01 0.0 
-3.802326336118e-01 -9.763457208287e+01 0.0 
0.0 0.0 -4.387540552009e+01 
-4.978769146492e+01 -3.281070757650e-01 0.0 
-3.281070757650e-01 -9.761477227854e+01 0.0 
0.0 0.0 -4.381582091190e+01 
-4.959867884643e+01 -2.676943309903e-01 0.0 
-2.676943309903e-01 -9.760404585459e+01 0.0 
0.0 0.0 -4.376081741031e+01 
-4.946677009339e+01 -2.037807718209e-01 0.0 
-2.037807718209e-01 -9.759615192592e+01 0.0 
0.0 0.0 -4.371887660579e+01 
-4.938847980827e+01 -1.324008527865e-01 0.0 
-1.324008527865e-01 -9.760191465882e+01 0.0 
0.0 0.0 -4.369711834012e+01 
-4.933321295254e+01 -5.822960410681e-02 0.0 
-5.822960410681e-02 -9.764328168066e+01 0.0 
0.0 0.0 -4.369294838996e+01 
-4.934505768451e+01 -4.731209496686e-01 0.0 
-4.731209496686e-01 -9.771018897042e+01 0.0 
0.0 0.0 -4.371657399648e+01 
-5.784077563820e+01 -3.389694896845e-01 0.0 
-3.389694896845e-01 -1.172637362861e+02 0.0 
0.0 0.0 -5.213135357730e+01 
-5.793875100095e+01 -1.102046128791e-01 0.0 
-1.102046128791e-01 -1.171699088376e+02 0.0 
0.0 0.0 -5.213259795156e+01 
-5.804250967981e+01 -8.610730012078e-02 0.0 
-8.610730012078e-02 -1.171442678773e+02 0.0 
0.0 0.0 -5.215603326715e+01 
-5.818135053016e+01 -9.895634807813e-02 0.0 
-9.895634807813e-02 -1.171603129012e+02 0.0 
0.0 0.0 -5.220249902942e+01 
-5.839279694957e+01 -1.058749752752e-01 0.0 
-1.058749752752e-01 -1.171695156167e+02 0.0 
0.0 0.0 -5.226869376988e+01 
-5.863285653596e+01 -9.815969801208e-02 0.0 
-9.815969801208e-02 -1.171966322882e+02 0.0 
0.0 0.0 -5.234884664724e+01 
-5.892520565108e+01 -6.802892739234e-02 0.0 
-6.802892739234e-02 -1.172480768962e+02 0.0 
0.0 0.0 -5.245198476418e+01 
-5.928570798787e+01 4.198883891450e-03 0.0 
4.198883891450e-03 -1.172999048040e+02 0.0 
0.0 0.0 -5.257568383755e+01 
-5.976663092520e+01 5.963724826904e-02 0.0 
5.963724826904e-02 -1.173616079403e+02 0.0 
0.0 0.0 -5.271143005929e+01 
-6.033655337503e+01 1.448428874202e-01 0.0 
1.448428874202e-01 -1.175380290704e+02 0.0 
0.0 0.0 -5.286920134139e+01 
-6.108548296536e+01 3.064900193332e-01 0.0 
3.064900193332e-01 -1.177694436300e+02 0.0 
0.0 0.0 -5.304048627663e+01 
-6.194007221599e+01 5.395643684252e-01 0.0 
5.395643684252e-01 -1.180830904084e+02 0.0 
0.0 0.0 -5.325739941508e+01 
-6.286699009203e+01 8.559416869779e-01 0.0 
8.559416869779e-01 -1.185362238965e+02 0.0 
0.0 0.0 -5.351341417719e+01 
-6.394354499410e+01 1.254920063302e+00 0.0 
1.254920063302e+00 -1.190389007110e+02 0.0 
0.0 0.0 -5.372073508048e+01 
-6.494461315244e+01 1.709858400774e+00 0.0 
1.709858400774e+00 -1.198338985668e+02 0.0 
0.0 0.0 -5.389283770871e+01 
-6.658276844443e+01 2.630301529661e+00 0.0 
2.630301529661e+00 -1.217594394141e+02 0.0 
0.0 0.0 -5.447008339604e+01 
-6.627261658612e+01 3.150051547461e+00 0.0 
3.150051547461e+00 -1.188242260088e+02 0.0 
0.0 0.0 -5.299097048207e+01 
-7.337018736939e+01 3.081817894234e+00 0.0 
3.081817894234e+00 -1.377952971027e+02 0.0 
0.0 0.0 -6.192107743099e+01 
-7.351936016098e+01 2.765042601647e+00 0.0 
2.765042601647e+00 -1.406271210850e+02 0.0 
0.0 0.0 -6.315175557961e+01 
-7.196499845083e+01 2.091119041483e+00 0.0 
2.091119041483e+00 -1.388571043287e+02 0.0 
0.0 0.0 -6.242131339526e+01 
-7.103170027538e+01 1.672705905086e+00 0.0 
1.672705905086e+00 -1.382368964588e+02 0.0 
0.0 0.0 -6.213182545898e+01 
-7.016301470444e+01 1.348637905461e+00 0.0 
1.348637905461e+00 -1.378258559184e+02 0.0 
0.0 0.0 -6.186844487826e+01 
-6.942396493145e+01 1.025279895251e+00 0.0 
1.025279895251e+00 -1.375366750911e+02 0.0 
0.0 0.0 -6.164611214919e+01 
-6.879438525831e+01 7.585988301843e-01 0.0 
7.585988301843e-01 -1.372356628904e+02 0.0 
0.0 0.0 -6.140901444462e+01 
-6.828372681341e+01 5.923009600655e-01 0.0 
5.923009600655e-01 -1.370689347269e+02 0.0 
0.0 0.0 -6.120579846210e+01 
-6.792932516393e+01 3.991869945400e-01 0.0 
3.991869945400e-01 -1.370484840232e+02 0.0 
0.0 0.0 -6.109334275615e+01 
-6.749178668950e+01 2.827759032139e-01 0.0 
2.827759032139e-01 -1.369347938534e+02 0.0 
0.0 0.0 -6.092797416285e+01 
-6.717805497057e+01 1.831523383826e-01 0.0 
1.831523383826e-01 -1.368715568186e+02 0.0 
0.0 0.0 -6.081488353676e+01 
-6.692717299901e+01 1.528883607382e-01 0.0 
1.528883607382e-01 -1.368357086621e+02 0.0 
0.0 0.0 -6.072886449835e+01 
-6.669243896290e+01 8.196982590795e-02 0.0 
8.196982590795e-02 -1.368290993326e+02 0.0 
0.0 0.0 -6.065646148865e+01 
-6.652353207991e+01 7.487575559687e-02 0.0 
7.487575559687e-02 -1.367528175817e+02 0.0 
0.0 0.0 -6.058290489848e+01 
-6.642818953411e+01 1.476106388331e-01 0.0 
1.476106388331e-01 -1.368879045963e+02 0.0 
0.0 0.0 -6.059482823914e+01 
-6.630675954519e+01 -4.503983452736e-01 0.0 
-4.503983452736e-01 -1.369685586696e+02 0.0 
0.0 0.0 -6.058259546444e+01 
-4.797941053339e+01 3.724730105201e+01 0.0 
3.724730105201e+01 -4.058069525455e+01 0.0 
0.0 0.0 -2.715643971781e+01 
-4.415562992639e+01 2.756202788203e+01 0.0 
2.756202788203e+01 -3.011614646292e+01 0.0 
0.0 0.0 -1.902949369275e+01 
-3.425664576470e+01 1.208022793478e+01 0.0 
1.208022793478e+01 -1.792504528768e+01 0.0 
0.0 0.0 -1.191006436433e+01 
-3.410591085963e+01 1.000120510588e+01 0.0 
1.000120510588e+01 -3.525973584245e+01 0.0 
0.0 0.0 -1.750593617774e+01 
-3.986433931380e+01 9.184106618401e+00 0.0 
9.184106618401e+00 -5.432002110288e+01 0.0 
0.0 0.0 -2.502996355293e+01 
-4.788894516792e+01 7.610754921760e+00 0.0 
7.610754921760e+00 -7.449146028461e+01 0.0 
0.0 0.0 -3.250863299950e+01 
-5.707045717012e+01 5.767492820140e+00 0.0 
5.767492820140e+00 -9.490296949252e+01 0.0 
0.0 0.0 -4.013672327645e+01 
-6.550459795607e+01 4.563220379373e+00 0.0 
4.563220379373e+00 -1.143572882529e+02 0.0 
0.0 0.0 -4.998818859881e+01 
-7.298427471899e+01 4.059535781913e+00 0.0 
4.059535781913e+00 -1.332901136108e+02 0.0 
0.0 0.0 -5.933577184108e+01 
-7.953043113493e+01 3.966745801540e+00 0.0 
3.966745801540e+00 -1.523161593188e+02 0.0 
0.0 0.0 -6.826926252509e+01 
-4.470132152874e+01 2.713894649841e+01 0.0 
2.713894649841e+01 -4.088269143608e+01 0.0 
0.0 0.0 -2.203398878840e+01 
-1.603565178803e+02 8.501776939150e+00 0.0 
8.501776939150e+00 -3.798253063472e+02 0.0 
0.0 0.0 -1.616545472683e+02 
-1.435074762975e+01 -5.904893752054e-01 0.0 
-5.904893752054e-01 -1.718540664759e+01 0.0 
0.0 0.0 -8.579576010584e+00 
-6.107544626478e+01 -2.085839795285e+01 0.0 
-2.085839795285e+01 -8.571695749263e+01 0.0 
0.0 0.0 -4.485876762375e+01 
-1.626370281526e+02 4.165590989834e+00 0.0 
4.165590989834e+00 -3.851406815468e+02 0.0 
0.0 0.0 -1.639333129098e+02 
-4.339713260055e+01 1.363037724033e+01 0.0 
1.363037724033e+01 -5.592921790295e+01 0.0 
0.0 0.0 -2.660248047711e+01 
-1.042703141516e+02 -7.850261637297e-01 0.0 
-7.850261637297e-01 -2.139987719439e+02 0.0 
0.0 0.0 -9.062777726532e+01 
-1.576429732615e+02 1.102445663289e+01 0.0 
1.102445663289e+01 -3.721989777553e+02 0.0 
0.0 0.0 -1.585525853050e+02 
-5.649427968098e+01 9.296538923389e+00 0.0 
9.296538923389e+00 -9.183437320104e+01 0.0 
0.0 0.0 -4.011925811898e+01 
-1.556164243103e+02 1.253135191600e+01 0.0 
1.253135191600e+01 -3.653426682702e+02 0.0 
0.0 0.0 -1.558877277742e+02 
-7.308347259391e+01 5.694927924123e+00 0.0 
5.694927924123e+00 -1.316781744456e+02 0.0 
0.0 0.0 -5.760645792598e+01 
-1.643977356468e+02 1.700711263411e+00 0.0 
1.700711263411e+00 -3.870375907458e+02 0.0 
0.0 0.0 -1.650305979178e+02 
-1.165680956914e+01 -7.241185464626e-03 0.0 
-7.241185464626e-03 -1.620217763103e+01 0.0 
0.0 0.0 -6.596341807717e+00 
-1.531434503560e+02 1.228370254376e+01 0.0 
1.228370254376e+01 -3.571456554297e+02 0.0 
0.0 0.0 -1.526867317357e+02 
-8.591032603931e+01 4.972121048679e+00 0.0 
4.972121048679e+00 -1.697076029516e+02 0.0 
0.0 0.0 -7.569681923725e+01 
-6.606807398663e+01 -9.045000296119e-01 0.0 
-9.045000296119e-01 -1.313608622522e+02 0.0 
0.0 0.0 -5.470328128380e+01 
-1.213853791554e+02 -5.093874319815e-01 0.0 
-5.093874319815e-01 -2.696114532424e+02 0.0 
0.0 0.0 -1.144800427703e+02 
-1.512033794675e+02 1.105859387783e+01 0.0 
1.105859387783e+01 -3.508545537021e+02 0.0 
0.0 0.0 -1.502173799509e+02 
-1.492171094123e+02 8.477672386803e+00 0.0 
8.477672386803e+00 -3.459440815312e+02 0.0 
0.0 0.0 -1.481483572830e+02 
-1.462738930931e+02 2.967030762860e+00 0.0 
2.967030762860e+00 -3.396407580045e+02 0.0 
0.0 0.0 -1.453743953293e+02 
-1.464279931450e+02 4.625979102773e+00 0.0 
4.625979102773e+00 -3.391834949925e+02 0.0 
0.0 0.0 -1.452834464412e+02 
-1.480736326323e+02 6.690372667189e+00 0.0 
6.690372667189e+00 -3.434182501389e+02 0.0 
0.0 0.0 -1.470475648314e+02 
-8.698709425463e+01 3.833414140300e+00 0.0 
3.833414140300e+00 -1.768056216702e+02 0.0 
0.0 0.0 -7.872753155683e+01 
-8.463080345397e+01 1.815985423910e+00 0.0 
1.815985423910e+00 -1.748506273558e+02 0.0 
0.0 0.0 -7.744442924292e+01 
-8.390291739243e+01 1.050941242652e+00 0.0 
1.050941242652e+00 -1.756052449382e+02 0.0 
0.0 0.0 -7.745244869920e+01 
-1.110638775341e+02 4.013229786452e-01 0.0 
4.013229786452e-01 -2.457813381612e+02 0.0 
0.0 0.0 -1.066535647086e+02 
-1.640510200977e+02 7.897322965955e-01 0.0 
7.897322965955e-01 -3.855060114499e+02 0.0 
0.0 0.0 -1.644671094643e+02 
-7.136029369325e+01 1.156138561602e+01 0.0 
1.156138561602e+01 -1.062602701718e+02 0.0 
0.0 0.0 -5.410569779664e+01 
-1.123128779534e+01 2.280074925257e-02 0.0 
2.280074925257e-02 -1.722080797250e+01 0.0 
0.0 0.0 -6.443721805739e+00 
-1.404735266102e+02 4.812383975690e-03 0.0 
4.812383975690e-03 -3.321482582378e+02 0.0 
0.0 0.0 -1.413865354544e+02 
-8.190574237397e+01 3.123092975996e-01 0.0 
3.123092975996e-01 -1.730485239641e+02 0.0 
0.0 0.0 -7.608627990143e+01 
-2.308359607157e+01 -4.651436920886e-01 0.0 
-4.651436920886e-01 -6.865944548534e+01 0.0 
0.0 0.0 -2.636016081348e+01 
-1.488748242833e+02 9.710207092888e+00 0.0 
9.710207092888e+00 -3.448977494170e+02 0.0 
0.0 0.0 -1.477317721101e+02 
-1.572594647118e+02 1.196944718175e+01 0.0 
1.196944718175e+01 -3.701973225863e+02 0.0 
0.0 0.0 -1.578370361894e+02 
-1.543389317375e+02 1.264333223478e+01 0.0 
1.264333223478e+01 -3.611799393984e+02 0.0 
0.0 0.0 -1.542556613408e+02 
-1.583049210869e+02 9.934297558526e+00 0.0 
9.934297558526e+00 -3.748169434417e+02 0.0 
0.0 0.0 -1.595365593586e+02 
-1.616852874790e+02 6.842056715191e+00 0.0 
6.842056715191e+00 -3.831994003765e+02 0.0 
0.0 0.0 -1.630654063566e+02 
-3.143186142408e+01 -1.266188806585e+01 0.0 
-1.266188806585e+01 -2.558392508005e+01 0.0 
0.0 0.0 -1.496788229901e+01 
-8.553802498014e+01 2.678223416168e+00 0.0 
2.678223416168e+00 -1.749270643297e+02 0.0 
0.0 0.0 -7.773952679295e+01 
-1.617620610496e+02 2.714480302148e+00 0.0 
2.714480302148e+00 -3.828496568351e+02 0.0 
0.0 0.0 -1.629835153654e+02 
-1.260577203428e+02 4.763898014470e-01 0.0 
4.763898014470e-01 -2.848998023084e+02 0.0 
0.0 0.0 -1.228872567954e+02 
-1.207328767052e+01 2.105382337099e-01 0.0 
2.105382337099e-01 -1.678421833792e+01 0.0 
0.0 0.0 -7.770511288884e+00 
-8.728116632315e+01 -9.319403185845e-01 0.0 
-9.319403185845e-01 -1.716925110859e+02 0.0 
0.0 0.0 -7.238337160451e+01 
-1.470582628218e+02 1.866308720629e+00 0.0 
1.866308720629e+00 -3.420847849146e+02 0.0 
0.0 0.0 -1.463429143209e+02 
-4.975047718508e+01 1.187942815753e+01 0.0 
1.187942815753e+01 -7.509040296467e+01 0.0 
0.0 0.0 -3.398804979601e+01 
-4.105872528350e+01 1.821200935875e+01 0.0 
1.821200935875e+01 -4.245540762121e+01 0.0 
0.0 0.0 -2.127371869145e+01 
-6.523739172024e+01 6.995772439805e+00 0.0 
6.995772439805e+00 -1.121951912954e+02 0.0 
0.0 0.0 -4.764181882286e+01 
-7.980996512032e+01 5.211131964821e+00 0.0 
5.211131964821e+00 -1.504340897492e+02 0.0 
0.0 0.0 -6.676443409387e+01 
-4.527249751761e+01 3.559438528436e+01 0.0 
3.559438528436e+01 -4.734243054597e+01 0.0 
0.0 0.0 -2.756049528258e+01 
-9.614205739317e+01 2.095123667220e-01 0.0 
2.095123667220e-01 -2.081590222097e+02 0.0 
0.0 0.0 -9.089032388088e+01 
-1.655065473533e+02 3.990629128057e-01 0.0 
3.990629128057e-01 -3.884255617458e+02 0.0 
0.0 0.0 -1.657796327297e+02 
-1.112217007101e+01 -2.922435550297e-02 0.0 
-2.922435550297e-02 -1.634374687512e+01 0.0 
0.0 0.0 -6.192775496911e+00 
-1.405577459243e+02 4.684264984081e-01 0.0 
4.684264984081e-01 -3.237881193259e+02 0.0 
0.0 0.0 -1.389037595751e+02 
-8.880879255903e+01 4.976885320939e+00 0.0 
4.976885320939e+00 -1.786128364544e+02 0.0 
0.0 0.0 -7.964173659409e+01 
-9.222831381402e+01 5.931978564229e+00 0.0 
5.931978564229e+00 -1.876325259193e+02 0.0 
0.0 0.0 -8.337094898153e+01 
-9.510603648412e+01 5.525525818273e+00 0.0 
5.525525818273e+00 -1.963182001127e+02 0.0 
0.0 0.0 -8.702711841508e+01 
-9.904469144589e+01 6.740945925072e+00 0.0 
6.740945925072e+00 -2.070470993362e+02 0.0 
0.0 0.0 -9.142753723464e+01 
-1.026449188983e+02 6.297710729555e+00 0.0 
6.297710729555e+00 -2.167026717347e+02 0.0 
0.0 0.0 -9.540427718991e+01 
-1.061643033096e+02 7.206695871908e+00 0.0 
7.206695871908e+00 -2.264336850694e+02 0.0 
0.0 0.0 -9.937939651371e+01 
-1.025923456727e+02 7.677410617660e+00 0.0 
7.677410617660e+00 -2.168756431042e+02 0.0 
0.0 0.0 -9.544039663306e+01 
-1.096968313182e+02 8.063777095048e+00 0.0 
8.063777095048e+00 -2.363449796900e+02 0.0 
0.0 0.0 -1.034125433025e+02 
-1.059425756925e+02 8.583739253717e+00 0.0 
8.583739253717e+00 -2.267707149634e+02 0.0 
0.0 0.0 -9.941398719676e+01 
-1.100474639084e+02 6.825305049884e+00 0.0 
6.825305049884e+00 -2.363629249230e+02 0.0 
0.0 0.0 -1.035231166494e+02 
-1.130795093801e+02 8.877651224843e+00 0.0 
8.877651224843e+00 -2.463455537520e+02 0.0 
0.0 0.0 -1.074275189396e+02 
-1.092046110930e+02 9.429144784880e+00 0.0 
9.429144784880e+00 -2.368449722018e+02 0.0 
0.0 0.0 -1.034148749884e+02 
-1.163815820082e+02 9.613940707101e+00 0.0 
9.613940707101e+00 -2.564538428270e+02 0.0 
0.0 0.0 -1.114506274506e+02 
-1.123908785937e+02 1.018479340058e+01 0.0 
1.018479340058e+01 -2.470908507003e+02 0.0 
0.0 0.0 -1.074445187882e+02 
-1.055912685961e+02 1.002529844769e+01 0.0 
1.002529844769e+01 -2.275566341916e+02 0.0 
0.0 0.0 -9.937059004360e+01 
-1.085435227133e+02 1.081921808702e+01 0.0 
1.081921808702e+01 -2.379536182326e+02 0.0 
0.0 0.0 -1.034481870737e+02 
-1.025556132282e+02 1.051332721847e+01 0.0 
1.051332721847e+01 -2.184698864952e+02 0.0 
0.0 0.0 -9.524901415116e+01 
-1.052545629844e+02 1.140801753413e+01 0.0 
1.140801753413e+01 -2.290317926267e+02 0.0 
0.0 0.0 -9.937501620165e+01 
-1.114771425010e+02 1.143803032298e+01 0.0 
1.143803032298e+01 -2.484935402886e+02 0.0 
0.0 0.0 -1.075511286003e+02 
-1.077898645146e+02 1.208869661230e+01 0.0 
1.208869661230e+01 -2.397318973172e+02 0.0 
0.0 0.0 -1.035189887816e+02 
-1.023017156333e+02 1.195244005869e+01 0.0 
1.195244005869e+01 -2.202351006934e+02 0.0 
0.0 0.0 -9.516064519657e+01 
-1.045422580154e+02 1.266792356311e+01 0.0 
1.266792356311e+01 -2.311531101757e+02 0.0 
0.0 0.0 -9.940296898998e+01 
-9.946609613071e+01 1.266755934723e+01 0.0 
1.266755934723e+01 -2.116274740638e+02 0.0 
0.0 0.0 -9.085354285170e+01 
-1.014859473190e+02 1.333371313202e+01 0.0 
1.333371313202e+01 -2.227815402460e+02 0.0 
0.0 0.0 -9.518435778260e+01 
-9.634081456124e+01 1.359908099991e+01 0.0 
1.359908099991e+01 -2.031663478737e+02 0.0 
0.0 0.0 -8.666034166540e+01 
-9.828476956848e+01 1.421316980542e+01 0.0 
1.421316980542e+01 -2.146187418772e+02 0.0 
0.0 0.0 -9.136690957653e+01 
-1.032778459494e+02 1.367930006883e+01 0.0 
1.367930006883e+01 -2.340003805274e+02 0.0 
0.0 0.0 -9.956667609461e+01 
-9.982190394405e+01 1.439186217402e+01 0.0 
1.439186217402e+01 -2.260170608052e+02 0.0 
0.0 0.0 -9.606063823769e+01 
-9.457815938744e+01 1.532269652109e+01 0.0 
1.532269652109e+01 -2.066650535457e+02 0.0 
0.0 0.0 -8.815737226045e+01 
-9.601035880343e+01 1.530897167141e+01 0.0 
1.530897167141e+01 -2.182344027521e+02 0.0 
0.0 0.0 -9.303270724289e+01 
-9.028800008808e+01 1.662654039200e+01 0.0 
1.662654039200e+01 -1.989932658271e+02 0.0 
0.0 0.0 -8.539454668175e+01 
-9.137102965229e+01 1.638714601602e+01 0.0 
1.638714601602e+01 -2.106138102039e+02 0.0 
0.0 0.0 -9.029262007606e+01 
-9.709804879477e+01 1.480513116312e+01 0.0 
1.480513116312e+01 -2.293704907897e+02 0.0 
0.0 0.0 -9.777023792811e+01 
-9.246906475772e+01 1.558069095736e+01 0.0 
1.558069095736e+01 -2.214660927017e+02 0.0 
0.0 0.0 -9.500430821193e+01 
-8.639842363881e+01 1.726919127809e+01 0.0 
1.726919127809e+01 -2.027447109512e+02 0.0 
0.0 0.0 -8.719353916536e+01 
-8.770846638180e+01 1.605974331261e+01 0.0 
1.605974331261e+01 -2.137326276069e+02 0.0 
0.0 0.0 -9.193557969779e+01 
-8.148633714416e+01 1.786039056448e+01 0.0 
1.786039056448e+01 -1.956263759170e+02 0.0 
0.0 0.0 -8.377630677362e+01 
-8.284141137532e+01 1.602203955601e+01 0.0 
1.602203955601e+01 -2.069955123381e+02 0.0 
0.0 0.0 -8.833244145175e+01 
-7.663310810208e+01 1.762651273768e+01 0.0 
1.762651273768e+01 -1.896387243699e+02 0.0 
0.0 0.0 -7.956002931361e+01 
-7.819375907021e+01 1.509080097099e+01 0.0 
1.509080097099e+01 -2.010590321971e+02 0.0 
0.0 0.0 -8.396819859793e+01 
-8.432547702658e+01 1.370771923923e+01 0.0 
1.370771923923e+01 -2.177428518020e+02 0.0 
0.0 0.0 -9.290057530459e+01 
-7.998498776468e+01 1.224319545560e+01 0.0 
1.224319545560e+01 -2.116301975592e+02 0.0 
0.0 0.0 -8.855446328334e+01 
-7.380653720427e+01 1.331560374798e+01 0.0 
1.331560374798e+01 -1.954715427929e+02 0.0 
0.0 0.0 -7.969836644106e+01 
-7.599088655324e+01 9.932978658997e+00 0.0 
9.932978658997e+00 -2.054624825836e+02 0.0 
0.0 0.0 -8.417415700033e+01 
-8.206912815228e+01 9.290380613170e+00 0.0 
9.290380613170e+00 -2.213331002627e+02 0.0 
0.0 0.0 -9.328833359457e+01 
-7.849488984868e+01 6.609277875001e+00 0.0 
6.609277875001e+00 -2.144026504851e+02 0.0 
0.0 0.0 -8.886688271101e+01 
-8.453705504045e+01 6.396964974278e+00 0.0 
6.396964974278e+00 -2.301474392680e+02 0.0 
0.0 0.0 -9.800599242309e+01 
-8.137534842309e+01 3.519735233920e+00 0.0 
3.519735233920e+00 -2.225712970461e+02 0.0 
0.0 0.0 -9.375785754452e+01 
-7.536467362678e+01 3.283127693573e+00 0.0 
3.283127693573e+00 -2.072185197530e+02 0.0 
0.0 0.0 -8.481122164104e+01 
-7.865792772129e+01 1.966018998201e-01 0.0 
1.966018998201e-01 -2.144175513294e+02 0.0 
0.0 0.0 -8.962906135572e+01 
-8.477510605130e+01 1.007434179797e+00 0.0 
1.007434179797e+00 -2.300244020397e+02 0.0 
0.0 0.0 -9.827888646227e+01 
-8.248411640096e+01 -2.175729619123e+00 0.0 
-2.175729619123e+00 -2.213125464867e+02 0.0 
0.0 0.0 -9.410581264350e+01 
-7.628962502869e+01 -3.398689673875e+00 0.0 
-3.398689673875e+00 -2.055920675110e+02 0.0 
0.0 0.0 -8.562661920591e+01 
-8.042887154864e+01 -5.411180572987e+00 0.0 
-5.411180572987e+00 -2.120175859161e+02 0.0 
0.0 0.0 -8.978265686667e+01 
-8.702351507274e+01 -3.583523941487e+00 0.0 
-3.583523941487e+00 -2.291332399693e+02 0.0 
0.0 0.0 -9.793073498519e+01 
-8.519215653094e+01 -6.404614307825e+00 0.0 
-6.404614307825e+00 -2.191911856599e+02 0.0 
0.0 0.0 -9.332378708970e+01 
-7.837692157279e+01 -8.580221694442e+00 0.0 
-8.580221694442e+00 -2.020367177340e+02 0.0 
0.0 0.0 -8.527830980442e+01 
-8.342416520786e+01 -8.828573500498e+00 0.0 
-8.828573500498e+00 -2.082372767791e+02 0.0 
0.0 0.0 -8.838452804327e+01 
-9.091388083873e+01 -6.061176350539e+00 0.0 
-6.061176350539e+00 -2.263187137828e+02 0.0 
0.0 0.0 -9.670541994815e+01 
-8.917171306929e+01 -7.930168928507e+00 0.0 
-7.930168928507e+00 -2.150128426474e+02 0.0 
0.0 0.0 -9.160433256340e+01 
-8.169048115647e+01 -1.061753510771e+01 0.0 
-1.061753510771e+01 -1.962641983017e+02 0.0 
0.0 0.0 -8.320599781119e+01 
-8.717936561799e+01 -9.307439999100e+00 0.0 
-9.307439999100e+00 -2.031559363337e+02 0.0 
0.0 0.0 -8.628771236580e+01 
-9.463716249971e+01 -6.827539842682e+00 0.0 
-6.827539842682e+00 -2.224206720267e+02 0.0 
0.0 0.0 -9.463372185265e+01 
-9.243933241078e+01 -7.910872996214e+00 0.0 
-7.910872996214e+00 -2.105033105365e+02 0.0 
0.0 0.0 -8.923439700437e+01 
-9.958488015284e+01 -5.797404791048e+00 0.0 
-5.797404791048e+00 -2.299413675947e+02 0.0 
0.0 0.0 -9.727915143626e+01 
-8.476596053982e+01 -1.016044282519e+01 0.0 
-1.016044282519e+01 -1.907454337567e+02 0.0 
0.0 0.0 -8.076777608692e+01 
-8.982514385455e+01 -8.540597318493e+00 0.0 
-8.540597318493e+00 -1.981788453852e+02 0.0 
0.0 0.0 -8.367587728068e+01 
-8.179011947582e+01 -1.042380073706e+01 0.0 
-1.042380073706e+01 -1.779642915051e+02 0.0 
0.0 0.0 -7.506468596835e+01 
-8.671418876798e+01 -8.712060258434e+00 0.0 
-8.712060258434e+00 -1.856293307380e+02 0.0 
0.0 0.0 -7.802246513538e+01 
-9.822297666075e+01 1.403038259082e+01 0.0 
1.403038259082e+01 -2.399709053486e+02 0.0 
0.0 0.0 -1.023252813031e+02 
-7.816785030789e+01 -1.017879439903e+01 0.0 
-1.017879439903e+01 -1.651121507502e+02 0.0 
0.0 0.0 -6.932003352126e+01 
-7.342065347560e+01 -1.210213001958e+01 0.0 
-1.210213001958e+01 -1.576603834973e+02 0.0 
0.0 0.0 -6.642718471548e+01 
-8.300058953841e+01 -8.447896292018e+00 0.0 
-8.447896292018e+00 -1.730600302328e+02 0.0 
0.0 0.0 -7.232480247197e+01 
-9.138545160488e+01 -7.215474621616e+00 0.0 
-7.215474621616e+00 -1.935700049827e+02 0.0 
0.0 0.0 -8.087210031725e+01 
-7.381699599520e+01 -9.510524255114e+00 0.0 
-9.510524255114e+00 -1.523051623021e+02 0.0 
0.0 0.0 -6.353708149802e+01 
-7.860511647997e+01 -7.857857139614e+00 0.0 
-7.857857139614e+00 -1.605327335568e+02 0.0 
0.0 0.0 -6.660093217092e+01 
-6.869922131454e+01 -8.520261042927e+00 0.0 
-8.520261042927e+00 -1.396458032017e+02 0.0 
0.0 0.0 -5.770662654360e+01 
-7.506780594339e+01 1.958405273833e+01 0.0 
1.958405273833e+01 -1.770694256438e+02 0.0 
0.0 0.0 -7.501920640533e+01 
-1.144028837530e+02 1.187190074861e+01 0.0 
1.187190074861e+01 -2.591214987158e+02 0.0 
0.0 0.0 -1.116558657034e+02 
-7.348254617175e+01 -7.020610615260e+00 0.0 
-7.020610615260e+00 -1.480835551857e+02 0.0 
0.0 0.0 -6.085594978828e+01 
-6.279375935656e+01 -7.307602317418e+00 0.0 
-7.307602317418e+00 -1.271536788904e+02 0.0 
0.0 0.0 -5.187056064588e+01 
-5.825539358594e+01 -8.611497330118e+00 0.0 
-8.611497330118e+00 -1.186089899797e+02 0.0 
0.0 0.0 -4.865203474558e+01 
-5.141976366230e+01 -7.001600193387e+00 0.0 
-7.001600193387e+00 -1.062093801349e+02 0.0 
0.0 0.0 -4.275067093260e+01 
-1.065590921652e+02 6.064222102384e+00 0.0 
6.064222102384e+00 -2.267186904865e+02 0.0 
0.0 0.0 -9.958333479553e+01 
-1.137222487309e+02 6.431853507989e+00 0.0 
6.431853507989e+00 -2.463800171661e+02 0.0 
0.0 0.0 -1.076306797691e+02 
-1.098849433570e+02 5.659350363555e+00 0.0 
5.659350363555e+00 -2.361461164280e+02 0.0 
0.0 0.0 -1.034093179355e+02 
-1.173539010281e+02 6.132603615829e+00 0.0 
6.132603615829e+00 -2.563856407752e+02 0.0 
0.0 0.0 -1.117218625410e+02 
-1.136768258790e+02 5.385757110348e+00 0.0 
5.385757110348e+00 -2.466167748279e+02 0.0 
0.0 0.0 -1.076880802121e+02 
-5.603856944265e+01 -5.928448859803e+00 0.0 
-5.928448859803e+00 -1.148499315621e+02 0.0 
0.0 0.0 -4.605370852640e+01 
-1.203527061445e+02 9.139175542198e+00 0.0 
9.139175542198e+00 -2.661446987861e+02 0.0 
0.0 0.0 -1.155492214792e+02 
-1.209916345491e+02 6.876397419999e+00 0.0 
6.876397419999e+00 -2.662192188703e+02 0.0 
0.0 0.0 -1.157632560258e+02 
-9.704536840083e+01 1.170550282632e+01 0.0 
1.170550282632e+01 -2.006468356968e+02 0.0 
0.0 0.0 -8.658654019406e+01 
-8.865031315327e+01 1.628684693727e+01 0.0 
1.628684693727e+01 -1.869006327193e+02 0.0 
0.0 0.0 -8.024416879310e+01 
-8.833437107881e+01 8.579674369638e+00 0.0 
8.579674369638e+00 -2.376309650147e+02 0.0 
0.0 0.0 -1.022283825114e+02 
-8.325542305050e+01 -6.446374302233e+00 0.0 
-6.446374302233e+00 -1.687823279043e+02 0.0 
0.0 0.0 -6.963270720595e+01 
-7.819228930054e+01 -5.726343459069e+00 0.0 
-5.726343459069e+00 -1.565374700303e+02 0.0 
0.0 0.0 -6.400107292148e+01 
-8.766051860396e+01 -5.231577805245e+00 0.0 
-5.231577805245e+00 -1.771060677974e+02 0.0 
0.0 0.0 -7.300582752482e+01 
-1.014702767391e+02 -4.521243024047e+00 0.0 
-4.521243024047e+00 -2.415088611098e+02 0.0 
0.0 0.0 -1.024815138189e+02 
-1.057529948809e+02 -3.887013045718e+00 0.0 
-3.887013045718e+00 -2.491142196177e+02 0.0 
0.0 0.0 -1.048267835320e+02 
-1.071256849863e+02 -2.468312288145e+00 0.0 
-2.468312288145e+00 -2.603635175347e+02 0.0 
0.0 0.0 -1.097230516763e+02 
-1.110085650761e+02 -2.124019893860e+00 0.0 
-2.124019893860e+00 -2.680901769315e+02 0.0 
0.0 0.0 -1.123937496907e+02 
-1.125785821810e+02 -7.061921401713e-01 0.0 
-7.061921401713e-01 -2.790827644024e+02 0.0 
0.0 0.0 -1.169988687391e+02 
-1.166441152942e+02 -5.492784375684e-01 0.0 
-5.492784375684e-01 -2.869510083372e+02 0.0 
0.0 0.0 -1.203105175961e+02 
-1.147411149154e+02 -1.745079362726e+00 0.0 
-1.745079362726e+00 -2.758509709533e+02 0.0 
0.0 0.0 -1.156343466237e+02 
-1.206823562838e+02 -3.601193046782e-01 0.0 
-3.601193046782e-01 -2.948520454489e+02 0.0 
0.0 0.0 -1.240099890665e+02 
-1.184070204225e+02 -1.355617859880e+00 0.0 
-1.355617859880e+00 -2.836767242598e+02 0.0 
0.0 0.0 -1.193098646731e+02 
-1.198896001688e+02 5.166710186927e-01 0.0 
5.166710186927e-01 -2.978371001223e+02 0.0 
0.0 0.0 -1.248474629554e+02 
-1.154113015246e+02 5.572767936580e-01 0.0 
5.572767936580e-01 -2.897822923064e+02 0.0 
0.0 0.0 -1.213187669576e+02 
-1.246994883986e+02 -1.741766960669e-01 0.0 
-1.741766960669e-01 -3.027805041792e+02 0.0 
0.0 0.0 -1.276821875627e+02 
-1.219690143976e+02 -9.773901214573e-01 0.0 
-9.773901214573e-01 -2.915558145812e+02 0.0 
0.0 0.0 -1.229527834259e+02 
-1.287193151338e+02 -1.974578785251e-02 0.0 
-1.974578785251e-02 -3.107413876720e+02 0.0 
0.0 0.0 -1.313348332464e+02 
-1.254589386245e+02 -6.348526238649e-01 0.0 
-6.348526238649e-01 -2.995128965428e+02 0.0 
0.0 0.0 -1.266128995809e+02 
-1.199637387969e+02 -1.673581530608e+00 0.0 
-1.673581530608e+00 -2.801242000949e+02 0.0 
0.0 0.0 -1.181766497717e+02 
-1.231896737167e+02 -1.194351796184e+00 0.0 
-1.194351796184e+00 -2.881054538297e+02 0.0 
0.0 0.0 -1.218364972558e+02 
-1.179319453110e+02 -2.191292758272e+00 0.0 
-2.191292758272e+00 -2.686313901504e+02 0.0 
0.0 0.0 -1.133604615245e+02 
-9.108929805350e+01 6.202323600215e+00 0.0 
6.202323600215e+00 -2.465526140330e+02 0.0 
0.0 0.0 -1.066260605128e+02 
-9.523929587382e+01 7.983050684655e+00 0.0 
7.983050684655e+00 -2.548151945769e+02 0.0 
0.0 0.0 -1.100472100778e+02 
-9.857016991034e+01 6.375203848928e+00 0.0 
6.375203848928e+00 -2.639884504287e+02 0.0 
0.0 0.0 -1.136002827074e+02 
-1.032476330390e+02 7.903565050129e+00 0.0 
7.903565050129e+00 -2.722826848790e+02 0.0 
0.0 0.0 -1.160577300088e+02 
-1.079259345150e+02 6.873152629526e+00 0.0 
6.873152629526e+00 -2.819115440793e+02 0.0 
0.0 0.0 -1.194698449159e+02 
-1.132930656724e+02 8.100966742910e+00 0.0 
8.100966742910e+00 -2.903811888076e+02 0.0 
0.0 0.0 -1.221982438348e+02 
-1.180804690425e+02 7.367730767290e+00 0.0 
7.367730767290e+00 -3.001272843088e+02 0.0 
0.0 0.0 -1.259007006172e+02 
-1.130181911347e+02 6.120876407403e+00 0.0 
6.120876407403e+00 -2.914919344791e+02 0.0 
0.0 0.0 -1.228225119297e+02 
-1.195943029844e+02 1.027319057426e+01 0.0 
1.027319057426e+01 -2.666181511446e+02 0.0 
0.0 0.0 -1.154637362387e+02 
-6.968185244798e+01 1.067208193614e+01 0.0 
1.067208193614e+01 -1.900624129545e+02 0.0 
0.0 0.0 -7.596047129455e+01 
-6.737365724485e+01 1.448020463771e+01 0.0 
1.448020463771e+01 -1.796672281338e+02 0.0 
0.0 0.0 -7.163488235696e+01 
-6.315386345587e+01 1.137999782861e+01 0.0 
1.137999782861e+01 -1.752560531617e+02 0.0 
0.0 0.0 -6.834297064674e+01 
-6.092708381196e+01 1.568609975191e+01 0.0 
1.568609975191e+01 -1.643214815684e+02 0.0 
0.0 0.0 -6.393183011144e+01 
-5.658054853912e+01 1.230976827589e+01 0.0 
1.230976827589e+01 -1.609591197999e+02 0.0 
0.0 0.0 -6.127177755532e+01 
-5.464328393888e+01 1.719556895041e+01 0.0 
1.719556895041e+01 -1.492908920767e+02 0.0 
0.0 0.0 -5.677465031512e+01 
-5.019696957381e+01 1.354025549117e+01 0.0 
1.354025549117e+01 -1.472518774480e+02 0.0 
0.0 0.0 -5.516539948345e+01 
-5.272689744755e+01 7.654249446381e+00 0.0 
7.654249446381e+00 -1.572233996123e+02 0.0 
0.0 0.0 -5.925036030658e+01 
-4.632902999407e+01 8.157319630377e+00 0.0 
8.157319630377e+00 -1.448916213349e+02 0.0 
0.0 0.0 -5.442142752412e+01 
-4.964400103878e+01 1.761874080012e+00 0.0 
1.761874080012e+00 -1.522145795459e+02 0.0 
0.0 0.0 -5.737869428967e+01 
-4.306732614617e+01 1.318648710536e+00 0.0 
1.318648710536e+00 -1.408658544425e+02 0.0 
0.0 0.0 -5.346664876417e+01 
-4.729905271809e+01 -4.847863825970e+00 0.0 
-4.847863825970e+00 -1.445947601414e+02 0.0 
0.0 0.0 -5.451570550288e+01 
-1.050557185033e+02 1.368167638944e+01 0.0 
1.368167638944e+01 -2.451266998839e+02 0.0 
0.0 0.0 -1.039916294377e+02 
-1.085842413867e+02 9.072045029296e+00 0.0 
9.072045029296e+00 -2.805781974828e+02 0.0 
0.0 0.0 -1.184379725434e+02 
-1.188579397361e+02 8.987639221452e+00 0.0 
8.987639221452e+00 -2.989518484934e+02 0.0 
0.0 0.0 -1.254666457302e+02 
-1.144233833853e+02 9.765098322681e+00 0.0 
9.765098322681e+00 -2.889147509669e+02 0.0 
0.0 0.0 -1.213968456998e+02 
-4.732854437612e+01 -7.844656797884e+00 0.0 
-7.844656797884e+00 -9.762499240443e+01 0.0 
0.0 0.0 -3.951221313118e+01 
-1.289463599211e+02 -3.611364882937e-01 0.0 
-3.611364882937e-01 -3.075605909124e+02 0.0 
0.0 0.0 -1.303063595506e+02 
-1.238897948376e+02 1.585852521541e+00 0.0 
1.585852521541e+00 -3.085000835307e+02 0.0 
0.0 0.0 -1.293169635105e+02 
-1.191257812280e+02 1.830617625102e+00 0.0 
1.830617625102e+00 -3.001116483148e+02 0.0 
0.0 0.0 -1.254679938179e+02 
-1.228518317979e+02 6.690937149082e+00 0.0 
6.690937149082e+00 -3.097935214137e+02 0.0 
0.0 0.0 -1.296690715567e+02 
-4.378299338276e+01 -5.233114402618e+00 0.0 
-5.233114402618e+00 -9.416526583385e+01 0.0 
0.0 0.0 -3.711731831729e+01 
-4.864045837292e+01 1.906587199717e+01 0.0 
1.906587199717e+01 -1.345528995264e+02 0.0 
0.0 0.0 -5.039261562412e+01 
-5.339713976363e+01 2.140135824995e+01 0.0 
2.140135824995e+01 -1.356196767748e+02 0.0 
0.0 0.0 -5.205816346526e+01 
-1.210123884953e+02 5.857182686272e+00 0.0 
5.857182686272e+00 -2.665074958597e+02 0.0 
0.0 0.0 -1.158559653065e+02 
-1.173393295837e+02 5.127782360646e+00 0.0 
5.127782360646e+00 -2.567968277384e+02 0.0 
0.0 0.0 -1.118408471966e+02 
-1.282726238071e+02 2.686031387544e+00 0.0 
2.686031387544e+00 -3.188788061271e+02 0.0 
0.0 0.0 -1.337454289802e+02 
-4.830357607552e+01 -4.380776577191e+00 0.0 
-4.380776577191e+00 -1.028741168053e+02 0.0 
0.0 0.0 -4.076661912784e+01 
-1.286269303048e+02 5.626775280707e-01 0.0 
5.626775280707e-01 -3.138527113576e+02 0.0 
0.0 0.0 -1.323369044380e+02 
-4.006460964234e+01 9.177284628605e+00 0.0 
9.177284628605e+00 -1.338432928614e+02 0.0 
0.0 0.0 -5.084342753119e+01 
-1.262559433669e+02 -7.989048437007e-01 0.0 
-7.989048437007e-01 -2.961783915791e+02 0.0 
0.0 0.0 -1.255003129409e+02 
-1.325248071839e+02 -1.619890506374e-01 0.0 
-1.619890506374e-01 -3.156464899319e+02 0.0 
0.0 0.0 -1.339551021279e+02 
-1.131554665134e+02 -2.751172336770e+00 0.0 
-2.751172336770e+00 -2.644966919669e+02 0.0 
0.0 0.0 -1.108338326136e+02 
-1.243512926354e+02 9.615227718826e+00 0.0 
9.615227718826e+00 -3.076369977782e+02 0.0 
0.0 0.0 -1.292180915533e+02 
-1.200296983727e+02 1.022796376050e+01 0.0 
1.022796376050e+01 -2.974247743574e+02 0.0 
0.0 0.0 -1.249491677757e+02 
-5.361922750727e+01 -3.499568520900e+00 0.0 
-3.499568520900e+00 -1.572501198232e+02 0.0 
0.0 0.0 -5.979665534738e+01 
-5.192924303020e+01 -9.283754767138e+00 0.0 
-9.283754767138e+00 -1.469516600461e+02 0.0 
0.0 0.0 -5.562248954208e+01 
-4.595584165957e+01 -1.137748745898e+01 0.0 
-1.137748745898e+01 -1.333490112619e+02 0.0 
0.0 0.0 -4.965062702767e+01 
-5.134786142003e+01 -1.422986552791e+01 0.0 
-1.422986552791e+01 -1.342389304140e+02 0.0 
0.0 0.0 -5.082371050778e+01 
-5.666810692605e+01 -1.184325355256e+01 0.0 
-1.184325355256e+01 -1.495330299309e+02 0.0 
0.0 0.0 -5.780453468030e+01 
-5.570275958006e+01 -1.523099855667e+01 0.0 
-1.523099855667e+01 -1.359726032488e+02 0.0 
0.0 0.0 -5.285013211966e+01 
-5.108738183496e+01 -1.758039915390e+01 0.0 
-1.758039915390e+01 -1.189919630217e+02 0.0 
0.0 0.0 -4.537214251282e+01 
-5.466155754091e+01 -1.711534583183e+01 0.0 
-1.711534583183e+01 -1.200630362770e+02 0.0 
0.0 0.0 -4.684778233135e+01 
-5.944003240022e+01 -1.551810043554e+01 0.0 
-1.551810043554e+01 -1.383411379142e+02 0.0 
0.0 0.0 -5.533022201264e+01 
-5.755828376294e+01 -1.619553261788e+01 0.0 
-1.619553261788e+01 -1.227001638065e+02 0.0 
0.0 0.0 -4.959192345961e+01 
-5.307542591156e+01 -1.668993704938e+01 0.0 
-1.668993704938e+01 -1.026716506277e+02 0.0 
0.0 0.0 -4.123683215176e+01 
-5.448935384345e+01 -1.504598332905e+01 0.0 
-1.504598332905e+01 -1.061407462373e+02 0.0 
0.0 0.0 -4.375461736291e+01 
-1.368312384620e+02 1.882608031614e-01 0.0 
1.882608031614e-01 -3.268398265460e+02 0.0 
0.0 0.0 -1.387013195024e+02 
-3.641801514504e+01 1.026017359155e+00 0.0 
1.026017359155e+00 -1.311359664091e+02 0.0 
0.0 0.0 -5.065360942784e+01 
-9.966892084018e+01 9.504334886547e+00 0.0 
9.504334886547e+00 -2.081040107287e+02 0.0 
0.0 0.0 -9.114867165103e+01 
-1.329831090111e+02 2.354622802102e+00 0.0 
2.354622802102e+00 -3.272630067758e+02 0.0 
0.0 0.0 -1.376738347361e+02 
-1.278738921683e+02 7.711852977366e+00 0.0 
7.711852977366e+00 -3.183569729690e+02 0.0 
0.0 0.0 -1.335023693551e+02 
-1.246843889202e+02 5.583985301244e+00 0.0 
5.583985301244e+00 -2.767445696023e+02 0.0 
0.0 0.0 -1.200286875568e+02 
-1.210216749317e+02 4.871650923507e+00 0.0 
4.871650923507e+00 -2.671301515399e+02 0.0 
0.0 0.0 -1.160455479415e+02 
-1.135542366355e+02 4.373953805619e+00 0.0 
4.373953805619e+00 -2.471183838453e+02 0.0 
0.0 0.0 -1.078017861442e+02 
-1.172917822744e+02 4.161026293865e+00 0.0 
4.161026293865e+00 -2.576299254418e+02 0.0 
0.0 0.0 -1.120765123149e+02 
-1.247139695842e+02 4.630645030089e+00 0.0 
4.630645030089e+00 -2.776311475911e+02 0.0 
0.0 0.0 -1.203035351526e+02 
-1.210355126647e+02 3.946284484192e+00 0.0 
3.946284484192e+00 -2.681819953820e+02 0.0 
0.0 0.0 -1.163652524140e+02 
-1.135055078872e+02 3.503147708515e+00 0.0 
3.503147708515e+00 -2.481912893596e+02 0.0 
0.0 0.0 -1.081090391740e+02 
-1.173258007555e+02 3.308839097441e+00 0.0 
3.308839097441e+00 -2.587689689214e+02 0.0 
0.0 0.0 -1.124284309031e+02 
-1.097092079778e+02 2.891615209688e+00 0.0 
2.891615209688e+00 -2.387859040049e+02 0.0 
0.0 0.0 -1.041485335948e+02 
-1.135852169522e+02 2.716130505169e+00 0.0 
2.716130505169e+00 -2.494297297146e+02 0.0 
0.0 0.0 -1.085044840000e+02 
-1.211599864530e+02 3.103251093311e+00 0.0 
3.103251093311e+00 -2.694044187001e+02 0.0 
0.0 0.0 -1.167693215459e+02 
-1.174815573587e+02 2.548490062256e+00 0.0 
2.548490062256e+00 -2.601522602243e+02 0.0 
0.0 0.0 -1.128901452749e+02 
-1.097997390646e+02 2.171917943791e+00 0.0 
2.171917943791e+00 -2.402100948187e+02 0.0 
0.0 0.0 -1.046029501650e+02 
-1.137692281194e+02 2.045708110945e+00 0.0 
2.045708110945e+00 -2.509484258228e+02 0.0 
0.0 0.0 -1.090152961827e+02 
-1.059831463554e+02 1.707695167168e+00 0.0 
1.707695167168e+00 -2.310149018721e+02 0.0 
0.0 0.0 -1.006994144683e+02 
-1.100458742445e+02 1.613307988247e+00 0.0 
1.613307988247e+00 -2.417045591946e+02 0.0 
0.0 0.0 -1.051251300317e+02 
-1.177670271504e+02 1.850553378672e+00 0.0 
1.850553378672e+00 -2.617439331788e+02 0.0 
0.0 0.0 -1.134532880987e+02 
-3.493857307850e+01 -3.426714529833e+00 0.0 
-3.426714529833e+00 -8.288977709256e+01 0.0 
0.0 0.0 -3.226341195660e+01 
-1.179372634854e+02 5.451832864087e+00 0.0 
5.451832864087e+00 -3.009457713111e+02 0.0 
0.0 0.0 -1.260398471702e+02 
-1.276774291119e+02 6.026802816157e+00 0.0 
6.026802816157e+00 -3.194165336062e+02 0.0 
0.0 0.0 -1.337281888155e+02 
-8.292571739345e+01 -4.545449641741e+00 0.0 
-4.545449641741e+00 -1.655474460181e+02 0.0 
0.0 0.0 -6.812398808152e+01 
-9.183144685675e+01 -4.140798323677e+00 0.0 
-4.140798323677e+00 -1.852116899863e+02 0.0 
0.0 0.0 -7.703700153347e+01 
-9.595941375911e+01 -4.671644988592e+00 0.0 
-4.671644988592e+00 -1.973943002358e+02 0.0 
0.0 0.0 -8.202766758269e+01 
-9.981918022208e+01 -3.682530419385e+00 0.0 
-3.682530419385e+00 -2.057679322380e+02 0.0 
0.0 0.0 -8.625824870213e+01 
-1.140694971082e+02 1.429009448762e+00 0.0 
1.429009448762e+00 -2.524182820134e+02 0.0 
0.0 0.0 -1.095463337365e+02 
-1.216925030964e+02 1.607478760447e+00 0.0 
1.607478760447e+00 -2.725679092501e+02 0.0 
0.0 0.0 -1.178781237040e+02 
-4.814309951003e+01 2.359380516979e+01 0.0 
2.359380516979e+01 -1.197142924384e+02 0.0 
0.0 0.0 -4.537048748603e+01 
-5.260844621039e+01 2.449008571280e+01 0.0 
2.449008571280e+01 -1.201676628643e+02 0.0 
0.0 0.0 -4.721814462432e+01 
-1.282828796546e+02 6.305120385265e+00 0.0 
6.305120385265e+00 -2.864434067193e+02 0.0 
0.0 0.0 -1.240178859122e+02 
-1.292483212805e+02 -4.672929433076e-01 0.0 
-4.672929433076e-01 -3.044019207853e+02 0.0 
0.0 0.0 -1.291844663995e+02 
-1.240089190216e+02 -1.098148765146e+00 0.0 
-1.098148765146e+00 -2.848063854966e+02 0.0 
0.0 0.0 -1.207194499738e+02 
-8.403504432968e+01 1.794915080741e+01 0.0 
1.794915080741e+01 -1.793867040918e+02 0.0 
0.0 0.0 -7.742685224116e+01 
-8.220669946958e+01 1.718396267806e+01 0.0 
1.718396267806e+01 -1.666675874591e+02 0.0 
0.0 0.0 -7.213856781676e+01 
-7.742443788200e+01 1.914178548112e+01 0.0 
1.914178548112e+01 -1.592110141958e+02 0.0 
0.0 0.0 -6.913009510318e+01 
-7.518481549628e+01 1.785479514051e+01 0.0 
1.785479514051e+01 -1.455974829289e+02 0.0 
0.0 0.0 -6.359636967533e+01 
-7.978941410311e+01 1.572754369358e+01 0.0 
1.572754369358e+01 -1.541474213322e+02 0.0 
0.0 0.0 -6.675363507919e+01 
-7.035265634191e+01 2.020346512101e+01 0.0 
2.020346512101e+01 -1.380743604074e+02 0.0 
0.0 0.0 -6.051837428244e+01 
-1.107824127548e+02 6.760546708390e-01 0.0 
6.760546708390e-01 -2.814823849520e+02 0.0 
0.0 0.0 -1.183425474432e+02 
-1.250054101815e+02 2.896067031614e+00 0.0 
2.896067031614e+00 -2.801456727030e+02 0.0 
0.0 0.0 -1.211453248654e+02 
-5.433133747317e+01 -9.802753560581e+00 0.0 
-9.802753560581e+00 -1.101421924626e+02 0.0 
0.0 0.0 -4.548467723637e+01 
-4.430336692828e+01 -8.440287642479e+00 0.0 
-8.440287642479e+00 -8.916886744121e+01 0.0 
0.0 0.0 -3.641179332244e+01 
-1.362398853678e+02 -2.328953034562e-02 0.0 
-2.328953034562e-02 -3.238804035357e+02 0.0 
0.0 0.0 -1.376168491449e+02 
-1.083375636712e+02 4.606307051464e+00 0.0 
4.606307051464e+00 -2.827118241149e+02 0.0 
0.0 0.0 -1.199003979786e+02 
-1.089090344485e+02 1.318085081537e+01 0.0 
1.318085081537e+01 -2.531388473076e+02 0.0 
0.0 0.0 -1.078936730517e+02 
-1.113265768158e+02 1.290832304274e+01 0.0 
1.290832304274e+01 -2.639176511940e+02 0.0 
0.0 0.0 -1.120481638048e+02 
-1.158996777877e+02 1.253864474139e+01 0.0 
1.253864474139e+01 -2.721091451348e+02 0.0 
0.0 0.0 -1.160026468767e+02 
-1.190176749829e+02 1.227796334714e+01 0.0 
1.227796334714e+01 -2.827168587183e+02 0.0 
0.0 0.0 -1.201203601104e+02 
-1.238643160261e+02 1.216415518316e+01 0.0 
1.216415518316e+01 -2.911664293509e+02 0.0 
0.0 0.0 -1.241092236131e+02 
-1.272032880149e+02 1.196196613184e+01 0.0 
1.196196613184e+01 -3.015703434785e+02 0.0 
0.0 0.0 -1.282320894480e+02 
-1.223240682895e+02 1.188914493495e+01 0.0 
1.188914493495e+01 -2.931631909387e+02 0.0 
0.0 0.0 -1.242461777685e+02 
-1.296724955946e+02 1.012604560137e+01 0.0 
1.012604560137e+01 -3.163763481547e+02 0.0 
0.0 0.0 -1.334146531248e+02 
-1.307644245483e+02 1.169128145607e+01 0.0 
1.169128145607e+01 -3.118891230550e+02 0.0 
0.0 0.0 -1.323960642810e+02 
-1.062771786325e+02 1.148207956071e+00 0.0 
1.148207956071e+00 -2.322023960180e+02 0.0 
0.0 0.0 -1.011438723952e+02 
-1.046446407535e+02 1.024979773021e+01 0.0 
1.024979773021e+01 -2.705311293774e+02 0.0 
0.0 0.0 -1.146975067888e+02 
-6.242082449982e+01 -1.541210211501e+01 0.0 
-1.541210211501e+01 -1.415128185306e+02 0.0 
0.0 0.0 -5.836854323744e+01 
-3.087194107143e+01 -3.798539653957e+00 0.0 
-3.798539653957e+00 -7.389924213101e+01 0.0 
0.0 0.0 -2.839495196906e+01 
-4.790454490923e+01 -1.343921217422e+01 0.0 
-1.343921217422e+01 -8.415386454443e+01 0.0 
0.0 0.0 -3.444381373607e+01 
-3.960126808478e+01 -2.943305369465e+00 0.0 
-2.943305369465e+00 -9.072192384978e+01 0.0 
0.0 0.0 -3.581284795863e+01 
-5.348718925727e+01 -3.580869873835e+00 0.0 
-3.580869873835e+00 -1.113869544498e+02 0.0 
0.0 0.0 -4.477070783099e+01 
-1.376744241819e+02 3.387470549581e+00 0.0 
3.387470549581e+00 -3.376065314947e+02 0.0 
0.0 0.0 -1.421842867030e+02 
-1.319312932350e+02 1.199187126683e+01 0.0 
1.199187126683e+01 -3.101748010050e+02 0.0 
0.0 0.0 -1.322318282720e+02 
-1.284474984203e+02 1.200850885877e+01 0.0 
1.200850885877e+01 -2.996016832180e+02 0.0 
0.0 0.0 -1.280147544915e+02 
-7.237759825917e+01 1.578070538391e+01 0.0 
1.578070538391e+01 -1.329365055807e+02 0.0 
0.0 0.0 -5.814675235940e+01 
-7.679271929069e+01 1.381227240877e+01 0.0 
1.381227240877e+01 -1.422015453794e+02 0.0 
0.0 0.0 -6.147714645122e+01 
-1.340475630654e+02 9.700647297364e+00 0.0 
9.700647297364e+00 -3.264039242907e+02 0.0 
0.0 0.0 -1.377354462068e+02 
-1.063213338751e+02 4.851401441842e+00 0.0 
4.851401441842e+00 -2.266749009702e+02 0.0 
0.0 0.0 -9.949887045358e+01 
-1.058797908460e+02 3.038808497326e+00 0.0 
3.038808497326e+00 -2.282655283445e+02 0.0 
0.0 0.0 -9.984359575715e+01 
-1.019120092811e+02 2.435989351675e+00 0.0 
2.435989351675e+00 -2.187875880788e+02 0.0 
0.0 0.0 -9.580987920798e+01 
-2.492561268813e+01 -1.744616789535e+00 0.0 
-1.744616789535e+00 -6.874353621385e+01 0.0 
0.0 0.0 -2.635153105041e+01 
-4.766291523030e+01 -1.589737227858e+01 0.0 
-1.589737227858e+01 -8.116211384256e+01 0.0 
0.0 0.0 -3.252805922787e+01 
-1.284310126994e+02 4.371510288540e+00 0.0 
4.371510288540e+00 -2.882049839745e+02 0.0 
0.0 0.0 -1.245907990021e+02 
-5.798268334614e+01 2.258771650189e+01 0.0 
2.258771650189e+01 -1.374642876389e+02 0.0 
0.0 0.0 -5.472645630267e+01 
-5.701470392200e+01 2.439710006752e+01 0.0 
2.439710006752e+01 -1.222591878235e+02 0.0 
0.0 0.0 -5.003621447616e+01 
-3.410784255490e+01 1.142624267601e+01 0.0 
1.142624267601e+01 -1.241886739114e+02 0.0 
0.0 0.0 -4.864460451375e+01 
-3.023525273209e+01 9.327620152747e-01 0.0 
9.327620152747e-01 -1.241344351416e+02 0.0 
0.0 0.0 -4.859345125265e+01 
-1.180777275293e+02 1.115596887050e+00 0.0 
1.115596887050e+00 -2.629731417558e+02 0.0 
0.0 0.0 -1.139152607855e+02 
-1.256365419185e+02 1.315593677001e+00 0.0 
1.315593677001e+00 -2.829871471142e+02 0.0 
0.0 0.0 -1.221871067098e+02 
-1.033782055487e+02 -3.988059716540e+00 0.0 
-3.988059716540e+00 -2.176095377216e+02 0.0 
0.0 0.0 -9.116334498456e+01 
-1.068933694087e+02 -3.084414123360e+00 0.0 
-3.084414123360e+00 -2.258719778825e+02 0.0 
0.0 0.0 -9.513910614995e+01 
-1.329171409088e+02 3.828679867801e+00 0.0 
3.828679867801e+00 -3.289767959125e+02 0.0 
0.0 0.0 -1.381681810464e+02 
-4.901079152384e+01 -1.223536311890e+01 0.0 
-1.223536311890e+01 -8.985649156907e+01 0.0 
0.0 0.0 -3.735234546790e+01 
-1.292876225010e+02 1.840192491031e+00 0.0 
1.840192491031e+00 -2.926363469469e+02 0.0 
0.0 0.0 -1.261771908344e+02 
-1.133473939969e+02 4.012245256199e+00 0.0 
4.012245256199e+00 -2.918984290505e+02 0.0 
0.0 0.0 -1.227214502036e+02 
-1.042767834802e+02 2.964216194392e+00 0.0 
2.964216194392e+00 -2.737144711271e+02 0.0 
0.0 0.0 -1.169028772621e+02 
-9.566969887705e+01 -3.206165906321e+00 0.0 
-3.206165906321e+00 -1.934752184871e+02 0.0 
0.0 0.0 -8.122335031943e+01 
-4.829052505465e+01 2.658892128867e+01 0.0 
2.658892128867e+01 -1.026269589258e+02 0.0 
0.0 0.0 -4.053251335192e+01 
-4.447942229283e+01 2.625216712266e+01 0.0 
2.625216712266e+01 -1.037144410427e+02 0.0 
0.0 0.0 -4.000075508202e+01 
-6.455734762050e+01 -1.409985229813e+01 0.0 
-1.409985229813e+01 -1.560037265391e+02 0.0 
0.0 0.0 -6.404800769901e+01 
-5.582909991546e+01 -1.406363008395e+01 0.0 
-1.406363008395e+01 -1.109166129396e+02 0.0 
0.0 0.0 -4.643336146016e+01 
-4.499457232431e+01 -2.309376628714e+00 0.0 
-2.309376628714e+00 -9.924386066206e+01 0.0 
0.0 0.0 -3.990259059028e+01 
-1.425263276233e+02 4.421217685890e+00 0.0 
4.421217685890e+00 -3.476230095605e+02 0.0 
0.0 0.0 -1.466448011551e+02 
-1.320027308628e+02 5.045276217637e+00 0.0 
5.045276217637e+00 -2.975597527317e+02 0.0 
0.0 0.0 -1.284687450784e+02 
-1.259060275527e+02 1.148517333237e+01 0.0 
1.148517333237e+01 -3.034280778245e+02 0.0 
0.0 0.0 -1.284002316132e+02 
-1.172115424751e+02 1.178996105088e+01 0.0 
1.178996105088e+01 -2.847036652832e+02 0.0 
0.0 0.0 -1.201745623275e+02 
-1.347896707526e+02 1.139038815238e+01 0.0 
1.139038815238e+01 -3.222325044453e+02 0.0 
0.0 0.0 -1.367066525594e+02 
-4.128121065599e+01 -9.468856764691e+00 0.0 
-9.468856764691e+00 -6.837904430959e+01 0.0 
0.0 0.0 -2.826059021072e+01 
-1.424471818391e+02 3.006714857216e+00 0.0 
3.006714857216e+00 -3.462881251546e+02 0.0 
0.0 0.0 -1.462205920981e+02 
-1.323074152849e+02 -2.244709613749e-01 0.0 
-2.244709613749e-01 -3.128054413074e+02 0.0 
0.0 0.0 -1.329151154609e+02 
-1.360320096837e+02 1.192527624731e+01 0.0 
1.192527624731e+01 -3.179990014472e+02 0.0 
0.0 0.0 -1.358093033393e+02 
-1.328549228702e+02 1.182646089298e+01 0.0 
1.182646089298e+01 -3.082041912277e+02 0.0 
0.0 0.0 -1.319177342294e+02 
-6.246805528036e+01 2.281626258553e+01 0.0 
2.281626258553e+01 -1.405185251747e+02 0.0 
0.0 0.0 -5.802219493506e+01 
-6.128819078710e+01 2.362476375753e+01 0.0 
2.362476375753e+01 -1.260031010852e+02 0.0 
0.0 0.0 -5.361114320365e+01 
-5.593883788659e+01 2.457213156094e+01 0.0 
2.457213156094e+01 -1.061658602846e+02 0.0 
0.0 0.0 -4.528110550026e+01 
-5.961003163527e+01 2.278085259958e+01 0.0 
2.278085259958e+01 -1.107354131314e+02 0.0 
0.0 0.0 -4.844716030374e+01 
-9.922569914901e+01 8.096498109106e+00 0.0 
8.096498109106e+00 -2.072882108809e+02 0.0 
0.0 0.0 -9.131649967701e+01 
-6.713195277569e+01 2.227766164340e+01 0.0 
2.227766164340e+01 -1.452084033809e+02 0.0 
0.0 0.0 -6.198994269889e+01 
-9.701251941271e+01 9.942867769411e+00 0.0 
9.942867769411e+00 -1.989495876959e+02 0.0 
0.0 0.0 -8.682183561464e+01 
-9.383875841903e+01 8.757947050372e+00 0.0 
8.757947050372e+00 -1.886567950890e+02 0.0 
0.0 0.0 -8.274212027415e+01 
-9.105117055295e+01 9.223624940371e+00 0.0 
9.223624940371e+00 -1.795051778615e+02 0.0 
0.0 0.0 -7.831426736143e+01 
-8.396744632445e+01 1.391523684172e+01 0.0 
1.391523684172e+01 -1.628662498975e+02 0.0 
0.0 0.0 -6.975131896967e+01 
-8.088714782191e+01 1.214303084154e+01 0.0 
1.214303084154e+01 -1.515330345897e+02 0.0 
0.0 0.0 -6.475747745061e+01 
-6.546008268024e+01 1.797623791823e+01 0.0 
1.797623791823e+01 -1.678215172281e+02 0.0 
0.0 0.0 -6.721458719082e+01 
-9.265368200407e+01 1.006624018697e+01 0.0 
1.006624018697e+01 -2.451781851145e+02 0.0 
0.0 0.0 -1.058565591387e+02 
-9.965752486602e+01 -4.932960120045e+00 0.0 
-4.932960120045e+00 -2.095329054925e+02 0.0 
0.0 0.0 -8.713787442477e+01 
-1.146972480357e+02 -2.826143869373e+00 0.0 
-2.826143869373e+00 -2.607234688739e+02 0.0 
0.0 0.0 -1.096766647475e+02 
-1.028971772106e+02 -2.831847779942e+00 0.0 
-2.831847779942e+00 -2.525849739981e+02 0.0 
0.0 0.0 -1.074176985136e+02 
-1.285360530407e+02 3.473051147589e+00 0.0 
3.473051147589e+00 -2.893040500438e+02 0.0 
0.0 0.0 -1.249520309254e+02 
-1.323588939577e+02 3.230695589266e+00 0.0 
3.230695589266e+00 -3.001741948879e+02 0.0 
0.0 0.0 -1.293599266537e+02 
-1.019705219152e+02 1.784141936275e+00 0.0 
1.784141936275e+00 -2.202864894600e+02 0.0 
0.0 0.0 -9.627710341255e+01 
-9.816166911961e+01 1.373436024745e+00 0.0 
1.373436024745e+00 -2.110402471648e+02 0.0 
0.0 0.0 -9.236057488532e+01 
-3.639740548202e+01 -6.000025841158e+00 0.0 
-6.000025841158e+00 -7.677536566706e+01 0.0 
0.0 0.0 -3.050846961081e+01 
-3.439123669461e+01 -5.950886969712e+00 0.0 
-5.950886969712e+00 -6.841069642945e+01 0.0 
0.0 0.0 -2.748573129986e+01 
-1.039138642100e+02 -4.933097425962e+00 0.0 
-4.933097425962e+00 -2.375186762228e+02 0.0 
0.0 0.0 -9.971569950472e+01 
-1.375698034487e+02 2.075727541393e+00 0.0 
2.075727541393e+00 -3.354774879359e+02 0.0 
0.0 0.0 -1.415141874154e+02 
-1.318032893233e+02 5.989977739707e+00 0.0 
5.989977739707e+00 -2.964914361204e+02 0.0 
0.0 0.0 -1.280884176331e+02 
-1.353449357530e+02 6.742706765621e+00 0.0 
6.742706765621e+00 -3.062113409822e+02 0.0 
0.0 0.0 -1.320668830206e+02 
-1.318074160020e+02 7.044037536834e+00 0.0 
7.044037536834e+00 -2.961006157366e+02 0.0 
0.0 0.0 -1.279724095216e+02 
-1.376809228805e+02 4.947450330398e+00 0.0 
4.947450330398e+00 -3.385504467137e+02 0.0 
0.0 0.0 -1.424694108783e+02 
-6.596278770552e+01 7.066593436246e+00 0.0 
7.066593436246e+00 -1.845504842446e+02 0.0 
0.0 0.0 -7.265299140994e+01 
-9.466024856275e+01 4.479244739289e+00 0.0 
4.479244739289e+00 -2.554188901818e+02 0.0 
0.0 0.0 -1.105134843511e+02 
-3.492725436689e+01 -9.082693546154e+00 0.0 
-9.082693546154e+00 -1.236650113952e+02 0.0 
0.0 0.0 -4.849208884067e+01 
-1.027133091612e+02 1.360238438304e+01 0.0 
1.360238438304e+01 -2.479967347697e+02 0.0 
0.0 0.0 -1.052012435113e+02 
-2.579361302249e+01 -3.224509716076e+00 0.0 
-3.224509716076e+00 -5.646712414792e+01 0.0 
0.0 0.0 -2.194115124771e+01 
-1.186429396187e+02 1.129822966994e+01 0.0 
1.129822966994e+01 -2.678441304405e+02 0.0 
0.0 0.0 -1.155461210177e+02 
-1.402658374958e+02 4.550958581669e-02 0.0 
4.550958581669e-02 -3.323187507865e+02 0.0 
0.0 0.0 -1.413753764847e+02 
-1.449135500293e+02 2.308099598458e-01 0.0 
2.308099598458e-01 -3.431881229585e+02 0.0 
0.0 0.0 -1.460305018963e+02 
-1.390241709933e+02 1.028567416862e+01 0.0 
1.028567416862e+01 -3.350163730545e+02 0.0 
0.0 0.0 -1.418121632143e+02 
-8.960356766823e+01 6.078587778829e+00 0.0 
6.078587778829e+00 -1.786650159743e+02 0.0 
0.0 0.0 -7.934678498847e+01 
-1.043627291893e+02 1.270764760300e+01 0.0 
1.270764760300e+01 -2.581962916054e+02 0.0 
0.0 0.0 -1.093516286681e+02 
-9.963294873098e+01 1.291472348761e+01 0.0 
1.291472348761e+01 -2.500856359320e+02 0.0 
0.0 0.0 -1.066532602707e+02 
-8.752890757650e+01 7.865981487493e+00 0.0 
7.865981487493e+00 -1.694002394725e+02 0.0 
0.0 0.0 -7.431330275324e+01 
-8.445995799283e+01 8.367506679128e+00 0.0 
8.367506679128e+00 -1.601670270190e+02 0.0 
0.0 0.0 -6.973544108043e+01 
-8.801250741610e+01 9.858362746871e+00 0.0 
9.858362746871e+00 -1.703206845103e+02 0.0 
0.0 0.0 -7.369193635916e+01 
-8.114867084710e+01 9.118041269073e+00 0.0 
9.118041269073e+00 -1.507854739101e+02 0.0 
0.0 0.0 -6.486806114157e+01 
-6.783826218098e+01 -1.452596242343e+01 0.0 
-1.452596242343e+01 -1.599094510297e+02 0.0 
0.0 0.0 -6.685517553668e+01 
-6.536203523346e+01 -1.517910522324e+01 0.0 
-1.517910522324e+01 -1.457209968059e+02 0.0 
0.0 0.0 -6.105475346265e+01 
-1.406866262637e+02 1.204598856397e+01 0.0 
1.204598856397e+01 -3.305255323946e+02 0.0 
0.0 0.0 -1.409636475975e+02 
-1.392250216128e+02 1.164173853084e+01 0.0 
1.164173853084e+01 -3.304182755708e+02 0.0 
0.0 0.0 -1.404929891551e+02 
-1.404222992703e+02 1.198195560231e+01 0.0 
1.198195560231e+01 -3.269214063716e+02 0.0 
0.0 0.0 -1.398031116926e+02 
-1.374442149953e+02 1.168689763866e+01 0.0 
1.168689763866e+01 -3.174923775798e+02 0.0 
0.0 0.0 -1.360809777725e+02 
-1.436139710899e+02 9.957252673572e+00 0.0 
9.957252673572e+00 -3.450224256611e+02 0.0 
0.0 0.0 -1.461909190253e+02 
-1.384314403631e+02 9.284700362677e+00 0.0 
9.284700362677e+00 -3.361375202209e+02 0.0 
0.0 0.0 -1.419706881752e+02 
-5.839843387865e+01 -2.694727875634e+00 0.0 
-2.694727875634e+00 -1.192276591011e+02 0.0 
0.0 0.0 -4.870653417748e+01 
-7.330975627892e+01 1.162728657873e+01 0.0 
1.162728657873e+01 -1.311469927220e+02 0.0 
0.0 0.0 -5.645520165387e+01 
-1.357701780001e+02 4.771592773505e+00 0.0 
4.771592773505e+00 -3.081303949373e+02 0.0 
0.0 0.0 -1.327701718812e+02 
-9.037643138608e+01 7.504258483403e+00 0.0 
7.504258483403e+00 -1.785924803507e+02 0.0 
0.0 0.0 -7.872608332235e+01 
-1.468408334262e+02 2.651700743516e+00 0.0 
2.651700743516e+00 -3.540791101120e+02 0.0 
0.0 0.0 -1.498759830615e+02 
-1.421377623601e+02 1.856760883059e+00 0.0 
1.856760883059e+00 -3.436960658995e+02 0.0 
0.0 0.0 -1.453501484779e+02 
-3.235082596927e+01 -1.096427113356e+01 0.0 
-1.096427113356e+01 -1.191202787021e+02 0.0 
0.0 0.0 -4.755402774309e+01 
-3.676758613269e+01 -1.962689569363e+01 0.0 
-1.962689569363e+01 -1.078400436346e+02 0.0 
0.0 0.0 -4.288314380417e+01 
-1.331936715826e+02 1.534485638363e+00 0.0 
1.534485638363e+00 -3.033484101065e+02 0.0 
0.0 0.0 -1.305626245067e+02 
-5.363151090133e+01 2.254660142703e+01 0.0 
2.254660142703e+01 -8.905558003054e+01 0.0 
0.0 0.0 -3.957399131676e+01 
-5.644718024377e+01 2.005386498902e+01 0.0 
2.005386498902e+01 -9.419585417310e+01 0.0 
0.0 0.0 -4.232933536698e+01 
-5.060178326921e+01 2.495106341168e+01 0.0 
2.495106341168e+01 -8.534569234420e+01 0.0 
0.0 0.0 -3.700266744003e+01 
-1.581464104331e+02 7.564152972162e-02 0.0 
7.564152972162e-02 -3.717313168537e+02 0.0 
0.0 0.0 -1.585633181860e+02 
-8.154290073740e+01 1.680469421282e-01 0.0 
1.680469421282e-01 -1.725267842224e+02 0.0 
0.0 0.0 -7.582090548795e+01 
-1.490744928547e+02 2.012912238094e-01 0.0 
2.012912238094e-01 -3.517760398863e+02 0.0 
0.0 0.0 -1.498551598223e+02 
-8.781827637632e+01 1.243355456531e+01 0.0 
1.243355456531e+01 -1.718641541195e+02 0.0 
0.0 0.0 -7.334444856164e+01 
-1.369003879910e+02 2.038111733033e+00 0.0 
2.038111733033e+00 -3.130842253749e+02 0.0 
0.0 0.0 -1.345953840098e+02 
-1.067688858512e+02 1.169379479944e+01 0.0 
1.169379479944e+01 -2.681839163742e+02 0.0 
0.0 0.0 -1.132829975526e+02 
-7.865201100282e+01 1.962856801108e+01 0.0 
1.962856801108e+01 -1.720352745904e+02 0.0 
0.0 0.0 -7.415903952333e+01 
-1.280302470658e+02 4.335143257763e+00 0.0 
4.335143257763e+00 -3.200190363425e+02 0.0 
0.0 0.0 -1.340147850225e+02 
-1.291801683978e+02 1.098681900901e+00 0.0 
1.098681900901e+00 -2.925715938690e+02 0.0 
0.0 0.0 -1.261255286800e+02 
-1.371227134380e+02 1.143913847434e+00 0.0 
1.143913847434e+00 -3.145395798457e+02 0.0 
0.0 0.0 -1.350986879851e+02 
-9.813559541531e+01 2.517426479314e+00 0.0 
2.517426479314e+00 -2.082834783109e+02 0.0 
0.0 0.0 -9.152572211786e+01 
-9.372718401293e+01 2.062967126591e+00 0.0 
2.062967126591e+00 -1.982725833740e+02 0.0 
0.0 0.0 -8.719993021608e+01 
-1.018292644756e+02 3.161444107341e+00 0.0 
3.161444107341e+00 -2.172254281785e+02 0.0 
0.0 0.0 -9.531640779622e+01 
-3.865030965508e+01 1.760600652714e+01 0.0 
1.760600652714e+01 -1.217410922443e+02 0.0 
0.0 0.0 -4.588480794489e+01 
-3.457087472634e+01 2.267025773010e+01 0.0 
2.267025773010e+01 -1.074911947329e+02 0.0 
0.0 0.0 -4.275930580997e+01 
-1.287914990661e+02 2.637357355652e+00 0.0 
2.637357355652e+00 -2.908430165319e+02 0.0 
0.0 0.0 -1.254903546794e+02 
-7.262628626365e+01 -4.818980958364e+00 0.0 
-4.818980958364e+00 -1.444432724062e+02 0.0 
0.0 0.0 -5.885312020658e+01 
-7.830460971171e+01 -3.762600447110e+00 0.0 
-3.762600447110e+00 -1.548628130937e+02 0.0 
0.0 0.0 -6.398924321968e+01 
-4.993230567143e+01 -1.153822016132e+01 0.0 
-1.153822016132e+01 -9.575232775820e+01 0.0 
0.0 0.0 -3.992835315677e+01 
-5.765190184803e+01 -1.299360147517e+01 0.0 
-1.299360147517e+01 -1.166457943692e+02 0.0 
0.0 0.0 -4.891744388988e+01 
-1.064703262571e+02 -4.074463908485e+00 0.0 
-4.074463908485e+00 -2.294917147211e+02 0.0 
0.0 0.0 -9.609725380840e+01 
-1.028301309956e+02 -4.954606692701e+00 0.0 
-4.954606692701e+00 -2.215710223716e+02 0.0 
0.0 0.0 -9.232898124335e+01 
-1.218631339401e+02 1.166971513473e+01 0.0 
1.166971513473e+01 -2.784747257255e+02 0.0 
0.0 0.0 -1.197013578997e+02 
-1.260798598339e+02 1.125700628314e+01 0.0 
1.125700628314e+01 -2.872748384643e+02 0.0 
0.0 0.0 -1.236064094895e+02 
-1.130555785717e+02 1.265317844007e+01 0.0 
1.265317844007e+01 -2.613398770108e+02 0.0 
0.0 0.0 -1.118487092189e+02 
-1.092217346263e+02 2.491007669286e+00 0.0 
2.491007669286e+00 -2.825453347603e+02 0.0 
0.0 0.0 -1.194410791372e+02 
-1.012577589649e+02 1.217067960016e+00 0.0 
1.217067960016e+00 -2.642952525830e+02 0.0 
0.0 0.0 -1.134576876517e+02 
-9.605164480988e+01 1.431640343125e+00 0.0 
1.431640343125e+00 -2.556673710999e+02 0.0 
0.0 0.0 -1.102733136445e+02 
-1.355311095916e+02 3.827406286854e+00 0.0 
3.827406286854e+00 -3.088498308019e+02 0.0 
0.0 0.0 -1.329142821181e+02 
-1.401892068956e+02 3.508908207251e+00 0.0 
3.508908207251e+00 -3.219669604890e+02 0.0 
0.0 0.0 -1.382468502154e+02 
-7.004328660754e+01 -1.282268339407e+01 0.0 
-1.282268339407e+01 -1.733426241597e+02 0.0 
0.0 0.0 -7.235580792313e+01 
-6.627774118093e+01 -1.166440590455e+01 0.0 
-1.166440590455e+01 -1.691372750654e+02 0.0 
0.0 0.0 -6.920350518478e+01 
-7.198216781545e+01 -1.385200755795e+01 0.0 
-1.385200755795e+01 -1.647309913771e+02 0.0 
0.0 0.0 -6.945069221432e+01 
-1.392198009804e+02 5.438561257825e+00 0.0 
5.438561257825e+00 -3.175144667018e+02 0.0 
0.0 0.0 -1.366202803047e+02 
-1.535800440282e+02 3.216962548006e-01 0.0 
3.216962548006e-01 -3.622957834214e+02 0.0 
0.0 0.0 -1.543627482349e+02 
-1.494796237950e+02 5.062024004224e-01 0.0 
5.062024004224e-01 -3.539535210357e+02 0.0 
0.0 0.0 -1.506299434492e+02 
-2.433398058126e+01 -2.730888084538e+00 0.0 
-2.730888084538e+00 -4.845503714574e+01 0.0 
0.0 0.0 -1.908188000798e+01 
-3.278599810874e+01 -5.589716062315e+00 0.0 
-5.589716062315e+00 -6.011674189117e+01 0.0 
0.0 0.0 -2.422608722400e+01 
-4.477801948334e+01 2.826477026983e+01 0.0 
2.826477026983e+01 -8.424478911489e+01 0.0 
0.0 0.0 -3.380683272524e+01 
-4.199362892354e+01 2.897074480805e+01 0.0 
2.897074480805e+01 -8.697879068602e+01 0.0 
0.0 0.0 -3.446955669708e+01 
-1.386066426328e+02 7.466942652122e+00 0.0 
7.466942652122e+00 -3.154762257727e+02 0.0 
0.0 0.0 -1.358248605217e+02 
-1.353857776895e+02 7.793053175998e+00 0.0 
7.793053175998e+00 -3.060726103980e+02 0.0 
0.0 0.0 -1.320375164263e+02 
-1.428237074283e+02 7.201168875092e+00 0.0 
7.201168875092e+00 -3.273280539058e+02 0.0 
0.0 0.0 -1.406455284002e+02 
-4.895684630381e+01 -1.628864549980e+00 0.0 
-1.628864549980e+00 -1.058744017219e+02 0.0 
0.0 0.0 -4.312095616204e+01 
-1.209102909183e+02 1.116183636568e+01 0.0 
1.116183636568e+01 -2.950575972799e+02 0.0 
0.0 0.0 -1.243903664595e+02 
-1.471092251278e+02 5.479643664986e+00 0.0 
5.479643664986e+00 -3.563505604445e+02 0.0 
0.0 0.0 -1.506379356717e+02 
-1.421720349468e+02 6.014653864246e+00 0.0 
6.014653864246e+00 -3.472222340483e+02 0.0 
0.0 0.0 -1.464182806985e+02 
-1.531736144851e+02 5.016735720260e+00 0.0 
5.016735720260e+00 -3.677859272009e+02 0.0 
0.0 0.0 -1.558878625058e+02 
-1.345630638398e+02 1.064976102516e+01 0.0 
1.064976102516e+01 -3.247451487353e+02 0.0 
0.0 0.0 -1.373924637725e+02 
-1.434602700857e+02 1.083340435480e+01 0.0 
1.083340435480e+01 -3.429715952578e+02 0.0 
0.0 0.0 -1.455295596030e+02 
-1.435227138620e+02 1.147413564716e+01 0.0 
1.147413564716e+01 -3.407489177365e+02 0.0 
0.0 0.0 -1.448814894796e+02 
-3.660916891284e+01 1.283256716899e+00 0.0 
1.283256716899e+00 -1.215246575567e+02 0.0 
0.0 0.0 -4.931292046100e+01 
-1.345258723457e+02 8.349268431473e-01 0.0 
8.349268431473e-01 -3.074654019667e+02 0.0 
0.0 0.0 -1.321973822937e+02 
-9.363198592245e+01 1.433551354355e+00 0.0 
1.433551354355e+00 -1.994141100459e+02 0.0 
0.0 0.0 -8.751382879051e+01 
-4.745803151445e+01 -6.941356755353e+00 0.0 
-6.941356755353e+00 -1.161576463175e+02 0.0 
0.0 0.0 -5.052700188349e+01 
-8.980142312414e+01 1.047322566706e+00 0.0 
1.047322566706e+00 -1.903673701194e+02 0.0 
0.0 0.0 -8.365063797305e+01 
-9.414843399336e+01 1.017655825365e+00 0.0 
1.017655825365e+00 -2.017057221307e+02 0.0 
0.0 0.0 -8.835624683722e+01 
-8.532310628975e+01 7.438904637178e-01 0.0 
7.438904637178e-01 -1.801425752672e+02 0.0 
0.0 0.0 -7.923970446709e+01 
-3.453445213149e+01 -1.326636896654e+00 0.0 
-1.326636896654e+00 -8.597540382389e+01 0.0 
0.0 0.0 -3.417598509837e+01 
-9.279910368571e+01 2.641863643430e+00 0.0 
2.641863643430e+00 -1.942085000260e+02 0.0 
0.0 0.0 -8.570228111352e+01 
-9.806040899999e+01 3.435891802247e+00 0.0 
3.435891802247e+00 -2.067007640418e+02 0.0 
0.0 0.0 -9.102835191254e+01 
-2.097033413559e+01 -2.122846237691e+00 0.0 
-2.122846237691e+00 -3.664245112215e+01 0.0 
0.0 0.0 -1.505646179164e+01 
-1.426110112638e+02 5.042277325512e+00 0.0 
5.042277325512e+00 -3.276971192760e+02 0.0 
0.0 0.0 -1.406924391619e+02 
-1.715473033993e+01 -5.671107228888e-01 0.0 
-5.671107228888e-01 -3.770607737101e+01 0.0 
0.0 0.0 -1.472878558783e+01 
-1.893450252310e+01 -8.677131590870e-01 0.0 
-8.677131590870e-01 -4.544177505491e+01 0.0 
0.0 0.0 -1.731342154333e+01 
-1.515139597912e+02 2.289523283683e+00 0.0 
2.289523283683e+00 -3.625158774517e+02 0.0 
0.0 0.0 -1.538089511729e+02 
-1.465569857421e+02 1.654909063749e+00 0.0 
1.654909063749e+00 -3.517120059278e+02 0.0 
0.0 0.0 -1.490806975010e+02 
-1.555298876125e+02 2.050957228639e+00 0.0 
2.050957228639e+00 -3.700218103245e+02 0.0 
0.0 0.0 -1.572655093811e+02 
-1.505366617776e+02 1.409696207798e+00 0.0 
1.409696207798e+00 -3.590892155300e+02 0.0 
0.0 0.0 -1.524877631923e+02 
-1.418014112099e+02 1.081225992656e+00 0.0 
1.081225992656e+00 -3.407362360797e+02 0.0 
0.0 0.0 -1.443612941869e+02 
-1.462323071278e+02 9.562186402109e-01 0.0 
9.562186402109e-01 -3.491049862321e+02 0.0 
0.0 0.0 -1.482011880079e+02 
-8.937690421126e+01 1.551468604475e+00 0.0 
1.551468604475e+00 -1.883036365208e+02 0.0 
0.0 0.0 -8.290416221962e+01 
-1.562689708637e+02 1.281829645729e+00 0.0 
1.281829645729e+00 -3.701456163562e+02 0.0 
0.0 0.0 -1.575243761660e+02 
-1.507237736263e+02 8.543670182326e-01 0.0 
8.543670182326e-01 -3.577225310817e+02 0.0 
0.0 0.0 -1.521338914124e+02 
-1.605453047414e+02 1.066023059299e+00 0.0 
1.066023059299e+00 -3.788721626118e+02 0.0 
0.0 0.0 -1.614252402059e+02 
-7.734586583256e+01 7.387856653493e+00 0.0 
7.387856653493e+00 -1.411306150940e+02 0.0 
0.0 0.0 -6.122103848236e+01 
-6.328516065166e+01 2.058281720834e+01 0.0 
2.058281720834e+01 -1.161685075589e+02 0.0 
0.0 0.0 -5.142017083742e+01 
-6.001014990874e+01 1.773315856683e+01 0.0 
1.773315856683e+01 -1.015311634576e+02 0.0 
0.0 0.0 -4.568385476430e+01 
-5.170175854736e+01 1.577385843746e+01 0.0 
1.577385843746e+01 -7.848607885310e+01 0.0 
0.0 0.0 -3.601408791938e+01 
-1.459203085366e+02 1.196184559872e+01 0.0 
1.196184559872e+01 -3.390559367840e+02 0.0 
0.0 0.0 -1.450928735962e+02 
-1.409463117940e+02 1.143679283538e+01 0.0 
1.143679283538e+01 -3.253971617760e+02 0.0 
0.0 0.0 -1.395030420710e+02 
-1.359164421781e+02 -8.266300587880e-02 0.0 
-8.266300587880e-02 -3.218501443168e+02 0.0 
0.0 0.0 -1.368906049842e+02 
-1.294285169045e+02 -3.326371602260e-01 0.0 
-3.326371602260e-01 -3.020757273731e+02 0.0 
0.0 0.0 -1.283552309421e+02 
-8.964066028868e+01 6.427015452668e-01 0.0 
6.427015452668e-01 -1.913505813045e+02 0.0 
0.0 0.0 -8.389737247795e+01 
-8.902322165492e+01 5.030266481274e-01 0.0 
5.030266481274e-01 -1.902444127015e+02 0.0 
0.0 0.0 -8.338029030694e+01 
-9.638709058866e+01 5.589290645451e-01 0.0 
5.589290645451e-01 -2.082121956749e+02 0.0 
0.0 0.0 -9.097978587907e+01 
-9.524325648969e+01 5.073754229245e-01 0.0 
5.073754229245e-01 -2.057382765698e+02 0.0 
0.0 0.0 -8.989445991784e+01 
-1.025434552314e+02 5.585957833064e-01 0.0 
5.585957833064e-01 -2.238354531077e+02 0.0 
0.0 0.0 -9.751367250175e+01 
-1.014328422197e+02 4.875160540674e-01 0.0 
4.875160540674e-01 -2.210415807326e+02 0.0 
0.0 0.0 -9.634232688569e+01 
-1.087997920547e+02 7.691955395829e-01 0.0 
7.691955395829e-01 -2.395056415238e+02 0.0 
0.0 0.0 -1.040916300736e+02 
-1.480554613498e+02 1.189880188105e+01 0.0 
1.189880188105e+01 -3.494902755114e+02 0.0 
0.0 0.0 -1.488637210583e+02 
-4.736072859917e+01 2.129405983659e+01 0.0 
2.129405983659e+01 -6.648982051292e+01 0.0 
0.0 0.0 -3.049695372911e+01 
-8.379782941434e+01 6.501500320277e+00 0.0 
6.501500320277e+00 -1.596936820830e+02 0.0 
0.0 0.0 -7.046523245773e+01 
-1.479329682631e+02 9.606211909722e+00 0.0 
9.606211909722e+00 -3.545621731245e+02 0.0 
0.0 0.0 -1.503485424163e+02 
-1.421120786369e+02 8.825205763576e+00 0.0 
8.825205763576e+00 -3.444193714073e+02 0.0 
0.0 0.0 -1.455594350133e+02 
-7.732327843853e+01 1.018598063452e+01 0.0 
1.018598063452e+01 -1.408585649407e+02 0.0 
0.0 0.0 -6.010373207894e+01 
-6.942753029158e+01 9.274375369626e+00 0.0 
9.274375369626e+00 -1.212061762705e+02 0.0 
0.0 0.0 -5.171696979063e+01 
-1.531552613704e+02 3.484531780672e+00 0.0 
3.484531780672e+00 -3.672085152904e+02 0.0 
0.0 0.0 -1.557091329983e+02 
-6.855012294009e+01 2.123107319211e+01 0.0 
2.123107319211e+01 -1.586004265654e+02 0.0 
0.0 0.0 -6.629416972396e+01 
-1.468169800924e+02 5.848546589614e+00 0.0 
5.848546589614e+00 -3.397609414332e+02 0.0 
0.0 0.0 -1.455733764577e+02 
-5.924082785256e+01 2.679875123200e+01 0.0 
2.679875123200e+01 -8.593814812952e+01 0.0 
0.0 0.0 -4.436889888677e+01 
-3.912550521830e+01 2.525115630473e+01 0.0 
2.525115630473e+01 -1.013590242918e+02 0.0 
0.0 0.0 -4.367269038211e+01 
-7.349090924968e+01 2.072640750244e+01 0.0 
2.072640750244e+01 -1.642766388752e+02 0.0 
0.0 0.0 -7.040604886116e+01 
-8.470024231898e+01 1.081816737474e+01 0.0 
1.081816737474e+01 -1.610160290746e+02 0.0 
0.0 0.0 -6.890713184462e+01 
-6.758455218112e+01 1.815147941322e+01 0.0 
1.815147941322e+01 -1.235519537104e+02 0.0 
0.0 0.0 -5.463761885228e+01 
-6.465860248906e+01 1.555419162009e+01 0.0 
1.555419162009e+01 -1.117367960416e+02 0.0 
0.0 0.0 -4.958691374808e+01 
-1.183839900786e+02 3.492183843998e+00 0.0 
3.492183843998e+00 -3.011206028885e+02 0.0 
0.0 0.0 -1.259696704186e+02 
-3.189564993767e+01 -5.627953383544e+00 0.0 
-5.627953383544e+00 -5.318671233073e+01 0.0 
0.0 0.0 -2.167692210145e+01 
-4.784817856869e+01 2.704003019754e+01 0.0 
2.704003019754e+01 -8.396143513725e+01 0.0 
0.0 0.0 -3.516586198281e+01 
-1.099035513796e+02 8.585485822835e-01 0.0 
8.585485822835e-01 -2.418394678096e+02 0.0 
0.0 0.0 -1.051229057568e+02 
-4.482029478189e+01 2.738298654111e+01 0.0 
2.738298654111e+01 -6.336793345901e+01 0.0 
0.0 0.0 -2.804715026217e+01 
-1.326776303824e+02 -1.152351816891e-01 0.0 
-1.152351816891e-01 -3.123069392329e+02 0.0 
0.0 0.0 -1.328252634818e+02 
-7.020897168151e+01 1.922167550128e+01 0.0 
1.922167550128e+01 -1.719659472369e+02 0.0 
0.0 0.0 -7.085502248971e+01 
-9.050288607272e+01 1.380499564992e+01 0.0 
1.380499564992e+01 -1.831961059716e+02 0.0 
0.0 0.0 -7.816019053098e+01 
-5.214818577040e+01 2.596310459264e+01 0.0 
2.596310459264e+01 -1.035249244625e+02 0.0 
0.0 0.0 -4.252380909195e+01 
-6.568495417609e+01 2.236964642875e+01 0.0 
2.236964642875e+01 -1.317686980878e+02 0.0 
0.0 0.0 -5.734634896412e+01 
-1.024914183593e+02 9.100963625984e+00 0.0 
9.100963625984e+00 -2.173177659416e+02 0.0 
0.0 0.0 -9.532018364371e+01 
-9.579901074590e+01 7.066057469693e+00 0.0 
7.066057469693e+00 -1.975111427256e+02 0.0 
0.0 0.0 -8.736375088608e+01 
-9.311796263130e+01 7.246699288038e+00 0.0 
7.246699288038e+00 -1.881040022468e+02 0.0 
0.0 0.0 -8.314320797375e+01 
-7.192160992053e+01 1.650253583052e+01 0.0 
1.650253583052e+01 -1.842995514467e+02 0.0 
0.0 0.0 -7.530713946161e+01 
-6.892839470730e+01 1.337414531047e+01 0.0 
1.337414531047e+01 -1.212588557418e+02 0.0 
0.0 0.0 -5.296557750319e+01 
-5.944868294818e+01 1.237833043886e+01 0.0 
1.237833043886e+01 -9.812418967385e+01 0.0 
0.0 0.0 -4.356427475604e+01 
-9.983270291147e+01 1.102397539784e+01 0.0 
1.102397539784e+01 -2.094756399892e+02 0.0 
0.0 0.0 -9.095659959600e+01 
-1.282165038213e+02 7.309444997607e+00 0.0 
7.309444997607e+00 -2.861189794736e+02 0.0 
0.0 0.0 -1.239006449885e+02 
-1.316816936812e+02 8.036476046165e+00 0.0 
8.036476046165e+00 -2.959686105825e+02 0.0 
0.0 0.0 -1.278950912791e+02 
-1.385683246800e+02 8.506576276783e+00 0.0 
8.506576276783e+00 -3.152222923427e+02 0.0 
0.0 0.0 -1.357371851068e+02 
-1.351669317407e+02 8.778178647278e+00 0.0 
8.778178647278e+00 -3.058813401527e+02 0.0 
0.0 0.0 -1.319144815680e+02 
-1.280739441983e+02 8.374846549252e+00 0.0 
8.374846549252e+00 -2.861751157276e+02 0.0 
0.0 0.0 -1.238747179778e+02 
-1.315628847313e+02 9.121717399733e+00 0.0 
9.121717399733e+00 -2.961579600809e+02 0.0 
0.0 0.0 -1.279162534436e+02 
-1.385717317293e+02 9.439647595942e+00 0.0 
9.439647595942e+00 -3.157952463661e+02 0.0 
0.0 0.0 -1.359100934286e+02 
-1.353075741673e+02 9.789373670072e+00 0.0 
9.789373670072e+00 -3.068226392990e+02 0.0 
0.0 0.0 -1.322390640399e+02 
-1.435510568926e+02 1.031277586541e+01 0.0 
1.031277586541e+01 -3.297596252792e+02 0.0 
0.0 0.0 -1.415932046515e+02 
-1.386466507915e+02 1.050573496290e+01 0.0 
1.050573496290e+01 -3.168738350794e+02 0.0 
0.0 0.0 -1.362561457613e+02 
-1.311421237313e+02 1.007290228262e+01 0.0 
1.007290228262e+01 -2.965325361861e+02 0.0 
0.0 0.0 -1.279023979752e+02 
-1.342685775951e+02 1.064579904977e+01 0.0 
1.064579904977e+01 -3.062439871195e+02 0.0 
0.0 0.0 -1.317537694144e+02 
-1.413177102215e+02 1.103607217270e+01 0.0 
1.103607217270e+01 -3.249957433231e+02 0.0 
0.0 0.0 -1.394940360634e+02 
-1.269612049709e+02 1.043012120274e+01 0.0 
1.043012120274e+01 -2.864388786847e+02 0.0 
0.0 0.0 -1.236200250967e+02 
-1.528710752579e+02 1.029659738980e+01 0.0 
1.029659738980e+01 -3.631857796843e+02 0.0 
0.0 0.0 -1.544170564827e+02 
-8.002118154959e+01 1.900226341278e+01 0.0 
1.900226341278e+01 -1.836530517455e+02 0.0 
0.0 0.0 -7.898690448871e+01 
-3.151301749436e+01 1.345569630427e+01 0.0 
1.345569630427e+01 -1.182258270387e+02 0.0 
0.0 0.0 -4.723638669760e+01 
-3.758770756576e+01 3.134742239089e+01 0.0 
3.134742239089e+01 -8.943813315127e+01 0.0 
0.0 0.0 -3.839173249320e+01 
-9.397478864139e+01 1.259975367869e+01 0.0 
1.259975367869e+01 -1.918913791137e+02 0.0 
0.0 0.0 -8.208629599684e+01 
-1.502988016337e+02 1.045842691822e+01 0.0 
1.045842691822e+01 -3.488054218079e+02 0.0 
0.0 0.0 -1.493312670325e+02 
-1.495118721349e+02 9.135937224112e+00 0.0 
9.135937224112e+00 -3.464820275499e+02 0.0 
0.0 0.0 -1.483981699054e+02 
-5.924220999502e+01 1.957203818374e+01 0.0 
1.957203818374e+01 -1.516507633390e+02 0.0 
0.0 0.0 -5.941312131542e+01 
-1.536793775662e+02 1.254347366005e+01 0.0 
1.254347366005e+01 -3.588646500767e+02 0.0 
0.0 0.0 -1.533632082929e+02 
-9.651617853855e+01 8.408301421625e+00 0.0 
8.408301421625e+00 -1.979309979747e+02 0.0 
0.0 0.0 -8.709302203228e+01 
-4.413439095846e+01 1.509814895969e+01 0.0 
1.509814895969e+01 -1.342161814156e+02 0.0 
0.0 0.0 -5.008293673786e+01 
-1.550083151525e+02 1.269776037811e+01 0.0 
1.269776037811e+01 -3.632550282580e+02 0.0 
0.0 0.0 -1.550790030232e+02 
-1.245695024368e+02 7.615297274187e+00 0.0 
7.615297274187e+00 -2.761434620153e+02 0.0 
0.0 0.0 -1.198138893356e+02 
-1.207933106631e+02 7.988309009111e+00 0.0 
7.988309009111e+00 -2.660746966421e+02 0.0 
0.0 0.0 -1.156604021916e+02 
-1.172966722274e+02 7.207180517231e+00 0.0 
7.207180517231e+00 -2.561542157896e+02 0.0 
0.0 0.0 -1.116352664051e+02 
-1.491036065529e+02 7.962022901018e+00 0.0 
7.962022901018e+00 -3.454191217231e+02 0.0 
0.0 0.0 -1.479568184828e+02 
-1.057951666025e+02 3.862282210511e+00 0.0 
3.862282210511e+00 -2.269508506488e+02 0.0 
0.0 0.0 -9.942380517539e+01 
-1.577606895990e+02 1.167424090450e+01 0.0 
1.167424090450e+01 -3.717272283164e+02 0.0 
0.0 0.0 -1.584463753746e+02 
-9.966795364361e+01 9.420389632969e+00 0.0 
9.420389632969e+00 -2.626884099664e+02 0.0 
0.0 0.0 -1.125639166039e+02 
-9.708911747611e+01 1.105774779947e+01 0.0 
1.105774779947e+01 -2.525902520261e+02 0.0 
0.0 0.0 -1.086032771540e+02 
-9.060715869970e+01 1.226793726670e+01 0.0 
1.226793726670e+01 -2.349250790057e+02 0.0 
0.0 0.0 -1.012504442913e+02 
-1.277212853084e+02 9.439238548759e+00 0.0 
9.439238548759e+00 -2.862537218344e+02 0.0 
0.0 0.0 -1.237925021429e+02 
-1.596415806555e+02 9.202614135591e+00 0.0 
9.202614135591e+00 -3.780439500836e+02 0.0 
0.0 0.0 -1.609056592217e+02 
-1.517277854675e+02 8.405280390038e+00 0.0 
8.405280390038e+00 -3.637242013434e+02 0.0 
0.0 0.0 -1.542355960433e+02 
-1.522502000014e+02 7.699432766503e+00 0.0 
7.699432766503e+00 -3.652346816936e+02 0.0 
0.0 0.0 -1.548454645085e+02 
-1.429923296739e+02 7.616029800527e+00 0.0 
7.616029800527e+00 -3.478619891734e+02 0.0 
0.0 0.0 -1.468562956542e+02 
-1.609102947548e+02 7.621050936294e+00 0.0 
7.621050936294e+00 -3.814071290535e+02 0.0 
0.0 0.0 -1.622952271425e+02 
-1.522066186634e+02 1.155936273286e+01 0.0 
1.155936273286e+01 -3.539802871041e+02 0.0 
0.0 0.0 -1.514560717302e+02 
-1.529427655894e+02 1.200474577279e+01 0.0 
1.200474577279e+01 -3.562868880229e+02 0.0 
0.0 0.0 -1.523688960837e+02 
-6.089856398490e+01 -1.332363196737e+01 0.0 
-1.332363196737e+01 -1.527457252980e+02 0.0 
0.0 0.0 -6.090044508379e+01 
-6.230906999460e+01 -9.902610475934e+00 0.0 
-9.902610475934e+00 -1.651651653706e+02 0.0 
0.0 0.0 -6.561230864160e+01 
-6.808913110931e+01 -8.365128555063e+00 0.0 
-8.365128555063e+00 -1.805694365542e+02 0.0 
0.0 0.0 -7.364301595595e+01 
-6.407189109954e+01 -5.710122921669e+00 0.0 
-5.710122921669e+00 -1.759393789971e+02 0.0 
0.0 0.0 -6.981651735538e+01 
-5.802426060814e+01 -7.306982901978e+00 0.0 
-7.306982901978e+00 -1.612981818636e+02 0.0 
0.0 0.0 -6.238164161881e+01 
-5.997070726377e+01 -2.226997814692e+00 0.0 
-2.226997814692e+00 -1.708115719941e+02 0.0 
0.0 0.0 -6.620780017970e+01 
-6.639773877132e+01 -1.268824894621e+00 0.0 
-1.268824894621e+00 -1.848948754156e+02 0.0 
0.0 0.0 -7.346725974782e+01 
-5.604595722329e+01 2.234791335281e+00 0.0 
2.234791335281e+00 -1.647887167085e+02 0.0 
0.0 0.0 -6.276452071296e+01 
-1.336594890731e+02 1.133035293479e+01 0.0 
1.133035293479e+01 -3.066977628618e+02 0.0 
0.0 0.0 -1.317071755804e+02 
-1.622063039380e+02 5.867926527129e+00 0.0 
5.867926527129e+00 -3.843961819257e+02 0.0 
0.0 0.0 -1.635807457591e+02 
-1.084699012690e+02 -8.318113362447e-01 0.0 
-8.318113362447e-01 -2.711667385242e+02 0.0 
0.0 0.0 -1.142675949739e+02 
-1.041767103542e+02 -9.587833205298e-01 0.0 
-9.587833205298e-01 -2.630826366858e+02 0.0 
0.0 0.0 -1.119290969949e+02 
-9.801362476109e+01 -3.290715323689e+00 0.0 
-3.290715323689e+00 -2.447088873854e+02 0.0 
0.0 0.0 -1.047496577209e+02 
-9.569565244015e+01 -5.971057609985e+00 0.0 
-5.971057609985e+00 -2.015514715470e+02 0.0 
0.0 0.0 -8.374992246998e+01 
-9.890158160880e+01 -5.942418371144e+00 0.0 
-5.942418371144e+00 -2.137107219827e+02 0.0 
0.0 0.0 -8.914757971850e+01 
-1.055284426170e+02 -4.712435328407e+00 0.0 
-4.712435328407e+00 -2.334886032871e+02 0.0 
0.0 0.0 -9.748839350954e+01 
-9.195250693934e+01 -5.713686123668e+00 0.0 
-5.713686123668e+00 -1.893206926949e+02 0.0 
0.0 0.0 -7.831904279656e+01 
-1.140201861724e+02 1.236777062522e+01 0.0 
1.236777062522e+01 -2.744154330953e+02 0.0 
0.0 0.0 -1.161217923104e+02 
-1.625592531171e+02 5.101968068748e+00 0.0 
5.101968068748e+00 -3.850383337952e+02 0.0 
0.0 0.0 -1.638792760737e+02 
-9.916065455183e+01 3.481668271286e+00 0.0 
3.481668271286e+00 -2.647117497151e+02 0.0 
0.0 0.0 -1.139452790357e+02 
-9.457046891942e+01 -7.123475031256e+00 0.0 
-7.123475031256e+00 -2.058698883437e+02 0.0 
0.0 0.0 -8.642640229083e+01 
-8.625976049058e+01 3.312954018568e+00 0.0 
3.312954018568e+00 -1.758685527423e+02 0.0 
0.0 0.0 -7.823849396988e+01 
-9.352899642057e+01 4.102658358609e+00 0.0 
4.102658358609e+00 -1.937261003986e+02 0.0 
0.0 0.0 -8.577652904575e+01 
-9.427615622652e+01 4.905875450508e+00 0.0 
4.905875450508e+00 -1.947612128846e+02 0.0 
0.0 0.0 -8.631121073332e+01 
-1.014226162319e+02 5.126371950680e+00 0.0 
5.126371950680e+00 -2.134081432932e+02 0.0 
0.0 0.0 -9.404922785753e+01 
-9.371379583247e+01 3.683286924754e+00 0.0 
3.683286924754e+00 -1.948383707174e+02 0.0 
0.0 0.0 -8.616564996497e+01 
-1.098892350154e+02 -3.249014974973e+00 0.0 
-3.249014974973e+00 -2.375427244402e+02 0.0 
0.0 0.0 -9.999303548981e+01 
-1.131165246758e+02 -2.462480147044e+00 0.0 
-2.462480147044e+00 -2.457066996601e+02 0.0 
0.0 0.0 -1.037979764252e+02 
-1.101940388512e+02 -2.277109144725e+00 0.0 
-2.277109144725e+00 -2.342587724983e+02 0.0 
0.0 0.0 -9.903707117953e+01 
-1.161718513441e+02 -1.724383002554e+00 0.0 
-1.724383002554e+00 -2.539752689783e+02 0.0 
0.0 0.0 -1.075628525229e+02 
-1.131402131465e+02 -1.450550228630e+00 0.0 
-1.450550228630e+00 -2.422195001636e+02 0.0 
0.0 0.0 -1.026572361734e+02 
-1.072728565322e+02 -1.850067070728e+00 0.0 
-1.850067070728e+00 -2.238203270034e+02 0.0 
0.0 0.0 -9.472972526322e+01 
-1.189664962007e+02 -1.027595925578e+00 0.0 
-1.027595925578e+00 -2.619742715305e+02 0.0 
0.0 0.0 -1.111555966248e+02 
-1.154479667234e+02 -8.465453113745e-01 0.0 
-8.465453113745e-01 -2.490354693401e+02 0.0 
0.0 0.0 -1.056719097302e+02 
-8.508194798855e+01 2.310890922456e+00 0.0 
2.310890922456e+00 -1.746689616798e+02 0.0 
0.0 0.0 -7.752527290050e+01 
-4.430465623733e+01 -2.363253977642e+01 0.0 
-2.363253977642e+01 -4.733250566539e+01 0.0 
0.0 0.0 -2.745365066038e+01 
-4.213166062662e+01 -2.349914733066e+01 0.0 
-2.349914733066e+01 -5.905884247948e+01 0.0 
0.0 0.0 -2.655564065252e+01 
-3.720103115965e+01 -1.461045307261e+01 0.0 
-1.461045307261e+01 -4.471511051996e+01 0.0 
0.0 0.0 -1.927498307609e+01 
-4.508672318176e+01 -2.071877024818e+01 0.0 
-2.071877024818e+01 -7.245838768189e+01 0.0 
0.0 0.0 -2.875935416124e+01 
-4.269522558517e+01 -2.340506244907e+01 0.0 
-2.340506244907e+01 -8.877707887043e+01 0.0 
0.0 0.0 -3.574136507052e+01 
-4.714935475305e+01 -2.023724237388e+01 0.0 
-2.023724237388e+01 -9.952935872532e+01 0.0 
0.0 0.0 -3.836065341793e+01 
-4.266837118430e+01 -1.964577629084e+01 0.0 
-1.964577629084e+01 -1.086794323834e+02 0.0 
0.0 0.0 -4.101816528310e+01 
-4.076575976405e+01 -2.740245072119e+01 0.0 
-2.740245072119e+01 -8.242626343381e+01 0.0 
0.0 0.0 -3.699721434539e+01 
-2.284936195234e+01 -5.580124577085e+00 0.0 
-5.580124577085e+00 -2.017368902952e+01 0.0 
0.0 0.0 -1.118500936183e+01 
-3.128650763467e+01 -8.574880456768e+00 0.0 
-8.574880456768e+00 -3.905453609628e+01 0.0 
0.0 0.0 -1.707082579151e+01 
-1.735384255925e+01 -2.304324064083e+00 0.0 
-2.304324064083e+00 -1.835569838740e+01 0.0 
0.0 0.0 -9.289131310768e+00 
-2.618264678689e+01 -4.973187399221e+00 0.0 
-4.973187399221e+00 -3.600364587871e+01 0.0 
0.0 0.0 -1.533041413097e+01 
-3.910293854855e+01 -1.033785051442e+01 0.0 
-1.033785051442e+01 -5.910252754113e+01 0.0 
0.0 0.0 -2.430336845110e+01 
-4.254498253441e+01 -8.696030560418e+00 0.0 
-8.696030560418e+00 -8.141237306700e+01 0.0 
0.0 0.0 -3.345118651560e+01 
-1.628768153762e+02 4.298222022984e-01 0.0 
4.298222022984e-01 -3.828658205839e+02 0.0 
0.0 0.0 -1.633227907881e+02 
-9.602922367693e+01 -9.115535813343e-01 0.0 
-9.115535813343e-01 -1.921008229772e+02 0.0 
0.0 0.0 -8.122274524407e+01 
-9.169817803728e+01 -1.885281913854e+00 0.0 
-1.885281913854e+00 -1.824145767571e+02 0.0 
0.0 0.0 -7.684041961752e+01 
-8.287284128046e+01 -1.954402201988e+00 0.0 
-1.954402201988e+00 -1.626324736804e+02 0.0 
0.0 0.0 -6.824855116620e+01 
-8.756174997104e+01 -2.798370769169e+00 0.0 
-2.798370769169e+00 -1.737890226745e+02 0.0 
0.0 0.0 -7.276346182832e+01 
-9.916079862658e+01 -1.709876559710e+00 0.0 
-1.709876559710e+00 -2.004447697646e+02 0.0 
0.0 0.0 -8.468556274448e+01 
-7.736794791997e+01 -9.890819176972e-01 0.0 
-9.890819176972e-01 -1.514177932386e+02 0.0 
0.0 0.0 -6.352620419023e+01 
-7.309223294078e+01 -1.925986254928e+00 0.0 
-1.925986254928e+00 -1.442831476740e+02 0.0 
0.0 0.0 -6.018269643872e+01 
-1.117354759617e+01 1.113447368261e-01 0.0 
1.113447368261e-01 -1.717574274511e+01 0.0 
0.0 0.0 -6.435600309249e+00 
-1.340588365669e+01 2.655972031147e-02 0.0 
2.655972031147e-02 -3.356271449400e+01 0.0 
0.0 0.0 -1.140290513783e+01 
-1.315251367449e+01 -1.266037234056e-01 0.0 
-1.266037234056e-01 -3.188362075694e+01 0.0 
0.0 0.0 -1.085474076894e+01 
-1.646064284528e+01 -2.576412314444e-01 0.0 
-2.576412314444e-01 -5.021956464919e+01 0.0 
0.0 0.0 -1.794845528030e+01 
-1.678982605275e+01 -2.605674072996e-01 0.0 
-2.605674072996e-01 -4.997115932962e+01 0.0 
0.0 0.0 -1.794016004902e+01 
-1.387629615287e+01 -7.315767255501e-02 0.0 
-7.315767255501e-02 -3.398916397485e+01 0.0 
0.0 0.0 -1.164703474522e+01 
-1.405817009243e+01 -2.369281330161e-01 0.0 
-2.369281330161e-01 -3.401646496430e+01 0.0 
0.0 0.0 -1.178699990046e+01 
-1.125383482095e+01 -1.583027582343e-02 0.0 
-1.583027582343e-02 -1.701722103201e+01 0.0 
0.0 0.0 -6.406315278407e+00 
-1.436447757811e+01 -2.633925457216e-01 0.0 
-2.633925457216e-01 -3.377460412374e+01 0.0 
0.0 0.0 -1.197054150795e+01 
-1.826003345986e+01 -7.918559353592e-01 0.0 
-7.918559353592e-01 -5.089239548776e+01 0.0 
0.0 0.0 -1.867740384203e+01 
-1.125222619284e+01 -3.810689253260e-02 0.0 
-3.810689253260e-02 -1.642393935684e+01 0.0 
0.0 0.0 -6.306626204843e+00 
-1.188352302708e+02 4.317450610089e-01 0.0 
4.317450610089e-01 -2.657286376740e+02 0.0 
0.0 0.0 -1.149691603834e+02 
-1.228999560091e+02 7.622174168456e-01 0.0 
7.622174168456e-01 -2.765785165975e+02 0.0 
0.0 0.0 -1.194435417820e+02 
-1.626440915676e+02 3.543366901945e+00 0.0 
3.543366901945e+00 -3.849906534943e+02 0.0 
0.0 0.0 -1.638904235186e+02 
-8.487473528629e+01 1.634980162093e+00 0.0 
1.634980162093e+00 -1.762536247279e+02 0.0 
0.0 0.0 -7.793850800427e+01 
-1.290668882737e+01 -3.969105438358e-02 0.0 
-3.969105438358e-02 -1.688321293071e+01 0.0 
0.0 0.0 -8.252841873993e+00 
-1.450211759364e+02 2.281547119997e+00 0.0 
2.281547119997e+00 -3.361803905134e+02 0.0 
0.0 0.0 -1.439604699349e+02 
-1.468240543445e+02 4.066869818664e+00 0.0 
4.066869818664e+00 -3.403919079487e+02 0.0 
0.0 0.0 -1.457647886880e+02 
-1.467617551573e+02 3.417305892581e+00 0.0 
3.417305892581e+00 -3.403742635121e+02 0.0 
0.0 0.0 -1.457408056008e+02 
-1.493625955966e+02 2.731566750792e-02 0.0 
2.731566750792e-02 -3.521499654158e+02 0.0 
0.0 0.0 -1.500537683037e+02 
-1.537421721471e+02 1.475138387152e-01 0.0 
1.475138387152e-01 -3.619419723515e+02 0.0 
0.0 0.0 -1.543052433496e+02 
-1.449531283751e+02 1.273828618315e+00 0.0 
1.273828618315e+00 -3.364193021076e+02 0.0 
0.0 0.0 -1.440117291448e+02 
-6.415808326122e+01 -1.007763533722e+01 0.0 
-1.007763533722e+01 -1.312345026033e+02 0.0 
0.0 0.0 -5.454212424976e+01 
-1.422150158883e+02 9.206133807260e+00 0.0 
9.206133807260e+00 -3.250570277965e+02 0.0 
0.0 0.0 -1.397816131054e+02 
-1.326163205847e+02 2.340872821017e+00 0.0 
2.340872821017e+00 -3.016331447930e+02 0.0 
0.0 0.0 -1.298748396133e+02 
-4.353675475933e+01 2.153624342878e+01 0.0 
2.153624342878e+01 -1.201621896430e+02 0.0 
0.0 0.0 -4.465160971790e+01 
-6.222203255907e+01 -1.459100535697e+01 0.0 
-1.459100535697e+01 -1.312309092740e+02 0.0 
0.0 0.0 -5.510839736439e+01 
-1.268288826714e+02 -6.511007801088e-01 0.0 
-6.511007801088e-01 -2.932104010802e+02 0.0 
0.0 0.0 -1.244682642047e+02 
-1.166176758935e+02 -2.199253149595e+00 0.0 
-2.199253149595e+00 -2.722834125922e+02 0.0 
0.0 0.0 -1.145324474253e+02 
-1.408281448351e+02 2.291447214758e-01 0.0 
2.291447214758e-01 -3.348891483302e+02 0.0 
0.0 0.0 -1.423151879496e+02 
-1.210402000446e+02 -1.604506671416e+00 0.0 
-1.604506671416e+00 -2.766778357842e+02 0.0 
0.0 0.0 -1.170400933719e+02 
-1.327589238937e+02 1.014341640731e-01 0.0 
1.014341640731e-01 -3.187616661771e+02 0.0 
0.0 0.0 -1.350114265106e+02 
-1.520860029929e+02 6.591822062298e+00 0.0 
6.591822062298e+00 -3.656184758846e+02 0.0 
0.0 0.0 -1.549113436632e+02 
-3.032148165999e+01 -1.752047078991e+00 0.0 
-1.752047078991e+00 -7.950450500204e+01 0.0 
0.0 0.0 -3.116327487267e+01 
-1.058374602783e+02 2.296110430563e+00 0.0 
2.296110430563e+00 -2.294149931932e+02 0.0 
0.0 0.0 -1.001757360415e+02 
-1.022073125870e+02 1.271945039041e+00 0.0 
1.271945039041e+00 -2.217760074637e+02 0.0 
0.0 0.0 -9.679499601520e+01 
-1.213902973626e+02 2.349060841492e+00 0.0 
2.349060841492e+00 -2.709220620308e+02 0.0 
0.0 0.0 -1.172937078180e+02 
-6.762506789048e+01 -5.997474194188e+00 0.0 
-5.997474194188e+00 -1.357563205207e+02 0.0 
0.0 0.0 -5.509678614544e+01 
-1.036949083751e+02 -2.712102873385e+00 0.0 
-2.712102873385e+00 -2.149333941777e+02 0.0 
0.0 0.0 -9.062429408436e+01 
-3.942291190375e+01 -5.807097692339e+00 0.0 
-5.807097692339e+00 -8.546370812190e+01 0.0 
0.0 0.0 -3.369603789942e+01 
-1.481022675187e+02 1.227377282574e+01 0.0 
1.227377282574e+01 -3.467890327834e+02 0.0 
0.0 0.0 -1.480673900906e+02 
-9.422611514406e+01 1.052186700243e+01 0.0 
1.052186700243e+01 -1.899079750402e+02 0.0 
0.0 0.0 -8.240253577381e+01 
-9.649128886937e+01 -5.278800999147e+00 0.0 
-5.278800999147e+00 -2.338872355505e+02 0.0 
0.0 0.0 -9.983195825763e+01 
-8.763127408656e+01 -6.966008201550e+00 0.0 
-6.966008201550e+00 -1.811707375956e+02 0.0 
0.0 0.0 -7.526169740017e+01 
-6.920803025028e+01 -1.130977377013e+01 0.0 
-1.130977377013e+01 -1.443181284191e+02 0.0 
0.0 0.0 -6.049940020854e+01 
-5.968181797056e+01 -1.553173214277e+01 0.0 
-1.553173214277e+01 -1.263053355811e+02 0.0 
0.0 0.0 -5.247035712444e+01 
-8.514650384159e+01 1.799526729760e+01 0.0 
1.799526729760e+01 -1.914871633100e+02 0.0 
0.0 0.0 -8.236850953957e+01 
-9.728293764152e+01 -6.660593397953e+00 0.0 
-6.660593397953e+00 -2.180164523020e+02 0.0 
0.0 0.0 -9.190616102844e+01 
-1.242866834732e+02 5.232798901036e-01 0.0 
5.232798901036e-01 -3.058420465442e+02 0.0 
0.0 0.0 -1.285992768857e+02 
-1.252777272225e+02 2.119210438839e+00 0.0 
2.119210438839e+00 -2.817343151514e+02 0.0 
0.0 0.0 -1.217036127122e+02 
-1.246836416873e+01 1.211759848017e-02 0.0 
1.211759848017e-02 -1.884754944379e+01 0.0 
0.0 0.0 -8.063052585364e+00 
-1.285107430606e+02 1.396266501449e+00 0.0 
1.396266501449e+00 -3.166769096709e+02 0.0 
0.0 0.0 -1.331562958195e+02 
-1.095701290318e+02 -3.315144937439e+00 0.0 
-3.315144937439e+00 -2.567611979605e+02 0.0 
0.0 0.0 -1.075548893285e+02 
-1.096902405783e+02 3.667730862014e+00 0.0 
3.667730862014e+00 -2.376326046530e+02 0.0 
0.0 0.0 -1.037968535694e+02 
-1.233518556310e+02 8.331534699232e+00 0.0 
8.331534699232e+00 -3.087689610550e+02 0.0 
0.0 0.0 -1.294563145116e+02 
-5.118889370886e+01 -1.866251171852e+01 0.0 
-1.866251171852e+01 -1.013320869970e+02 0.0 
0.0 0.0 -3.965243692560e+01 
-1.248034886969e+02 3.701983918607e+00 0.0 
3.701983918607e+00 -2.787634705259e+02 0.0 
0.0 0.0 -1.206700877668e+02 
-1.384462735047e+02 6.352177777677e+00 0.0 
6.352177777677e+00 -3.154624642305e+02 0.0 
0.0 0.0 -1.357726213206e+02 
-1.020316242636e+02 4.188193835780e+00 0.0 
4.188193835780e+00 -2.164367873347e+02 0.0 
0.0 0.0 -9.514052347950e+01 
-2.765417751359e+01 -3.487297819046e+00 0.0 
-3.487297819046e+00 -6.499210924892e+01 0.0 
0.0 0.0 -2.496058079090e+01 
-9.773781968215e+01 1.879176316344e+00 0.0 
1.879176316344e+00 -2.091698872393e+02 0.0 
0.0 0.0 -9.167231207645e+01 
-1.473041947419e+02 3.935976348254e+00 0.0 
3.935976348254e+00 -3.562373139730e+02 0.0 
0.0 0.0 -1.506624526145e+02 
-1.246337206730e+02 6.582490008852e+00 0.0 
6.582490008852e+00 -2.762703072901e+02 0.0 
0.0 0.0 -1.198712083889e+02 
-6.103244239085e+01 -4.809578631265e+00 0.0 
-4.809578631265e+00 -1.235790324885e+02 0.0 
0.0 0.0 -4.975575871418e+01 
-8.758461587748e+01 3.861522361849e+00 0.0 
3.861522361849e+00 -2.384381065207e+02 0.0 
0.0 0.0 -1.024689694213e+02 
-9.276155018788e+01 1.479381312692e+01 0.0 
1.479381312692e+01 -1.949011395353e+02 0.0 
0.0 0.0 -8.316704068598e+01 
-8.293637674626e+01 5.106459556653e+00 0.0 
5.106459556653e+00 -1.599394906674e+02 0.0 
0.0 0.0 -7.127633484453e+01 
-1.357848811796e+02 2.832533182141e+00 0.0 
2.832533182141e+00 -3.102977454870e+02 0.0 
0.0 0.0 -1.334247880000e+02 
-9.368329651194e+01 1.432492044068e+01 0.0 
1.432492044068e+01 -2.318496176553e+02 0.0 
0.0 0.0 -9.961676930708e+01 
-1.326201189418e+02 7.113781317242e+00 0.0 
7.113781317242e+00 -3.282381935569e+02 0.0 
0.0 0.0 -1.378574937496e+02 
-1.031710985790e+02 5.308235619127e+00 0.0 
5.308235619127e+00 -2.733810387846e+02 0.0 
0.0 0.0 -1.168465357437e+02 
-6.615607741257e+01 -3.817590000842e+00 0.0 
-3.817590000842e+00 -1.322195159744e+02 0.0 
0.0 0.0 -5.391844617435e+01 
-1.374919098603e+02 1.185382024577e+00 0.0 
1.185382024577e+00 -3.328874508350e+02 0.0 
0.0 0.0 -1.407138082086e+02 
-8.613830250562e+01 1.114422175970e+01 0.0 
1.114422175970e+01 -2.280528234362e+02 0.0 
0.0 0.0 -9.759075275326e+01 
-1.321493105150e+02 4.087857426475e+00 0.0 
4.087857426475e+00 -2.987606596898e+02 0.0 
0.0 0.0 -1.288729910614e+02 
-1.206117393616e+02 1.222433885418e+01 0.0 
1.222433885418e+01 -2.805031094359e+02 0.0 
0.0 0.0 -1.199344546393e+02 
-7.235606500641e+01 6.837468078414e+00 0.0 
6.837468078414e+00 -1.991289285709e+02 0.0 
0.0 0.0 -8.029383334670e+01 
-1.282921745790e+02 5.311290119087e+00 0.0 
5.311290119087e+00 -2.870120093071e+02 0.0 
0.0 0.0 -1.241912551658e+02 
-9.233408889759e+01 -3.801496942764e+00 0.0 
-3.801496942764e+00 -2.368908893108e+02 0.0 
0.0 0.0 -1.014852730166e+02 
-1.287189320983e+02 9.067579895811e+00 0.0 
9.067579895811e+00 -3.175526978581e+02 0.0 
0.0 0.0 -1.334814889869e+02 
-9.120675442040e+01 1.131181081587e+01 0.0 
1.131181081587e+01 -1.809200057949e+02 0.0 
0.0 0.0 -7.778929836212e+01 
-1.067193291084e+02 1.310836229932e+01 0.0 
1.310836229932e+01 -2.421698702614e+02 0.0 
0.0 0.0 -1.036657046994e+02 
-1.154960393441e+02 1.080501061269e+01 0.0 
1.080501061269e+01 -2.573886857617e+02 0.0 
0.0 0.0 -1.114654175317e+02 
-1.012114738311e+02 1.416976829138e+01 0.0 
1.416976829138e+01 -2.372066339760e+02 0.0 
0.0 0.0 -1.007069776618e+02 
-1.244186266581e+02 -7.136435492838e-01 0.0 
-7.136435492838e-01 -2.820978788287e+02 0.0 
0.0 0.0 -1.197791398267e+02 
-1.330372418237e+02 1.272921416628e+00 0.0 
1.272921416628e+00 -3.248098909240e+02 0.0 
0.0 0.0 -1.369541398243e+02 
-4.098914974136e+01 -6.594714521821e+00 0.0 
-6.594714521821e+00 -1.335426092170e+02 0.0 
0.0 0.0 -5.092797237111e+01 
-7.212464786475e+01 2.115403946806e+01 0.0 
2.115403946806e+01 -1.521922441985e+02 0.0 
0.0 0.0 -6.586790559585e+01 
-1.098321292151e+02 4.615048456037e+00 0.0 
4.615048456037e+00 -2.367494199559e+02 0.0 
0.0 0.0 -1.035744647513e+02 
-1.352398740151e+02 1.188254108327e+01 0.0 
1.188254108327e+01 -3.199679372472e+02 0.0 
0.0 0.0 -1.361623433787e+02 
-1.393420101783e+02 4.383791837735e+00 0.0 
4.383791837735e+00 -3.185586676065e+02 0.0 
0.0 0.0 -1.369702033354e+02 
-8.656121024322e+01 1.533786025060e+01 0.0 
1.533786025060e+01 -1.747769429043e+02 0.0 
0.0 0.0 -7.498578318190e+01 
-1.329500615218e+02 5.871283546403e-01 0.0 
5.871283546403e-01 -3.218264869678e+02 0.0 
0.0 0.0 -1.360329645469e+02 
-1.352283542992e+02 5.686340051179e+00 0.0 
5.686340051179e+00 -3.064853095190e+02 0.0 
0.0 0.0 -1.321140991455e+02 
-1.016316660603e+02 -5.606755596703e+00 0.0 
-5.606755596703e+00 -2.257027504521e+02 0.0 
0.0 0.0 -9.448003816059e+01 
-3.854821240684e+01 -6.805364070747e-01 0.0 
-6.805364070747e-01 -9.101612900173e+01 0.0 
0.0 0.0 -3.660998634119e+01 
-4.041935131558e+01 2.515568320355e+01 0.0 
2.515568320355e+01 -1.061234951067e+02 0.0 
0.0 0.0 -4.090171767754e+01 
-5.927546238283e+01 7.297137082944e+00 0.0 
7.297137082944e+00 -1.704948993569e+02 0.0 
0.0 0.0 -6.542103751209e+01 
-8.900890234575e+01 1.435108932367e+01 0.0 
1.435108932367e+01 -2.244633373860e+02 0.0 
0.0 0.0 -9.658904240529e+01 
-1.077721808553e+02 -4.179612310476e+00 0.0 
-4.179612310476e+00 -2.452102386364e+02 0.0 
0.0 0.0 -1.025677027118e+02 
-1.429667585371e+02 8.303219275112e+00 0.0 
8.303219275112e+00 -3.277235247373e+02 0.0 
0.0 0.0 -1.408070849823e+02 
-1.372423945647e+02 5.838482058363e-01 0.0 
5.838482058363e-01 -3.298338114181e+02 0.0 
0.0 0.0 -1.397228617948e+02 
-1.234244210510e+02 3.077670555848e+00 0.0 
3.077670555848e+00 -3.102051262183e+02 0.0 
0.0 0.0 -1.296888641808e+02 
-4.413009754264e+01 3.139041736345e+01 0.0 
3.139041736345e+01 -4.341589421063e+01 0.0 
0.0 0.0 -2.376734890264e+01 
-8.672724357504e+01 6.242774765993e+00 0.0 
6.242774765993e+00 -1.690760933446e+02 0.0 
0.0 0.0 -7.492514454657e+01 
-1.415007591676e+02 5.705896427459e-01 0.0 
5.705896427459e-01 -3.379667046657e+02 0.0 
0.0 0.0 -1.434402391500e+02 
-9.141367916493e+01 2.161119551063e+00 0.0 
2.161119551063e+00 -2.467804011382e+02 0.0 
0.0 0.0 -1.065098405635e+02 
-1.329976754715e+02 8.536302165866e+00 0.0 
8.536302165866e+00 -3.269988181535e+02 0.0 
0.0 0.0 -1.375989480875e+02 
-1.095409403340e+02 -1.135680291323e+00 0.0 
-1.135680291323e+00 -2.299634259650e+02 0.0 
0.0 0.0 -9.751654569236e+01 
-1.483066127369e+02 1.225913122470e+01 0.0 
1.225913122470e+01 -3.484628568885e+02 0.0 
0.0 0.0 -1.486308408876e+02 
-7.352162017407e+01 8.165245583517e+00 0.0 
8.165245583517e+00 -1.312935777348e+02 0.0 
0.0 0.0 -5.613817184428e+01 
-1.457426641675e+02 5.237608064519e-01 0.0 
5.237608064519e-01 -3.464465568971e+02 0.0 
0.0 0.0 -1.472567663194e+02 
-1.229294237798e+02 4.831409339788e+00 0.0 
4.831409339788e+00 -3.105150341555e+02 0.0 
0.0 0.0 -1.298012617914e+02 
-6.384192202291e+01 2.084912497514e+01 0.0 
2.084912497514e+01 -1.546390747653e+02 0.0 
0.0 0.0 -6.263509409413e+01 
-8.191183855453e+01 2.550641382182e-01 0.0 
2.550641382182e-01 -1.731544176566e+02 0.0 
0.0 0.0 -7.611987686335e+01 
-1.559048572842e+02 7.194136810254e-01 0.0 
7.194136810254e-01 -3.683411448394e+02 0.0 
0.0 0.0 -1.568738006371e+02 
-1.327157124610e+02 5.488389517620e+00 0.0 
5.488389517620e+00 -3.292214399111e+02 0.0 
0.0 0.0 -1.381811457116e+02 
-1.069275662440e+02 1.325554233683e+01 0.0 
1.325554233683e+01 -2.559264134516e+02 0.0 
0.0 0.0 -1.083338818862e+02 
-8.894849610261e+01 -6.397421878593e-01 0.0 
-6.397421878593e-01 -2.381802102063e+02 0.0 
0.0 0.0 -1.022517568243e+02 
-7.659070817847e+01 5.403755847538e+00 0.0 
5.403755847538e+00 -1.410241733485e+02 0.0 
0.0 0.0 -6.227827835001e+01 
-1.113309500139e+02 -3.485614946551e+00 0.0 
-3.485614946551e+00 -2.529638992750e+02 0.0 
0.0 0.0 -1.059526693366e+02 
-1.103693558177e+02 1.252562849898e+01 0.0 
1.252562849898e+01 -2.505027075485e+02 0.0 
0.0 0.0 -1.076613367841e+02 
-1.487452823950e+02 7.261592804563e+00 0.0 
7.261592804563e+00 -3.447426762928e+02 0.0 
0.0 0.0 -1.476463876063e+02 
-1.372644081435e+02 6.562571270242e+00 0.0 
6.562571270242e+00 -3.375082745936e+02 0.0 
0.0 0.0 -1.420318048211e+02 
-1.134874341105e+02 7.618311957655e+00 0.0 
7.618311957655e+00 -2.460554195870e+02 0.0 
0.0 0.0 -1.074628561092e+02 
-1.091028323517e+02 -3.916662511455e+00 0.0 
-3.916662511455e+00 -2.412652124054e+02 0.0 
0.0 0.0 -1.010229064071e+02 
-1.101423604824e+02 1.067936074042e+01 0.0 
1.067936074042e+01 -2.784833725498e+02 0.0 
0.0 0.0 -1.172823131471e+02 
-1.730663079108e+01 -3.895138678970e-01 0.0 
-3.895138678970e-01 -5.020620403834e+01 0.0 
0.0 0.0 -1.816803498864e+01 
-8.066560792644e+01 6.841774089587e+00 0.0 
6.841774089587e+00 -1.504646239578e+02 0.0 
0.0 0.0 -6.596543088405e+01 
-1.124694317261e+02 -3.165068731860e+00 0.0 
-3.165068731860e+00 -2.491545167796e+02 0.0 
0.0 0.0 -1.048329581944e+02 
-6.266962235130e+01 2.696917243302e+00 0.0 
2.696917243302e+00 -1.783272354894e+02 0.0 
0.0 0.0 -6.942464118897e+01 
-9.397994434743e+01 -1.171460900372e+00 0.0 
-1.171460900372e+00 -2.465639667426e+02 0.0 
0.0 0.0 -1.060041862301e+02 
-1.480942435554e+02 1.054761520793e+01 0.0 
1.054761520793e+01 -3.531976435838e+02 0.0 
0.0 0.0 -1.499875661418e+02 
-1.156809697775e+02 -2.449738338001e+00 0.0 
-2.449738338001e+00 -2.571948153672e+02 0.0 
0.0 0.0 -1.085836921784e+02 
-6.916150184955e+01 3.017599594095e+00 0.0 
3.017599594095e+00 -1.925557179699e+02 0.0 
0.0 0.0 -7.688693151226e+01 
-1.187344308838e+02 -1.784809746774e+00 0.0 
-1.784809746774e+00 -2.653250496424e+02 0.0 
0.0 0.0 -1.122941230714e+02 
-6.931506621384e+01 6.237083466806e+00 0.0 
6.237083466806e+00 -1.220271521334e+02 0.0 
0.0 0.0 -5.270626106531e+01 
-1.169636062110e+02 8.415282184262e+00 0.0 
8.415282184262e+00 -2.561085331948e+02 0.0 
0.0 0.0 -1.115216418217e+02 
-1.216357214246e+02 -1.171158020751e+00 0.0 
-1.171158020751e+00 -2.735146240601e+02 0.0 
0.0 0.0 -1.159903139080e+02 
-1.174340302968e+02 1.213296355162e+01 0.0 
1.213296355162e+01 -2.697761174497e+02 0.0 
0.0 0.0 -1.157630443240e+02 
-2.001106040238e+01 -1.110826755945e+00 0.0 
-1.110826755945e+00 -5.260111329221e+01 0.0 
0.0 0.0 -1.965773704775e+01 
-1.091732726537e+02 1.252321804716e+01 0.0 
1.252321804716e+01 -2.662639776898e+02 0.0 
0.0 0.0 -1.124529627840e+02 
-1.446613633423e+02 4.502765529208e-02 0.0 
4.502765529208e-02 -3.417288383753e+02 0.0 
0.0 0.0 -1.455170605153e+02 
-7.678331155580e+01 -1.226102125105e+01 0.0 
-1.226102125105e+01 -1.708364421752e+02 0.0 
0.0 0.0 -7.219510846959e+01 
-9.940159076116e+01 -1.060975709146e+00 0.0 
-1.060975709146e+00 -2.548362457193e+02 0.0 
0.0 0.0 -1.093068448766e+02 
-1.242742302425e+02 8.750207345421e+00 0.0 
8.750207345421e+00 -2.761641182493e+02 0.0 
0.0 0.0 -1.197315045475e+02 
-6.097331113017e+01 8.033121242497e+00 0.0 
8.033121242497e+00 -1.020589761932e+02 0.0 
0.0 0.0 -4.365091210162e+01 
-1.060717460846e+02 9.219490679377e-01 0.0 
9.219490679377e-01 -2.729333598872e+02 0.0 
0.0 0.0 -1.159454380208e+02 
-1.251387742357e+02 1.190637127137e+01 0.0 
1.190637127137e+01 -2.890879997682e+02 0.0 
0.0 0.0 -1.238680322012e+02 
-1.120158776116e+02 1.165204538001e+01 0.0 
1.165204538001e+01 -2.763864847131e+02 0.0 
0.0 0.0 -1.164405027748e+02 
-9.517847554091e+01 1.282579905549e+01 0.0 
1.282579905549e+01 -2.422989578403e+02 0.0 
0.0 0.0 -1.041845532199e+02 
-1.141910840667e+02 2.115926643629e+00 0.0 
2.115926643629e+00 -2.913951254150e+02 0.0 
0.0 0.0 -1.221445631340e+02 
-6.521406876203e+01 1.069230121473e+01 0.0 
1.069230121473e+01 -1.112946792204e+02 0.0 
0.0 0.0 -4.832352582832e+01 
-6.033915612338e+01 -1.161990205969e+01 0.0 
-1.161990205969e+01 -1.233033342340e+02 0.0 
0.0 0.0 -5.153275940974e+01 
-5.146121615438e+01 -1.079981273924e+01 0.0 
-1.079981273924e+01 -1.023860984388e+02 0.0 
0.0 0.0 -4.256283424946e+01 
-7.258462730549e+01 -5.356239341903e-01 0.0 
-5.356239341903e-01 -1.993790044712e+02 0.0 
0.0 0.0 -8.112474773227e+01 
-1.295264382111e+02 1.159759122696e+01 0.0 
1.159759122696e+01 -2.978981251039e+02 0.0 
0.0 0.0 -1.278273689945e+02 
-2.189879006225e+01 -7.593050742802e-01 0.0 
-7.593050742802e-01 -6.668558374866e+01 0.0 
0.0 0.0 -2.542926812250e+01 
-1.237154458897e+02 9.836408164470e+00 0.0 
9.836408164470e+00 -2.763384229967e+02 0.0 
0.0 0.0 -1.196161606659e+02 
-4.153849228997e+01 -8.756287087778e+00 0.0 
-8.756287087778e+00 -7.445818921345e+01 0.0 
0.0 0.0 -3.064225391775e+01 
-7.021642547324e+01 -4.587793340943e+00 0.0 
-4.587793340943e+00 -1.906571706117e+02 0.0 
0.0 0.0 -7.752937591497e+01 
-1.252926115889e+02 1.061548423599e+01 0.0 
1.061548423599e+01 -3.059526797908e+02 0.0 
0.0 0.0 -1.289735874139e+02 
-1.038509257012e+02 4.151420781324e-01 0.0 
4.151420781324e-01 -2.272946050095e+02 0.0 
0.0 0.0 -9.894365921321e+01 
-7.420246080319e+01 -6.976267453602e+00 0.0 
-6.976267453602e+00 -1.959603580024e+02 0.0 
0.0 0.0 -8.168240543373e+01 
-5.318411924582e+01 -8.252366809477e-01 0.0 
-8.252366809477e-01 -1.112357386947e+02 0.0 
0.0 0.0 -4.573143385836e+01 
-7.218393874826e+01 -1.017220121975e+01 0.0 
-1.017220121975e+01 -1.852612432417e+02 0.0 
0.0 0.0 -7.734763514276e+01 
-1.016771008946e+02 1.160908253557e+01 0.0 
1.160908253557e+01 -2.602390200792e+02 0.0 
0.0 0.0 -1.108168199985e+02 
-7.645071311081e+01 -1.117272368509e+01 0.0 
-1.117272368509e+01 -1.906782689232e+02 0.0 
0.0 0.0 -8.036923389076e+01 
-7.435162715710e+01 -1.298953253651e+01 0.0 
-1.298953253651e+01 -1.780892618145e+02 0.0 
0.0 0.0 -7.504267230222e+01 
-1.397705473280e+02 2.606618724043e+00 0.0 
2.606618724043e+00 -3.214063370658e+02 0.0 
0.0 0.0 -1.379530653181e+02 
-7.956391201554e+01 -1.177339790042e+01 0.0 
-1.177339790042e+01 -1.838128279213e+02 0.0 
0.0 0.0 -7.783386395279e+01 
-1.464105997214e+02 8.107790295242e-01 0.0 
8.107790295242e-01 -3.397766108545e+02 0.0 
0.0 0.0 -1.454561631728e+02 
-1.635383934784e+02 2.256913427657e-01 0.0 
2.256913427657e-01 -3.838452174701e+02 0.0 
0.0 0.0 -1.638150832846e+02 
-8.798040578509e+01 2.854332932494e-01 0.0 
2.854332932494e-01 -1.881503369674e+02 0.0 
0.0 0.0 -8.243922282575e+01 
-5.120639370455e+01 9.722113540134e+00 0.0 
9.722113540134e+00 -8.058635202383e+01 0.0 
0.0 0.0 -3.560975516385e+01 
-7.402254227595e+01 2.088664405104e+00 0.0 
2.088664405104e+00 -1.116257018304e+02 0.0 
0.0 0.0 -5.657422179510e+01 
-5.755364137786e+01 1.507141671082e+01 0.0 
1.507141671082e+01 -9.253763596016e+01 0.0 
0.0 0.0 -4.196431412527e+01 
-6.914745062902e+01 -1.387028293397e+01 0.0 
-1.387028293397e+01 -1.510815246533e+02 0.0 
0.0 0.0 -6.370086175277e+01 
-1.227883733974e+02 1.081791330623e+01 0.0 
1.081791330623e+01 -2.768453876828e+02 0.0 
0.0 0.0 -1.194901283241e+02 
-8.841126527197e+01 2.726206442133e-01 0.0 
2.726206442133e-01 -1.889216591025e+02 0.0 
0.0 0.0 -8.279987731233e+01 
-6.537920341890e+01 -1.310850252451e+01 0.0 
-1.310850252451e+01 -1.372248790250e+02 0.0 
0.0 0.0 -5.772335285461e+01 
-1.458506428451e+02 1.093653462756e+01 0.0 
1.093653462756e+01 -3.364679079734e+02 0.0 
0.0 0.0 -1.442955652456e+02 
-1.565276837532e+02 1.241099730517e+01 0.0 
1.241099730517e+01 -3.679780214187e+02 0.0 
0.0 0.0 -1.569517115516e+02 
-1.151323959562e+02 6.355449921575e-01 0.0 
6.355449921575e-01 -2.560538931878e+02 0.0 
0.0 0.0 -1.109558867432e+02 
-1.371634347195e+02 7.981736048111e+00 0.0 
7.981736048111e+00 -3.358702681584e+02 0.0 
0.0 0.0 -1.415101108634e+02 
-1.157933413578e+02 1.090211086290e+01 0.0 
1.090211086290e+01 -2.869211930508e+02 0.0 
0.0 0.0 -1.206417024835e+02 
-1.327859497688e+02 4.658684480174e-01 0.0 
4.658684480174e-01 -3.031256496015e+02 0.0 
0.0 0.0 -1.303734798111e+02 
-8.211719775820e+01 9.744509959461e-01 0.0 
9.744509959461e-01 -1.719018049549e+02 0.0 
0.0 0.0 -7.580570081392e+01 
-2.269350167111e+01 -3.008601171510e+00 0.0 
-3.008601171510e+00 -3.424098383987e+01 0.0 
0.0 0.0 -1.479763330437e+01 
-1.272353927849e+02 -2.825789721970e-01 0.0 
-2.825789721970e-01 -2.921001949373e+02 0.0 
0.0 0.0 -1.241355410744e+02 
-4.399819421342e+01 1.195437040742e+01 0.0 
1.195437040742e+01 -6.060539450623e+01 0.0 
0.0 0.0 -2.821732714238e+01 
-4.942974131774e+01 1.860961396922e+01 0.0 
1.860961396922e+01 -7.162804651075e+01 0.0 
0.0 0.0 -3.311401096020e+01 
-4.569503354325e+01 2.440409611114e+01 0.0 
2.440409611114e+01 -6.322607308805e+01 0.0 
0.0 0.0 -2.858786064857e+01 
-7.006998212075e+01 -2.821992550641e+00 0.0 
-2.821992550641e+00 -1.388941178162e+02 0.0 
0.0 0.0 -5.739272011174e+01 
-4.225921582175e+01 -1.478452072913e+01 0.0 
-1.478452072913e+01 -6.120257177723e+01 0.0 
0.0 0.0 -2.459861493623e+01 
-4.166033292178e+01 1.557055135669e+01 0.0 
1.557055135669e+01 -4.826973608357e+01 0.0 
0.0 0.0 -2.355702911896e+01 
-1.507038788255e+02 9.108822551663e+00 0.0 
9.108822551663e+00 -3.609600646385e+02 0.0 
0.0 0.0 -1.530991830392e+02 
-9.096972963574e+01 2.312653970777e+00 0.0 
2.312653970777e+00 -1.903224383543e+02 0.0 
0.0 0.0 -8.398765039700e+01 
-1.300154062195e+02 1.104785173933e+01 0.0 
1.104785173933e+01 -3.138572811566e+02 0.0 
0.0 0.0 -1.327618062128e+02 
-4.157158847993e+01 2.161852335022e+01 0.0 
2.161852335022e+01 -3.892223279764e+01 0.0 
0.0 0.0 -2.016886221047e+01 
-1.419702368675e+02 6.159875901842e+00 0.0 
6.159875901842e+00 -3.256762544959e+02 0.0 
0.0 0.0 -1.398939474090e+02 
-1.490707649753e+02 1.137934437226e+01 0.0 
1.137934437226e+01 -3.536421139116e+02 0.0 
0.0 0.0 -1.504138636661e+02 
-1.639033009907e+02 2.268427229900e+00 0.0 
2.268427229900e+00 -3.867168909870e+02 0.0 
0.0 0.0 -1.647860575933e+02 
-1.391916020533e+02 1.109063608356e+01 0.0 
1.109063608356e+01 -3.329428464364e+02 0.0 
0.0 0.0 -1.412403345469e+02 
-4.411715473698e+01 3.019381745916e+01 0.0 
3.019381745916e+01 -6.507329276427e+01 0.0 
0.0 0.0 -2.835351925561e+01 
-9.950340020362e+01 4.539833047552e+00 0.0 
4.539833047552e+00 -2.088317303521e+02 0.0 
0.0 0.0 -9.210053916671e+01 
-1.474964535546e+02 1.227005985692e+01 0.0 
1.227005985692e+01 -3.444677520823e+02 0.0 
0.0 0.0 -1.471892616911e+02 
-1.213967226232e+02 9.586718080995e-01 0.0 
9.586718080995e-01 -2.718285762003e+02 0.0 
0.0 0.0 -1.175675896470e+02 
-1.648508980002e+02 1.212331896046e+00 0.0 
1.212331896046e+00 -3.876887538073e+02 0.0 
0.0 0.0 -1.653618955423e+02 
-9.104515782414e+01 2.905990752511e+00 0.0 
2.905990752511e+00 -1.886264106139e+02 0.0 
0.0 0.0 -8.350147053141e+01 
-1.404654300407e+02 1.649963343579e+00 0.0 
1.649963343579e+00 -3.236889994648e+02 0.0 
0.0 0.0 -1.388463288516e+02 
-4.051597461932e+01 -1.433110711907e+01 0.0 
-1.433110711907e+01 -1.216433115856e+02 0.0 
0.0 0.0 -4.560076393798e+01 
-1.404227086788e+02 8.030562405259e-01 0.0 
8.030562405259e-01 -3.237359675439e+02 0.0 
0.0 0.0 -1.388476028668e+02 
-1.302221783207e+02 1.094363990015e+01 0.0 
1.094363990015e+01 -2.965334446599e+02 0.0 
0.0 0.0 -1.276266868942e+02 
-9.867664705579e+01 8.328075827037e-01 0.0 
8.328075827037e-01 -2.131905482152e+02 0.0 
0.0 0.0 -9.316015858131e+01 
-1.000287702637e+02 5.513131876425e+00 0.0 
5.513131876425e+00 -2.093579353987e+02 0.0 
0.0 0.0 -9.241601169874e+01 
-1.578196358092e+02 2.737595284025e-01 0.0 
2.737595284025e-01 -3.712025794566e+02 0.0 
0.0 0.0 -1.583066645797e+02 
-1.446572093432e+02 9.942802567915e+00 0.0 
9.942802567915e+00 -3.329147051183e+02 0.0 
0.0 0.0 -1.428715743384e+02 
-4.163450593460e+01 3.300795436294e+01 0.0 
3.300795436294e+01 -7.086231573962e+01 0.0 
0.0 0.0 -3.143398077712e+01 
-1.149949516557e+02 7.155365133899e-01 0.0 
7.155365133899e-01 -2.550306631965e+02 0.0 
0.0 0.0 -1.106076844557e+02 
-8.753435672302e+01 -3.700154831082e+00 0.0 
-3.700154831082e+00 -1.745612453739e+02 0.0 
0.0 0.0 -7.264046539937e+01 
-3.981072193030e+01 -1.969778248732e+01 0.0 
-1.969778248732e+01 -1.052668904612e+02 0.0 
0.0 0.0 -4.486019894762e+01 
-1.550776215265e+02 2.831551966851e+00 0.0 
2.831551966851e+00 -3.703075661747e+02 0.0 
0.0 0.0 -1.572155563104e+02 
-1.372183519950e+02 1.111940810156e+01 0.0 
1.111940810156e+01 -3.151664121813e+02 0.0 
0.0 0.0 -1.353154292529e+02 
-1.569734309383e+02 4.314620851484e-01 0.0 
4.314620851484e-01 -3.702737271135e+02 0.0 
0.0 0.0 -1.577741474155e+02 
-1.595160550392e+01 -1.862797111693e-01 0.0 
-1.862797111693e-01 -4.948838409779e+01 0.0 
0.0 0.0 -1.755205537559e+01 
-1.635556102397e+01 -5.315081257799e-01 0.0 
-5.315081257799e-01 -3.116426101956e+01 0.0 
0.0 0.0 -1.276038748924e+01 
-1.556766042927e+02 4.338951560717e+00 0.0 
4.338951560717e+00 -3.724345900926e+02 0.0 
0.0 0.0 -1.580333583156e+02 
-1.474428064548e+02 1.174071077377e+01 0.0 
1.174071077377e+01 -3.420193767406e+02 0.0 
0.0 0.0 -1.464386549586e+02 
-4.662975350600e+01 -1.694983831905e+01 0.0 
-1.694983831905e+01 -1.192917687229e+02 0.0 
0.0 0.0 -4.423669486981e+01 
-1.486012144904e+02 5.352866312722e+00 0.0 
5.352866312722e+00 -3.451113962092e+02 0.0 
0.0 0.0 -1.477137832099e+02 
-4.195664295572e+01 3.601120574181e+01 0.0 
3.601120574181e+01 -7.631442087761e+01 0.0 
0.0 0.0 -3.641195177519e+01 
-8.200337882960e+01 1.096783490004e+00 0.0 
1.096783490004e+00 -1.700044617107e+02 0.0 
0.0 0.0 -7.520235216209e+01 
-1.466770690508e+01 -1.683015006612e-01 0.0 
-1.683015006612e-01 -3.218274881573e+01 0.0 
0.0 0.0 -1.182479926519e+01 
-1.647458776784e+02 1.154282244880e+00 0.0 
1.154282244880e+00 -3.870754639851e+02 0.0 
0.0 0.0 -1.651464024990e+02 
-1.415751051681e+02 3.971681356624e+00 0.0 
3.971681356624e+00 -3.258254381951e+02 0.0 
0.0 0.0 -1.398201630089e+02 
-9.549168963027e+01 -2.496737556605e+00 0.0 
-2.496737556605e+00 -1.916772663215e+02 0.0 
0.0 0.0 -8.074078757440e+01 
-8.796749934561e+01 4.382672801007e+00 0.0 
4.382672801007e+00 -1.781852331908e+02 0.0 
0.0 0.0 -7.938377490585e+01 
-6.185397820134e+01 -1.823083694829e+00 0.0 
-1.823083694829e+00 -1.252600766912e+02 0.0 
0.0 0.0 -5.174776630317e+01 
-1.422876256696e+02 1.180547534986e+01 0.0 
1.180547534986e+01 -3.359849700419e+02 0.0 
0.0 0.0 -1.430817787135e+02 
-3.290803581902e+01 -6.713096008099e+00 0.0 
-6.713096008099e+00 -4.968392003209e+01 0.0 
0.0 0.0 -2.065200736985e+01 
-1.418702903021e+02 3.115522722249e+00 0.0 
3.115522722249e+00 -3.271176787975e+02 0.0 
0.0 0.0 -1.402963907299e+02 
-1.551757527785e+02 6.040544201903e+00 0.0 
6.040544201903e+00 -3.716677387058e+02 0.0 
0.0 0.0 -1.576530474453e+02 
-1.445420315750e+02 7.861947623701e+00 0.0 
7.861947623701e+00 -3.323869217237e+02 0.0 
0.0 0.0 -1.426786859896e+02 
-1.606925519557e+02 1.071807943012e+01 0.0 
1.071807943012e+01 -3.789048843303e+02 0.0 
0.0 0.0 -1.614792308858e+02 
-4.592508722547e+01 1.189255214134e+01 0.0 
1.189255214134e+01 -1.159927063267e+02 0.0 
0.0 0.0 -5.010661441893e+01 
-1.509509796538e+02 1.189832077285e+01 0.0 
1.189832077285e+01 -3.567592731013e+02 0.0 
0.0 0.0 -1.519130758265e+02 
-1.453679074228e+02 6.824603402027e+00 0.0 
6.824603402027e+00 -3.529270305403e+02 0.0 
0.0 0.0 -1.490884813889e+02 
-8.158131491630e+01 3.078709234694e-01 0.0 
3.078709234694e-01 -1.716179767092e+02 0.0 
0.0 0.0 -7.555978748764e+01 
-1.443625527874e+02 8.786780141872e+00 0.0 
8.786780141872e+00 -3.317287004645e+02 0.0 
0.0 0.0 -1.424273759756e+02 
-7.879994578343e+01 -2.782030009970e+00 0.0 
-2.782030009970e+00 -1.552372476443e+02 0.0 
0.0 0.0 -6.470234871414e+01 
-2.443559590383e+01 -1.920320874926e+00 0.0 
-1.920320874926e+00 -6.598871109805e+01 0.0 
0.0 0.0 -2.513259443239e+01 
-1.471122235825e+02 4.914447185144e-01 0.0 
4.914447185144e-01 -3.418016740164e+02 0.0 
0.0 0.0 -1.462741692797e+02 
-1.145615062014e+01 -2.820274812560e-02 0.0 
-2.820274812560e-02 -1.409914791767e+01 0.0 
0.0 0.0 -5.830388582395e+00 
-8.055811000007e+01 1.591359067830e-01 0.0 
1.591359067830e-01 -1.704405973741e+02 0.0 
0.0 0.0 -7.489961221227e+01 
-1.654563153403e+02 -7.351312402523e-02 0.0 
-7.351312402523e-02 -3.880021202061e+02 0.0 
0.0 0.0 -1.656375306639e+02 
-2.037157680322e+01 -9.926745097505e-01 0.0 
-9.926745097505e-01 -6.284722522845e+01 0.0 
0.0 0.0 -2.374558604512e+01 
-9.401681756498e+01 4.154161683975e-01 0.0 
4.154161683975e-01 -2.025977470915e+02 0.0 
0.0 0.0 -8.858436939693e+01 
-1.474251885809e+02 1.146618187483e+01 0.0 
1.146618187483e+01 -3.411585341990e+02 0.0 
0.0 0.0 -1.461751168340e+02 
-1.113214832740e+02 -5.416229098550e-01 0.0 
-5.416229098550e-01 -2.350688247155e+02 0.0 
0.0 0.0 -9.971021824821e+01 
-1.286002306161e+02 9.124097851608e-01 0.0 
9.124097851608e-01 -2.917461387101e+02 0.0 
0.0 0.0 -1.257039107979e+02 
-4.775696517330e+01 -1.899559371531e+01 0.0 
-1.899559371531e+01 -8.239493854908e+01 0.0 
0.0 0.0 -3.247290052480e+01 
-7.717608535771e+01 -6.802278603973e+00 0.0 
-6.802278603973e+00 -1.075257598533e+02 0.0 
0.0 0.0 -5.615607648100e+01 
-1.080234440804e+02 6.065314528353e-01 0.0 
6.065314528353e-01 -2.376955917311e+02 0.0 
0.0 0.0 -1.033157107435e+02 
-1.511194519136e+02 1.094941636367e+01 0.0 
1.094941636367e+01 -3.588231375055e+02 0.0 
0.0 0.0 -1.525827768257e+02 
-1.441455273930e+02 6.782003429548e+00 0.0 
6.782003429548e+00 -3.316810944811e+02 0.0 
0.0 0.0 -1.423479865622e+02 
-1.028952699535e+02 7.243141439886e-01 0.0 
7.243141439886e-01 -2.240319513538e+02 0.0 
0.0 0.0 -9.767816639220e+01 
-3.926172186838e+01 2.921668636482e+01 0.0 
2.921668636482e+01 -9.197002318399e+01 0.0 
0.0 0.0 -3.714341151170e+01 
-1.430733377422e+02 1.133765126591e+01 0.0 
1.133765126591e+01 -3.303608335657e+02 0.0 
0.0 0.0 -1.416302513924e+02 
-1.014803550460e+02 -2.217765004835e+00 0.0 
-2.217765004835e+00 -2.072428189399e+02 0.0 
0.0 0.0 -8.754792122902e+01 
-1.425681568141e+02 1.218337320096e+01 0.0 
1.218337320096e+01 -3.335246243084e+02 0.0 
0.0 0.0 -1.424278343368e+02 
-1.447643094422e+02 8.418429028523e+00 0.0 
8.418429028523e+00 -3.504091406546e+02 0.0 
0.0 0.0 -1.481520350291e+02 
-5.098527642310e+01 3.651207960631e+01 0.0 
3.651207960631e+01 -5.981722998949e+01 0.0 
0.0 0.0 -3.407523764947e+01 
-1.166973184990e+02 -4.341398683226e-01 0.0 
-4.341398683226e-01 -2.526617545774e+02 0.0 
0.0 0.0 -1.072336662498e+02 
-1.464554160313e+01 4.561922150928e-02 0.0 
4.561922150928e-02 -3.014532291058e+01 0.0 
0.0 0.0 -1.160978686400e+01 
-1.579687408074e+02 1.830308539433e+00 0.0 
1.830308539433e+00 -3.745191905662e+02 0.0 
0.0 0.0 -1.593463794121e+02 
-1.047376777458e+02 -1.468900789559e+00 0.0 
-1.468900789559e+00 -2.157416953484e+02 0.0 
0.0 0.0 -9.132989844427e+01 
-2.298470004686e+01 5.719810402477e+00 0.0 
5.719810402477e+00 -7.910750416526e+00 0.0 
0.0 0.0 -5.827653839375e+00 
-1.235887182724e+01 2.088294380192e-02 0.0 
2.088294380192e-02 -1.034715748099e+01 0.0 
0.0 0.0 -6.003015762889e+00 
-2.903533385944e+01 7.361396224967e+00 0.0 
7.361396224967e+00 -2.975949103904e+01 0.0 
0.0 0.0 -1.434441616850e+01 
-2.012761151663e+01 -6.900383433384e-02 0.0 
-6.900383433384e-02 -2.888242919585e+01 0.0 
0.0 0.0 -1.405360978148e+01 
-3.634322899985e+01 7.334991211856e+00 0.0 
7.334991211856e+00 -5.022023603790e+01 0.0 
0.0 0.0 -2.250189152986e+01 
-2.838518586517e+01 1.523781258982e-03 0.0 
1.523781258982e-03 -4.943497229563e+01 0.0 
0.0 0.0 -2.294604744824e+01 
-4.520188764325e+01 6.379820831655e+00 0.0 
6.379820831655e+00 -7.065932765824e+01 0.0 
0.0 0.0 -3.021457094374e+01 
-3.638814315426e+01 -2.598778770030e-02 0.0 
-2.598778770030e-02 -6.788901754617e+01 0.0 
0.0 0.0 -3.088314821013e+01 
-5.462414435513e+01 4.875117998062e+00 0.0 
4.875117998062e+00 -9.117246333676e+01 0.0 
0.0 0.0 -3.868082628565e+01 
-4.533749053494e+01 -2.135256133754e-02 0.0 
-2.135256133754e-02 -8.848972070944e+01 0.0 
0.0 0.0 -3.974816337331e+01 
-6.323916192521e+01 4.017051591702e+00 0.0 
4.017051591702e+00 -1.106441835984e+02 0.0 
0.0 0.0 -4.867873152826e+01 
-5.335433912083e+01 -1.531656910339e-02 0.0 
-1.531656910339e-02 -1.069461244267e+02 0.0 
0.0 0.0 -4.769013906426e+01 
-7.086794255051e+01 3.667973686421e+00 0.0 
3.667973686421e+00 -1.296421899596e+02 0.0 
0.0 0.0 -5.794929034115e+01 
-6.234705891308e+01 -5.229665536029e-02 0.0 
-5.229665536029e-02 -1.275917048461e+02 0.0 
0.0 0.0 -5.658162912774e+01 
-7.756869615431e+01 3.691375182766e+00 0.0 
3.691375182766e+00 -1.487416005456e+02 0.0 
0.0 0.0 -6.683537609386e+01 
-7.014306413005e+01 -1.323181948643e-01 0.0 
-1.323181948643e-01 -1.460261659835e+02 0.0 
0.0 0.0 -6.445076903406e+01 

TENSORS node_materi_strain_total float
2.452775879092e-03 -2.789002766718e-05 0.0 
-2.789002766718e-05 -9.213604559846e-04 0.0 
0.0 0.0 0.0 
-1.190356756575e-03 -1.301032796159e-05 0.0 
-1.301032796159e-05 6.677288242777e-03 0.0 
0.0 0.0 0.0 
-1.156294328037e-04 -5.643584094620e-05 0.0 
-5.643584094620e-05 6.008251459660e-03 0.0 
0.0 0.0 0.0 
-8.701303454178e-05 3.698322833311e-05 0.0 
3.698322833311e-05 9.915788889574e-03 0.0 
0.0 0.0 0.0 
1.888494391302e-03 -4.267547054203e-05 0.0 
-4.267547054203e-05 -5.087923999376e-04 0.0 
0.0 0.0 0.0 
1.234117060875e-03 -2.576834493341e-05 0.0 
-2.576834493341e-05 1.935619715899e-04 0.0 
0.0 0.0 0.0 
5.348043174955e-04 -4.961744865907e-05 0.0 
-4.961744865907e-05 8.543826739148e-04 0.0 
0.0 0.0 0.0 
-8.991827311585e-05 -6.773529559781e-05 0.0 
-6.773529559781e-05 1.536031288880e-03 0.0 
0.0 0.0 0.0 
-6.437611719745e-04 -9.467480876919e-05 0.0 
-9.467480876919e-05 2.110017918204e-03 0.0 
0.0 0.0 0.0 
-1.048258650393e-03 -1.044806444827e-04 0.0 
-1.044806444827e-04 2.577330189016e-03 0.0 
0.0 0.0 0.0 
-1.338404493872e-03 -1.131727619539e-04 0.0 
-1.131727619539e-04 2.966913263026e-03 0.0 
0.0 0.0 0.0 
-1.523500668766e-03 -1.218606296549e-04 0.0 
-1.218606296549e-04 3.286223069880e-03 0.0 
0.0 0.0 0.0 
-1.612660843046e-03 -1.241023061680e-04 0.0 
-1.241023061680e-04 3.554516572325e-03 0.0 
0.0 0.0 0.0 
-1.631868879778e-03 -1.185639266097e-04 0.0 
-1.185639266097e-04 3.792056363455e-03 0.0 
0.0 0.0 0.0 
-1.592048652694e-03 -1.002865673682e-04 0.0 
-1.002865673682e-04 4.012402141418e-03 0.0 
0.0 0.0 0.0 
-1.518181510277e-03 -7.069377852930e-05 0.0 
-7.069377852930e-05 4.232062940808e-03 0.0 
0.0 0.0 0.0 
-1.416081033528e-03 -7.500054618365e-05 0.0 
-7.500054618365e-05 4.445753413412e-03 0.0 
0.0 0.0 0.0 
-1.284137277617e-03 -8.421342704662e-05 0.0 
-8.421342704662e-05 4.663278705890e-03 0.0 
0.0 0.0 0.0 
-1.132582258103e-03 -7.185715670928e-05 0.0 
-7.185715670928e-05 4.908354539743e-03 0.0 
0.0 0.0 0.0 
-9.660851206147e-04 -6.184681994997e-05 0.0 
-6.184681994997e-05 5.155754748309e-03 0.0 
0.0 0.0 0.0 
-7.775391993134e-04 -5.291965383049e-05 0.0 
-5.291965383049e-05 5.407443178440e-03 0.0 
0.0 0.0 0.0 
-5.595626100909e-04 -4.861979140423e-05 0.0 
-4.861979140423e-05 5.655442406388e-03 0.0 
0.0 0.0 0.0 
-3.281870711122e-04 -4.460529375835e-05 0.0 
-4.460529375835e-05 5.877805602500e-03 0.0 
0.0 0.0 0.0 
-6.295366646270e-05 1.334362685542e-04 0.0 
1.334362685542e-04 9.918035213885e-03 0.0 
0.0 0.0 0.0 
-6.848242495372e-05 2.441244397488e-04 0.0 
2.441244397488e-04 9.890917676941e-03 0.0 
0.0 0.0 0.0 
-6.783663033993e-05 3.520523708726e-04 0.0 
3.520523708726e-04 9.881459656260e-03 0.0 
0.0 0.0 0.0 
-6.532660216152e-05 4.870903725569e-04 0.0 
4.870903725569e-04 9.853066676568e-03 0.0 
0.0 0.0 0.0 
-7.993580300144e-05 5.991875195766e-04 0.0 
5.991875195766e-04 9.813422471179e-03 0.0 
0.0 0.0 0.0 
-7.211749700235e-05 7.337779551596e-04 0.0 
7.337779551596e-04 9.781854795252e-03 0.0 
0.0 0.0 0.0 
-7.947744960061e-05 8.726371560407e-04 0.0 
8.726371560407e-04 9.726909661082e-03 0.0 
0.0 0.0 0.0 
-8.017488876100e-05 1.017417605749e-03 0.0 
1.017417605749e-03 9.652982327128e-03 0.0 
0.0 0.0 0.0 
-8.104350133042e-05 1.154877278573e-03 0.0 
1.154877278573e-03 9.585704438868e-03 0.0 
0.0 0.0 0.0 
-7.312936033643e-05 1.313367601076e-03 0.0 
1.313367601076e-03 9.488949246277e-03 0.0 
0.0 0.0 0.0 
-9.297404823646e-05 1.454614081335e-03 0.0 
1.454614081335e-03 9.379020576374e-03 0.0 
0.0 0.0 0.0 
-8.370013355089e-05 1.616205264715e-03 0.0 
1.616205264715e-03 9.262471289900e-03 0.0 
0.0 0.0 0.0 
-8.801458138789e-05 1.778659190032e-03 0.0 
1.778659190032e-03 9.117625066410e-03 0.0 
0.0 0.0 0.0 
-8.156543097670e-05 1.934039892038e-03 0.0 
1.934039892038e-03 8.952484911887e-03 0.0 
0.0 0.0 0.0 
-8.884804296165e-05 2.085353888529e-03 0.0 
2.085353888529e-03 8.770617136873e-03 0.0 
0.0 0.0 0.0 
-8.131777604192e-05 2.230788843487e-03 0.0 
2.230788843487e-03 8.556605897659e-03 0.0 
0.0 0.0 0.0 
-8.480382394952e-05 2.370271069741e-03 0.0 
2.370271069741e-03 8.328961396758e-03 0.0 
0.0 0.0 0.0 
-7.670868286506e-05 2.509593714243e-03 0.0 
2.509593714243e-03 8.078991031115e-03 0.0 
0.0 0.0 0.0 
-6.206644299063e-05 2.625308300461e-03 0.0 
2.625308300461e-03 7.813626942668e-03 0.0 
0.0 0.0 0.0 
-4.398422475919e-05 2.721955982448e-03 0.0 
2.721955982448e-03 7.529283243519e-03 0.0 
0.0 0.0 0.0 
-2.354478869038e-05 2.791773857447e-03 0.0 
2.791773857447e-03 7.214632809388e-03 0.0 
0.0 0.0 0.0 
-1.277931903054e-05 2.827214969732e-03 0.0 
2.827214969732e-03 6.889792288129e-03 0.0 
0.0 0.0 0.0 
9.883527566886e-06 2.831008834230e-03 0.0 
2.831008834230e-03 6.552600087137e-03 0.0 
0.0 0.0 0.0 
3.087800826755e-05 2.793076114474e-03 0.0 
2.793076114474e-03 6.212655709333e-03 0.0 
0.0 0.0 0.0 
5.013193524572e-05 2.718092892419e-03 0.0 
2.718092892419e-03 5.884305126826e-03 0.0 
0.0 0.0 0.0 
7.616486061468e-05 2.605423339876e-03 0.0 
2.605423339876e-03 5.566492362202e-03 0.0 
0.0 0.0 0.0 
8.557218683676e-05 2.449565249576e-03 0.0 
2.449565249576e-03 5.261914188087e-03 0.0 
0.0 0.0 0.0 
1.181173502157e-04 2.256017204443e-03 0.0 
2.256017204443e-03 4.984187856814e-03 0.0 
0.0 0.0 0.0 
1.247537470671e-04 2.027095844572e-03 0.0 
2.027095844572e-03 4.732026159002e-03 0.0 
0.0 0.0 0.0 
1.247288351771e-04 1.777690017017e-03 0.0 
1.777690017017e-03 4.545455623402e-03 0.0 
0.0 0.0 0.0 
1.379103186894e-04 1.513186954707e-03 0.0 
1.513186954707e-03 4.350420582359e-03 0.0 
0.0 0.0 0.0 
1.699489065668e-04 1.229059815322e-03 0.0 
1.229059815322e-03 4.169579815997e-03 0.0 
0.0 0.0 0.0 
1.686993868144e-04 9.067213664362e-04 0.0 
9.067213664362e-04 4.067195501042e-03 0.0 
0.0 0.0 0.0 
1.639545022301e-04 6.083512743393e-04 0.0 
6.083512743393e-04 4.046782413041e-03 0.0 
0.0 0.0 0.0 
1.594727229201e-04 3.210644462125e-04 0.0 
3.210644462125e-04 4.050752723018e-03 0.0 
0.0 0.0 0.0 
1.272713011676e-04 4.690984513539e-05 0.0 
4.690984513539e-05 4.108530561572e-03 0.0 
0.0 0.0 0.0 
1.298021979879e-04 -1.875575899904e-04 0.0 
-1.875575899904e-04 4.214168447058e-03 0.0 
0.0 0.0 0.0 
9.526982145780e-05 -3.969209187585e-04 0.0 
-3.969209187585e-04 4.336376242843e-03 0.0 
0.0 0.0 0.0 
9.008357659172e-05 -5.610607050759e-04 0.0 
-5.610607050759e-04 4.489120239960e-03 0.0 
0.0 0.0 0.0 
5.437817510242e-05 -6.852872510055e-04 0.0 
-6.852872510055e-04 4.664642102529e-03 0.0 
0.0 0.0 0.0 
3.333235428567e-05 -7.659387974505e-04 0.0 
-7.659387974505e-04 4.868961499389e-03 0.0 
0.0 0.0 0.0 
9.559176922691e-06 -7.982831047708e-04 0.0 
-7.982831047708e-04 5.094771076535e-03 0.0 
0.0 0.0 0.0 
-1.129935427513e-05 -7.960696443862e-04 0.0 
-7.960696443862e-04 5.274900961240e-03 0.0 
0.0 0.0 0.0 
-4.421492059772e-05 -7.460103799588e-04 0.0 
-7.460103799588e-04 5.419982547779e-03 0.0 
0.0 0.0 0.0 
-4.836794542133e-05 -6.674919286587e-04 0.0 
-6.674919286587e-04 5.622803045890e-03 0.0 
0.0 0.0 0.0 
-6.659132495242e-05 -5.706751710546e-04 0.0 
-5.706751710546e-04 5.738499503617e-03 0.0 
0.0 0.0 0.0 
-6.647368098208e-05 -4.625743638411e-04 0.0 
-4.625743638411e-04 5.853037098969e-03 0.0 
0.0 0.0 0.0 
-7.588973183200e-05 -3.136334722796e-04 0.0 
-3.136334722796e-04 5.944498371500e-03 0.0 
0.0 0.0 0.0 
-8.336743134074e-05 -1.809303161507e-04 0.0 
-1.809303161507e-04 5.990362652366e-03 0.0 
0.0 0.0 0.0 
-1.177120595154e-03 -4.108113372727e-06 0.0 
-4.108113372727e-06 7.095787270719e-03 0.0 
0.0 0.0 0.0 
-1.151640504882e-03 -8.794969827796e-07 0.0 
-8.794969827796e-07 7.495944054197e-03 0.0 
0.0 0.0 0.0 
-1.097692303293e-03 2.733378657851e-06 0.0 
2.733378657851e-06 7.873531190205e-03 0.0 
0.0 0.0 0.0 
-1.018540444804e-03 6.860714705221e-06 0.0 
6.860714705221e-06 8.226165856523e-03 0.0 
0.0 0.0 0.0 
-9.136170475533e-04 1.243376220870e-05 0.0 
1.243376220870e-05 8.567156283867e-03 0.0 
0.0 0.0 0.0 
-7.825793360453e-04 1.664745393944e-05 0.0 
1.664745393944e-05 8.889998776335e-03 0.0 
0.0 0.0 0.0 
-6.289729398888e-04 2.024483850738e-05 0.0 
2.024483850738e-05 9.193365568909e-03 0.0 
0.0 0.0 0.0 
-4.444794169177e-04 2.585654439457e-05 0.0 
2.585654439457e-05 9.479738982423e-03 0.0 
0.0 0.0 0.0 
-2.555289268512e-04 2.721849832470e-05 0.0 
2.721849832470e-05 9.753520878256e-03 0.0 
0.0 0.0 0.0 
-2.089779866413e-03 2.797195935665e-03 0.0 
2.797195935665e-03 -2.122687745849e-03 0.0 
0.0 0.0 0.0 
-1.769808567383e-03 8.962744550352e-04 0.0 
8.962744550352e-04 6.312593418607e-03 0.0 
0.0 0.0 0.0 
-1.736175503460e-03 3.219165982507e-03 0.0 
3.219165982507e-03 7.193517632644e-04 0.0 
0.0 0.0 0.0 
-1.606321411074e-03 2.460261291073e-03 0.0 
2.460261291073e-03 2.458024722764e-03 0.0 
0.0 0.0 0.0 
-1.014216606797e-03 1.702166991858e-03 0.0 
1.702166991858e-03 2.953201479118e-03 0.0 
0.0 0.0 0.0 
-8.723200578971e-04 1.599580939829e-03 0.0 
1.599580939829e-03 3.146454479840e-03 0.0 
0.0 0.0 0.0 
-9.578672278712e-04 1.499447483247e-03 0.0 
1.499447483247e-03 3.485667545665e-03 0.0 
0.0 0.0 0.0 
-1.161106005305e-03 1.367755517439e-03 0.0 
1.367755517439e-03 3.975417361704e-03 0.0 
0.0 0.0 0.0 
-1.388708389940e-03 1.210925163438e-03 0.0 
1.210925163438e-03 4.549037762257e-03 0.0 
0.0 0.0 0.0 
-1.580231035898e-03 1.062690027416e-03 0.0 
1.062690027416e-03 5.146391457968e-03 0.0 
0.0 0.0 0.0 
-1.708694145007e-03 9.579156557165e-04 0.0 
9.579156557165e-04 5.737903586402e-03 0.0 
0.0 0.0 0.0 
-7.307762074553e-04 -3.151768191211e-05 0.0 
-3.151768191211e-05 3.146433920735e-03 0.0 
0.0 0.0 0.0 
-7.848064436127e-04 -2.653771061587e-05 0.0 
-2.653771061587e-05 3.437902541215e-03 0.0 
0.0 0.0 0.0 
-8.666971823485e-04 -4.210603289648e-05 0.0 
-4.210603289648e-05 3.912841487685e-03 0.0 
0.0 0.0 0.0 
-9.398351481659e-04 -3.288921895091e-05 0.0 
-3.288921895091e-05 4.386391287235e-03 0.0 
0.0 0.0 0.0 
-1.007486188852e-03 -4.138383270557e-05 0.0 
-4.138383270557e-05 4.855952337165e-03 0.0 
0.0 0.0 0.0 
-1.068379559268e-03 -3.166511044239e-05 0.0 
-3.166511044239e-05 5.321346188708e-03 0.0 
0.0 0.0 0.0 
-1.122781650106e-03 -3.568518021890e-05 0.0 
-3.568518021890e-05 5.780259227081e-03 0.0 
0.0 0.0 0.0 
-1.161710201546e-03 -2.137815020631e-05 0.0 
-2.137815020631e-05 6.225500788686e-03 0.0 
0.0 0.0 0.0 
-1.183789774128e-03 1.551927689159e-05 0.0 
1.551927689159e-05 6.617636269721e-03 0.0 
0.0 0.0 0.0 
-1.192971476003e-03 1.762303496953e-05 0.0 
1.762303496953e-05 6.645639037130e-03 0.0 
0.0 0.0 0.0 
-1.213518235915e-03 2.884318446843e-05 0.0 
2.884318446843e-05 6.650748531889e-03 0.0 
0.0 0.0 0.0 
-1.239683864801e-03 4.138558235631e-05 0.0 
4.138558235631e-05 6.647691951952e-03 0.0 
0.0 0.0 0.0 
-1.268712531711e-03 7.175667478480e-05 0.0 
7.175667478480e-05 6.703779564265e-03 0.0 
0.0 0.0 0.0 
-1.306500353755e-03 8.973633684987e-05 0.0 
8.973633684987e-05 6.656592114148e-03 0.0 
0.0 0.0 0.0 
-1.353136185132e-03 1.196424362928e-04 0.0 
1.196424362928e-04 6.650539798978e-03 0.0 
0.0 0.0 0.0 
-1.398367838720e-03 1.639345660677e-04 0.0 
1.639345660677e-04 6.647536112562e-03 0.0 
0.0 0.0 0.0 
-1.460373235557e-03 2.182590155211e-04 0.0 
2.182590155211e-04 6.648753821623e-03 0.0 
0.0 0.0 0.0 
-1.522491243371e-03 2.870228044269e-04 0.0 
2.870228044269e-04 6.628969756702e-03 0.0 
0.0 0.0 0.0 
-1.582522485891e-03 3.716634182436e-04 0.0 
3.716634182436e-04 6.597697426830e-03 0.0 
0.0 0.0 0.0 
-1.640242242457e-03 4.723711491333e-04 0.0 
4.723711491333e-04 6.552836391703e-03 0.0 
0.0 0.0 0.0 
-1.688208689405e-03 5.939879934078e-04 0.0 
5.939879934078e-04 6.488201624253e-03 0.0 
0.0 0.0 0.0 
-1.725267288121e-03 7.331516912423e-04 0.0 
7.331516912423e-04 6.409369086300e-03 0.0 
0.0 0.0 0.0 
-2.899996502699e-03 1.278974882008e-03 0.0 
1.278974882008e-03 -3.173698128559e-03 0.0 
0.0 0.0 0.0 
-3.701252756855e-03 2.675059356103e-04 0.0 
2.675059356103e-04 -3.225777696358e-03 0.0 
0.0 0.0 0.0 
-4.094778306953e-03 -1.886185098841e-04 0.0 
-1.886185098841e-04 -3.066238201445e-03 0.0 
0.0 0.0 0.0 
-3.693152306361e-03 -8.809657008791e-04 0.0 
-8.809657008791e-04 -2.797393558249e-03 0.0 
0.0 0.0 0.0 
-2.552459961525e-03 -1.832906437939e-03 0.0 
-1.832906437939e-03 -1.338179712225e-03 0.0 
0.0 0.0 0.0 
-1.505020164954e-03 -1.366890814415e-03 0.0 
-1.366890814415e-03 9.311483423243e-05 0.0 
0.0 0.0 0.0 
-5.919390949859e-04 -4.126500883202e-04 0.0 
-4.126500883202e-04 1.836036838054e-04 0.0 
0.0 0.0 0.0 
-1.945961211071e-04 -1.259351750746e-04 0.0 
-1.259351750746e-04 1.761688729953e-04 0.0 
0.0 0.0 0.0 
1.947631773417e-05 -7.650319799219e-05 0.0 
-7.650319799219e-05 1.502675889550e-04 0.0 
0.0 0.0 0.0 
2.983087418117e-04 -1.275013175010e-04 0.0 
-1.275013175010e-04 5.728408877977e-05 0.0 
0.0 0.0 0.0 
5.888906486540e-04 -1.435961039627e-04 0.0 
-1.435961039627e-04 -7.848913688361e-05 0.0 
0.0 0.0 0.0 
9.327767737084e-04 -1.654963503200e-04 0.0 
-1.654963503200e-04 -2.400734592986e-04 0.0 
0.0 0.0 0.0 
1.309321300866e-03 -1.562204034367e-04 0.0 
-1.562204034367e-04 -4.162806557858e-04 0.0 
0.0 0.0 0.0 
1.642751666161e-03 -1.512993589559e-04 0.0 
-1.512993589559e-04 -5.644603661602e-04 0.0 
0.0 0.0 0.0 
1.881703215939e-03 -1.196684833691e-04 0.0 
-1.196684833691e-04 -6.630299315482e-04 0.0 
0.0 0.0 0.0 
2.090638161101e-03 -8.962690015473e-05 0.0 
-8.962690015473e-05 -7.483649181900e-04 0.0 
0.0 0.0 0.0 
2.251534158798e-03 -7.139562698463e-05 0.0 
-7.139562698463e-05 -8.166608132083e-04 0.0 
0.0 0.0 0.0 
2.391016763027e-03 -4.302559921087e-05 0.0 
-4.302559921087e-05 -8.918143227417e-04 0.0 
0.0 0.0 0.0 
2.497258331579e-03 2.091433773230e-05 0.0 
2.091433773230e-05 -9.339413816499e-04 0.0 
0.0 0.0 0.0 
-1.213321809673e-03 1.271931830008e-03 0.0 
1.271931830008e-03 3.105996878579e-03 0.0 
0.0 0.0 0.0 
-6.223537805835e-04 1.009972655987e-03 0.0 
1.009972655987e-03 2.848482353532e-03 0.0 
0.0 0.0 0.0 
-3.537695589313e-04 7.610653953602e-04 0.0 
7.610653953602e-04 2.794622049454e-03 0.0 
0.0 0.0 0.0 
-2.428630851696e-04 5.520854482500e-04 0.0 
5.520854482500e-04 2.771553966976e-03 0.0 
0.0 0.0 0.0 
-1.634587012103e-04 3.747217376930e-04 0.0 
3.747217376930e-04 2.767119563671e-03 0.0 
0.0 0.0 0.0 
-6.563086022138e-05 2.095525905280e-04 0.0 
2.095525905280e-04 2.764690450113e-03 0.0 
0.0 0.0 0.0 
3.019826234130e-05 7.614230116248e-05 0.0 
7.614230116248e-05 2.762661731988e-03 0.0 
0.0 0.0 0.0 
7.768951946907e-05 -2.093348844918e-05 0.0 
-2.093348844918e-05 2.775975184134e-03 0.0 
0.0 0.0 0.0 
9.059599968612e-05 -9.363582335454e-05 0.0 
-9.363582335454e-05 2.796626484212e-03 0.0 
0.0 0.0 0.0 
8.288445640159e-05 -1.462003598735e-04 0.0 
-1.462003598735e-04 2.817773518142e-03 0.0 
0.0 0.0 0.0 
4.968758236153e-05 -1.823258803880e-04 0.0 
-1.823258803880e-04 2.842585699142e-03 0.0 
0.0 0.0 0.0 
-2.347822826635e-06 -2.056768312028e-04 0.0 
-2.056768312028e-04 2.871559165401e-03 0.0 
0.0 0.0 0.0 
-6.730974384250e-05 -2.176757347829e-04 0.0 
-2.176757347829e-04 2.903357532839e-03 0.0 
0.0 0.0 0.0 
-1.407816617469e-04 -2.211014510034e-04 0.0 
-2.211014510034e-04 2.937029475969e-03 0.0 
0.0 0.0 0.0 
-2.175731459440e-04 -2.174447277102e-04 0.0 
-2.174447277102e-04 2.971074002853e-03 0.0 
0.0 0.0 0.0 
-2.930600351037e-04 -2.088119268839e-04 0.0 
-2.088119268839e-04 3.003446531300e-03 0.0 
0.0 0.0 0.0 
-3.637047027838e-04 -1.965127132089e-04 0.0 
-1.965127132089e-04 3.032888094286e-03 0.0 
0.0 0.0 0.0 
-4.279738957206e-04 -1.815812816523e-04 0.0 
-1.815812816523e-04 3.060074702948e-03 0.0 
0.0 0.0 0.0 
-4.854946391955e-04 -1.651515067710e-04 0.0 
-1.651515067710e-04 3.084650134030e-03 0.0 
0.0 0.0 0.0 
-5.363890002726e-04 -1.475969754976e-04 0.0 
-1.475969754976e-04 3.106608487074e-03 0.0 
0.0 0.0 0.0 
-5.795877643370e-04 -1.299027353395e-04 0.0 
-1.299027353395e-04 3.125400090704e-03 0.0 
0.0 0.0 0.0 
-6.143318554139e-04 -1.119708482728e-04 0.0 
-1.119708482728e-04 3.140343420502e-03 0.0 
0.0 0.0 0.0 
-6.419039863697e-04 -9.290656387698e-05 0.0 
-9.290656387698e-05 3.151687332769e-03 0.0 
0.0 0.0 0.0 
-6.635271586397e-04 -7.158723550076e-05 0.0 
-7.158723550076e-05 3.160335989352e-03 0.0 
0.0 0.0 0.0 
-6.824925877957e-04 -4.194914900518e-05 0.0 
-4.194914900518e-05 3.171828894527e-03 0.0 
0.0 0.0 0.0 
-7.289510422832e-04 -1.823180440905e-06 0.0 
-1.823180440905e-06 3.194406962559e-03 0.0 
0.0 0.0 0.0 
-7.373238601963e-04 1.182728033265e-03 0.0 
1.182728033265e-03 2.984309382829e-03 0.0 
0.0 0.0 0.0 
-6.041215784402e-04 9.942766390762e-04 0.0 
9.942766390762e-04 2.980568986710e-03 0.0 
0.0 0.0 0.0 
-4.739014057749e-04 7.014200827131e-04 0.0 
7.014200827131e-04 2.983205918335e-03 0.0 
0.0 0.0 0.0 
-4.109473301312e-04 4.921626340811e-04 0.0 
4.921626340811e-04 3.013042224696e-03 0.0 
0.0 0.0 0.0 
-3.409514898175e-04 3.141840907289e-04 0.0 
3.141840907289e-04 3.042755241862e-03 0.0 
0.0 0.0 0.0 
-2.987260820682e-04 1.666162230230e-04 0.0 
1.666162230230e-04 3.073167842587e-03 0.0 
0.0 0.0 0.0 
-2.782917511842e-04 4.683258585765e-05 0.0 
4.683258585765e-05 3.105655221750e-03 0.0 
0.0 0.0 0.0 
-2.673943435043e-04 -4.765183233002e-05 0.0 
-4.765183233002e-05 3.133024186624e-03 0.0 
0.0 0.0 0.0 
-2.677983154956e-04 -1.163429364822e-04 0.0 
-1.163429364822e-04 3.155833250279e-03 0.0 
0.0 0.0 0.0 
-2.852841619735e-04 -1.636779112019e-04 0.0 
-1.636779112019e-04 3.178442259914e-03 0.0 
0.0 0.0 0.0 
-3.119564050244e-04 -1.947756971870e-04 0.0 
-1.947756971870e-04 3.200391980631e-03 0.0 
0.0 0.0 0.0 
-3.483680143440e-04 -2.142362929711e-04 0.0 
-2.142362929711e-04 3.223665413175e-03 0.0 
0.0 0.0 0.0 
-3.917586203346e-04 -2.229666400624e-04 0.0 
-2.229666400624e-04 3.248550524217e-03 0.0 
0.0 0.0 0.0 
-4.379394859240e-04 -2.227514578875e-04 0.0 
-2.227514578875e-04 3.272682380422e-03 0.0 
0.0 0.0 0.0 
-4.839479389858e-04 -2.159192783487e-04 0.0 
-2.159192783487e-04 3.295011290068e-03 0.0 
0.0 0.0 0.0 
-5.279435766214e-04 -2.039869956527e-04 0.0 
-2.039869956527e-04 3.315667702689e-03 0.0 
0.0 0.0 0.0 
-5.690160884052e-04 -1.887458451179e-04 0.0 
-1.887458451179e-04 3.335016006378e-03 0.0 
0.0 0.0 0.0 
-6.063945337823e-04 -1.710583492720e-04 0.0 
-1.710583492720e-04 3.352530252363e-03 0.0 
0.0 0.0 0.0 
-6.395193544272e-04 -1.517315915664e-04 0.0 
-1.517315915664e-04 3.368036080872e-03 0.0 
0.0 0.0 0.0 
-6.673471837021e-04 -1.314115095743e-04 0.0 
-1.314115095743e-04 3.380989899797e-03 0.0 
0.0 0.0 0.0 
-6.897361012726e-04 -1.098675638975e-04 0.0 
-1.098675638975e-04 3.391136168201e-03 0.0 
0.0 0.0 0.0 
-7.072570921144e-04 -8.654663297400e-05 0.0 
-8.654663297400e-05 3.398976303984e-03 0.0 
0.0 0.0 0.0 
-7.212998231450e-04 -6.073046170180e-05 0.0 
-6.073046170180e-05 3.406500961390e-03 0.0 
0.0 0.0 0.0 
-7.447962783645e-04 -3.201610577022e-05 0.0 
-3.201610577022e-05 3.419653558593e-03 0.0 
0.0 0.0 0.0 
-7.768793972268e-04 4.486928066237e-06 0.0 
4.486928066237e-06 3.433230961064e-03 0.0 
0.0 0.0 0.0 
-8.528995130650e-04 -1.863945648523e-05 0.0 
-1.863945648523e-05 3.906185277559e-03 0.0 
0.0 0.0 0.0 
-8.164948326855e-04 -6.323914389459e-05 0.0 
-6.323914389459e-05 3.890553048651e-03 0.0 
0.0 0.0 0.0 
-8.094330241116e-04 -9.802192827312e-05 0.0 
-9.802192827312e-05 3.884327971704e-03 0.0 
0.0 0.0 0.0 
-8.027951498714e-04 -1.286611555488e-04 0.0 
-1.286611555488e-04 3.879745732547e-03 0.0 
0.0 0.0 0.0 
-7.947863619923e-04 -1.577013861601e-04 0.0 
-1.577013861601e-04 3.874644374408e-03 0.0 
0.0 0.0 0.0 
-7.848507421440e-04 -1.852714805609e-04 0.0 
-1.852714805609e-04 3.868278898686e-03 0.0 
0.0 0.0 0.0 
-7.731123911842e-04 -2.112434449157e-04 0.0 
-2.112434449157e-04 3.860683641783e-03 0.0 
0.0 0.0 0.0 
-7.599801882501e-04 -2.348065467298e-04 0.0 
-2.348065467298e-04 3.851945530910e-03 0.0 
0.0 0.0 0.0 
-7.461578800026e-04 -2.547889627378e-04 0.0 
-2.547889627378e-04 3.842219863482e-03 0.0 
0.0 0.0 0.0 
-7.325943169880e-04 -2.699275490874e-04 0.0 
-2.699275490874e-04 3.831811250068e-03 0.0 
0.0 0.0 0.0 
-7.202808407859e-04 -2.782512141833e-04 0.0 
-2.782512141833e-04 3.820594807942e-03 0.0 
0.0 0.0 0.0 
-7.099635238226e-04 -2.771695332432e-04 0.0 
-2.771695332432e-04 3.807786606116e-03 0.0 
0.0 0.0 0.0 
-7.029895939458e-04 -2.634481376121e-04 0.0 
-2.634481376121e-04 3.792997442641e-03 0.0 
0.0 0.0 0.0 
-7.017440386803e-04 -2.332403581908e-04 0.0 
-2.332403581908e-04 3.777194973216e-03 0.0 
0.0 0.0 0.0 
-7.048412386369e-04 -1.843046221710e-04 0.0 
-1.843046221710e-04 3.759877555193e-03 0.0 
0.0 0.0 0.0 
-7.079080653234e-04 -1.113773055293e-04 0.0 
-1.113773055293e-04 3.736071007635e-03 0.0 
0.0 0.0 0.0 
-7.096713206648e-04 -9.371450064467e-06 0.0 
-9.371450064467e-06 3.702358806262e-03 0.0 
0.0 0.0 0.0 
-7.160786394021e-04 1.252177340669e-04 0.0 
1.252177340669e-04 3.656993650049e-03 0.0 
0.0 0.0 0.0 
-7.206682270450e-04 2.936333964731e-04 0.0 
2.936333964731e-04 3.596796848941e-03 0.0 
0.0 0.0 0.0 
-7.267714028962e-04 4.920470750980e-04 0.0 
4.920470750980e-04 3.519707414745e-03 0.0 
0.0 0.0 0.0 
-7.321375005956e-04 7.241668505135e-04 0.0 
7.241668505135e-04 3.427926848357e-03 0.0 
0.0 0.0 0.0 
-7.726077887852e-04 1.024761316166e-03 0.0 
1.024761316166e-03 3.332943829279e-03 0.0 
0.0 0.0 0.0 
-7.971458475196e-04 1.233787502062e-03 0.0 
1.233787502062e-03 3.239907196471e-03 0.0 
0.0 0.0 0.0 
-9.685250526710e-04 1.174198037869e-03 0.0 
1.174198037869e-03 3.643980316469e-03 0.0 
0.0 0.0 0.0 
-1.011269554359e-03 9.688047684196e-04 0.0 
9.688047684196e-04 3.808872680622e-03 0.0 
0.0 0.0 0.0 
-1.026255914928e-03 6.766688807411e-04 0.0 
6.766688807411e-04 3.952563608587e-03 0.0 
0.0 0.0 0.0 
-1.048519823802e-03 4.530984097724e-04 0.0 
4.530984097724e-04 4.066483325092e-03 0.0 
0.0 0.0 0.0 
-1.055337524383e-03 2.670103943264e-04 0.0 
2.670103943264e-04 4.155996970110e-03 0.0 
0.0 0.0 0.0 
-1.054082437292e-03 1.125585429444e-04 0.0 
1.125585429444e-04 4.221610551801e-03 0.0 
0.0 0.0 0.0 
-1.047862980757e-03 -9.513790151636e-06 0.0 
-9.513790151636e-06 4.269350862005e-03 0.0 
0.0 0.0 0.0 
-1.035629764205e-03 -1.010587430015e-04 0.0 
-1.010587430015e-04 4.302153880036e-03 0.0 
0.0 0.0 0.0 
-1.016028629600e-03 -1.653526264489e-04 0.0 
-1.653526264489e-04 4.323320789743e-03 0.0 
0.0 0.0 0.0 
-9.898214566290e-04 -2.060482287758e-04 0.0 
-2.060482287758e-04 4.336903973701e-03 0.0 
0.0 0.0 0.0 
-9.688801291702e-04 -2.282473313897e-04 0.0 
-2.282473313897e-04 4.346377734183e-03 0.0 
0.0 0.0 0.0 
-9.523825819708e-04 -2.364522629692e-04 0.0 
-2.364522629692e-04 4.352586683586e-03 0.0 
0.0 0.0 0.0 
-9.397667663479e-04 -2.340549672004e-04 0.0 
-2.340549672004e-04 4.357011556268e-03 0.0 
0.0 0.0 0.0 
-9.304572597713e-04 -2.235638434866e-04 0.0 
-2.235638434866e-04 4.360680724341e-03 0.0 
0.0 0.0 0.0 
-9.235594454228e-04 -2.066748778959e-04 0.0 
-2.066748778959e-04 4.363786280383e-03 0.0 
0.0 0.0 0.0 
-9.181599429105e-04 -1.850077765160e-04 0.0 
-1.850077765160e-04 4.366029736834e-03 0.0 
0.0 0.0 0.0 
-9.137606540228e-04 -1.601905872629e-04 0.0 
-1.601905872629e-04 4.367621726645e-03 0.0 
0.0 0.0 0.0 
-9.100919026305e-04 -1.330081074861e-04 0.0 
-1.330081074861e-04 4.368974462220e-03 0.0 
0.0 0.0 0.0 
-9.071112211216e-04 -1.039714149853e-04 0.0 
-1.039714149853e-04 4.370403547437e-03 0.0 
0.0 0.0 0.0 
-9.055624132772e-04 -7.389060065677e-05 0.0 
-7.389060065677e-05 4.372951749318e-03 0.0 
0.0 0.0 0.0 
-9.147471010445e-04 -4.561578347675e-05 0.0 
-4.561578347675e-05 4.378435785080e-03 0.0 
0.0 0.0 0.0 
-9.357896571152e-04 -2.162059839313e-06 0.0 
-2.162059839313e-06 4.384447679445e-03 0.0 
0.0 0.0 0.0 
-1.003572830082e-03 -1.631916829523e-05 0.0 
-1.631916829523e-05 4.855160551438e-03 0.0 
0.0 0.0 0.0 
-9.972581207457e-04 -5.524818367543e-05 0.0 
-5.524818367543e-05 4.854760613088e-03 0.0 
0.0 0.0 0.0 
-1.001820796099e-03 -8.502640159591e-05 0.0 
-8.502640159591e-05 4.854334324999e-03 0.0 
0.0 0.0 0.0 
-1.010374287824e-03 -1.110511690379e-04 0.0 
-1.110511690379e-04 4.855153467364e-03 0.0 
0.0 0.0 0.0 
-1.022971923790e-03 -1.353377706869e-04 0.0 
-1.353377706869e-04 4.857043565026e-03 0.0 
0.0 0.0 0.0 
-1.038901024846e-03 -1.573871504137e-04 0.0 
-1.573871504137e-04 4.859257300727e-03 0.0 
0.0 0.0 0.0 
-1.057123102840e-03 -1.761729457651e-04 0.0 
-1.761729457651e-04 4.861025558481e-03 0.0 
0.0 0.0 0.0 
-1.078673796882e-03 -1.897541473303e-04 0.0 
-1.897541473303e-04 4.861772149855e-03 0.0 
0.0 0.0 0.0 
-1.103829371018e-03 -1.958859278894e-04 0.0 
-1.958859278894e-04 4.861369676513e-03 0.0 
0.0 0.0 0.0 
-1.133052793841e-03 -1.925880976844e-04 0.0 
-1.925880976844e-04 4.859872231509e-03 0.0 
0.0 0.0 0.0 
-1.167154617219e-03 -1.775813240862e-04 0.0 
-1.775813240862e-04 4.856084213601e-03 0.0 
0.0 0.0 0.0 
-1.206353949495e-03 -1.475511464617e-04 0.0 
-1.475511464617e-04 4.847920010532e-03 0.0 
0.0 0.0 0.0 
-1.250823038272e-03 -9.780117689934e-05 0.0 
-9.780117689934e-05 4.832562045767e-03 0.0 
0.0 0.0 0.0 
-1.286811981418e-03 -2.268729885921e-05 0.0 
-2.268729885921e-05 4.804925730328e-03 0.0 
0.0 0.0 0.0 
-1.304193617452e-03 8.083713693074e-05 0.0 
8.083713693074e-05 4.760216733108e-03 0.0 
0.0 0.0 0.0 
-1.313360938076e-03 2.149166530584e-04 0.0 
2.149166530584e-04 4.697863711181e-03 0.0 
0.0 0.0 0.0 
-1.313252603460e-03 3.812206215469e-04 0.0 
3.812206215469e-04 4.611773385468e-03 0.0 
0.0 0.0 0.0 
-1.294330573216e-03 5.853600001602e-04 0.0 
5.853600001602e-04 4.499487487547e-03 0.0 
0.0 0.0 0.0 
-1.271571524915e-03 8.552391539145e-04 0.0 
8.552391539145e-04 4.354366672629e-03 0.0 
0.0 0.0 0.0 
-1.215425263876e-03 1.056270662758e-03 0.0 
1.056270662758e-03 4.167909602782e-03 0.0 
0.0 0.0 0.0 
-1.440207703327e-03 9.326765455226e-04 0.0 
9.326765455226e-04 4.728667384563e-03 0.0 
0.0 0.0 0.0 
-1.486785213583e-03 7.587458964240e-04 0.0 
7.587458964240e-04 4.917939420800e-03 0.0 
0.0 0.0 0.0 
-1.498831310252e-03 5.269747520418e-04 0.0 
5.269747520418e-04 5.050469432558e-03 0.0 
0.0 0.0 0.0 
-1.505528942595e-03 3.556716112852e-04 0.0 
3.556716112852e-04 5.152127583012e-03 0.0 
0.0 0.0 0.0 
-1.497335538650e-03 2.190832012886e-04 0.0 
2.190832012886e-04 5.230015511419e-03 0.0 
0.0 0.0 0.0 
-1.471226743662e-03 1.111215539408e-04 0.0 
1.111215539408e-04 5.283140596469e-03 0.0 
0.0 0.0 0.0 
-1.421565856538e-03 2.951614158488e-05 0.0 
2.951614158488e-05 5.316443303212e-03 0.0 
0.0 0.0 0.0 
-1.368072468995e-03 -2.907861974140e-05 0.0 
-2.907861974140e-05 5.334319039678e-03 0.0 
0.0 0.0 0.0 
-1.318695990049e-03 -6.849415851688e-05 0.0 
-6.849415851688e-05 5.343599848849e-03 0.0 
0.0 0.0 0.0 
-1.274179725759e-03 -9.296851480859e-05 0.0 
-9.296851480859e-05 5.347617423891e-03 0.0 
0.0 0.0 0.0 
-1.233802569457e-03 -1.047852012585e-04 0.0 
-1.047852012585e-04 5.348452254857e-03 0.0 
0.0 0.0 0.0 
-1.196156001446e-03 -1.068538298848e-04 0.0 
-1.068538298848e-04 5.346208973588e-03 0.0 
0.0 0.0 0.0 
-1.163840222526e-03 -1.026808609439e-04 0.0 
-1.026808609439e-04 5.342273465150e-03 0.0 
0.0 0.0 0.0 
-1.135729337123e-03 -9.385050282328e-05 0.0 
-9.385050282328e-05 5.337634615792e-03 0.0 
0.0 0.0 0.0 
-1.111062627219e-03 -8.157001008100e-05 0.0 
-8.157001008100e-05 5.332880383670e-03 0.0 
0.0 0.0 0.0 
-1.092411897227e-03 -6.666091970579e-05 0.0 
-6.666091970579e-05 5.329442209876e-03 0.0 
0.0 0.0 0.0 
-1.079590361148e-03 -5.019714161173e-05 0.0 
-5.019714161173e-05 5.327391709767e-03 0.0 
0.0 0.0 0.0 
-1.071516260206e-03 -3.418789247301e-05 0.0 
-3.418789247301e-05 5.325529361186e-03 0.0 
0.0 0.0 0.0 
-1.069971236595e-03 1.152662187537e-06 0.0 
1.152662187537e-06 5.323238827575e-03 0.0 
0.0 0.0 0.0 
-1.124811039649e-03 -4.520705881789e-06 0.0 
-4.520705881789e-06 5.782463510244e-03 0.0 
0.0 0.0 0.0 
-1.133143425807e-03 -2.912630888388e-05 0.0 
-2.912630888388e-05 5.786062137040e-03 0.0 
0.0 0.0 0.0 
-1.147156504414e-03 -4.055909804168e-05 0.0 
-4.055909804168e-05 5.788978609979e-03 0.0 
0.0 0.0 0.0 
-1.167167238154e-03 -4.712351965241e-05 0.0 
-4.712351965241e-05 5.792643837777e-03 0.0 
0.0 0.0 0.0 
-1.193346674219e-03 -4.961396793049e-05 0.0 
-4.961396793049e-05 5.797237488825e-03 0.0 
0.0 0.0 0.0 
-1.226855687278e-03 -4.851544210029e-05 0.0 
-4.851544210029e-05 5.802959823337e-03 0.0 
0.0 0.0 0.0 
-1.265788543685e-03 -4.138019472087e-05 0.0 
-4.138019472087e-05 5.807964021807e-03 0.0 
0.0 0.0 0.0 
-1.313142986231e-03 -2.840394489631e-05 0.0 
-2.840394489631e-05 5.812078002893e-03 0.0 
0.0 0.0 0.0 
-1.363128789518e-03 -6.152491840029e-06 0.0 
-6.152491840029e-06 5.811642083230e-03 0.0 
0.0 0.0 0.0 
-1.415322415891e-03 2.771713511167e-05 0.0 
2.771713511167e-05 5.806079449232e-03 0.0 
0.0 0.0 0.0 
-1.468460202255e-03 7.518973795307e-05 0.0 
7.518973795307e-05 5.793148818654e-03 0.0 
0.0 0.0 0.0 
-1.525455905371e-03 1.414337862678e-04 0.0 
1.414337862678e-04 5.770151327793e-03 0.0 
0.0 0.0 0.0 
-1.582818698885e-03 2.289948311859e-04 0.0 
2.289948311859e-04 5.733110525644e-03 0.0 
0.0 0.0 0.0 
-1.625894194349e-03 3.397807390359e-04 0.0 
3.397807390359e-04 5.671921061409e-03 0.0 
0.0 0.0 0.0 
-1.634945920643e-03 4.815395067873e-04 0.0 
4.815395067873e-04 5.584963126392e-03 0.0 
0.0 0.0 0.0 
-1.638674538905e-03 6.775417994451e-04 0.0 
6.775417994451e-04 5.475797085611e-03 0.0 
0.0 0.0 0.0 
-1.613308320489e-03 8.249440800881e-04 0.0 
8.249440800881e-04 5.299634195867e-03 0.0 
0.0 0.0 0.0 
-1.718437332028e-03 7.605628734261e-04 0.0 
7.605628734261e-04 5.851442317715e-03 0.0 
0.0 0.0 0.0 
-1.721643639748e-03 6.410009121954e-04 0.0 
6.410009121954e-04 6.012832882828e-03 0.0 
0.0 0.0 0.0 
-1.689101293805e-03 4.828561095824e-04 0.0 
4.828561095824e-04 6.100565877853e-03 0.0 
0.0 0.0 0.0 
-1.639625895022e-03 3.694774295638e-04 0.0 
3.694774295638e-04 6.161511256688e-03 0.0 
0.0 0.0 0.0 
-1.584094508560e-03 2.761229262626e-04 0.0 
2.761229262626e-04 6.203469101805e-03 0.0 
0.0 0.0 0.0 
-1.526854391641e-03 2.011889892875e-04 0.0 
2.011889892875e-04 6.229827001577e-03 0.0 
0.0 0.0 0.0 
-1.468574656091e-03 1.414056948751e-04 0.0 
1.414056948751e-04 6.243965705686e-03 0.0 
0.0 0.0 0.0 
-1.409131766998e-03 9.359581814726e-05 0.0 
9.359581814726e-05 6.250137422191e-03 0.0 
0.0 0.0 0.0 
-1.353525811934e-03 5.987287086464e-05 0.0 
5.987287086464e-05 6.251197674668e-03 0.0 
0.0 0.0 0.0 
-1.306464241727e-03 3.323746433979e-05 0.0 
3.323746433979e-05 6.247844863674e-03 0.0 
0.0 0.0 0.0 
-1.265365019172e-03 1.702824005530e-05 0.0 
1.702824005530e-05 6.244534748663e-03 0.0 
0.0 0.0 0.0 
-1.232529809916e-03 4.280524419643e-06 0.0 
4.280524419643e-06 6.239991457925e-03 0.0 
0.0 0.0 0.0 
-1.206043541731e-03 -1.532774998611e-06 0.0 
-1.532774998611e-06 6.237708319921e-03 0.0 
0.0 0.0 0.0 
-1.184366636122e-03 -4.676186935813e-06 0.0 
-4.676186935813e-06 6.233222590787e-03 0.0 
0.0 0.0 0.0 
-1.170288110574e-03 -8.365324501713e-06 0.0 
-8.365324501713e-06 6.233316260530e-03 0.0 
0.0 0.0 0.0 
-1.168686121022e-03 1.517271362942e-05 0.0 
1.517271362942e-05 6.235324112021e-03 0.0 
0.0 0.0 0.0 
-1.870395737914e-03 3.760528591368e-03 0.0 
3.760528591368e-03 -3.890980440574e-04 0.0 
0.0 0.0 0.0 
-1.647997267442e-03 3.088098862782e-03 0.0 
3.088098862782e-03 1.513449734312e-03 0.0 
0.0 0.0 0.0 
-1.352297984866e-03 1.895289116239e-03 0.0 
1.895289116239e-03 2.961129949339e-03 0.0 
0.0 0.0 0.0 
-9.227904843393e-04 1.734564825298e-03 0.0 
1.734564825298e-03 3.044214089157e-03 0.0 
0.0 0.0 0.0 
-9.118106166062e-04 1.628146470090e-03 0.0 
1.628146470090e-03 3.296137202311e-03 0.0 
0.0 0.0 0.0 
-1.060731736923e-03 1.488098006480e-03 0.0 
1.488098006480e-03 3.736422770732e-03 0.0 
0.0 0.0 0.0 
-1.290726255978e-03 1.324908621640e-03 0.0 
1.324908621640e-03 4.288020533727e-03 0.0 
0.0 0.0 0.0 
-1.500888553516e-03 1.166244269518e-03 0.0 
1.166244269518e-03 4.878918354391e-03 0.0 
0.0 0.0 0.0 
-1.660914587720e-03 1.033757887119e-03 0.0 
1.033757887119e-03 5.479379303024e-03 0.0 
0.0 0.0 0.0 
-1.753339376059e-03 9.507178090633e-04 0.0 
9.507178090633e-04 6.055126326265e-03 0.0 
0.0 0.0 0.0 
-1.207410956102e-03 3.207218316322e-03 0.0 
3.207218316322e-03 1.440855680144e-03 0.0 
0.0 0.0 0.0 
4.933113255861e-04 7.329281403059e-04 0.0 
7.329281403059e-04 3.703551603462e-03 0.0 
0.0 0.0 0.0 
-1.848747199070e-04 -3.626179897523e-04 0.0 
-3.626179897523e-04 3.378777447367e-04 0.0 
0.0 0.0 0.0 
-1.399094205211e-03 -1.859437468315e-03 0.0 
-1.859437468315e-03 -2.835820768660e-03 0.0 
0.0 0.0 0.0 
2.725807514372e-04 -4.820981409585e-04 0.0 
-4.820981409585e-04 4.138680887853e-03 0.0 
0.0 0.0 0.0 
-8.243676437708e-04 2.170155298840e-03 0.0 
2.170155298840e-03 2.857777151323e-03 0.0 
0.0 0.0 0.0 
-1.600137355239e-03 -2.488307884590e-04 0.0 
-2.488307884590e-04 3.886353880744e-03 0.0 
0.0 0.0 0.0 
4.318418288563e-04 1.874817367363e-03 0.0 
1.874817367363e-03 4.245280739088e-03 0.0 
0.0 0.0 0.0 
-1.071027807945e-03 1.778561001977e-03 0.0 
1.778561001977e-03 3.769225488203e-03 0.0 
0.0 0.0 0.0 
1.930258508836e-04 2.625482857359e-03 0.0 
2.625482857359e-03 5.465748822030e-03 0.0 
0.0 0.0 0.0 
-1.520741014809e-03 1.385080986742e-03 0.0 
1.385080986742e-03 5.031365146053e-03 0.0 
0.0 0.0 0.0 
-5.421884238725e-06 -7.991165165640e-04 0.0 
-7.991165165640e-04 5.035006698381e-03 0.0 
0.0 0.0 0.0 
1.127636980217e-03 -2.652891205184e-04 0.0 
-2.652891205184e-04 -2.339922384145e-04 0.0 
0.0 0.0 0.0 
-5.616930307197e-05 2.769054087763e-03 0.0 
2.769054087763e-03 6.895583335887e-03 0.0 
0.0 0.0 0.0 
-1.750867271385e-03 1.133887879551e-03 0.0 
1.133887879551e-03 6.286525178620e-03 0.0 
0.0 0.0 0.0 
-1.213343418026e-03 -1.945933620597e-04 0.0 
-1.945933620597e-04 2.783382948232e-03 0.0 
0.0 0.0 0.0 
-1.346495413245e-03 -2.240324252660e-04 0.0 
-2.240324252660e-04 4.478914539320e-03 0.0 
0.0 0.0 0.0 
-1.966107648743e-04 2.523550464122e-03 0.0 
2.523550464122e-03 7.823413625536e-03 0.0 
0.0 0.0 0.0 
-2.470522212738e-04 1.968822142075e-03 0.0 
1.968822142075e-03 8.778276726277e-03 0.0 
0.0 0.0 0.0 
-2.173441525207e-04 6.562451671504e-04 0.0 
6.562451671504e-04 9.695179422979e-03 0.0 
0.0 0.0 0.0 
-2.623910178969e-04 1.066200222024e-03 0.0 
1.066200222024e-03 9.499016665260e-03 0.0 
0.0 0.0 0.0 
-2.496914110543e-04 1.510031147471e-03 0.0 
1.510031147471e-03 9.232086405717e-03 0.0 
0.0 0.0 0.0 
-1.686446265566e-03 8.094901136373e-04 0.0 
8.094901136373e-04 6.754265498018e-03 0.0 
0.0 0.0 0.0 
-1.479467689603e-03 3.628377843336e-04 0.0 
3.628377843336e-04 6.989484363967e-03 0.0 
0.0 0.0 0.0 
-1.330228484693e-03 1.861976758609e-04 0.0 
1.861976758609e-04 7.061730709765e-03 0.0 
0.0 0.0 0.0 
-9.685250464846e-04 5.051551370724e-05 0.0 
5.051551370724e-05 8.402321737784e-03 0.0 
0.0 0.0 0.0 
-1.613770345553e-04 -6.338040595051e-04 0.0 
-6.338040595051e-04 5.550580082672e-03 0.0 
0.0 0.0 0.0 
-1.495398311039e-03 1.001986753389e-03 0.0 
1.001986753389e-03 -3.809804786999e-03 0.0 
0.0 0.0 0.0 
1.773241069376e-03 -1.355239218960e-04 0.0 
-1.355239218960e-04 -4.864656345945e-04 0.0 
0.0 0.0 0.0 
-8.626871433220e-04 -1.527501357132e-04 0.0 
-1.527501357132e-04 5.250953435890e-03 0.0 
0.0 0.0 0.0 
-1.222564922846e-03 7.334454137411e-05 0.0 
7.334454137411e-05 7.019395945899e-03 0.0 
0.0 0.0 0.0 
2.174445928593e-04 -9.391871456837e-05 0.0 
-9.391871456837e-05 1.203410995360e-03 0.0 
0.0 0.0 0.0 
-2.683451331768e-04 2.235670484575e-03 0.0 
2.235670484575e-03 8.325301629421e-03 0.0 
0.0 0.0 0.0 
2.968686048587e-04 2.330367448162e-03 0.0 
2.330367448162e-03 4.853885135233e-03 0.0 
0.0 0.0 0.0 
5.756910671473e-05 2.775532935163e-03 0.0 
2.775532935163e-03 6.187671811193e-03 0.0 
0.0 0.0 0.0 
5.195133037344e-04 1.369619719330e-03 0.0 
1.369619719330e-03 3.855142270091e-03 0.0 
0.0 0.0 0.0 
4.134540720550e-04 1.666811311982e-04 0.0 
1.666811311982e-04 3.760204081997e-03 0.0 
0.0 0.0 0.0 
-1.114620522547e-03 -1.579333284731e-03 0.0 
-1.579333284731e-03 3.868589420812e-04 0.0 
0.0 0.0 0.0 
-1.594302756134e-03 5.476100010680e-04 0.0 
5.476100010680e-04 6.898710985307e-03 0.0 
0.0 0.0 0.0 
1.458959850065e-04 -7.291865571717e-04 0.0 
-7.291865571717e-04 4.484547606174e-03 0.0 
0.0 0.0 0.0 
-7.166729681215e-04 7.347795549207e-05 0.0 
7.347795549207e-05 9.036072233853e-03 0.0 
0.0 0.0 0.0 
4.228347720760e-04 -2.685673336373e-04 0.0 
-2.685673336373e-04 9.075270025906e-05 0.0 
0.0 0.0 0.0 
-1.565650398646e-03 -2.435685765641e-04 0.0 
-2.435685765641e-04 3.405823406101e-03 0.0 
0.0 0.0 0.0 
-1.798215206063e-04 4.135888767497e-04 0.0 
4.135888767497e-04 9.796422264325e-03 0.0 
0.0 0.0 0.0 
-8.711058614559e-04 2.036515508112e-03 0.0 
2.036515508112e-03 3.236994721039e-03 0.0 
0.0 0.0 0.0 
-9.083168658136e-04 2.585398214063e-03 0.0 
2.585398214063e-03 2.405710732101e-03 0.0 
0.0 0.0 0.0 
-1.308270389088e-03 1.585225770871e-03 0.0 
1.585225770871e-03 4.383169771254e-03 0.0 
0.0 0.0 0.0 
-1.667394800657e-03 1.236565763623e-03 0.0 
1.236565763623e-03 5.673894501510e-03 0.0 
0.0 0.0 0.0 
-1.337305801356e-03 3.706672437154e-03 0.0 
3.706672437154e-03 -3.139205186493e-04 0.0 
0.0 0.0 0.0 
-1.123196391158e-03 3.420273796651e-05 0.0 
3.420273796651e-05 7.717504182939e-03 0.0 
0.0 0.0 0.0 
-1.899080046851e-04 -3.906277858307e-04 0.0 
-3.906277858307e-04 5.836586301488e-03 0.0 
0.0 0.0 0.0 
2.024120275269e-03 -4.840825617781e-05 0.0 
-4.840825617781e-05 -6.175884662996e-04 0.0 
0.0 0.0 0.0 
-3.526217237953e-04 1.054352409819e-04 0.0 
1.054352409819e-04 9.599016117897e-03 0.0 
0.0 0.0 0.0 
-1.746923160704e-03 1.098629255689e-03 0.0 
1.098629255689e-03 6.542866253114e-03 0.0 
0.0 0.0 0.0 
-1.694444858922e-03 1.307197848468e-03 0.0 
1.307197848468e-03 6.530236488975e-03 0.0 
0.0 0.0 0.0 
-1.656620015085e-03 1.209677763705e-03 0.0 
1.209677763705e-03 6.819334889744e-03 0.0 
0.0 0.0 0.0 
-1.582428555967e-03 1.458959750868e-03 0.0 
1.458959750868e-03 6.756620191419e-03 0.0 
0.0 0.0 0.0 
-1.525067853947e-03 1.362277029914e-03 0.0 
1.362277029914e-03 7.053927058235e-03 0.0 
0.0 0.0 0.0 
-1.435051710814e-03 1.571018672621e-03 0.0 
1.571018672621e-03 6.974231819323e-03 0.0 
0.0 0.0 0.0 
-1.478113196618e-03 1.682740345781e-03 0.0 
1.682740345781e-03 6.654032173208e-03 0.0 
0.0 0.0 0.0 
-1.316018212524e-03 1.775928336697e-03 0.0 
1.775928336697e-03 6.860069726130e-03 0.0 
0.0 0.0 0.0 
-1.336314017577e-03 1.900822109294e-03 0.0 
1.900822109294e-03 6.503825178493e-03 0.0 
0.0 0.0 0.0 
-1.383952843496e-03 1.480883238112e-03 0.0 
1.480883238112e-03 7.282582294799e-03 0.0 
0.0 0.0 0.0 
-1.166670253944e-03 1.969835894511e-03 0.0 
1.969835894511e-03 6.706607913742e-03 0.0 
0.0 0.0 0.0 
-1.160882114614e-03 2.102827142290e-03 0.0 
2.102827142290e-03 6.310969360808e-03 0.0 
0.0 0.0 0.0 
-9.902765170580e-04 2.147887895548e-03 0.0 
2.147887895548e-03 6.515570632051e-03 0.0 
0.0 0.0 0.0 
-9.560620626679e-04 2.283041773309e-03 0.0 
2.283041773309e-03 6.080408084907e-03 0.0 
0.0 0.0 0.0 
-1.116732252015e-03 2.247120808835e-03 0.0 
2.247120808835e-03 5.882361678242e-03 0.0 
0.0 0.0 0.0 
-8.854791716144e-04 2.434915686740e-03 0.0 
2.434915686740e-03 5.609488804578e-03 0.0 
0.0 0.0 0.0 
-1.029525219313e-03 2.377536474250e-03 0.0 
2.377536474250e-03 5.415846957357e-03 0.0 
0.0 0.0 0.0 
-7.674918512538e-04 2.574664472689e-03 0.0 
2.574664472689e-03 5.097150453206e-03 0.0 
0.0 0.0 0.0 
-6.282104136469e-04 2.581945739397e-03 0.0 
2.581945739397e-03 5.306659585240e-03 0.0 
0.0 0.0 0.0 
-4.747447533724e-04 2.724939541373e-03 0.0 
2.724939541373e-03 4.744959554637e-03 0.0 
0.0 0.0 0.0 
-6.014231658972e-04 2.697096475681e-03 0.0 
2.697096475681e-03 4.544774669743e-03 0.0 
0.0 0.0 0.0 
-2.767633650270e-04 2.847960457926e-03 0.0 
2.847960457926e-03 4.142309449199e-03 0.0 
0.0 0.0 0.0 
-3.996430424080e-04 2.818376266695e-03 0.0 
2.818376266695e-03 3.960646991429e-03 0.0 
0.0 0.0 0.0 
-3.878367947232e-05 2.954000795262e-03 0.0 
2.954000795262e-03 3.506266795192e-03 0.0 
0.0 0.0 0.0 
-1.564268335014e-04 2.932678350482e-03 0.0 
2.932678350482e-03 3.345877673121e-03 0.0 
0.0 0.0 0.0 
2.423767972117e-04 3.041494430217e-03 0.0 
3.041494430217e-03 2.840765037896e-03 0.0 
0.0 0.0 0.0 
3.411630575215e-04 3.023575123533e-03 0.0 
3.023575123533e-03 3.039445749974e-03 0.0 
0.0 0.0 0.0 
6.576308626870e-04 3.077735902565e-03 0.0 
3.077735902565e-03 2.328747642725e-03 0.0 
0.0 0.0 0.0 
5.680613660692e-04 3.102412758276e-03 0.0 
3.102412758276e-03 2.160070771610e-03 0.0 
0.0 0.0 0.0 
1.013255453604e-03 3.085987184216e-03 0.0 
3.085987184216e-03 1.612844581125e-03 0.0 
0.0 0.0 0.0 
9.223249893450e-04 3.123648656569e-03 0.0 
3.123648656569e-03 1.486031920708e-03 0.0 
0.0 0.0 0.0 
1.412147857460e-03 3.050491480925e-03 0.0 
3.050491480925e-03 9.039626931789e-04 0.0 
0.0 0.0 0.0 
1.447664255923e-03 2.990516833486e-03 0.0 
2.990516833486e-03 1.099351563324e-03 0.0 
0.0 0.0 0.0 
1.904455216514e-03 2.913779316432e-03 0.0 
2.913779316432e-03 3.431716437799e-04 0.0 
0.0 0.0 0.0 
1.909381404422e-03 3.028318041326e-03 0.0 
3.028318041326e-03 1.438622538666e-04 0.0 
0.0 0.0 0.0 
2.463408017700e-03 2.835614121355e-03 0.0 
2.835614121355e-03 -4.802267992939e-04 0.0 
0.0 0.0 0.0 
2.474748695837e-03 3.000799284285e-03 0.0 
3.000799284285e-03 -6.511002426937e-04 0.0 
0.0 0.0 0.0 
3.034259731698e-03 2.682115930633e-03 0.0 
2.682115930633e-03 -1.254376505381e-03 0.0 
0.0 0.0 0.0 
3.038130465570e-03 2.846981452574e-03 0.0 
2.846981452574e-03 -1.353791579077e-03 0.0 
0.0 0.0 0.0 
3.553489142617e-03 2.394756889813e-03 0.0 
2.394756889813e-03 -1.894313807659e-03 0.0 
0.0 0.0 0.0 
3.469188477918e-03 2.246715419822e-03 0.0 
2.246715419822e-03 -1.734357940441e-03 0.0 
0.0 0.0 0.0 
3.903062187664e-03 1.849738504448e-03 0.0 
1.849738504448e-03 -2.290134968986e-03 0.0 
0.0 0.0 0.0 
3.968440873410e-03 1.989613186123e-03 0.0 
1.989613186123e-03 -2.445303710745e-03 0.0 
0.0 0.0 0.0 
4.205616979864e-03 1.345641944302e-03 0.0 
1.345641944302e-03 -2.715800865189e-03 0.0 
0.0 0.0 0.0 
4.069627237922e-03 1.261916283498e-03 0.0 
1.261916283498e-03 -2.517281255852e-03 0.0 
0.0 0.0 0.0 
4.241349349359e-03 7.021140245501e-04 0.0 
7.021140245501e-04 -2.808966718843e-03 0.0 
0.0 0.0 0.0 
4.049601868386e-03 6.709898131750e-04 0.0 
6.709898131750e-04 -2.555304698058e-03 0.0 
0.0 0.0 0.0 
4.080178301644e-03 9.376526093352e-05 0.0 
9.376526093352e-05 -2.727072823491e-03 0.0 
0.0 0.0 0.0 
4.238507052475e-03 7.417266192109e-05 0.0 
7.417266192109e-05 -2.965171294053e-03 0.0 
0.0 0.0 0.0 
3.935234010554e-03 -5.107667664801e-04 0.0 
-5.107667664801e-04 -2.735542079997e-03 0.0 
0.0 0.0 0.0 
3.720000329540e-03 -4.301710126883e-04 0.0 
-4.301710126883e-04 -2.403921291071e-03 0.0 
0.0 0.0 0.0 
3.452726293114e-03 -9.703714219583e-04 0.0 
-9.703714219583e-04 -2.288246777833e-03 0.0 
0.0 0.0 0.0 
3.635760577296e-03 -1.117699003256e-03 0.0 
-1.117699003256e-03 -2.602643832153e-03 0.0 
0.0 0.0 0.0 
3.057486068622e-03 -1.464723711059e-03 0.0 
-1.464723711059e-03 -2.024068658287e-03 0.0 
0.0 0.0 0.0 
2.864435698394e-03 -1.274311366657e-03 0.0 
-1.274311366657e-03 -1.657579033347e-03 0.0 
0.0 0.0 0.0 
2.466248623735e-03 -1.663268546347e-03 0.0 
-1.663268546347e-03 -1.358916622950e-03 0.0 
0.0 0.0 0.0 
2.581106601168e-03 -1.876988152177e-03 0.0 
-1.876988152177e-03 -1.655225665925e-03 0.0 
0.0 0.0 0.0 
2.045059530138e-03 -1.997285771385e-03 0.0 
-1.997285771385e-03 -9.980608421187e-04 0.0 
0.0 0.0 0.0 
2.012364002182e-03 -1.828504767993e-03 0.0 
-1.828504767993e-03 -8.064466162888e-04 0.0 
0.0 0.0 0.0 
1.621193961643e-03 -2.096504696245e-03 0.0 
-2.096504696245e-03 -4.621954026820e-04 0.0 
0.0 0.0 0.0 
1.614575343039e-03 -2.261650064026e-03 0.0 
-2.261650064026e-03 -6.011709650883e-04 0.0 
0.0 0.0 0.0 
1.204494748096e-03 -2.287921737914e-03 0.0 
-2.287921737914e-03 -6.837697956576e-05 0.0 
0.0 0.0 0.0 
1.181944738486e-03 -2.126310592400e-03 0.0 
-2.126310592400e-03 1.168503806820e-04 0.0 
0.0 0.0 0.0 
7.792199856146e-04 -2.242158541501e-03 0.0 
-2.242158541501e-03 5.006748281533e-04 0.0 
0.0 0.0 0.0 
7.454749552508e-04 -2.087983881386e-03 0.0 
-2.087983881386e-03 7.400860835051e-04 0.0 
0.0 0.0 0.0 
7.756743480998e-04 -2.385694371130e-03 0.0 
-2.385694371130e-03 3.525649934933e-04 0.0 
0.0 0.0 0.0 
3.795091142817e-04 -2.275922437784e-03 0.0 
-2.275922437784e-03 8.961041466798e-04 0.0 
0.0 0.0 0.0 
3.599103424877e-04 -2.380101302263e-03 0.0 
-2.380101302263e-03 7.746222639760e-04 0.0 
0.0 0.0 0.0 
-2.877930745752e-07 -2.221468087846e-03 0.0 
-2.221468087846e-03 1.281128902175e-03 0.0 
0.0 0.0 0.0 
1.861808333276e-03 2.834042341413e-03 0.0 
2.834042341413e-03 6.358653607562e-04 0.0 
0.0 0.0 0.0 
-1.893441364840e-05 -2.269292039822e-03 0.0 
-2.269292039822e-03 1.166197177940e-03 0.0 
0.0 0.0 0.0 
3.048586650479e-04 -2.423583724821e-03 0.0 
-2.423583724821e-03 7.023894698394e-04 0.0 
0.0 0.0 0.0 
-3.345798547720e-04 -2.082599465711e-03 0.0 
-2.082599465711e-03 1.625810614900e-03 0.0 
0.0 0.0 0.0 
-3.346675797750e-04 -2.028900168077e-03 0.0 
-2.028900168077e-03 1.782826951814e-03 0.0 
0.0 0.0 0.0 
-3.318468416104e-04 -2.070579820886e-03 0.0 
-2.070579820886e-03 1.495604335127e-03 0.0 
0.0 0.0 0.0 
-6.034696332520e-04 -1.874567185859e-03 0.0 
-1.874567185859e-03 1.907569775811e-03 0.0 
0.0 0.0 0.0 
-5.606262116377e-04 -1.808537278379e-03 0.0 
-1.808537278379e-03 1.746896367012e-03 0.0 
0.0 0.0 0.0 
2.398960660654e-03 3.163635317046e-03 0.0 
3.163635317046e-03 -6.929930743797e-04 0.0 
0.0 0.0 0.0 
-3.517511390139e-04 2.679586712086e-03 0.0 
2.679586712086e-03 4.984661731588e-03 0.0 
0.0 0.0 0.0 
-7.940073809523e-04 -1.613641269104e-03 0.0 
-1.613641269104e-03 2.112667738262e-03 0.0 
0.0 0.0 0.0 
-6.928383070366e-04 -1.503317185351e-03 0.0 
-1.503317185351e-03 1.903425465127e-03 0.0 
0.0 0.0 0.0 
-5.001892472809e-04 -1.672249479406e-03 0.0 
-1.672249479406e-03 1.586450471545e-03 0.0 
0.0 0.0 0.0 
-5.512473218165e-04 -1.325691107096e-03 0.0 
-1.325691107096e-03 1.669580309135e-03 0.0 
0.0 0.0 0.0 
-1.466771026267e-03 1.289132319057e-03 0.0 
1.289132319057e-03 7.330195824839e-03 0.0 
0.0 0.0 0.0 
-1.313483629602e-03 1.404471491020e-03 0.0 
1.404471491020e-03 7.576680943387e-03 0.0 
0.0 0.0 0.0 
-1.388647966866e-03 1.211761726573e-03 0.0 
1.211761726573e-03 7.599551000888e-03 0.0 
0.0 0.0 0.0 
-1.234551298120e-03 1.337853878293e-03 0.0 
1.337853878293e-03 7.860352429900e-03 0.0 
0.0 0.0 0.0 
-1.303436142779e-03 1.154937074880e-03 0.0 
1.154937074880e-03 7.867224577980e-03 0.0 
0.0 0.0 0.0 
-7.186161269704e-04 -1.181427439790e-03 0.0 
-1.181427439790e-03 1.955984310107e-03 0.0 
0.0 0.0 0.0 
-9.933043476462e-04 2.038797073922e-03 0.0 
2.038797073922e-03 6.921519306367e-03 0.0 
0.0 0.0 0.0 
-1.147074620109e-03 1.520976793433e-03 0.0 
1.520976793433e-03 7.820938350590e-03 0.0 
0.0 0.0 0.0 
-7.293352418795e-04 2.626205278149e-03 0.0 
2.626205278149e-03 4.385316469437e-03 0.0 
0.0 0.0 0.0 
4.504603829361e-04 3.110522736127e-03 0.0 
3.110522736127e-03 2.079878714387e-03 0.0 
0.0 0.0 0.0 
3.840682416265e-03 1.190969776582e-03 0.0 
1.190969776582e-03 -2.201596072793e-03 0.0 
0.0 0.0 0.0 
-8.568524558033e-04 -1.657687151543e-03 0.0 
-1.657687151543e-03 2.307752801404e-03 0.0 
0.0 0.0 0.0 
-1.013415986837e-03 -1.405844546371e-03 0.0 
-1.405844546371e-03 2.467874126687e-03 0.0 
0.0 0.0 0.0 
-1.078454951105e-03 -1.426308023298e-03 0.0 
-1.426308023298e-03 2.684209305417e-03 0.0 
0.0 0.0 0.0 
1.122316617267e-03 -1.965344920683e-03 0.0 
-1.965344920683e-03 4.058958108957e-04 0.0 
0.0 0.0 0.0 
7.060259461473e-04 -1.920213980126e-03 0.0 
-1.920213980126e-03 1.063454986879e-03 0.0 
0.0 0.0 0.0 
1.061210485794e-03 -1.785650829529e-03 0.0 
-1.785650829529e-03 7.889416358979e-04 0.0 
0.0 0.0 0.0 
6.808250976713e-04 -1.717328686564e-03 0.0 
-1.717328686564e-03 1.452659933467e-03 0.0 
0.0 0.0 0.0 
1.006700310924e-03 -1.552553030368e-03 0.0 
-1.552553030368e-03 1.249612327466e-03 0.0 
0.0 0.0 0.0 
6.531172508185e-04 -1.472107106764e-03 0.0 
-1.472107106764e-03 1.897137244971e-03 0.0 
0.0 0.0 0.0 
3.456706440305e-04 -1.596713430499e-03 0.0 
-1.596713430499e-03 2.081331638192e-03 0.0 
0.0 0.0 0.0 
3.380238236332e-04 -1.361243480603e-03 0.0 
-1.361243480603e-03 2.503971312429e-03 0.0 
0.0 0.0 0.0 
5.509310357181e-05 -1.445142670241e-03 0.0 
-1.445142670241e-03 2.664321329599e-03 0.0 
0.0 0.0 0.0 
9.280362743149e-04 -1.281516540612e-03 0.0 
-1.281516540612e-03 1.768019676790e-03 0.0 
0.0 0.0 0.0 
1.294254813362e-03 -1.310161321459e-03 0.0 
-1.310161321459e-03 1.120577274089e-03 0.0 
0.0 0.0 0.0 
6.782874808999e-05 -1.231968235036e-03 0.0 
-1.231968235036e-03 3.063714220855e-03 0.0 
0.0 0.0 0.0 
-1.904408206388e-04 -1.276963385022e-03 0.0 
-1.276963385022e-03 3.197742380062e-03 0.0 
0.0 0.0 0.0 
-1.552907832308e-04 -1.092073006218e-03 0.0 
-1.092073006218e-03 3.574629010632e-03 0.0 
0.0 0.0 0.0 
-3.948543609486e-04 -1.103021452191e-03 0.0 
-1.103021452191e-03 3.680805035884e-03 0.0 
0.0 0.0 0.0 
-4.623345922627e-04 -1.272008611945e-03 0.0 
-1.272008611945e-03 3.348411485044e-03 0.0 
0.0 0.0 0.0 
-6.400725606577e-04 -1.070426425592e-03 0.0 
-1.070426425592e-03 3.793035522052e-03 0.0 
0.0 0.0 0.0 
-7.215453436827e-04 -1.222951814075e-03 0.0 
-1.222951814075e-03 3.494665135738e-03 0.0 
0.0 0.0 0.0 
3.742789919888e-03 6.451787591476e-04 0.0 
6.451787591476e-04 -2.122896157564e-03 0.0 
0.0 0.0 0.0 
3.469840137800e-03 1.152217987531e-03 0.0 
1.152217987531e-03 -1.610617643806e-03 0.0 
0.0 0.0 0.0 
3.288463911319e-03 6.533465965891e-04 0.0 
6.533465965891e-04 -1.349761615777e-03 0.0 
0.0 0.0 0.0 
2.991693893567e-03 1.111337638675e-03 0.0 
1.111337638675e-03 -7.007463185328e-04 0.0 
0.0 0.0 0.0 
2.804346847734e-03 6.962487322874e-04 0.0 
6.962487322874e-04 -4.160670308252e-04 0.0 
0.0 0.0 0.0 
2.537272708844e-03 1.081437860441e-03 0.0 
1.081437860441e-03 1.764995092285e-04 0.0 
0.0 0.0 0.0 
2.382864370973e-03 7.461990329957e-04 0.0 
7.461990329957e-04 4.086825614418e-04 0.0 
0.0 0.0 0.0 
2.575390479946e-03 3.541464027385e-04 0.0 
3.541464027385e-04 -8.298374067861e-05 0.0 
0.0 0.0 0.0 
-7.931042155038e-04 2.306227560401e-03 0.0 
2.306227560401e-03 6.291523622048e-03 0.0 
0.0 0.0 0.0 
4.266760732864e-03 1.454097391693e-03 0.0 
1.454097391693e-03 -2.940940210551e-03 0.0 
0.0 0.0 0.0 
3.942986069596e-03 2.137992953557e-03 0.0 
2.137992953557e-03 -2.600392488390e-03 0.0 
0.0 0.0 0.0 
4.234049709515e-03 1.557551613776e-03 0.0 
1.557551613776e-03 -3.139177191430e-03 0.0 
0.0 0.0 0.0 
3.832850899763e-03 2.297786877006e-03 0.0 
2.297786877006e-03 -2.710344130234e-03 0.0 
0.0 0.0 0.0 
4.098411703140e-03 1.702174293564e-03 0.0 
1.702174293564e-03 -3.296377322074e-03 0.0 
0.0 0.0 0.0 
3.624692492558e-03 2.518643243726e-03 0.0 
2.518643243726e-03 -2.783120304995e-03 0.0 
0.0 0.0 0.0 
3.865382775529e-03 1.879470044688e-03 0.0 
1.879470044688e-03 -3.470348710122e-03 0.0 
0.0 0.0 0.0 
4.168903453829e-03 9.163532331196e-04 0.0 
9.163532331196e-04 -3.763932412252e-03 0.0 
0.0 0.0 0.0 
3.869450505813e-03 9.996525679423e-04 0.0 
9.996525679423e-04 -4.024600577168e-03 0.0 
0.0 0.0 0.0 
4.017202266249e-03 -2.480339691941e-05 0.0 
-2.480339691941e-05 -4.028556478129e-03 0.0 
0.0 0.0 0.0 
3.616319742456e-03 -2.016260937837e-05 0.0 
-2.016260937837e-05 -4.297823083989e-03 0.0 
0.0 0.0 0.0 
3.699008574199e-03 -1.026394355587e-03 0.0 
-1.026394355587e-03 -4.017855835925e-03 0.0 
0.0 0.0 0.0 
7.241774449582e-04 3.018373811978e-03 0.0 
3.018373811978e-03 2.582966631994e-03 0.0 
0.0 0.0 0.0 
2.629744992371e-03 1.467131364706e-03 0.0 
1.467131364706e-03 2.058646930136e-05 0.0 
0.0 0.0 0.0 
2.223452790549e-03 1.393479081402e-03 0.0 
1.393479081402e-03 8.172865542198e-04 0.0 
0.0 0.0 0.0 
2.253037373765e-03 1.732344600106e-03 0.0 
1.732344600106e-03 7.377660682502e-04 0.0 
0.0 0.0 0.0 
-4.105487303624e-04 -1.452380717033e-03 0.0 
-1.452380717033e-03 1.406708939005e-03 0.0 
0.0 0.0 0.0 
-5.592050433672e-04 -9.300974737970e-04 0.0 
-9.300974737970e-04 4.113197819970e-03 0.0 
0.0 0.0 0.0 
1.147388172560e-03 -1.041147212071e-03 0.0 
-1.041147212071e-03 1.708070561488e-03 0.0 
0.0 0.0 0.0 
1.510093475730e-03 -1.007995367393e-03 0.0 
-1.007995367393e-03 1.082834870704e-03 0.0 
0.0 0.0 0.0 
2.177290315572e-03 4.528339734376e-04 0.0 
4.528339734376e-04 7.214471805438e-04 0.0 
0.0 0.0 0.0 
-4.857474730121e-04 -9.804660623650e-04 0.0 
-9.804660623650e-04 1.640294919325e-03 0.0 
0.0 0.0 0.0 
3.306401446232e-03 2.748773952478e-03 0.0 
2.748773952478e-03 -2.832801577981e-03 0.0 
0.0 0.0 0.0 
2.921883914195e-03 3.172209359748e-03 0.0 
3.172209359748e-03 -2.013801538262e-03 0.0 
0.0 0.0 0.0 
-1.142639091529e-03 1.277796563850e-03 0.0 
1.277796563850e-03 8.127561414626e-03 0.0 
0.0 0.0 0.0 
-1.207849927358e-03 1.104260072946e-03 0.0 
1.104260072946e-03 8.119043409049e-03 0.0 
0.0 0.0 0.0 
1.296451386307e-03 -7.696689285014e-04 0.0 
-7.696689285014e-04 1.727954210803e-03 0.0 
0.0 0.0 0.0 
-6.299232596289e-04 -8.619316487179e-04 0.0 
-8.619316487179e-04 1.905708026605e-03 0.0 
0.0 0.0 0.0 
3.065803472408e-04 -1.138361350637e-03 0.0 
-1.138361350637e-03 2.957879241924e-03 0.0 
0.0 0.0 0.0 
3.380140255318e-03 1.117931128746e-03 0.0 
1.117931128746e-03 -4.239387997064e-03 0.0 
0.0 0.0 0.0 
-7.747094487969e-04 -8.729040867157e-04 0.0 
-8.729040867157e-04 4.185061727218e-03 0.0 
0.0 0.0 0.0 
-6.730339898279e-04 -7.586920342808e-04 0.0 
-7.586920342808e-04 4.490074164106e-03 0.0 
0.0 0.0 0.0 
2.673592282883e-05 -1.654795058462e-03 0.0 
-1.654795058462e-03 2.299688140424e-03 0.0 
0.0 0.0 0.0 
1.894430371467e-03 1.642135678374e-03 0.0 
1.642135678374e-03 1.477965802764e-03 0.0 
0.0 0.0 0.0 
1.888193124234e-03 1.931206738512e-03 0.0 
1.931206738512e-03 1.443539182407e-03 0.0 
0.0 0.0 0.0 
3.925417816298e-03 -9.207827208318e-04 0.0 
-9.207827208318e-04 -3.726232865752e-03 0.0 
0.0 0.0 0.0 
3.480929730649e-03 -1.834311241100e-03 0.0 
-1.834311241100e-03 -3.437256466073e-03 0.0 
0.0 0.0 0.0 
3.263709999278e-03 -2.045153503098e-03 0.0 
-2.045153503098e-03 -3.635564300846e-03 0.0 
0.0 0.0 0.0 
2.807336162072e-03 -2.597634416616e-03 0.0 
-2.597634416616e-03 -2.822484541152e-03 0.0 
0.0 0.0 0.0 
3.049421625538e-03 -2.315472595653e-03 0.0 
-2.315472595653e-03 -2.764851326060e-03 0.0 
0.0 0.0 0.0 
2.323144976777e-03 -2.823784274595e-03 0.0 
-2.823784274595e-03 -2.107928387342e-03 0.0 
0.0 0.0 0.0 
1.962738697690e-03 -3.104608558670e-03 0.0 
-3.104608558670e-03 -1.990345045479e-03 0.0 
0.0 0.0 0.0 
1.519849524340e-03 -3.102963558707e-03 0.0 
-3.102963558707e-03 -1.256380140659e-03 0.0 
0.0 0.0 0.0 
1.841582662994e-03 -2.885939905852e-03 0.0 
-2.885939905852e-03 -1.430138090478e-03 0.0 
0.0 0.0 0.0 
1.080603291250e-03 -2.923189473651e-03 0.0 
-2.923189473651e-03 -6.540047176138e-04 0.0 
0.0 0.0 0.0 
6.108391573990e-04 -2.924770193470e-03 0.0 
-2.924770193470e-03 -3.544142126814e-04 0.0 
0.0 0.0 0.0 
3.720818441108e-04 -2.661703434238e-03 0.0 
-2.661703434238e-03 7.597542888845e-05 0.0 
0.0 0.0 0.0 
-4.755385526658e-04 -8.053383280315e-04 0.0 
-8.053383280315e-04 4.449152682621e-03 0.0 
0.0 0.0 0.0 
3.086192108126e-03 4.752022294816e-06 0.0 
4.752022294816e-06 -4.564236170720e-03 0.0 
0.0 0.0 0.0 
-1.253485499154e-03 2.147560041404e-03 0.0 
2.147560041404e-03 5.692678660079e-03 0.0 
0.0 0.0 0.0 
9.706084424607e-04 -8.239999539639e-04 0.0 
-8.239999539639e-04 2.304571734839e-03 0.0 
0.0 0.0 0.0 
1.976385876588e-03 7.930861498321e-04 0.0 
7.930861498321e-04 1.190761859500e-03 0.0 
0.0 0.0 0.0 
-1.038536421568e-03 1.223544504185e-03 0.0 
1.223544504185e-03 8.381785734001e-03 0.0 
0.0 0.0 0.0 
-1.102926305314e-03 1.056792180835e-03 0.0 
1.056792180835e-03 8.358124578286e-03 0.0 
0.0 0.0 0.0 
-1.254731044541e-03 9.376732490173e-04 0.0 
9.376732490173e-04 8.079751901302e-03 0.0 
0.0 0.0 0.0 
-1.152100125475e-03 8.971241234635e-04 0.0 
8.971241234635e-04 8.308478372247e-03 0.0 
0.0 0.0 0.0 
-9.881107309323e-04 1.009621266766e-03 0.0 
1.009621266766e-03 8.584522917157e-03 0.0 
0.0 0.0 0.0 
-1.042168358618e-03 8.556802507583e-04 0.0 
8.556802507583e-04 8.526705998672e-03 0.0 
0.0 0.0 0.0 
-1.187783833761e-03 7.475089458213e-04 0.0 
7.475089458213e-04 8.235229400582e-03 0.0 
0.0 0.0 0.0 
-1.083970045181e-03 7.121895684948e-04 0.0 
7.121895684948e-04 8.447535667390e-03 0.0 
0.0 0.0 0.0 
-1.211130312377e-03 6.098225092770e-04 0.0 
6.098225092770e-04 8.140724959186e-03 0.0 
0.0 0.0 0.0 
-1.114927283865e-03 5.809569918669e-04 0.0 
5.809569918669e-04 8.348793431569e-03 0.0 
0.0 0.0 0.0 
-9.750104342193e-04 6.738517078832e-04 0.0 
6.738517078832e-04 8.652224798543e-03 0.0 
0.0 0.0 0.0 
-1.014060389684e-03 5.475626408359e-04 0.0 
5.475626408359e-04 8.549666350015e-03 0.0 
0.0 0.0 0.0 
-1.136946655049e-03 4.628265841858e-04 0.0 
4.628265841858e-04 8.232099411336e-03 0.0 
0.0 0.0 0.0 
-1.045374062999e-03 4.335567565088e-04 0.0 
4.335567565088e-04 8.431694125837e-03 0.0 
0.0 0.0 0.0 
-1.152018440155e-03 3.582604643738e-04 0.0 
3.582604643738e-04 8.099842119536e-03 0.0 
0.0 0.0 0.0 
-1.070279179454e-03 3.326618785627e-04 0.0 
3.326618785627e-04 8.298206785144e-03 0.0 
0.0 0.0 0.0 
-9.497824725406e-04 3.982313028867e-04 0.0 
3.982313028867e-04 8.624885055549e-03 0.0 
0.0 0.0 0.0 
-2.753091868155e-04 -6.842896608206e-04 0.0 
-6.842896608206e-04 1.499760236808e-03 0.0 
0.0 0.0 0.0 
2.306729635520e-03 6.891883001787e-05 0.0 
6.891883001787e-05 3.172839313658e-04 0.0 
0.0 0.0 0.0 
1.923801106998e-03 2.023589893457e-04 0.0 
2.023589893457e-04 1.103332007739e-03 0.0 
0.0 0.0 0.0 
-1.203751552442e-03 -1.188670995874e-03 0.0 
-1.188670995874e-03 2.794126298635e-03 0.0 
0.0 0.0 0.0 
-1.260603200531e-03 -1.184163283989e-03 0.0 
-1.184163283989e-03 3.029958206330e-03 0.0 
0.0 0.0 0.0 
-1.099860839424e-03 -1.399156748750e-03 0.0 
-1.399156748750e-03 2.908803294997e-03 0.0 
0.0 0.0 0.0 
-1.273827735801e-03 -1.148033744273e-03 0.0 
-1.148033744273e-03 3.268414302651e-03 0.0 
0.0 0.0 0.0 
-9.866699824647e-04 2.993764087970e-04 0.0 
2.993764087970e-04 8.489990075009e-03 0.0 
0.0 0.0 0.0 
-8.514101408236e-04 3.554997563922e-04 0.0 
3.554997563922e-04 8.811948723300e-03 0.0 
0.0 0.0 0.0 
2.504438446502e-03 3.411833345188e-03 0.0 
3.411833345188e-03 -1.915905020995e-03 0.0 
0.0 0.0 0.0 
2.042387044472e-03 3.570789556465e-03 0.0 
3.570789556465e-03 -1.049027190124e-03 0.0 
0.0 0.0 0.0 
-9.578749463976e-04 1.396309162254e-03 0.0 
1.396309162254e-03 8.377770943328e-03 0.0 
0.0 0.0 0.0 
-8.656269697218e-04 -6.800738862443e-04 0.0 
-6.800738862443e-04 4.521518427571e-03 0.0 
0.0 0.0 0.0 
-9.818220981100e-04 -7.795717837369e-04 0.0 
-7.795717837369e-04 4.247046366022e-03 0.0 
0.0 0.0 0.0 
7.886086513436e-04 3.156210305151e-03 0.0 
3.156210305151e-03 1.453420730489e-03 0.0 
0.0 0.0 0.0 
2.952217049998e-04 3.099846178805e-03 0.0 
3.099846178805e-03 2.085919052904e-03 0.0 
0.0 0.0 0.0 
6.101625674377e-04 3.176434043815e-03 0.0 
3.176434043815e-03 1.500675876950e-03 0.0 
0.0 0.0 0.0 
1.016382216959e-04 3.049680209012e-03 0.0 
3.049680209012e-03 2.161875832849e-03 0.0 
0.0 0.0 0.0 
-1.601082890006e-04 2.937806067796e-03 0.0 
2.937806067796e-03 2.685151814955e-03 0.0 
0.0 0.0 0.0 
3.828195081836e-04 3.153837555790e-03 0.0 
3.153837555790e-03 1.605181856729e-03 0.0 
0.0 0.0 0.0 
1.690801048349e-03 -1.290770868397e-03 0.0 
-1.290770868397e-03 4.463506605618e-04 0.0 
0.0 0.0 0.0 
-8.610033858917e-04 6.303619532624e-04 0.0 
6.303619532624e-04 8.847882379752e-03 0.0 
0.0 0.0 0.0 
-3.376941144788e-04 -1.823063241449e-03 0.0 
-1.823063241449e-03 1.297774839871e-03 0.0 
0.0 0.0 0.0 
-3.258946498262e-04 -1.560888055110e-03 0.0 
-1.560888055110e-03 1.191705634870e-03 0.0 
0.0 0.0 0.0 
-7.399268087698e-04 -5.925216152607e-04 0.0 
-5.925216152607e-04 4.811011577280e-03 0.0 
0.0 0.0 0.0 
2.678121035360e-03 -9.693884582469e-05 0.0 
-9.693884582469e-05 -4.892754838954e-04 0.0 
0.0 0.0 0.0 
4.169479283766e-04 2.949237486608e-03 0.0 
2.949237486608e-03 3.314051019121e-03 0.0 
0.0 0.0 0.0 
7.526635952334e-04 2.882863454756e-03 0.0 
2.882863454756e-03 2.930782847151e-03 0.0 
0.0 0.0 0.0 
4.539314679243e-04 2.809769772444e-03 0.0 
2.809769772444e-03 3.661616496968e-03 0.0 
0.0 0.0 0.0 
7.330093901642e-04 2.717782692538e-03 0.0 
2.717782692538e-03 3.342602399936e-03 0.0 
0.0 0.0 0.0 
4.510666042791e-04 2.683762246744e-03 0.0 
2.683762246744e-03 4.052811736020e-03 0.0 
0.0 0.0 0.0 
6.684456368317e-04 2.596118981889e-03 0.0 
2.596118981889e-03 3.788396709100e-03 0.0 
0.0 0.0 0.0 
9.669182919273e-04 2.580527072720e-03 0.0 
2.580527072720e-03 3.079895586640e-03 0.0 
0.0 0.0 0.0 
1.571690574832e-03 1.847428080182e-03 0.0 
1.847428080182e-03 2.140560409248e-03 0.0 
0.0 0.0 0.0 
8.386552783192e-04 2.474628788280e-03 0.0 
2.474628788280e-03 3.586787880608e-03 0.0 
0.0 0.0 0.0 
-1.091977513416e-03 2.488351404423e-04 0.0 
2.488351404423e-04 8.146799052593e-03 0.0 
0.0 0.0 0.0 
2.628929020106e-03 1.888827543610e-03 0.0 
1.888827543610e-03 -5.444092560249e-05 0.0 
0.0 0.0 0.0 
1.356624859715e-03 -2.777504181231e-03 0.0 
-2.777504181231e-03 -8.075925452826e-04 0.0 
0.0 0.0 0.0 
-1.756805181043e-04 -7.419552050635e-04 0.0 
-7.419552050635e-04 1.272093579703e-03 0.0 
0.0 0.0 0.0 
-1.202381022771e-05 -2.437537785411e-03 0.0 
-2.437537785411e-03 3.714386213322e-04 0.0 
0.0 0.0 0.0 
-4.323649530641e-04 -5.774870051072e-04 0.0 
-5.774870051072e-04 1.742302334172e-03 0.0 
0.0 0.0 0.0 
-8.051214660918e-04 -7.317887893433e-04 0.0 
-7.317887893433e-04 2.176855043048e-03 0.0 
0.0 0.0 0.0 
1.055855002227e-03 -5.865086484515e-04 0.0 
-5.865086484515e-04 2.375061475319e-03 0.0 
0.0 0.0 0.0 
4.086269961368e-04 2.607706160382e-03 0.0 
2.607706160382e-03 4.478732126180e-03 0.0 
0.0 0.0 0.0 
2.134677370025e-04 2.649843183630e-03 0.0 
2.649843183630e-03 4.721121941272e-03 0.0 
0.0 0.0 0.0 
-3.386982411181e-04 2.821645689174e-03 0.0 
2.821645689174e-03 2.759614252362e-03 0.0 
0.0 0.0 0.0 
-5.591042646879e-04 2.681353519447e-03 0.0 
2.681353519447e-03 3.228717597923e-03 0.0 
0.0 0.0 0.0 
1.538792464475e-03 1.596403765774e-03 0.0 
1.596403765774e-03 2.195405559085e-03 0.0 
0.0 0.0 0.0 
-1.438732993772e-03 1.031658620172e-03 0.0 
1.031658620172e-03 7.595066474409e-03 0.0 
0.0 0.0 0.0 
-1.303504352468e-03 6.353833057299e-04 0.0 
6.353833057299e-04 7.926475798163e-03 0.0 
0.0 0.0 0.0 
-1.305226803935e-03 5.047490208353e-04 0.0 
5.047490208353e-04 7.813366805777e-03 0.0 
0.0 0.0 0.0 
9.266351710097e-05 -4.229025766738e-04 0.0 
-4.229025766738e-04 1.174376560079e-03 0.0 
0.0 0.0 0.0 
7.903167940659e-05 -2.771731598115e-03 0.0 
-2.771731598115e-03 7.765093989174e-05 0.0 
0.0 0.0 0.0 
-8.665749303202e-04 9.600126500362e-04 0.0 
9.600126500362e-04 8.800328313324e-03 0.0 
0.0 0.0 0.0 
2.450458221406e-03 3.378154447714e-03 0.0 
3.378154447714e-03 -1.235780496430e-03 0.0 
0.0 0.0 0.0 
1.583840821548e-03 3.568441646199e-03 0.0 
3.568441646199e-03 -3.007833207432e-04 0.0 
0.0 0.0 0.0 
2.668550346810e-03 1.295109567437e-03 0.0 
1.295109567437e-03 -4.404411623495e-03 0.0 
0.0 0.0 0.0 
2.389705037487e-03 4.479723169257e-05 0.0 
4.479723169257e-05 -4.751132502210e-03 0.0 
0.0 0.0 0.0 
-8.988618606939e-04 2.611277971713e-04 0.0 
2.611277971713e-04 8.674666627726e-03 0.0 
0.0 0.0 0.0 
-7.534800864033e-04 3.036190842743e-04 0.0 
3.036190842743e-04 8.987015750908e-03 0.0 
0.0 0.0 0.0 
-1.086165792820e-03 -1.336687114367e-03 0.0 
-1.336687114367e-03 3.139131451736e-03 0.0 
0.0 0.0 0.0 
-1.242029336949e-03 -1.081039837897e-03 0.0 
-1.081039837897e-03 3.502409564988e-03 0.0 
0.0 0.0 0.0 
1.365659014267e-03 -4.803437087922e-04 0.0 
-4.803437087922e-04 1.840440385670e-03 0.0 
0.0 0.0 0.0 
-8.014543065860e-05 -2.240934216029e-03 0.0 
-2.240934216029e-03 6.070295998554e-04 0.0 
0.0 0.0 0.0 
-6.896767447743e-04 4.086330452056e-04 0.0 
4.086330452056e-04 9.111533643113e-03 0.0 
0.0 0.0 0.0 
2.345949029240e-03 -3.538674849264e-04 0.0 
-3.538674849264e-04 1.105731688448e-05 0.0 
0.0 0.0 0.0 
2.666437398453e-03 -5.814212881297e-04 0.0 
-5.814212881297e-04 -7.732695519284e-04 0.0 
0.0 0.0 0.0 
-1.422092275063e-03 -9.187111205394e-04 0.0 
-9.187111205394e-04 3.359505149055e-03 0.0 
0.0 0.0 0.0 
1.457948443674e-03 3.706082405126e-03 0.0 
3.706082405126e-03 -7.687781113343e-04 0.0 
0.0 0.0 0.0 
1.833569219936e-03 3.611169401325e-03 0.0 
3.611169401325e-03 -1.702328781129e-03 0.0 
0.0 0.0 0.0 
2.021905187846e-03 -2.639754659543e-03 0.0 
-2.639754659543e-03 -1.486214971360e-03 0.0 
0.0 0.0 0.0 
1.905570162987e-04 -2.463750956832e-03 0.0 
-2.463750956832e-03 4.355088871765e-04 0.0 
0.0 0.0 0.0 
-6.078310629378e-04 -4.745655611194e-04 0.0 
-4.745655611194e-04 2.002021250126e-03 0.0 
0.0 0.0 0.0 
1.067060716468e-03 -3.311400297456e-04 0.0 
-3.311400297456e-04 2.521949859796e-03 0.0 
0.0 0.0 0.0 
-7.953673626205e-04 1.116347338821e-03 0.0 
1.116347338821e-03 8.842524173861e-03 0.0 
0.0 0.0 0.0 
1.137484037352e-03 2.406210449583e-03 0.0 
2.406210449583e-03 2.890078883187e-03 0.0 
0.0 0.0 0.0 
1.296941206345e-03 2.552098549471e-03 0.0 
2.552098549471e-03 2.342223860814e-03 0.0 
0.0 0.0 0.0 
9.450248935328e-04 2.321089841015e-03 0.0 
2.321089841015e-03 3.447758777839e-03 0.0 
0.0 0.0 0.0 
-3.387314093699e-04 -1.889567131590e-03 0.0 
-1.889567131590e-03 7.694294277008e-04 0.0 
0.0 0.0 0.0 
7.616749870416e-04 -6.678823116037e-04 0.0 
-6.678823116037e-04 2.920693139414e-03 0.0 
0.0 0.0 0.0 
-9.153268852575e-04 -4.955413880737e-04 0.0 
-4.955413880737e-04 4.805498035654e-03 0.0 
0.0 0.0 0.0 
1.895148523535e-04 2.623125090425e-03 0.0 
2.623125090425e-03 5.116255626001e-03 0.0 
0.0 0.0 0.0 
2.180698544720e-05 2.619809287877e-03 0.0 
2.619809287877e-03 5.343750111213e-03 0.0 
0.0 0.0 0.0 
1.969950423428e-03 3.433777989702e-03 0.0 
3.433777989702e-03 -5.248932433212e-04 0.0 
0.0 0.0 0.0 
1.136267246274e-03 3.462309429052e-03 0.0 
3.462309429052e-03 3.631763243951e-04 0.0 
0.0 0.0 0.0 
7.055057996446e-04 3.490055293388e-03 0.0 
3.490055293388e-03 6.687675311685e-04 0.0 
0.0 0.0 0.0 
3.849319173667e-04 3.288869383025e-03 0.0 
3.288869383025e-03 1.247083708687e-03 0.0 
0.0 0.0 0.0 
-1.481929661980e-03 1.795758692192e-03 0.0 
1.795758692192e-03 6.306585772300e-03 0.0 
0.0 0.0 0.0 
1.463591503441e-03 3.389784921231e-03 0.0 
3.389784921231e-03 1.563576020612e-04 0.0 
0.0 0.0 0.0 
-1.149184480523e-03 2.262472679223e-03 0.0 
2.262472679223e-03 5.241339973912e-03 0.0 
0.0 0.0 0.0 
-1.357808520908e-03 2.002776316577e-03 0.0 
2.002776316577e-03 5.511568925518e-03 0.0 
0.0 0.0 0.0 
-1.254735829225e-03 2.118512919658e-03 0.0 
2.118512919658e-03 5.083735621398e-03 0.0 
0.0 0.0 0.0 
-4.147135557725e-04 2.802420100625e-03 0.0 
2.802420100625e-03 3.209319731849e-03 0.0 
0.0 0.0 0.0 
-7.693738716925e-04 2.530062498087e-03 0.0 
2.530062498087e-03 3.695414376381e-03 0.0 
0.0 0.0 0.0 
3.420514741945e-03 2.730542408104e-03 0.0 
2.730542408104e-03 -2.055817521480e-03 0.0 
0.0 0.0 0.0 
3.468536825430e-03 1.654633230549e-03 0.0 
1.654633230549e-03 -1.619867636145e-03 0.0 
0.0 0.0 0.0 
-8.816914319426e-04 -1.581673060671e-03 0.0 
-1.581673060671e-03 2.726167135525e-03 0.0 
0.0 0.0 0.0 
-5.273097459492e-04 -1.444242353114e-03 0.0 
-1.444242353114e-03 3.039325658832e-03 0.0 
0.0 0.0 0.0 
1.485387424643e-03 -1.778300868258e-03 0.0 
-1.778300868258e-03 1.132659105847e-04 0.0 
0.0 0.0 0.0 
-8.048707096907e-04 7.638825241829e-04 0.0 
7.638825241829e-04 8.935467662430e-03 0.0 
0.0 0.0 0.0 
-6.788429418286e-04 7.099863315285e-04 0.0 
7.099863315285e-04 9.127550396647e-03 0.0 
0.0 0.0 0.0 
-1.230272084473e-03 3.771219620759e-04 0.0 
3.771219620759e-04 7.894486035262e-03 0.0 
0.0 0.0 0.0 
-1.228812578955e-03 2.799903581942e-04 0.0 
2.799903581942e-04 7.746337215231e-03 0.0 
0.0 0.0 0.0 
-2.958441145594e-04 -1.152933155492e-03 0.0 
-1.152933155492e-03 1.195896186909e-03 0.0 
0.0 0.0 0.0 
-2.882937256777e-04 -1.220660731390e-03 0.0 
-1.220660731390e-03 1.053387412519e-03 0.0 
0.0 0.0 0.0 
3.479596717555e-04 -1.988974159523e-03 0.0 
-1.988974159523e-03 1.368021192054e-03 0.0 
0.0 0.0 0.0 
6.705181677983e-04 -8.492335977487e-04 0.0 
-8.492335977487e-04 2.863313754285e-03 0.0 
0.0 0.0 0.0 
-8.415252422846e-04 1.336893782343e-03 0.0 
1.336893782343e-03 8.629154946050e-03 0.0 
0.0 0.0 0.0 
-7.477931597155e-04 1.513192403556e-03 0.0 
1.513192403556e-03 8.614444582422e-03 0.0 
0.0 0.0 0.0 
-8.629198809069e-04 1.573358502570e-03 0.0 
1.573358502570e-03 8.347788097203e-03 0.0 
0.0 0.0 0.0 
1.357828302573e-03 -1.806035243791e-04 0.0 
-1.806035243791e-04 2.025144596700e-03 0.0 
0.0 0.0 0.0 
4.403598834950e-03 7.860850680938e-04 0.0 
7.860850680938e-04 -3.322795010156e-03 0.0 
0.0 0.0 0.0 
3.441258553309e-03 1.415482054475e-04 0.0 
1.415482054475e-04 -1.782918836602e-03 0.0 
0.0 0.0 0.0 
2.725681280979e-03 -1.265232223958e-03 0.0 
-1.265232223958e-03 -4.591194419579e-03 0.0 
0.0 0.0 0.0 
1.454024997386e-03 2.912176967471e-03 0.0 
2.912176967471e-03 1.398416050115e-03 0.0 
0.0 0.0 0.0 
-1.005501600976e-04 -8.533792087970e-04 0.0 
-8.533792087970e-04 9.155357283436e-04 0.0 
0.0 0.0 0.0 
-4.891700068145e-04 2.546775250418e-03 0.0 
2.546775250418e-03 5.543313262866e-03 0.0 
0.0 0.0 0.0 
-7.658111081514e-04 -4.327288337829e-04 0.0 
-4.327288337829e-04 5.084088919601e-03 0.0 
0.0 0.0 0.0 
-6.059101811811e-04 -5.277586416267e-04 0.0 
-5.277586416267e-04 5.106552855097e-03 0.0 
0.0 0.0 0.0 
1.241052517020e-03 1.806189446571e-03 0.0 
1.806189446571e-03 2.817444474063e-03 0.0 
0.0 0.0 0.0 
-1.683007779719e-03 1.380300003629e-03 0.0 
1.380300003629e-03 6.214780094711e-03 0.0 
0.0 0.0 0.0 
1.790382392548e-03 2.708552288781e-03 0.0 
2.708552288781e-03 1.054091575321e-03 0.0 
0.0 0.0 0.0 
2.231949193333e-03 2.603898080860e-03 0.0 
2.603898080860e-03 2.499105378263e-04 0.0 
0.0 0.0 0.0 
-1.438849428810e-03 1.832335353496e-03 0.0 
1.832335353496e-03 5.334620346217e-03 0.0 
0.0 0.0 0.0 
-1.335657839379e-03 1.945185059457e-03 0.0 
1.945185059457e-03 4.940320623734e-03 0.0 
0.0 0.0 0.0 
-1.123297596375e-03 2.243104926839e-03 0.0 
2.243104926839e-03 4.639084235802e-03 0.0 
0.0 0.0 0.0 
-1.206785748794e-03 2.073283957543e-03 0.0 
2.073283957543e-03 4.523020368504e-03 0.0 
0.0 0.0 0.0 
1.508047317180e-03 -2.578730478384e-03 0.0 
-2.578730478384e-03 -8.165919154859e-04 0.0 
0.0 0.0 0.0 
9.489033416163e-04 -2.632869770783e-03 0.0 
-2.632869770783e-03 -2.326809247812e-04 0.0 
0.0 0.0 0.0 
3.238939257393e-04 2.599541317946e-03 0.0 
2.599541317946e-03 4.972891923123e-03 0.0 
0.0 0.0 0.0 
6.785539662075e-04 2.444330985822e-03 0.0 
2.444330985822e-03 4.105448444499e-03 0.0 
0.0 0.0 0.0 
3.932333972068e-05 2.638607912477e-03 0.0 
2.638607912477e-03 5.712042079197e-03 0.0 
0.0 0.0 0.0 
-1.106497275739e-04 2.601233979920e-03 0.0 
2.601233979920e-03 5.934501206409e-03 0.0 
0.0 0.0 0.0 
1.172101460510e-03 1.581961708388e-03 0.0 
1.581961708388e-03 2.897554762945e-03 0.0 
0.0 0.0 0.0 
1.459150928605e-03 1.346639136911e-03 0.0 
1.346639136911e-03 2.308381996943e-03 0.0 
0.0 0.0 0.0 
-9.723711580870e-04 -5.785356609605e-04 0.0 
-5.785356609605e-04 2.431707826033e-03 0.0 
0.0 0.0 0.0 
-8.821256292347e-04 2.353980943604e-03 0.0 
2.353980943604e-03 3.683042433542e-03 0.0 
0.0 0.0 0.0 
-6.620731353996e-04 1.059198399205e-03 0.0 
1.059198399205e-03 9.056895942525e-03 0.0 
0.0 0.0 0.0 
-1.519618850278e-03 1.729014935259e-03 0.0 
1.729014935259e-03 5.720057506717e-03 0.0 
0.0 0.0 0.0 
4.936315893080e-04 -7.262806819778e-04 0.0 
-7.262806819778e-04 3.432349719131e-03 0.0 
0.0 0.0 0.0 
4.080325711879e-04 -8.533514238351e-04 0.0 
-8.533514238351e-04 3.403182750193e-03 0.0 
0.0 0.0 0.0 
1.775568879555e-03 -1.137816110918e-03 0.0 
-1.137816110918e-03 -4.653651515049e-03 0.0 
0.0 0.0 0.0 
1.984245040732e-03 -2.659653960134e-03 0.0 
-2.659653960134e-03 -3.874600044591e-03 0.0 
0.0 0.0 0.0 
-5.811262209131e-04 3.441319268929e-04 0.0 
3.441319268929e-04 9.283343325380e-03 0.0 
0.0 0.0 0.0 
-1.246398535657e-05 3.194254275670e-03 0.0 
3.194254275670e-03 1.584584412966e-03 0.0 
0.0 0.0 0.0 
-1.934920853206e-04 2.967419638445e-03 0.0 
2.967419638445e-03 2.048276469644e-03 0.0 
0.0 0.0 0.0 
2.125157064404e-04 3.418804689205e-03 0.0 
3.418804689205e-03 1.046210615408e-03 0.0 
0.0 0.0 0.0 
-4.273328818495e-04 -1.309574757536e-04 0.0 
-1.309574757536e-04 5.750823498737e-03 0.0 
0.0 0.0 0.0 
-1.188299602957e-03 2.834603506161e-05 0.0 
2.834603506161e-05 7.004560488953e-03 0.0 
0.0 0.0 0.0 
-5.948584592720e-04 -3.918450916693e-04 0.0 
-3.918450916693e-04 5.360825196351e-03 0.0 
0.0 0.0 0.0 
-6.510137573399e-04 2.659791742976e-03 0.0 
2.659791742976e-03 3.741380256616e-03 0.0 
0.0 0.0 0.0 
-5.010762498065e-04 4.611326110226e-04 0.0 
4.611326110226e-04 9.398572151178e-03 0.0 
0.0 0.0 0.0 
2.049779992337e-03 2.423838481655e-03 0.0 
2.423838481655e-03 8.296238493982e-04 0.0 
0.0 0.0 0.0 
1.193024884176e-03 3.214565525916e-03 0.0 
3.214565525916e-03 7.888049793529e-04 0.0 
0.0 0.0 0.0 
1.683578505547e-03 -3.388414398178e-04 0.0 
-3.388414398178e-04 1.307151340499e-03 0.0 
0.0 0.0 0.0 
-6.665275550315e-04 2.258868445097e-04 0.0 
2.258868445097e-04 9.141380252249e-03 0.0 
0.0 0.0 0.0 
-4.664486910602e-04 2.702445355738e-04 0.0 
2.702445355738e-04 9.454305297768e-03 0.0 
0.0 0.0 0.0 
-1.385644199753e-03 5.236941964868e-04 0.0 
5.236941964868e-04 7.596935618561e-03 0.0 
0.0 0.0 0.0 
-1.374912600935e-03 3.958199025264e-04 0.0 
3.958199025264e-04 7.456985741511e-03 0.0 
0.0 0.0 0.0 
-1.391096266083e-03 6.593999508400e-04 0.0 
6.593999508400e-04 7.695698881821e-03 0.0 
0.0 0.0 0.0 
3.015797178480e-03 2.325165693151e-03 0.0 
2.325165693151e-03 -3.776038134827e-03 0.0 
0.0 0.0 0.0 
2.000766503179e-03 2.693893031947e-03 0.0 
2.693893031947e-03 -3.614528458763e-03 0.0 
0.0 0.0 0.0 
-7.435428686877e-04 5.793025263624e-04 0.0 
5.793025263624e-04 9.036402164702e-03 0.0 
0.0 0.0 0.0 
-1.093401073188e-03 -1.125990791792e-03 0.0 
-1.125990791792e-03 2.551445449068e-03 0.0 
0.0 0.0 0.0 
-1.286663864183e-03 -9.059235049536e-04 0.0 
-9.059235049536e-04 2.888759585662e-03 0.0 
0.0 0.0 0.0 
-1.410997516001e-04 -2.098876765468e-03 0.0 
-2.098876765468e-03 8.347003516737e-04 0.0 
0.0 0.0 0.0 
3.903606286293e-05 -2.312577224346e-03 0.0 
-2.312577224346e-03 7.543337340222e-04 0.0 
0.0 0.0 0.0 
-8.520421968625e-04 -1.488605187360e-03 0.0 
-1.488605187360e-03 2.964302552890e-03 0.0 
0.0 0.0 0.0 
-6.171381999719e-04 -1.720299304428e-03 0.0 
-1.720299304428e-03 2.499099889702e-03 0.0 
0.0 0.0 0.0 
-2.444898085138e-04 2.619410072614e-03 0.0 
2.619410072614e-03 5.261162788087e-03 0.0 
0.0 0.0 0.0 
-3.745383360756e-04 2.529335526663e-03 0.0 
2.529335526663e-03 5.817451704861e-03 0.0 
0.0 0.0 0.0 
1.495396154689e-04 2.846340565708e-03 0.0 
2.846340565708e-03 4.011162323064e-03 0.0 
0.0 0.0 0.0 
2.280874793003e-03 -7.992469422984e-04 0.0 
-7.992469422984e-04 -1.832759603502e-04 0.0 
0.0 0.0 0.0 
2.511441378384e-03 -1.023784807099e-03 0.0 
-1.023784807099e-03 -8.590724130806e-04 0.0 
0.0 0.0 0.0 
2.937949649767e-03 -7.343424959652e-04 0.0 
-7.343424959652e-04 -1.404739683081e-03 0.0 
0.0 0.0 0.0 
-6.050855108430e-04 8.466632198951e-04 0.0 
8.466632198951e-04 9.191949812048e-03 0.0 
0.0 0.0 0.0 
-4.506761531746e-04 7.899426879339e-04 0.0 
7.899426879339e-04 9.402879411680e-03 0.0 
0.0 0.0 0.0 
2.087964247315e-03 -2.395474989705e-03 0.0 
-2.395474989705e-03 -1.397672473484e-03 0.0 
0.0 0.0 0.0 
2.652099762756e-03 -2.302598455912e-03 0.0 
-2.302598455912e-03 -2.076819114005e-03 0.0 
0.0 0.0 0.0 
1.089272050966e-03 -2.528956681883e-03 0.0 
-2.528956681883e-03 -2.340180725573e-04 0.0 
0.0 0.0 0.0 
-5.767209939190e-04 1.220997594644e-03 0.0 
1.220997594644e-03 9.086974475152e-03 0.0 
0.0 0.0 0.0 
-4.497338517858e-04 -4.981026550024e-04 0.0 
-4.981026550024e-04 5.392698438384e-03 0.0 
0.0 0.0 0.0 
-4.397199380328e-04 -6.081298889557e-04 0.0 
-6.081298889557e-04 5.118236961533e-03 0.0 
0.0 0.0 0.0 
-1.369080776447e-04 -8.656405939382e-04 0.0 
-8.656405939382e-04 8.006508044926e-04 0.0 
0.0 0.0 0.0 
-3.038692056435e-04 -1.274010940740e-03 0.0 
-1.274010940740e-03 9.443823574017e-04 0.0 
0.0 0.0 0.0 
7.793847332454e-04 3.765295609057e-03 0.0 
3.765295609057e-03 -3.794324202303e-04 0.0 
0.0 0.0 0.0 
1.059246264273e-03 3.782812852190e-03 0.0 
3.782812852190e-03 -1.332266018546e-03 0.0 
0.0 0.0 0.0 
-6.377822637488e-04 1.689560780581e-03 0.0 
1.689560780581e-03 8.564300734459e-03 0.0 
0.0 0.0 0.0 
-7.553300236188e-04 1.756724201103e-03 0.0 
1.756724201103e-03 8.291433023787e-03 0.0 
0.0 0.0 0.0 
-4.973815292633e-04 1.638929524692e-03 0.0 
1.638929524692e-03 8.844176166110e-03 0.0 
0.0 0.0 0.0 
-7.382574742025e-04 -3.283525841488e-04 0.0 
-3.283525841488e-04 2.208693263116e-03 0.0 
0.0 0.0 0.0 
1.464310752091e-03 2.330285413616e-03 0.0 
2.330285413616e-03 2.188337207975e-03 0.0 
0.0 0.0 0.0 
1.009642917190e-03 -6.054584328124e-05 0.0 
-6.054584328124e-05 2.716057173889e-03 0.0 
0.0 0.0 0.0 
1.293977524326e-03 1.229882439011e-04 0.0 
1.229882439011e-04 2.285159663539e-03 0.0 
0.0 0.0 0.0 
7.087503104764e-04 -2.297370907451e-04 0.0 
-2.297370907451e-04 3.280927305267e-03 0.0 
0.0 0.0 0.0 
1.264959501134e-03 2.016355685684e-03 0.0 
2.016355685684e-03 2.781371007756e-03 0.0 
0.0 0.0 0.0 
9.411704610424e-04 1.984693842194e-03 0.0 
1.984693842194e-03 3.414856995852e-03 0.0 
0.0 0.0 0.0 
6.975420770440e-04 2.303297783443e-03 0.0 
2.303297783443e-03 4.029773871548e-03 0.0 
0.0 0.0 0.0 
1.190128822540e-03 1.085372770924e-04 0.0 
1.085372770924e-04 -4.724418052525e-03 0.0 
0.0 0.0 0.0 
-5.183615966359e-04 1.689369239287e-04 0.0 
1.689369239287e-04 9.369161873407e-03 0.0 
0.0 0.0 0.0 
-1.293686373955e-03 2.841064203908e-04 0.0 
2.841064203908e-04 7.517539686317e-03 0.0 
0.0 0.0 0.0 
2.659774319829e-04 -6.015842521306e-04 0.0 
-6.015842521306e-04 -4.437997121574e-03 0.0 
0.0 0.0 0.0 
-1.273120859146e-03 2.035475988069e-04 0.0 
2.035475988069e-04 7.356570589440e-03 0.0 
0.0 0.0 0.0 
-1.223186789976e-03 2.015085729584e-04 0.0 
2.015085729584e-04 7.581077867570e-03 0.0 
0.0 0.0 0.0 
-1.258272270041e-03 1.357487197558e-04 0.0 
1.357487197558e-04 7.160545612931e-03 0.0 
0.0 0.0 0.0 
-2.732833250979e-04 -2.657581270049e-04 0.0 
-2.657581270049e-04 1.696690953065e-03 0.0 
0.0 0.0 0.0 
-1.473045443820e-03 5.223914208460e-04 0.0 
5.223914208460e-04 7.316643787166e-03 0.0 
0.0 0.0 0.0 
-1.480541548841e-03 6.940097959012e-04 0.0 
6.940097959012e-04 7.463067767930e-03 0.0 
0.0 0.0 0.0 
-1.556180438008e-04 -7.479845139069e-04 0.0 
-7.479845139069e-04 6.284354979414e-04 0.0 
0.0 0.0 0.0 
-4.199791299602e-04 1.147308929131e-03 0.0 
1.147308929131e-03 9.290700324551e-03 0.0 
0.0 0.0 0.0 
2.088700125863e-04 -5.905161806492e-04 0.0 
-5.905161806492e-04 5.175136777209e-04 0.0 
0.0 0.0 0.0 
2.615611226132e-04 -6.085747787707e-04 0.0 
-6.085747787707e-04 6.424009285322e-04 0.0 
0.0 0.0 0.0 
2.974415990488e-04 -7.621954133177e-04 0.0 
-7.621954133177e-04 3.928741470701e-03 0.0 
0.0 0.0 0.0 
1.995168196302e-04 -8.449559412863e-04 0.0 
-8.449559412863e-04 3.901339421265e-03 0.0 
0.0 0.0 0.0 
1.262114581454e-04 -7.884968729603e-04 0.0 
-7.884968729603e-04 4.365126741303e-03 0.0 
0.0 0.0 0.0 
3.417859638636e-05 -8.174163981132e-04 0.0 
-8.174163981132e-04 4.334099925720e-03 0.0 
0.0 0.0 0.0 
4.943330680581e-05 -9.047672419790e-04 0.0 
-9.047672419790e-04 3.916969417556e-03 0.0 
0.0 0.0 0.0 
-1.100260270744e-04 -8.337654431084e-04 0.0 
-8.337654431084e-04 4.370541264986e-03 0.0 
0.0 0.0 0.0 
-1.361073898259e-03 2.900834355416e-04 0.0 
2.900834355416e-04 7.293284367793e-03 0.0 
0.0 0.0 0.0 
-6.719717597059e-05 -7.859018876123e-04 0.0 
-7.859018876123e-04 4.790111224702e-03 0.0 
0.0 0.0 0.0 
-2.151417946399e-04 -7.532809502107e-04 0.0 
-7.532809502107e-04 4.783193509580e-03 0.0 
0.0 0.0 0.0 
-1.365588939072e-04 -7.517038578458e-04 0.0 
-7.517038578458e-04 5.180559138138e-03 0.0 
0.0 0.0 0.0 
-1.395344491971e-03 1.734805742825e-03 0.0 
1.734805742825e-03 4.809197037305e-03 0.0 
0.0 0.0 0.0 
1.161290970503e-04 3.099069380214e-03 0.0 
3.099069380214e-03 1.781316743704e-03 0.0 
0.0 0.0 0.0 
-3.686045106368e-04 2.775255862767e-03 0.0 
2.775255862767e-03 2.474594767751e-03 0.0 
0.0 0.0 0.0 
-6.230237283856e-04 2.480814576481e-03 0.0 
2.480814576481e-03 2.716990751888e-03 0.0 
0.0 0.0 0.0 
-6.107229290407e-05 2.668533491804e-03 0.0 
2.668533491804e-03 6.344362405370e-03 0.0 
0.0 0.0 0.0 
-2.008548614220e-04 2.584834224824e-03 0.0 
2.584834224824e-03 6.450169165059e-03 0.0 
0.0 0.0 0.0 
-9.139903546950e-04 -3.194824870196e-04 0.0 
-3.194824870196e-04 5.046287425031e-03 0.0 
0.0 0.0 0.0 
-1.067539608776e-03 -3.596967485790e-04 0.0 
-3.596967485790e-04 4.786476978716e-03 0.0 
0.0 0.0 0.0 
-1.219403251163e-03 1.319676961232e-04 0.0 
1.319676961232e-04 7.385023917109e-03 0.0 
0.0 0.0 0.0 
-1.192630936128e-03 8.987373303291e-05 0.0 
8.987373303291e-05 7.366650325881e-03 0.0 
0.0 0.0 0.0 
-1.161268831283e-03 1.440024229870e-04 0.0 
1.440024229870e-04 7.714084853449e-03 0.0 
0.0 0.0 0.0 
-1.147173763036e-03 9.552182040224e-05 0.0 
9.552182040224e-05 7.672152646038e-03 0.0 
0.0 0.0 0.0 
-1.096392830119e-03 1.456930381361e-04 0.0 
1.456930381361e-04 8.006781361022e-03 0.0 
0.0 0.0 0.0 
-1.089687156011e-03 8.668881319027e-05 0.0 
8.668881319027e-05 7.958358778626e-03 0.0 
0.0 0.0 0.0 
-1.018612728558e-03 1.333762269079e-04 0.0 
1.333762269079e-04 8.288479400974e-03 0.0 
0.0 0.0 0.0 
4.481599800714e-04 2.475778948230e-03 0.0 
2.475778948230e-03 4.721488029184e-03 0.0 
0.0 0.0 0.0 
-4.280244723891e-04 2.991995596750e-03 0.0 
2.991995596750e-03 1.955149331762e-03 0.0 
0.0 0.0 0.0 
-1.576865413640e-03 1.534279565545e-03 0.0 
1.534279565545e-03 5.527143402376e-03 0.0 
0.0 0.0 0.0 
1.049660419402e-03 1.346344561470e-03 0.0 
1.346344561470e-03 3.028227234732e-03 0.0 
0.0 0.0 0.0 
1.338617448391e-03 1.100377947663e-03 0.0 
1.100377947663e-03 2.443119223305e-03 0.0 
0.0 0.0 0.0 
-1.049922877617e-03 2.209739700029e-03 0.0 
2.209739700029e-03 4.097884090581e-03 0.0 
0.0 0.0 0.0 
-1.123871074774e-03 1.981075126430e-03 0.0 
1.981075126430e-03 4.050224280023e-03 0.0 
0.0 0.0 0.0 
4.944839689599e-04 -5.732342508648e-04 0.0 
-5.732342508648e-04 3.627456573768e-03 0.0 
0.0 0.0 0.0 
2.234278541044e-03 3.299340599331e-03 0.0 
3.299340599331e-03 -6.499478225233e-04 0.0 
0.0 0.0 0.0 
-2.870737609390e-04 1.333236501518e-03 0.0 
1.333236501518e-03 9.325826982384e-03 0.0 
0.0 0.0 0.0 
-1.288900510369e-03 2.322558440107e-03 0.0 
2.322558440107e-03 -2.896156321179e-03 0.0 
0.0 0.0 0.0 
5.582706458583e-04 2.339536244291e-03 0.0 
2.339536244291e-03 -3.591383722704e-03 0.0 
0.0 0.0 0.0 
1.691539751062e-03 3.301591394391e-03 0.0 
3.301591394391e-03 5.705403975520e-05 0.0 
0.0 0.0 0.0 
-9.627661819921e-04 2.381646966677e-03 0.0 
2.381646966677e-03 4.171160670969e-03 0.0 
0.0 0.0 0.0 
-1.204385734867e-04 2.944888381206e-03 0.0 
2.944888381206e-03 2.283889058058e-03 0.0 
0.0 0.0 0.0 
-5.269519238282e-04 2.650345274625e-03 0.0 
2.650345274625e-03 2.857804893068e-03 0.0 
0.0 0.0 0.0 
1.997972330369e-03 -5.433901053227e-04 0.0 
-5.433901053227e-04 5.637459278619e-04 0.0 
0.0 0.0 0.0 
-3.471246509518e-04 -1.337825194079e-03 0.0 
-1.337825194079e-03 8.539025084652e-04 0.0 
0.0 0.0 0.0 
4.627621414402e-04 3.616703806897e-03 0.0 
3.616703806897e-03 3.967581592748e-04 0.0 
0.0 0.0 0.0 
-1.027623437684e-03 2.109808786099e-04 0.0 
2.109808786099e-04 8.320528878819e-03 0.0 
0.0 0.0 0.0 
-2.464917999029e-04 3.498715663026e-03 0.0 
3.498715663026e-03 8.552799389832e-04 0.0 
0.0 0.0 0.0 
-1.035016728461e-03 -1.711899867575e-04 0.0 
-1.711899867575e-04 4.996469824815e-03 0.0 
0.0 0.0 0.0 
2.939728153114e-03 3.011227912928e-03 0.0 
3.011227912928e-03 -1.376842388298e-03 0.0 
0.0 0.0 0.0 
-2.815548708284e-04 2.882591321505e-03 0.0 
2.882591321505e-03 3.247287743239e-03 0.0 
0.0 0.0 0.0 
1.065936828315e-03 3.637993457513e-03 0.0 
3.637993457513e-03 9.443359647846e-06 0.0 
0.0 0.0 0.0 
7.196669109896e-04 3.302291005917e-03 0.0 
3.302291005917e-03 9.969335506784e-04 0.0 
0.0 0.0 0.0 
-1.317107508378e-03 2.031040589003e-03 0.0 
2.031040589003e-03 6.116139026459e-03 0.0 
0.0 0.0 0.0 
-1.606463064206e-03 1.553867902419e-03 0.0 
1.553867902419e-03 6.445230001648e-03 0.0 
0.0 0.0 0.0 
-1.579823089664e-03 1.638634694335e-03 0.0 
1.638634694335e-03 6.093705782185e-03 0.0 
0.0 0.0 0.0 
3.536198654309e-03 2.564543053631e-03 0.0 
2.564543053631e-03 -1.990620329946e-03 0.0 
0.0 0.0 0.0 
-7.065072906864e-04 2.499413094691e-03 0.0 
2.499413094691e-03 3.290258709516e-03 0.0 
0.0 0.0 0.0 
-8.346115697622e-04 2.208963213610e-03 0.0 
2.208963213610e-03 3.341510487234e-03 0.0 
0.0 0.0 0.0 
-8.945674909299e-04 2.498215517312e-03 0.0 
2.498215517312e-03 4.914982911010e-03 0.0 
0.0 0.0 0.0 
-9.608785404709e-04 1.635438294181e-03 0.0 
1.635438294181e-03 8.060037605767e-03 0.0 
0.0 0.0 0.0 
-8.461717729291e-04 1.813694919887e-03 0.0 
1.813694919887e-03 7.985341057071e-03 0.0 
0.0 0.0 0.0 
-6.371704644559e-04 1.927212788647e-03 0.0 
1.927212788647e-03 8.198946116813e-03 0.0 
0.0 0.0 0.0 
-7.238319176849e-04 1.986258113711e-03 0.0 
1.986258113711e-03 7.882807541944e-03 0.0 
0.0 0.0 0.0 
-9.181347807414e-04 1.879097466800e-03 0.0 
1.879097466800e-03 7.655517782507e-03 0.0 
0.0 0.0 0.0 
-7.824550858928e-04 2.047267636762e-03 0.0 
2.047267636762e-03 7.533142226905e-03 0.0 
0.0 0.0 0.0 
-5.834709213769e-04 2.150199442930e-03 0.0 
2.150199442930e-03 7.768469073306e-03 0.0 
0.0 0.0 0.0 
-6.313913098509e-04 2.210969615225e-03 0.0 
2.210969615225e-03 7.393003286823e-03 0.0 
0.0 0.0 0.0 
-4.188469508323e-04 2.333453992312e-03 0.0 
2.333453992312e-03 7.687552533214e-03 0.0 
0.0 0.0 0.0 
-4.792032667735e-04 2.358804187161e-03 0.0 
2.358804187161e-03 7.219459893844e-03 0.0 
0.0 0.0 0.0 
-6.471519135199e-04 2.271891699229e-03 0.0 
2.271891699229e-03 6.968642053704e-03 0.0 
0.0 0.0 0.0 
-4.865389949473e-04 2.398709579178e-03 0.0 
2.398709579178e-03 6.779055987227e-03 0.0 
0.0 0.0 0.0 
-3.519864252226e-04 2.485661301970e-03 0.0 
2.485661301970e-03 7.014194370408e-03 0.0 
0.0 0.0 0.0 
-6.365295482674e-04 2.345232388449e-03 0.0 
2.345232388449e-03 6.524118904228e-03 0.0 
0.0 0.0 0.0 
7.328153436198e-04 1.597865267271e-03 0.0 
1.597865267271e-03 3.605945321366e-03 0.0 
0.0 0.0 0.0 
1.838535930091e-03 3.170089365553e-03 0.0 
3.170089365553e-03 4.850970870248e-05 0.0 
0.0 0.0 0.0 
1.688970173695e-03 1.271171378137e-03 0.0 
1.271171378137e-03 -4.401359839027e-03 0.0 
0.0 0.0 0.0 
9.285330740462e-04 3.547909087043e-03 0.0 
3.547909087043e-03 -2.763969384494e-03 0.0 
0.0 0.0 0.0 
-5.251746462322e-04 2.755889587068e-03 0.0 
2.755889587068e-03 3.827422945048e-03 0.0 
0.0 0.0 0.0 
-2.219539275361e-04 2.404747242909e-03 0.0 
2.404747242909e-03 8.081062786832e-03 0.0 
0.0 0.0 0.0 
-2.611628730908e-04 2.102602211699e-03 0.0 
2.102602211699e-03 8.592268202319e-03 0.0 
0.0 0.0 0.0 
3.222181879368e-03 2.934103785865e-03 0.0 
2.934103785865e-03 -2.064052637560e-03 0.0 
0.0 0.0 0.0 
-4.292954062309e-06 2.789111011980e-03 0.0 
2.789111011980e-03 6.544753729546e-03 0.0 
0.0 0.0 0.0 
-1.438369037567e-03 1.896627169897e-03 0.0 
1.896627169897e-03 5.920416451006e-03 0.0 
0.0 0.0 0.0 
3.513561288055e-03 2.060612667431e-03 0.0 
2.060612667431e-03 -3.643290046848e-03 0.0 
0.0 0.0 0.0 
1.219611161579e-04 2.717416725595e-03 0.0 
2.717416725595e-03 5.828500635970e-03 0.0 
0.0 0.0 0.0 
-1.041363075872e-03 1.702376503804e-03 0.0 
1.702376503804e-03 7.753165292485e-03 0.0 
0.0 0.0 0.0 
-1.103981584811e-03 1.775321404210e-03 0.0 
1.775321404210e-03 7.424040294752e-03 0.0 
0.0 0.0 0.0 
-1.220082398227e-03 1.592070964668e-03 0.0 
1.592070964668e-03 7.517108692318e-03 0.0 
0.0 0.0 0.0 
-2.542788158335e-04 1.815385581705e-03 0.0 
1.815385581705e-03 8.957010825615e-03 0.0 
0.0 0.0 0.0 
-1.378881786485e-03 8.141335820223e-04 0.0 
8.141335820223e-04 7.781616685476e-03 0.0 
0.0 0.0 0.0 
3.476953723314e-04 2.132792500153e-03 0.0 
2.132792500153e-03 4.584294766975e-03 0.0 
0.0 0.0 0.0 
3.071255965617e-03 1.584127729857e-03 0.0 
1.584127729857e-03 -8.716976691991e-04 0.0 
0.0 0.0 0.0 
2.991262703546e-03 2.035343733095e-03 0.0 
2.035343733095e-03 -8.406329700708e-04 0.0 
0.0 0.0 0.0 
3.281998340177e-03 2.120947915362e-03 0.0 
2.120947915362e-03 -1.401355011464e-03 0.0 
0.0 0.0 0.0 
-8.144636201003e-04 2.116060407982e-03 0.0 
2.116060407982e-03 7.147117977544e-03 0.0 
0.0 0.0 0.0 
4.916579306354e-04 1.037976825769e-03 0.0 
1.037976825769e-03 3.765720521687e-03 0.0 
0.0 0.0 0.0 
9.215505665479e-04 8.247172399624e-04 0.0 
8.247172399624e-04 3.068330149182e-03 0.0 
0.0 0.0 0.0 
9.036574436698e-04 5.491532233651e-04 0.0 
5.491532233651e-04 3.036296315600e-03 0.0 
0.0 0.0 0.0 
1.320867759947e-03 6.234153634473e-04 0.0 
6.234153634473e-04 2.351801172682e-03 0.0 
0.0 0.0 0.0 
4.709480633453e-04 4.435565387270e-04 0.0 
4.435565387270e-04 3.697801899910e-03 0.0 
0.0 0.0 0.0 
-1.446952979288e-04 2.636004999321e-03 0.0 
2.636004999321e-03 7.551553119786e-03 0.0 
0.0 0.0 0.0 
-1.003300127190e-04 2.720087383359e-03 0.0 
2.720087383359e-03 7.250306119021e-03 0.0 
0.0 0.0 0.0 
2.545682513003e-03 -2.563349167853e-03 0.0 
-2.563349167853e-03 -2.133015104549e-03 0.0 
0.0 0.0 0.0 
3.181793798002e-03 -2.043566066666e-03 0.0 
-2.043566066666e-03 -2.672895189981e-03 0.0 
0.0 0.0 0.0 
3.228098961807e-03 -1.832943988697e-03 0.0 
-1.832943988697e-03 -2.535052017304e-03 0.0 
0.0 0.0 0.0 
3.715372138181e-03 -1.395045060916e-03 0.0 
-1.395045060916e-03 -3.060666243946e-03 0.0 
0.0 0.0 0.0 
3.633150384914e-03 -1.602932298130e-03 0.0 
-1.602932298130e-03 -3.239813972676e-03 0.0 
0.0 0.0 0.0 
4.062561204593e-03 -7.842509455842e-04 0.0 
-7.842509455842e-04 -3.480435354654e-03 0.0 
0.0 0.0 0.0 
4.121176095480e-03 -6.847402119158e-04 0.0 
-6.847402119158e-04 -3.266906458347e-03 0.0 
0.0 0.0 0.0 
4.227378542921e-03 -5.717522483949e-06 0.0 
-5.717522483949e-06 -3.740611540347e-03 0.0 
0.0 0.0 0.0 
-2.793386110522e-04 2.537570698506e-03 0.0 
2.537570698506e-03 6.127032846644e-03 0.0 
0.0 0.0 0.0 
3.765153831620e-04 -8.212231512895e-05 0.0 
-8.212231512895e-05 3.862739211588e-03 0.0 
0.0 0.0 0.0 
1.399382762531e-03 -1.580749304046e-03 0.0 
-1.580749304046e-03 5.704792178494e-04 0.0 
0.0 0.0 0.0 
1.825401541175e-03 -1.528759829151e-03 0.0 
-1.528759829151e-03 -1.180784301575e-04 0.0 
0.0 0.0 0.0 
1.935899892543e-03 -1.680810734456e-03 0.0 
-1.680810734456e-03 -5.320556305857e-04 0.0 
0.0 0.0 0.0 
-6.312226618849e-04 -1.813321994896e-03 0.0 
-1.813321994896e-03 2.270371241675e-03 0.0 
0.0 0.0 0.0 
-3.323125217524e-04 -1.932910909157e-03 0.0 
-1.932910909157e-03 1.989786420534e-03 0.0 
0.0 0.0 0.0 
-3.180234475546e-04 -1.808055924299e-03 0.0 
-1.808055924299e-03 2.241956303519e-03 0.0 
0.0 0.0 0.0 
-8.839760926732e-04 -1.640311375965e-03 0.0 
-1.640311375965e-03 2.507183864985e-03 0.0 
0.0 0.0 0.0 
1.053583731096e-03 2.742920673801e-03 0.0 
2.742920673801e-03 2.599714863342e-03 0.0 
0.0 0.0 0.0 
3.275070154509e-04 -3.012547675135e-04 0.0 
-3.012547675135e-04 3.983573250546e-03 0.0 
0.0 0.0 0.0 
3.048294162221e-03 -2.720632446867e-04 0.0 
-2.720632446867e-04 -1.299977198799e-03 0.0 
0.0 0.0 0.0 
3.118112280098e-06 -2.120320699634e-03 0.0 
-2.120320699634e-03 1.448617238186e-03 0.0 
0.0 0.0 0.0 
-1.650639865692e-03 6.688862748331e-04 0.0 
6.688862748331e-04 6.843116138147e-03 0.0 
0.0 0.0 0.0 
-1.609307050106e-03 8.673682773321e-04 0.0 
8.673682773321e-04 7.072662043619e-03 0.0 
0.0 0.0 0.0 
-1.653489182252e-03 1.017307022524e-03 0.0 
1.017307022524e-03 6.975974633350e-03 0.0 
0.0 0.0 0.0 
-1.534065444938e-03 1.069822381244e-03 0.0 
1.069822381244e-03 7.299577697607e-03 0.0 
0.0 0.0 0.0 
-1.566571236695e-03 7.297429943600e-04 0.0 
7.297429943600e-04 7.198873111392e-03 0.0 
0.0 0.0 0.0 
-1.037158804571e-03 -1.243242616956e-03 0.0 
-1.243242616956e-03 3.377893522831e-03 0.0 
0.0 0.0 0.0 
-1.174483849900e-03 -9.910524945539e-04 0.0 
-9.910524945539e-04 3.734937057790e-03 0.0 
0.0 0.0 0.0 
-1.352543000157e-03 -8.201832371468e-04 0.0 
-8.201832371468e-04 3.808207066398e-03 0.0 
0.0 0.0 0.0 
-1.267841512843e-03 -7.400711929227e-04 0.0 
-7.400711929227e-04 4.036759406854e-03 0.0 
0.0 0.0 0.0 
-1.419035453162e-03 -5.661005539136e-04 0.0 
-5.661005539136e-04 4.054595050739e-03 0.0 
0.0 0.0 0.0 
-1.484224784567e-03 -6.298349274641e-04 0.0 
-6.298349274641e-04 3.845121912178e-03 0.0 
0.0 0.0 0.0 
-1.326780486118e-03 -4.893843852207e-04 0.0 
-4.893843852207e-04 4.287920147783e-03 0.0 
0.0 0.0 0.0 
-1.454729881135e-03 -3.275105598746e-04 0.0 
-3.275105598746e-04 4.231437121124e-03 0.0 
0.0 0.0 0.0 
-1.545606292498e-03 4.427855545723e-04 0.0 
4.427855545723e-04 6.949805090775e-03 0.0 
0.0 0.0 0.0 
-1.353019674012e-03 -2.338980139219e-03 0.0 
-2.338980139219e-03 -8.126194735930e-04 0.0 
0.0 0.0 0.0 
-5.411728818337e-04 -3.115267412619e-03 0.0 
-3.115267412619e-03 -5.249011337427e-04 0.0 
0.0 0.0 0.0 
-7.710505183882e-04 -2.279926815747e-03 0.0 
-2.279926815747e-03 5.147225424241e-04 0.0 
0.0 0.0 0.0 
3.942307174148e-05 -3.228059616798e-03 0.0 
-3.228059616798e-03 -4.368880195388e-04 0.0 
0.0 0.0 0.0 
9.245610094762e-04 -3.366372709072e-03 0.0 
-3.366372709072e-03 -2.055870191019e-03 0.0 
0.0 0.0 0.0 
1.260900232295e-03 -3.272693225270e-03 0.0 
-3.272693225270e-03 -1.672374875314e-03 0.0 
0.0 0.0 0.0 
2.170769495361e-03 -3.106414559148e-03 0.0 
-3.106414559148e-03 -3.048658460005e-03 0.0 
0.0 0.0 0.0 
2.662388945903e-04 -3.118646830528e-03 0.0 
-3.118646830528e-03 -2.536527998417e-03 0.0 
0.0 0.0 0.0 
-7.165953722150e-04 -8.074831928852e-04 0.0 
-8.074831928852e-04 4.647507781976e-04 0.0 
0.0 0.0 0.0 
-6.891506314458e-04 -1.517053955084e-03 0.0 
-1.517053955084e-03 6.928625195852e-04 0.0 
0.0 0.0 0.0 
-4.367516255035e-04 -4.808264787646e-04 0.0 
-4.808264787646e-04 4.158141785868e-04 0.0 
0.0 0.0 0.0 
-5.012617758575e-04 -1.092905435964e-03 0.0 
-1.092905435964e-03 6.756812223363e-04 0.0 
0.0 0.0 0.0 
-4.184265362875e-04 -1.984989635141e-03 0.0 
-1.984989635141e-03 6.818487254416e-04 0.0 
0.0 0.0 0.0 
-2.925660500646e-04 -1.667871061995e-03 0.0 
-1.667871061995e-03 1.035134485937e-03 0.0 
0.0 0.0 0.0 
-2.276571627753e-04 -5.049225041611e-04 0.0 
-5.049225041611e-04 5.668751554692e-03 0.0 
0.0 0.0 0.0 
-1.615524723454e-03 -2.493193263345e-04 0.0 
-2.493193263345e-04 3.652013284946e-03 0.0 
0.0 0.0 0.0 
-1.560918615866e-03 -4.890862849923e-04 0.0 
-4.890862849923e-04 3.472143318577e-03 0.0 
0.0 0.0 0.0 
-1.482767529744e-03 -4.695946995647e-04 0.0 
-4.695946995647e-04 3.227705803247e-03 0.0 
0.0 0.0 0.0 
-1.452565994329e-03 -7.416382661878e-04 0.0 
-7.416382661878e-04 3.236960988889e-03 0.0 
0.0 0.0 0.0 
-1.580452287213e-03 -4.736656875545e-04 0.0 
-4.736656875545e-04 3.694735481487e-03 0.0 
0.0 0.0 0.0 
-1.437823244520e-03 -2.234887961781e-04 0.0 
-2.234887961781e-04 3.123380914783e-03 0.0 
0.0 0.0 0.0 
-1.330440272194e-03 -4.320653886399e-04 0.0 
-4.320653886399e-04 2.952665282063e-03 0.0 
0.0 0.0 0.0 
1.904115694803e-03 -1.028993425149e-04 0.0 
-1.028993425149e-04 -5.413187664101e-04 0.0 
0.0 0.0 0.0 
1.357628409558e-03 -1.266754285377e-04 0.0 
-1.266754285377e-04 1.021242788292e-05 0.0 
0.0 0.0 0.0 
1.497851188065e-03 -2.477204582030e-05 0.0 
-2.477204582030e-05 -8.778558810477e-05 0.0 
0.0 0.0 0.0 
7.970344350986e-04 -1.256538966244e-04 0.0 
-1.256538966244e-04 5.950885032831e-04 0.0 
0.0 0.0 0.0 
7.736369657880e-04 -2.024397784280e-04 0.0 
-2.024397784280e-04 5.880371266221e-04 0.0 
0.0 0.0 0.0 
1.271667253372e-03 -1.983450125911e-04 0.0 
-1.983450125911e-04 4.405014726738e-05 0.0 
0.0 0.0 0.0 
1.125230248058e-03 -2.648361273877e-04 0.0 
-2.648361273877e-04 9.868923999516e-05 0.0 
0.0 0.0 0.0 
1.592248637213e-03 -1.763795202810e-04 0.0 
-1.763795202810e-04 -4.085734439848e-04 0.0 
0.0 0.0 0.0 
9.389988230686e-04 -3.432777935683e-04 0.0 
-3.432777935683e-04 1.772373046338e-04 0.0 
0.0 0.0 0.0 
5.171148841453e-04 -3.957479860117e-04 0.0 
-3.957479860117e-04 6.745604380831e-04 0.0 
0.0 0.0 0.0 
1.380693415080e-03 -2.283314769985e-04 0.0 
-2.283314769985e-04 -3.306243772975e-04 0.0 
0.0 0.0 0.0 
-8.521677984297e-04 6.437987889227e-05 0.0 
6.437987889227e-05 8.733428699104e-03 0.0 
0.0 0.0 0.0 
-7.755355598296e-04 1.432873629721e-04 0.0 
1.432873629721e-04 8.903171057100e-03 0.0 
0.0 0.0 0.0 
2.159590027894e-04 -6.249140618764e-04 0.0 
-6.249140618764e-04 4.309080764844e-03 0.0 
0.0 0.0 0.0 
-1.422594526522e-03 2.906868577253e-04 0.0 
2.906868577253e-04 7.043554220712e-03 0.0 
0.0 0.0 0.0 
7.453999001827e-05 -3.216872227331e-04 0.0 
-3.216872227331e-04 2.468860073174e-04 0.0 
0.0 0.0 0.0 
-2.496659241537e-04 5.168784588012e-04 0.0 
5.168784588012e-04 9.693613177058e-03 0.0 
0.0 0.0 0.0 
-2.370711717733e-04 9.141023315361e-04 0.0 
9.141023315361e-04 9.596091144936e-03 0.0 
0.0 0.0 0.0 
-2.177423865455e-04 7.881375739678e-04 0.0 
7.881375739678e-04 9.656173180625e-03 0.0 
0.0 0.0 0.0 
-6.652924434101e-04 -1.372641304498e-04 0.0 
-1.372641304498e-04 5.511677118177e-03 0.0 
0.0 0.0 0.0 
-5.361704142109e-04 -2.595785506925e-04 0.0 
-2.595785506925e-04 5.586578066035e-03 0.0 
0.0 0.0 0.0 
-2.286392586329e-04 2.952939338879e-04 0.0 
2.952939338879e-04 9.746519225626e-03 0.0 
0.0 0.0 0.0 
-3.337419548795e-04 -1.988107222284e-03 0.0 
-1.988107222284e-03 1.391076641964e-03 0.0 
0.0 0.0 0.0 
-5.276010706312e-04 2.107739585796e-03 0.0 
2.107739585796e-03 8.098729708809e-03 0.0 
0.0 0.0 0.0 
-6.225909904012e-04 5.242974543164e-04 0.0 
5.242974543164e-04 9.216830538778e-03 0.0 
0.0 0.0 0.0 
2.895453787630e-03 3.037331494652e-03 0.0 
3.037331494652e-03 -2.852219429564e-03 0.0 
0.0 0.0 0.0 
4.423440771331e-04 -2.545422813669e-03 0.0 
-2.545422813669e-03 3.083002469543e-04 0.0 
0.0 0.0 0.0 
-1.051134891429e-03 -5.628540906313e-04 0.0 
-5.628540906313e-04 4.542083054984e-03 0.0 
0.0 0.0 0.0 
-2.405619814996e-04 -1.470365883514e-03 0.0 
-1.470365883514e-03 2.850434170195e-03 0.0 
0.0 0.0 0.0 
-5.631921286087e-04 -6.636967143992e-04 0.0 
-6.636967143992e-04 4.805036352575e-03 0.0 
0.0 0.0 0.0 
-8.715379698756e-04 -9.995728369045e-04 0.0 
-9.995728369045e-04 3.896061856581e-03 0.0 
0.0 0.0 0.0 
-3.368619787527e-04 -9.490163199946e-04 0.0 
-9.490163199946e-04 4.037663043350e-03 0.0 
0.0 0.0 0.0 
8.744979372984e-04 2.393014454507e-04 0.0 
2.393014454507e-04 3.034069060229e-03 0.0 
0.0 0.0 0.0 
-1.197517682947e-04 -3.747282710559e-04 0.0 
-3.747282710559e-04 1.479873549826e-03 0.0 
0.0 0.0 0.0 
-1.223991522372e-03 4.861066611522e-04 0.0 
4.861066611522e-04 8.024848913420e-03 0.0 
0.0 0.0 0.0 
-1.162008106547e-03 2.691832465052e-04 0.0 
2.691832465052e-04 7.953056660143e-03 0.0 
0.0 0.0 0.0 
-9.090357793643e-04 5.082516554420e-04 0.0 
5.082516554420e-04 8.744116292270e-03 0.0 
0.0 0.0 0.0 
-8.952382709109e-04 -1.323838712819e-03 0.0 
-1.323838712819e-03 2.229546838290e-03 0.0 
0.0 0.0 0.0 
-1.401630580421e-03 -8.876057703778e-04 0.0 
-8.876057703778e-04 3.591231827425e-03 0.0 
0.0 0.0 0.0 
-3.584189575298e-04 -1.071115006125e-03 0.0 
-1.071115006125e-03 1.397759586976e-03 0.0 
0.0 0.0 0.0 
1.686785093317e-04 2.660895471359e-03 0.0 
2.660895471359e-03 5.610401319647e-03 0.0 
0.0 0.0 0.0 
-1.017763632935e-03 2.386679204165e-03 0.0 
2.386679204165e-03 4.766642567673e-03 0.0 
0.0 0.0 0.0 
1.571347390313e-03 -1.935871511611e-03 0.0 
-1.935871511611e-03 -2.329428045231e-04 0.0 
0.0 0.0 0.0 
-6.264008485719e-04 -1.870903944293e-03 0.0 
-1.870903944293e-03 2.075692264350e-03 0.0 
0.0 0.0 0.0 
-5.847878378860e-05 -2.248640835517e-03 0.0 
-2.248640835517e-03 1.088776494463e-03 0.0 
0.0 0.0 0.0 
7.155004547358e-04 -2.708698019937e-03 0.0 
-2.708698019937e-03 -1.326764785169e-04 0.0 
0.0 0.0 0.0 
1.332575047409e-03 3.126530549360e-03 0.0 
3.126530549360e-03 8.034835590324e-04 0.0 
0.0 0.0 0.0 
3.679753077536e-04 -2.140066835802e-03 0.0 
-2.140066835802e-03 1.094590002369e-03 0.0 
0.0 0.0 0.0 
5.978559466769e-04 -1.220031478087e-03 0.0 
-1.220031478087e-03 2.381808893067e-03 0.0 
0.0 0.0 0.0 
-8.005097073098e-04 4.628736897990e-04 0.0 
4.628736897990e-04 8.931507917660e-03 0.0 
0.0 0.0 0.0 
7.311634239803e-04 -3.090682349980e-04 0.0 
-3.090682349980e-04 -2.661779683924e-05 0.0 
0.0 0.0 0.0 
8.135169942472e-04 -1.037628901981e-03 0.0 
-1.037628901981e-03 2.309967716937e-03 0.0 
0.0 0.0 0.0 
3.407251393586e-04 -1.810768071291e-03 0.0 
-1.810768071291e-03 1.701210325240e-03 0.0 
0.0 0.0 0.0 
-1.286462886924e-03 7.816242082630e-04 0.0 
7.816242082630e-04 8.014808353290e-03 0.0 
0.0 0.0 0.0 
2.128756059214e-03 1.075606059481e-03 0.0 
1.075606059481e-03 9.682097127976e-04 0.0 
0.0 0.0 0.0 
9.226034946902e-04 -3.192131493882e-03 0.0 
-3.192131493882e-03 -9.244490812722e-04 0.0 
0.0 0.0 0.0 
-9.265156036604e-04 8.111375914540e-04 0.0 
8.111375914540e-04 8.735376961418e-03 0.0 
0.0 0.0 0.0 
-6.231180751428e-04 1.441650494057e-03 0.0 
1.441650494057e-03 8.851249242995e-03 0.0 
0.0 0.0 0.0 
-1.463653227941e-03 8.528750417104e-04 0.0 
8.528750417104e-04 7.544574728519e-03 0.0 
0.0 0.0 0.0 
-8.828533520862e-05 -7.996866379441e-04 0.0 
-7.996866379441e-04 1.060917050076e-03 0.0 
0.0 0.0 0.0 
-1.305140406009e-03 3.866238601988e-04 0.0 
3.866238601988e-04 7.675931098193e-03 0.0 
0.0 0.0 0.0 
7.734385889903e-04 -4.614749456195e-04 0.0 
-4.614749456195e-04 3.026651419490e-03 0.0 
0.0 0.0 0.0 
-1.060001103554e-03 1.455928914476e-03 0.0 
1.455928914476e-03 8.108573946082e-03 0.0 
0.0 0.0 0.0 
-9.017474979212e-04 -1.021815696068e-03 0.0 
-1.021815696068e-03 2.251571761804e-03 0.0 
0.0 0.0 0.0 
3.827388712364e-03 1.156908488385e-04 0.0 
1.156908488385e-04 -2.361711102714e-03 0.0 
0.0 0.0 0.0 
1.301419312131e-04 3.033076799569e-03 0.0 
3.033076799569e-03 2.713809743841e-03 0.0 
0.0 0.0 0.0 
-1.717275882550e-03 1.179201975526e-03 0.0 
1.179201975526e-03 5.986699187409e-03 0.0 
0.0 0.0 0.0 
-5.505468013363e-04 6.429360204892e-04 0.0 
6.429360204892e-04 9.300501278143e-03 0.0 
0.0 0.0 0.0 
2.371697058129e-03 2.707341584256e-03 0.0 
2.707341584256e-03 -1.787516201591e-04 0.0 
0.0 0.0 0.0 
1.775429221434e-03 5.397700238486e-04 0.0 
5.397700238486e-04 1.507428082005e-03 0.0 
0.0 0.0 0.0 
2.991584829679e-03 2.327071777135e-04 0.0 
2.327071777135e-04 -9.386709490423e-04 0.0 
0.0 0.0 0.0 
-1.081410461171e-03 -8.492891131745e-04 0.0 
-8.492891131745e-04 2.538984797314e-03 0.0 
0.0 0.0 0.0 
2.567404828424e-04 -9.635790754151e-04 0.0 
-9.635790754151e-04 3.427034703633e-03 0.0 
0.0 0.0 0.0 
3.744228366813e-03 1.735235725361e-03 0.0 
1.735235725361e-03 -2.060694693609e-03 0.0 
0.0 0.0 0.0 
-7.411063074673e-04 9.069516730902e-04 0.0 
9.069516730902e-04 9.004881802015e-03 0.0 
0.0 0.0 0.0 
2.001587953927e-04 2.729376048639e-03 0.0 
2.729376048639e-03 4.347689676796e-03 0.0 
0.0 0.0 0.0 
4.361074574352e-03 7.441447913714e-04 0.0 
7.441447913714e-04 -3.051338952513e-03 0.0 
0.0 0.0 0.0 
-9.211909725357e-04 1.170894314818e-03 0.0 
1.170894314818e-03 8.619149708496e-03 0.0 
0.0 0.0 0.0 
2.374012067352e-03 -1.501909808740e-03 0.0 
-1.501909808740e-03 -1.090062513452e-03 0.0 
0.0 0.0 0.0 
1.839566320335e-03 1.357040402073e-03 0.0 
1.357040402073e-03 1.573155107411e-03 0.0 
0.0 0.0 0.0 
-8.521940989599e-04 2.519296024550e-03 0.0 
2.519296024550e-03 4.265696395857e-03 0.0 
0.0 0.0 0.0 
6.737918963773e-05 2.936842263340e-03 0.0 
2.936842263340e-03 3.725254361459e-03 0.0 
0.0 0.0 0.0 
-7.289451913987e-04 2.433797559890e-03 0.0 
2.433797559890e-03 5.819056679865e-03 0.0 
0.0 0.0 0.0 
1.069265931034e-03 3.034905527297e-03 0.0 
3.034905527297e-03 1.837582716422e-03 0.0 
0.0 0.0 0.0 
-1.211297334287e-03 -4.104963371568e-04 0.0 
-4.104963371568e-04 4.537701670863e-03 0.0 
0.0 0.0 0.0 
5.139795941733e-04 -1.007504768139e-03 0.0 
-1.007504768139e-03 2.885602231332e-03 0.0 
0.0 0.0 0.0 
3.289933885348e-03 -1.123308042323e-03 0.0 
-1.123308042323e-03 -4.313520271720e-03 0.0 
0.0 0.0 0.0 
9.896053902909e-04 3.278827005427e-03 0.0 
3.278827005427e-03 8.497770620981e-04 0.0 
0.0 0.0 0.0 
-1.347625223680e-03 9.803086038849e-04 0.0 
9.803086038849e-04 7.840984499311e-03 0.0 
0.0 0.0 0.0 
5.665658493167e-04 2.531714829330e-03 0.0 
2.531714829330e-03 4.250504569808e-03 0.0 
0.0 0.0 0.0 
-5.304284619598e-04 9.957281087920e-04 0.0 
9.957281087920e-04 9.254661672466e-03 0.0 
0.0 0.0 0.0 
-1.058740217182e-06 3.001642162002e-03 0.0 
3.001642162002e-03 2.662529445279e-03 0.0 
0.0 0.0 0.0 
6.235711596475e-05 -1.043401521789e-03 0.0 
-1.043401521789e-03 3.487380251408e-03 0.0 
0.0 0.0 0.0 
-7.137100322666e-04 1.278360136619e-03 0.0 
1.278360136619e-03 8.859652306285e-03 0.0 
0.0 0.0 0.0 
-1.984730881218e-06 -1.992242473482e-03 0.0 
-1.992242473482e-03 1.682975147725e-03 0.0 
0.0 0.0 0.0 
-4.337312740110e-04 -1.303139947890e-04 0.0 
-1.303139947890e-04 1.876054782855e-03 0.0 
0.0 0.0 0.0 
2.145123938638e-03 3.327515525362e-03 0.0 
3.327515525362e-03 -2.732056213796e-03 0.0 
0.0 0.0 0.0 
4.332933014143e-03 8.367501690661e-04 0.0 
8.367501690661e-04 -3.527863701286e-03 0.0 
0.0 0.0 0.0 
2.938078877049e-03 2.525120433272e-03 0.0 
2.525120433272e-03 -1.011457258154e-03 0.0 
0.0 0.0 0.0 
4.579313793237e-06 -1.839713695572e-03 0.0 
-1.839713695572e-03 1.970175025732e-03 0.0 
0.0 0.0 0.0 
-5.006102188748e-04 1.901964878157e-03 0.0 
1.901964878157e-03 8.508833871788e-03 0.0 
0.0 0.0 0.0 
-1.340621674204e-04 -9.383947014798e-04 0.0 
-9.383947014798e-04 3.969438985136e-03 0.0 
0.0 0.0 0.0 
1.641873830640e-03 -6.775421239239e-04 0.0 
-6.775421239239e-04 1.144284647756e-03 0.0 
0.0 0.0 0.0 
-1.200918930204e-03 3.383185825608e-03 0.0 
3.383185825608e-03 6.258215744302e-04 0.0 
0.0 0.0 0.0 
-1.636649744552e-03 1.452786634584e-03 0.0 
1.452786634584e-03 5.878096730264e-03 0.0 
0.0 0.0 0.0 
-2.837711265764e-04 -8.278405053743e-04 0.0 
-8.278405053743e-04 4.405855855197e-03 0.0 
0.0 0.0 0.0 
3.411332916314e-03 -3.555179082060e-04 0.0 
-3.555179082060e-04 -1.927059024434e-03 0.0 
0.0 0.0 0.0 
1.730751247133e-03 1.085424951561e-03 0.0 
1.085424951561e-03 1.722842721828e-03 0.0 
0.0 0.0 0.0 
-1.533449987163e-03 -3.918213449044e-04 0.0 
-3.918213449044e-04 4.029112044861e-03 0.0 
0.0 0.0 0.0 
2.918760535163e-04 2.590800139755e-03 0.0 
2.590800139755e-03 5.207100765125e-03 0.0 
0.0 0.0 0.0 
-1.264762956027e-03 1.859467003393e-03 0.0 
1.859467003393e-03 4.430971614995e-03 0.0 
0.0 0.0 0.0 
-3.864889907844e-04 -7.179114850849e-04 0.0 
-7.179114850849e-04 4.798804145092e-03 0.0 
0.0 0.0 0.0 
2.006080797882e-03 -1.575559420130e-04 0.0 
-1.575559420130e-04 7.913806311719e-04 0.0 
0.0 0.0 0.0 
2.745846986346e-03 3.178428462641e-03 0.0 
3.178428462641e-03 -1.348208795821e-03 0.0 
0.0 0.0 0.0 
-1.201083995743e-03 4.953131167946e-05 0.0 
4.953131167946e-05 7.018721566850e-03 0.0 
0.0 0.0 0.0 
-2.661718098645e-04 -6.722184317933e-04 0.0 
-6.722184317933e-04 5.189730150027e-03 0.0 
0.0 0.0 0.0 
1.640303375853e-03 -3.984641194573e-06 0.0 
-3.984641194573e-06 1.554539757066e-03 0.0 
0.0 0.0 0.0 
1.088686126952e-03 2.924505777493e-03 0.0 
2.924505777493e-03 2.168997196585e-03 0.0 
0.0 0.0 0.0 
3.195984854293e-03 -8.297923292411e-04 0.0 
-8.297923292411e-04 -1.855250786155e-03 0.0 
0.0 0.0 0.0 
-1.606636283841e-03 1.304518826012e-03 0.0 
1.304518826012e-03 5.357270881048e-03 0.0 
0.0 0.0 0.0 
-2.858816756310e-04 -1.653811840011e-03 0.0 
-1.653811840011e-03 2.530327562554e-03 0.0 
0.0 0.0 0.0 
-1.628555692554e-04 2.817903201454e-03 0.0 
2.817903201454e-03 4.375908286283e-03 0.0 
0.0 0.0 0.0 
-2.440426334190e-04 1.669123731075e-03 0.0 
1.669123731075e-03 9.106604637726e-03 0.0 
0.0 0.0 0.0 
1.521584592591e-03 3.069452640274e-04 0.0 
3.069452640274e-04 1.861767872388e-03 0.0 
0.0 0.0 0.0 
-1.278026784428e-03 1.674256479815e-03 0.0 
1.674256479815e-03 7.196715724991e-03 0.0 
0.0 0.0 0.0 
-5.818187678902e-04 -1.596350906966e-03 0.0 
-1.596350906966e-03 2.756153447035e-03 0.0 
0.0 0.0 0.0 
2.203692769255e-03 2.085468003810e-03 0.0 
2.085468003810e-03 7.307613599864e-04 0.0 
0.0 0.0 0.0 
6.909643171793e-04 -2.760577301505e-04 0.0 
-2.760577301505e-04 6.064238361893e-04 0.0 
0.0 0.0 0.0 
-1.497288713894e-03 1.627613370535e-03 0.0 
1.627613370535e-03 5.179779892974e-03 0.0 
0.0 0.0 0.0 
-7.956221945972e-04 -1.366508015322e-03 0.0 
-1.366508015322e-03 3.219387273694e-03 0.0 
0.0 0.0 0.0 
4.339532696004e-03 2.384600057069e-05 0.0 
2.384600057069e-05 -3.508248595100e-03 0.0 
0.0 0.0 0.0 
2.690282855678e-03 -1.136806281939e-03 0.0 
-1.136806281939e-03 -1.298802468365e-03 0.0 
0.0 0.0 0.0 
8.906425833204e-04 1.814776861994e-03 0.0 
1.814776861994e-03 3.486511577846e-03 0.0 
0.0 0.0 0.0 
-9.616330311622e-04 -1.127718369953e-03 0.0 
-1.127718369953e-03 3.627725223870e-03 0.0 
0.0 0.0 0.0 
4.334817822891e-03 4.551281830117e-05 0.0 
4.551281830117e-05 -3.255294510255e-03 0.0 
0.0 0.0 0.0 
-1.083548588701e-03 -8.876139658105e-04 0.0 
-8.876139658105e-04 3.981627613999e-03 0.0 
0.0 0.0 0.0 
-1.422926405757e-03 1.482997212772e-03 0.0 
1.482997212772e-03 4.709038031854e-03 0.0 
0.0 0.0 0.0 
-1.147414272579e-03 1.863140007208e-03 0.0 
1.863140007208e-03 7.076734626207e-03 0.0 
0.0 0.0 0.0 
-1.168039579767e-03 -6.478556517208e-04 0.0 
-6.478556517208e-04 4.289211266477e-03 0.0 
0.0 0.0 0.0 
-6.975915213773e-05 2.727634889994e-03 0.0 
2.727634889994e-03 4.659683344293e-03 0.0 
0.0 0.0 0.0 
3.131074845509e-04 -5.366279704308e-04 0.0 
-5.366279704308e-04 7.672436555161e-04 0.0 
0.0 0.0 0.0 
1.407763941243e-03 2.746754913614e-03 0.0 
2.746754913614e-03 1.829374819771e-03 0.0 
0.0 0.0 0.0 
-7.396953131184e-04 -2.809650751788e-04 0.0 
-2.809650751788e-04 5.316587734035e-03 0.0 
0.0 0.0 0.0 
7.266052001277e-04 -2.483443145342e-03 0.0 
-2.483443145342e-03 2.694893083068e-04 0.0 
0.0 0.0 0.0 
2.260243863038e-03 -1.377613334251e-03 0.0 
-1.377613334251e-03 -7.582497816293e-04 0.0 
0.0 0.0 0.0 
-9.678764970475e-04 1.952653926088e-03 0.0 
1.952653926088e-03 7.301053656153e-03 0.0 
0.0 0.0 0.0 
-1.192653460340e-03 1.682525461143e-03 0.0 
1.682525461143e-03 4.075387052367e-03 0.0 
0.0 0.0 0.0 
2.099400475456e-03 -1.204798189581e-03 0.0 
-1.204798189581e-03 -2.303545324988e-04 0.0 
0.0 0.0 0.0 
-6.999147048955e-06 2.653237963777e-03 0.0 
2.653237963777e-03 4.984213236869e-03 0.0 
0.0 0.0 0.0 
1.657790541919e-03 2.506483879912e-03 0.0 
2.506483879912e-03 1.594741151453e-03 0.0 
0.0 0.0 0.0 
2.749791658465e-03 2.416594364005e-03 0.0 
2.416594364005e-03 -5.945158178556e-04 0.0 
0.0 0.0 0.0 
1.893950074063e-03 -9.318230219019e-04 0.0 
-9.318230219019e-04 4.468113036090e-04 0.0 
0.0 0.0 0.0 
-9.832411034841e-04 2.107405694034e-03 0.0 
2.107405694034e-03 3.702506449817e-03 0.0 
0.0 0.0 0.0 
-1.333120551434e-04 -2.155547435862e-03 0.0 
-2.155547435862e-03 1.062865344065e-03 0.0 
0.0 0.0 0.0 
-2.170722882417e-04 -1.961194627377e-03 0.0 
-1.961194627377e-03 1.052524053721e-03 0.0 
0.0 0.0 0.0 
4.068395371244e-03 -6.008199082280e-04 0.0 
-6.008199082280e-04 -2.994338540726e-03 0.0 
0.0 0.0 0.0 
-1.697241937176e-04 2.588164066500e-03 0.0 
2.588164066500e-03 5.583187777971e-03 0.0 
0.0 0.0 0.0 
2.572529577933e-04 -2.060574591718e-04 0.0 
-2.060574591718e-04 1.133739706870e-03 0.0 
0.0 0.0 0.0 
-8.210528425580e-04 2.202699101016e-03 0.0 
2.202699101016e-03 6.733752600975e-03 0.0 
0.0 0.0 0.0 
-2.844080747533e-04 -1.765379100135e-03 0.0 
-1.765379100135e-03 8.922951405907e-04 0.0 
0.0 0.0 0.0 
3.719746822538e-03 -1.260336320797e-03 0.0 
-1.260336320797e-03 -2.852355397677e-03 0.0 
0.0 0.0 0.0 
1.551159780008e-03 2.091984167233e-03 0.0 
2.091984167233e-03 2.135810259402e-03 0.0 
0.0 0.0 0.0 
-1.061135555881e-03 3.886659272912e-05 0.0 
3.886659272912e-05 8.073212550310e-03 0.0 
0.0 0.0 0.0 
3.194518879894e-03 -1.667135650652e-03 0.0 
-1.667135650652e-03 -2.329678816650e-03 0.0 
0.0 0.0 0.0 
-8.812891195199e-04 -1.643807752112e-04 0.0 
-1.643807752112e-04 2.368259392818e-03 0.0 
0.0 0.0 0.0 
2.663220768828e-03 -2.093473242753e-03 0.0 
-2.093473242753e-03 -1.922817844970e-03 0.0 
0.0 0.0 0.0 
2.494984181421e-03 2.288270222151e-03 0.0 
2.288270222151e-03 8.824555160788e-06 0.0 
0.0 0.0 0.0 
2.076636351406e-03 -2.192655956343e-03 0.0 
-2.192655956343e-03 -1.209609092331e-03 0.0 
0.0 0.0 0.0 
1.576043688369e-03 -2.407168334091e-03 0.0 
-2.407168334091e-03 -7.244100236052e-04 0.0 
0.0 0.0 0.0 
-4.241391378580e-04 5.816727395631e-04 0.0 
5.816727395631e-04 9.475197164323e-03 0.0 
0.0 0.0 0.0 
1.169527974661e-03 -2.428705060106e-03 0.0 
-2.428705060106e-03 -1.732240097871e-04 0.0 
0.0 0.0 0.0 
-1.952605358895e-04 1.702777466786e-04 0.0 
1.702777466786e-04 9.804766190809e-03 0.0 
0.0 0.0 0.0 
-2.635958177513e-04 -2.499663130340e-04 0.0 
-2.499663130340e-04 5.850292427107e-03 0.0 
0.0 0.0 0.0 
-1.169969109408e-03 2.245057680319e-05 0.0 
2.245057680319e-05 7.324316632626e-03 0.0 
0.0 0.0 0.0 
-9.649172131172e-04 1.803527557169e-03 0.0 
1.803527557169e-03 3.531582869312e-03 0.0 
0.0 0.0 0.0 
-1.512187775007e-03 1.810175817757e-04 0.0 
1.810175817757e-04 -4.008679514968e-03 0.0 
0.0 0.0 0.0 
-6.836093554796e-04 2.454448775143e-03 0.0 
2.454448775143e-03 2.945532716221e-03 0.0 
0.0 0.0 0.0 
6.194193269034e-04 -2.536709605483e-03 0.0 
-2.536709605483e-03 2.476166506482e-04 0.0 
0.0 0.0 0.0 
-5.844563335457e-04 2.436556098075e-03 0.0 
2.436556098075e-03 6.052669554376e-03 0.0 
0.0 0.0 0.0 
-1.177186385591e-03 6.058835655276e-05 0.0 
6.058835655276e-05 7.341066573637e-03 0.0 
0.0 0.0 0.0 
1.957327681110e-04 -2.411658653956e-03 0.0 
-2.411658653956e-03 6.983598606479e-04 0.0 
0.0 0.0 0.0 
-3.042043118925e-04 2.485492329958e-03 0.0 
2.485492329958e-03 7.422203947680e-03 0.0 
0.0 0.0 0.0 
2.380258025791e-04 2.495648101560e-03 0.0 
2.495648101560e-03 5.157849820764e-03 0.0 
0.0 0.0 0.0 
-9.165473794854e-04 1.245295179545e-04 0.0 
1.245295179545e-04 8.574210145970e-03 0.0 
0.0 0.0 0.0 
1.560655133989e-03 8.452893223564e-04 0.0 
8.452893223564e-04 1.938551457830e-03 0.0 
0.0 0.0 0.0 
1.819464100594e-03 2.226132186560e-03 0.0 
2.226132186560e-03 1.475526096451e-03 0.0 
0.0 0.0 0.0 
-5.562340228321e-04 8.351293296435e-05 0.0 
8.351293296435e-05 9.314092948885e-03 0.0 
0.0 0.0 0.0 
-1.295311692543e-03 1.293350163357e-04 0.0 
1.293350163357e-04 6.991582885049e-03 0.0 
0.0 0.0 0.0 
-3.352509097508e-04 -8.604399088112e-04 0.0 
-8.604399088112e-04 6.409970883690e-04 0.0 
0.0 0.0 0.0 
-1.191696417930e-03 -1.914176970848e-04 0.0 
-1.914176970848e-04 4.747489358286e-03 0.0 
0.0 0.0 0.0 
-8.444204649823e-04 1.991558017302e-03 0.0 
1.991558017302e-03 3.079569860088e-03 0.0 
0.0 0.0 0.0 
-5.196515935532e-04 2.742548317653e-03 0.0 
2.742548317653e-03 2.340065123259e-03 0.0 
0.0 0.0 0.0 
-3.449614427761e-04 3.257460202044e-03 0.0 
3.257460202044e-03 1.488757599072e-03 0.0 
0.0 0.0 0.0 
-1.226197463518e-03 -6.429452554666e-04 0.0 
-6.429452554666e-04 2.774862847915e-03 0.0 
0.0 0.0 0.0 
-3.841430810221e-04 -2.573368026084e-03 0.0 
-2.573368026084e-03 4.470111323021e-04 0.0 
0.0 0.0 0.0 
-8.384683304028e-04 2.352267039984e-03 0.0 
2.352267039984e-03 2.661532078003e-03 0.0 
0.0 0.0 0.0 
9.265316231917e-04 1.090545270730e-03 0.0 
1.090545270730e-03 3.103393352899e-03 0.0 
0.0 0.0 0.0 
-1.436832030573e-03 4.149333889560e-04 0.0 
4.149333889560e-04 7.288090967779e-03 0.0 
0.0 0.0 0.0 
1.236238977258e-03 2.215361990280e-03 0.0 
2.215361990280e-03 2.795588943193e-03 0.0 
0.0 0.0 0.0 
-1.027295971982e-03 2.846800001263e-03 0.0 
2.846800001263e-03 2.066549181751e-03 0.0 
0.0 0.0 0.0 
-4.872863033860e-04 1.382575966175e-03 0.0 
1.382575966175e-03 9.072190351584e-03 0.0 
0.0 0.0 0.0 
6.414207375723e-04 2.174947352931e-03 0.0 
2.174947352931e-03 4.114892162852e-03 0.0 
0.0 0.0 0.0 
5.089804963099e-05 -7.953210289602e-04 0.0 
-7.953210289602e-04 4.821742730604e-03 0.0 
0.0 0.0 0.0 
9.740885466552e-04 2.160630728813e-03 0.0 
2.160630728813e-03 3.409495376150e-03 0.0 
0.0 0.0 0.0 
-1.281085061902e-04 3.730450612630e-03 0.0 
3.730450612630e-03 8.252798339039e-05 0.0 
0.0 0.0 0.0 
-1.534365545040e-03 9.089431653226e-04 0.0 
9.089431653226e-04 7.350306283699e-03 0.0 
0.0 0.0 0.0 
5.549440237320e-05 2.688042282500e-03 0.0 
2.688042282500e-03 5.995129349326e-03 0.0 
0.0 0.0 0.0 
-8.321913298347e-04 2.061174710174e-04 0.0 
2.061174710174e-04 8.824602619090e-03 0.0 
0.0 0.0 0.0 
-5.672534150374e-05 -7.784274281453e-04 0.0 
-7.784274281453e-04 5.206837150200e-03 0.0 
0.0 0.0 0.0 
-1.537896537313e-03 5.845866669991e-04 0.0 
5.845866669991e-04 7.170435480081e-03 0.0 
0.0 0.0 0.0 
-3.696395749908e-04 3.842744847955e-04 0.0 
3.842744847955e-04 9.561104878918e-03 0.0 
0.0 0.0 0.0 
2.943988563290e-03 -2.317205185235e-03 0.0 
-2.317205185235e-03 -3.931257618854e-03 0.0 
0.0 0.0 0.0 
-3.551251370943e-04 2.001674537888e-04 0.0 
2.001674537888e-04 9.591667880911e-03 0.0 
0.0 0.0 0.0 
-4.552631505241e-04 2.457339670238e-03 0.0 
2.457339670238e-03 6.319047409900e-03 0.0 
0.0 0.0 0.0 
-1.169114764049e-03 1.988762820478e-04 0.0 
1.988762820478e-04 7.802445483822e-03 0.0 
0.0 0.0 0.0 
-1.574491197511e-03 1.191194885719e-03 0.0 
1.191194885719e-03 7.103960877404e-03 0.0 
0.0 0.0 0.0 
-3.863610518939e-04 -3.765057281731e-04 0.0 
-3.765057281731e-04 5.622148768490e-03 0.0 
0.0 0.0 0.0 
-4.139197112003e-04 2.242144977571e-03 0.0 
2.242144977571e-03 8.003071213045e-03 0.0 
0.0 0.0 0.0 
1.089418849421e-04 3.891025072802e-03 0.0 
3.891025072802e-03 -1.136621558384e-03 0.0 
0.0 0.0 0.0 
-9.412424291569e-04 1.916785995396e-04 0.0 
1.916785995396e-04 8.551453386465e-03 0.0 
0.0 0.0 0.0 
-1.348718915693e-03 -1.001397531101e-03 0.0 
-1.001397531101e-03 3.077964023327e-03 0.0 
0.0 0.0 0.0 
6.648864141570e-04 -1.933268221738e-03 0.0 
-1.933268221738e-03 -3.998703432823e-03 0.0 
0.0 0.0 0.0 
3.266974594963e-04 -6.670845958982e-04 0.0 
-6.670845958982e-04 3.959357078318e-03 0.0 
0.0 0.0 0.0 
-3.396195546938e-04 2.496555745786e-03 0.0 
2.496555745786e-03 6.594570219183e-03 0.0 
0.0 0.0 0.0 
-3.199576788715e-04 -5.768493416915e-04 0.0 
-5.768493416915e-04 5.395249672996e-03 0.0 
0.0 0.0 0.0 
8.713565750971e-04 -2.279906791883e-05 0.0 
-2.279906791883e-05 5.481896449495e-04 0.0 
0.0 0.0 0.0 
1.602169633351e-04 -5.278642758190e-04 0.0 
-5.278642758190e-04 4.098187411701e-04 0.0 
0.0 0.0 0.0 
5.286640222593e-04 -4.090944746917e-04 0.0 
-4.090944746917e-04 3.610214108514e-03 0.0 
0.0 0.0 0.0 
-1.549409437434e-04 2.647954524023e-03 0.0 
2.647954524023e-03 6.831915412709e-03 0.0 
0.0 0.0 0.0 
2.508531001311e-03 -2.912726692073e-03 0.0 
-2.912726692073e-03 -2.821915935028e-03 0.0 
0.0 0.0 0.0 
-2.066948522872e-04 1.220424148695e-03 0.0 
1.220424148695e-03 9.480991580525e-03 0.0 
0.0 0.0 0.0 
-2.802702566403e-04 3.491007840159e-03 0.0 
3.491007840159e-03 -2.164401111167e-03 0.0 
0.0 0.0 0.0 
-1.377958366970e-03 2.096524403724e-04 0.0 
2.096524403724e-04 6.942195971647e-03 0.0 
0.0 0.0 0.0 
7.643824513802e-04 -4.210489299776e-04 0.0 
-4.210489299776e-04 2.148181576799e-04 0.0 
0.0 0.0 0.0 
-1.080414118254e-04 -7.095891747093e-04 0.0 
-7.095891747093e-04 5.451624536124e-03 0.0 
0.0 0.0 0.0 
-4.183313500735e-04 9.244052168273e-04 0.0 
9.244052168273e-04 9.393529802561e-03 0.0 
0.0 0.0 0.0 
-1.533436910132e-03 -6.715717384137e-04 0.0 
-6.715717384137e-04 3.513847762169e-03 0.0 
0.0 0.0 0.0 
-1.709611237629e-03 9.651670643875e-04 0.0 
9.651670643875e-04 6.654660443362e-03 0.0 
0.0 0.0 0.0 
-1.088119124566e-03 -3.827940567206e-04 0.0 
-3.827940567206e-04 2.621357054482e-03 0.0 
0.0 0.0 0.0 
4.693967957516e-04 2.534176356048e-03 0.0 
2.534176356048e-03 4.630526785961e-03 0.0 
0.0 0.0 0.0 
-4.716762674803e-04 -1.448750727486e-03 0.0 
-1.448750727486e-03 8.181507607568e-04 0.0 
0.0 0.0 0.0 
-3.789927416853e-04 6.892780357452e-04 0.0 
6.892780357452e-04 9.512827338997e-03 0.0 
0.0 0.0 0.0 
6.962175798294e-04 7.195602938891e-06 0.0 
7.195602938891e-06 3.325068222939e-03 0.0 
0.0 0.0 0.0 
-4.419523285407e-04 1.805609714640e-03 0.0 
1.805609714640e-03 8.732430304319e-03 0.0 
0.0 0.0 0.0 
3.502427604600e-04 1.645960180442e-03 0.0 
1.645960180442e-03 4.257904104615e-03 0.0 
0.0 0.0 0.0 
3.623990234336e-04 1.030687852250e-03 0.0 
1.030687852250e-03 -4.383021792490e-03 0.0 
0.0 0.0 0.0 
4.688925338411e-04 2.353078669090e-03 0.0 
2.353078669090e-03 4.582444758833e-03 0.0 
0.0 0.0 0.0 
1.188763450827e-03 3.811992548972e-04 0.0 
3.811992548972e-04 2.509166319903e-03 0.0 
0.0 0.0 0.0 
-1.247812354284e-03 9.653503657014e-05 0.0 
9.653503657014e-05 6.989321879525e-03 0.0 
0.0 0.0 0.0 
-4.381212179369e-04 2.048813726645e-03 0.0 
2.048813726645e-03 8.350705475449e-03 0.0 
0.0 0.0 0.0 
-1.382316626738e-03 -6.575743507483e-04 0.0 
-6.575743507483e-04 3.042769457161e-03 0.0 
0.0 0.0 0.0 
8.822856607553e-05 -5.318138321120e-04 0.0 
-5.318138321120e-04 1.098218566183e-03 0.0 
0.0 0.0 0.0 
-1.596377606333e-04 8.219627769109e-05 0.0 
8.219627769109e-05 9.840875768617e-03 0.0 
0.0 0.0 0.0 
2.202715591056e-03 -4.157670574575e-06 0.0 
-4.157670574575e-06 -7.390919649209e-04 0.0 
0.0 0.0 0.0 
-1.186447158344e-03 9.380612751454e-06 0.0 
9.380612751454e-06 6.961048630311e-03 0.0 
0.0 0.0 0.0 
-2.123465633886e-04 -1.104119502629e-04 0.0 
-1.104119502629e-04 5.942425116829e-03 0.0 
0.0 0.0 0.0 
3.361917626855e-04 -2.828473248772e-04 0.0 
-2.828473248772e-04 1.003606159919e-03 0.0 
0.0 0.0 0.0 
-1.146786303223e-03 5.838020788406e-05 0.0 
5.838020788406e-05 7.611292382876e-03 0.0 
0.0 0.0 0.0 
-2.203066484513e-04 2.585588661108e-03 0.0 
2.585588661108e-03 7.169379042135e-03 0.0 
0.0 0.0 0.0 
-1.544368422283e-03 -1.768246607506e-04 0.0 
-1.768246607506e-04 4.126660667982e-03 0.0 
0.0 0.0 0.0 
-6.530614021703e-04 1.385419640184e-04 0.0 
1.385419640184e-04 9.141477967631e-03 0.0 
0.0 0.0 0.0 
2.700676032652e-04 -3.116028067696e-03 0.0 
-3.116028067696e-03 -3.607278094360e-04 0.0 
0.0 0.0 0.0 
-1.821734102648e-03 -5.895308123443e-04 0.0 
-5.895308123443e-04 -3.805919363587e-03 0.0 
0.0 0.0 0.0 
-1.018380074561e-03 8.699654627256e-05 0.0 
8.699654627256e-05 8.261510343399e-03 0.0 
0.0 0.0 0.0 
6.597825470084e-04 2.002958177830e-03 0.0 
2.002958177830e-03 3.952379625455e-03 0.0 
0.0 0.0 0.0 
-4.316700753690e-04 1.528405917442e-03 0.0 
1.528405917442e-03 9.032154559145e-03 0.0 
0.0 0.0 0.0 
-1.116555889925e-03 1.897332946381e-04 0.0 
1.897332946381e-04 8.005728316414e-03 0.0 
0.0 0.0 0.0 
1.304503526835e-03 3.662298445959e-03 0.0 
3.662298445959e-03 -2.306835410803e-03 0.0 
0.0 0.0 0.0 
-2.561065457278e-04 2.563677779018e-03 0.0 
2.563677779018e-03 6.821183396065e-03 0.0 
0.0 0.0 0.0 
-1.518880048215e-03 -6.800052376180e-04 0.0 
-6.800052376180e-04 3.653097624457e-03 0.0 
0.0 0.0 0.0 
1.446896000810e-04 2.647051748218e-03 0.0 
2.647051748218e-03 5.506663307597e-03 0.0 
0.0 0.0 0.0 
1.222457102939e-03 8.962638976508e-04 0.0 
8.962638976508e-04 2.567821768431e-03 0.0 
0.0 0.0 0.0 
-1.478668118939e-03 3.509576630959e-03 0.0 
3.509576630959e-03 -1.494620281976e-03 0.0 
0.0 0.0 0.0 
-1.462445264475e-03 -1.446519020733e-04 0.0 
-1.446519020733e-04 4.311717907551e-03 0.0 
0.0 0.0 0.0 
6.197351377321e-04 -4.532679477862e-04 0.0 
-4.532679477862e-04 2.256898419894e-04 0.0 
0.0 0.0 0.0 
3.020427274905e-05 -7.989731639299e-04 0.0 
-7.989731639299e-04 4.659689279745e-03 0.0 
0.0 0.0 0.0 
-1.562040275813e-03 -4.743576298278e-04 0.0 
-4.743576298278e-04 3.838226828293e-03 0.0 
0.0 0.0 0.0 
-1.037329576137e-03 1.240433304620e-03 0.0 
1.240433304620e-03 3.126043318417e-03 0.0 
0.0 0.0 0.0 
-7.498068941039e-04 -3.456073094337e-06 0.0 
-3.456073094337e-06 3.221570240807e-03 0.0 
0.0 0.0 0.0 
-8.744965359139e-04 1.418924841797e-03 0.0 
1.418924841797e-03 3.132819249653e-03 0.0 
0.0 0.0 0.0 
-8.262428270872e-04 -1.621910102467e-05 0.0 
-1.621910102467e-05 3.655183378290e-03 0.0 
0.0 0.0 0.0 
-9.277190857592e-04 1.371952198173e-03 0.0 
1.371952198173e-03 3.400743139361e-03 0.0 
0.0 0.0 0.0 
-9.052285259628e-04 -1.170803555305e-05 0.0 
-1.170803555305e-05 4.166883251436e-03 0.0 
0.0 0.0 0.0 
-1.103072058010e-03 1.275434951406e-03 0.0 
1.275434951406e-03 3.838375126293e-03 0.0 
0.0 0.0 0.0 
-9.740431242732e-04 -1.397282614501e-05 0.0 
-1.397282614501e-05 4.604499880225e-03 0.0 
0.0 0.0 0.0 
-1.339078806833e-03 1.128171791917e-03 0.0 
1.128171791917e-03 4.387341058470e-03 0.0 
0.0 0.0 0.0 
-1.038662221300e-03 -1.252521632787e-05 0.0 
-1.252521632787e-05 5.105780317765e-03 0.0 
0.0 0.0 0.0 
-1.541899303381e-03 9.968668539962e-04 0.0 
9.968668539962e-04 4.958821001604e-03 0.0 
0.0 0.0 0.0 
-1.097605493952e-03 -9.347658728361e-06 0.0 
-9.347658728361e-06 5.537842931681e-03 0.0 
0.0 0.0 0.0 
-1.693464906827e-03 8.830974578649e-04 0.0 
8.830974578649e-04 5.541515013376e-03 0.0 
0.0 0.0 0.0 
-1.145116044589e-03 -4.460102976958e-06 0.0 
-4.460102976958e-06 6.021992928951e-03 0.0 
0.0 0.0 0.0 
-1.776999562782e-03 8.212746443832e-04 0.0 
8.212746443832e-04 6.088033437035e-03 0.0 
0.0 0.0 0.0 
-1.179758011648e-03 7.611052086152e-06 0.0 
7.611052086152e-06 6.435800203239e-03 0.0 
0.0 0.0 0.0 

TENSORS node_materi_strain_plasti float
2.934499401238e-03 -6.293764513238e-05 0.0 
-6.293764513238e-05 -1.067748591947e-03 0.0 
0.0 0.0 -1.096634683480e-04 
-1.402797370443e-03 -1.078294972551e-04 0.0 
-1.078294972551e-04 4.900277451411e-03 0.0 
0.0 0.0 -6.959116756397e-04 
-1.452967895051e-03 -5.509598229541e-05 0.0 
-5.509598229541e-05 7.203997768270e-03 0.0 
0.0 0.0 -1.332621093165e-03 
-1.383162840862e-03 -3.297498286580e-05 0.0 
-3.297498286580e-05 8.816768276200e-03 0.0 
0.0 0.0 -1.332621093165e-03 
2.013745495957e-03 -6.316916865917e-05 0.0 
-6.316916865917e-05 -5.120452549012e-04 0.0 
0.0 0.0 -2.200719611176e-04 
9.770148188976e-04 3.431498766894e-05 0.0 
3.431498766894e-05 4.169221136190e-04 0.0 
0.0 0.0 -3.137585542919e-04 
-7.178028314759e-05 -1.232028049953e-08 0.0 
-1.232028049953e-08 1.149279144839e-03 0.0 
0.0 0.0 -2.794359002296e-04 
-6.436375512209e-04 -1.276790241492e-05 0.0 
-1.276790241492e-05 1.873669559697e-03 0.0 
0.0 0.0 -3.439875543896e-04 
-7.879199919424e-04 -6.957800867177e-05 0.0 
-6.957800867177e-05 2.362265819291e-03 0.0 
0.0 0.0 -5.230155850880e-04 
-9.090757292185e-04 -8.706192601079e-05 0.0 
-8.706192601079e-05 2.790274002592e-03 0.0 
0.0 0.0 -6.679173279409e-04 
-1.029732123068e-03 -9.763895695819e-05 0.0 
-9.763895695819e-05 3.189834221624e-03 0.0 
0.0 0.0 -7.858430676574e-04 
-1.146480183378e-03 -1.186695020361e-04 0.0 
-1.186695020361e-04 3.556707151380e-03 0.0 
0.0 0.0 -8.797909670055e-04 
-1.263272361791e-03 -1.272958726748e-04 0.0 
-1.272958726748e-04 3.899470374148e-03 0.0 
0.0 0.0 -9.497524971825e-04 
-1.384672616284e-03 -1.145152012545e-04 0.0 
-1.145152012545e-04 4.236966414279e-03 0.0 
0.0 0.0 -1.004045332643e-03 
-1.526674903082e-03 -6.496102058636e-05 0.0 
-6.496102058636e-05 4.605045077914e-03 0.0 
0.0 0.0 -1.040527029177e-03 
-1.665462947768e-03 -2.107388054909e-05 0.0 
-2.107388054909e-05 4.948618842847e-03 0.0 
0.0 0.0 -1.059523297737e-03 
-1.782894097401e-03 -3.343512703910e-06 0.0 
-3.343512703910e-06 5.233549116132e-03 0.0 
0.0 0.0 -1.072054170059e-03 
-1.938902930101e-03 -9.696053467476e-05 0.0 
-9.696053467476e-05 5.600248017308e-03 0.0 
0.0 0.0 -1.073655443973e-03 
-2.100363589718e-03 -8.662704783515e-05 0.0 
-8.662704783515e-05 5.970821215845e-03 0.0 
0.0 0.0 -1.067605311830e-03 
-2.135124898814e-03 -7.268436157999e-05 0.0 
-7.268436157999e-05 6.300803109141e-03 0.0 
0.0 0.0 -1.091655094700e-03 
-2.004143563035e-03 -6.534761213825e-05 0.0 
-6.534761213825e-05 6.588381292475e-03 0.0 
0.0 0.0 -1.158330123333e-03 
-1.835283495390e-03 -5.008648858264e-05 0.0 
-5.008648858264e-05 6.864752160643e-03 0.0 
0.0 0.0 -1.226073836101e-03 
-1.640741500190e-03 -2.858138524020e-05 0.0 
-2.858138524020e-05 7.123085926045e-03 0.0 
0.0 0.0 -1.289832767750e-03 
-1.368677421570e-03 1.600785886141e-04 0.0 
1.600785886141e-04 8.818553082708e-03 0.0 
0.0 0.0 -1.336902025401e-03 
-1.377365391022e-03 2.999124352866e-04 0.0 
2.999124352866e-04 8.800585598907e-03 0.0 
0.0 0.0 -1.332945767435e-03 
-1.378029629414e-03 3.844218527142e-04 0.0 
3.844218527142e-04 8.780564209488e-03 0.0 
0.0 0.0 -1.334903170087e-03 
-1.378699113984e-03 6.281396802948e-04 0.0 
6.281396802948e-04 8.766528136653e-03 0.0 
0.0 0.0 -1.334459899807e-03 
-1.385861616700e-03 7.361442488981e-04 0.0 
7.361442488981e-04 8.736115872586e-03 0.0 
0.0 0.0 -1.332067731643e-03 
-1.380170718422e-03 9.112443166240e-04 0.0 
9.112443166240e-04 8.705993944759e-03 0.0 
0.0 0.0 -1.335050935171e-03 
-1.376694153872e-03 1.085769035599e-03 0.0 
1.085769035599e-03 8.675777653225e-03 0.0 
0.0 0.0 -1.335055123498e-03 
-1.386603367251e-03 1.256067884305e-03 0.0 
1.256067884305e-03 8.631282104952e-03 0.0 
0.0 0.0 -1.333530254363e-03 
-1.385927681412e-03 1.401216317866e-03 0.0 
1.401216317866e-03 8.584979043230e-03 0.0 
0.0 0.0 -1.336259905589e-03 
-1.382886472311e-03 1.656515799073e-03 0.0 
1.656515799073e-03 8.524207830888e-03 0.0 
0.0 0.0 -1.335712483792e-03 
-1.394014418558e-03 1.806002472474e-03 0.0 
1.806002472474e-03 8.445999086005e-03 0.0 
0.0 0.0 -1.333313947604e-03 
-1.390408237112e-03 2.011066343467e-03 0.0 
2.011066343467e-03 8.361388601017e-03 0.0 
0.0 0.0 -1.335862559377e-03 
-1.384222329824e-03 2.219576262539e-03 0.0 
2.219576262539e-03 8.276324698237e-03 0.0 
0.0 0.0 -1.336097458551e-03 
-1.389035125892e-03 2.412450494632e-03 0.0 
2.412450494632e-03 8.157453667495e-03 0.0 
0.0 0.0 -1.335235043394e-03 
-1.385735689378e-03 2.596152172723e-03 0.0 
2.596152172723e-03 8.026403168300e-03 0.0 
0.0 0.0 -1.334297546486e-03 
-1.387385464636e-03 2.793709716201e-03 0.0 
2.793709716201e-03 7.870413974245e-03 0.0 
0.0 0.0 -1.332308435384e-03 
-1.390045521020e-03 2.956478596536e-03 0.0 
2.956478596536e-03 7.707669454312e-03 0.0 
0.0 0.0 -1.332019584455e-03 
-1.374441407390e-03 3.130356841580e-03 0.0 
3.130356841580e-03 7.548288379511e-03 0.0 
0.0 0.0 -1.333392124151e-03 
-1.370916614240e-03 3.263121805825e-03 0.0 
3.263121805825e-03 7.369253492750e-03 0.0 
0.0 0.0 -1.334727449481e-03 
-1.360841402714e-03 3.372289688876e-03 0.0 
3.372289688876e-03 7.166176364928e-03 0.0 
0.0 0.0 -1.336576889699e-03 
-1.346336485325e-03 3.461253780169e-03 0.0 
3.461253780169e-03 6.951403103377e-03 0.0 
0.0 0.0 -1.335888391555e-03 
-1.332890796825e-03 3.468370162717e-03 0.0 
3.468370162717e-03 6.730314385053e-03 0.0 
0.0 0.0 -1.334783226448e-03 
-1.319924003398e-03 3.447235553293e-03 0.0 
3.447235553293e-03 6.491181615044e-03 0.0 
0.0 0.0 -1.335053869153e-03 
-1.304557536433e-03 3.357836383275e-03 0.0 
3.357836383275e-03 6.252969737423e-03 0.0 
0.0 0.0 -1.334960189349e-03 
-1.290544710403e-03 3.217570000044e-03 0.0 
3.217570000044e-03 6.038359705784e-03 0.0 
0.0 0.0 -1.334889991128e-03 
-1.266052279295e-03 3.015967340183e-03 0.0 
3.015967340183e-03 5.820251815716e-03 0.0 
0.0 0.0 -1.335774086633e-03 
-1.268292395628e-03 2.751499810292e-03 0.0 
2.751499810292e-03 5.611006951901e-03 0.0 
0.0 0.0 -1.336605656894e-03 
-1.233716587758e-03 2.428663332176e-03 0.0 
2.428663332176e-03 5.432453778555e-03 0.0 
0.0 0.0 -1.336508443943e-03 
-1.235192718271e-03 2.048692266400e-03 0.0 
2.048692266400e-03 5.281516895731e-03 0.0 
0.0 0.0 -1.335343284290e-03 
-1.233233161047e-03 1.613443115418e-03 0.0 
1.613443115418e-03 5.176753839955e-03 0.0 
0.0 0.0 -1.337998490269e-03 
-1.231527167288e-03 1.237296422517e-03 0.0 
1.237296422517e-03 5.075978590578e-03 0.0 
0.0 0.0 -1.337247094005e-03 
-1.199833465241e-03 7.660071193524e-04 0.0 
7.660071193524e-04 4.984249579952e-03 0.0 
0.0 0.0 -1.333783489999e-03 
-1.202795443341e-03 2.512512957567e-04 0.0 
2.512512957567e-04 4.957451962835e-03 0.0 
0.0 0.0 -1.334548731617e-03 
-1.209938913942e-03 -2.134028709971e-04 0.0 
-2.134028709971e-04 5.026425426342e-03 0.0 
0.0 0.0 -1.334619746794e-03 
-1.216034057197e-03 -6.370386973179e-04 0.0 
-6.370386973179e-04 5.098251117921e-03 0.0 
0.0 0.0 -1.335242115105e-03 
-1.250273571860e-03 -1.037169625291e-03 0.0 
-1.037169625291e-03 5.212102119693e-03 0.0 
0.0 0.0 -1.335691437541e-03 
-1.244652277412e-03 -1.350985257247e-03 0.0 
-1.350985257247e-03 5.369562904984e-03 0.0 
0.0 0.0 -1.335646478247e-03 
-1.280185566221e-03 -1.619011709695e-03 0.0 
-1.619011709695e-03 5.525208807417e-03 0.0 
0.0 0.0 -1.334931242407e-03 
-1.279873673449e-03 -1.816253781483e-03 0.0 
-1.816253781483e-03 5.699667194469e-03 0.0 
0.0 0.0 -1.334100791702e-03 
-1.316092894892e-03 -1.930306284798e-03 0.0 
-1.930306284798e-03 5.897360744271e-03 0.0 
0.0 0.0 -1.332237298415e-03 
-1.332492949627e-03 -1.997739486340e-03 0.0 
-1.997739486340e-03 6.101236304603e-03 0.0 
0.0 0.0 -1.333749945600e-03 
-1.347535005711e-03 -1.949980560505e-03 0.0 
-1.949980560505e-03 6.326575568891e-03 0.0 
0.0 0.0 -1.336652505695e-03 
-1.361718678089e-03 -1.883685554895e-03 0.0 
-1.883685554895e-03 6.509663460433e-03 0.0 
0.0 0.0 -1.337094627689e-03 
-1.399643089063e-03 -1.709140483279e-03 0.0 
-1.709140483279e-03 6.643034708910e-03 0.0 
0.0 0.0 -1.328990728106e-03 
-1.392288690639e-03 -1.485263022766e-03 0.0 
-1.485263022766e-03 6.836967868930e-03 0.0 
0.0 0.0 -1.335900064369e-03 
-1.414556676199e-03 -1.251540022059e-03 0.0 
-1.251540022059e-03 6.954271934946e-03 0.0 
0.0 0.0 -1.332523500780e-03 
-1.412496609790e-03 -1.031814538929e-03 0.0 
-1.031814538929e-03 7.047562735813e-03 0.0 
0.0 0.0 -1.335219049675e-03 
-1.419510763784e-03 -6.645626228058e-04 0.0 
-6.645626228058e-04 7.146959411296e-03 0.0 
0.0 0.0 -1.336566422126e-03 
-1.427684607805e-03 -3.887077461759e-04 0.0 
-3.887077461759e-04 7.195451913880e-03 0.0 
0.0 0.0 -1.335855682064e-03 
-1.453017564014e-03 -6.969271926299e-05 0.0 
-6.969271926299e-05 5.335351891541e-03 0.0 
0.0 0.0 -7.648954205800e-04 
-1.520880417330e-03 -7.433446925198e-05 0.0 
-7.433446925198e-05 5.819919600560e-03 0.0 
0.0 0.0 -8.298981322982e-04 
-1.557423966696e-03 -6.785219458369e-05 0.0 
-6.785219458369e-05 6.258440284560e-03 0.0 
0.0 0.0 -8.959277352460e-04 
-1.578985001560e-03 -6.738694350763e-05 0.0 
-6.738694350763e-05 6.671688470532e-03 0.0 
0.0 0.0 -9.610467530554e-04 
-1.585789406967e-03 -5.141559601497e-05 0.0 
-5.141559601497e-05 7.089803706817e-03 0.0 
0.0 0.0 -1.026987810050e-03 
-1.562649818793e-03 -5.245167551875e-05 0.0 
-5.245167551875e-05 7.497011482479e-03 0.0 
0.0 0.0 -1.092790196867e-03 
-1.539445803207e-03 -3.968004133447e-05 0.0 
-3.968004133447e-05 7.888080790164e-03 0.0 
0.0 0.0 -1.158290425478e-03 
-1.493157212652e-03 -4.236338247704e-05 0.0 
-4.236338247704e-05 8.249034422054e-03 0.0 
0.0 0.0 -1.224481705251e-03 
-1.439591118906e-03 -4.822262499776e-05 0.0 
-4.822262499776e-05 8.655254164316e-03 0.0 
0.0 0.0 -1.288782062784e-03 
4.723385519569e-06 2.236990009835e-04 0.0 
2.236990009835e-04 -4.723385519567e-06 0.0 
0.0 0.0 0.0 
-1.624278093923e-03 1.090396231210e-03 0.0 
1.090396231210e-03 4.601022683819e-03 0.0 
0.0 0.0 -7.280202007920e-04 
6.918601447410e-05 9.351630760730e-04 0.0 
9.351630760730e-04 3.463882699158e-04 0.0 
0.0 0.0 -1.781032647385e-04 
2.134098587969e-04 1.678516852899e-03 0.0 
1.678516852899e-03 7.351579563400e-04 0.0 
0.0 0.0 -4.065290636301e-04 
1.125196749487e-04 1.658713971292e-03 0.0 
1.658713971292e-03 8.740061698570e-04 0.0 
0.0 0.0 -4.227967906310e-04 
-5.064027901580e-05 1.636532375328e-03 0.0 
1.636532375328e-03 1.145388155645e-03 0.0 
0.0 0.0 -4.691776614124e-04 
-2.686288214637e-04 1.584200308986e-03 0.0 
1.584200308986e-03 1.584793069977e-03 0.0 
0.0 0.0 -5.640703922202e-04 
-4.987456418830e-04 1.585377040139e-03 0.0 
1.585377040139e-03 2.175609205872e-03 0.0 
0.0 0.0 -7.186558131380e-04 
-7.693623021415e-04 1.545850130620e-03 0.0 
1.545850130620e-03 2.800183439925e-03 0.0 
0.0 0.0 -7.884857694893e-04 
-1.068442602319e-03 1.392543525831e-03 0.0 
1.392543525831e-03 3.387126047545e-03 0.0 
0.0 0.0 -7.502339878794e-04 
-1.352818007869e-03 1.227157706519e-03 0.0 
1.227157706519e-03 3.981454431592e-03 0.0 
0.0 0.0 -7.303644794522e-04 
-3.958832462562e-04 -1.942437368761e-04 0.0 
-1.942437368761e-04 1.138502833330e-03 0.0 
0.0 0.0 -2.016629667165e-04 
-4.978355054856e-04 -1.617196165735e-04 0.0 
-1.617196165735e-04 1.420827660146e-03 0.0 
0.0 0.0 -2.481304124614e-04 
-6.523899398366e-04 -2.144599340885e-04 0.0 
-2.144599340885e-04 1.928599373842e-03 0.0 
0.0 0.0 -3.065644285115e-04 
-8.254529843557e-04 -1.769995152719e-04 0.0 
-1.769995152719e-04 2.443834664170e-03 0.0 
0.0 0.0 -3.600000000000e-04 
-9.532376032239e-04 -2.185094811376e-04 0.0 
-2.185094811376e-04 2.944932670617e-03 0.0 
0.0 0.0 -4.266666666667e-04 
-1.074369705335e-03 -1.739013270640e-04 0.0 
-1.739013270640e-04 3.441659993103e-03 0.0 
0.0 0.0 -4.933333333333e-04 
-1.186861804691e-03 -2.063993814702e-04 0.0 
-2.063993814702e-04 3.930451098783e-03 0.0 
0.0 0.0 -5.600000000000e-04 
-1.284181826536e-03 -1.411246795881e-04 0.0 
-1.411246795881e-04 4.401802096581e-03 0.0 
0.0 0.0 -6.266666666667e-04 
-1.371869470260e-03 5.987426434916e-05 0.0 
5.987426434916e-05 4.821720366173e-03 0.0 
0.0 0.0 -6.874962403976e-04 
-1.373883297749e-03 1.733970713616e-05 0.0 
1.733970713616e-05 4.853900323376e-03 0.0 
0.0 0.0 -6.910932206029e-04 
-1.391096625977e-03 2.696117286623e-05 0.0 
2.696117286623e-05 4.858420634372e-03 0.0 
0.0 0.0 -6.911911970487e-04 
-1.403621533613e-03 2.899157745045e-05 0.0 
2.899157745045e-05 4.851539021186e-03 0.0 
0.0 0.0 -6.903356507966e-04 
-1.422086472761e-03 7.127286506100e-05 0.0 
7.127286506100e-05 4.925418991949e-03 0.0 
0.0 0.0 -6.980756478071e-04 
-1.440013737492e-03 8.905228061672e-05 0.0 
8.905228061672e-05 4.855137559965e-03 0.0 
0.0 0.0 -6.911448554634e-04 
-1.457810866496e-03 1.124854279040e-04 0.0 
1.124854279040e-04 4.842862400746e-03 0.0 
0.0 0.0 -6.903833977050e-04 
-1.485479761852e-03 1.763889665616e-04 0.0 
1.763889665616e-04 4.844524201239e-03 0.0 
0.0 0.0 -6.905588330458e-04 
-1.530071715646e-03 2.314067896651e-04 0.0 
2.314067896651e-04 4.843027902445e-03 0.0 
0.0 0.0 -6.922444453805e-04 
-1.565434249602e-03 3.199826070801e-04 0.0 
3.199826070801e-04 4.827774349685e-03 0.0 
0.0 0.0 -6.916098530255e-04 
-1.592220907441e-03 4.164385463974e-04 0.0 
4.164385463974e-04 4.800836260159e-03 0.0 
0.0 0.0 -6.911665914957e-04 
-1.624093306590e-03 5.379923244308e-04 0.0 
5.379923244308e-04 4.762121973516e-03 0.0 
0.0 0.0 -6.926885898885e-04 
-1.636272666442e-03 7.038956101205e-04 0.0 
7.038956101205e-04 4.710840836171e-03 0.0 
0.0 0.0 -6.980272606831e-04 
-1.642234561257e-03 8.946537782645e-04 0.0 
8.946537782645e-04 4.660104212790e-03 0.0 
0.0 0.0 -7.070206663417e-04 
0.0 0.0 0.0 
0.0 0.0 0.0 
0.0 0.0 0.0 
0.0 0.0 0.0 
0.0 0.0 0.0 
0.0 0.0 0.0 
0.0 0.0 0.0 
0.0 0.0 0.0 
0.0 0.0 0.0 
0.0 0.0 0.0 
0.0 0.0 0.0 
0.0 0.0 0.0 
0.0 0.0 0.0 
0.0 0.0 0.0 
0.0 0.0 0.0 
6.460969664659e-05 -1.556902627030e-04 0.0 
-1.556902627030e-04 3.828112054754e-05 0.0 
0.0 0.0 -4.409606451177e-05 
2.290958672754e-04 -1.825778835954e-04 0.0 
-1.825778835954e-04 1.295802149225e-05 0.0 
0.0 0.0 -6.349991864517e-05 
3.258301092639e-04 -1.495010221350e-04 0.0 
-1.495010221350e-04 5.825232736603e-05 0.0 
0.0 0.0 -6.729406355132e-05 
4.308097979006e-04 -2.272179296947e-04 0.0 
-2.272179296947e-04 4.144525422736e-05 0.0 
0.0 0.0 -5.004267624003e-05 
7.170242557017e-04 -3.798682189908e-04 0.0 
-3.798682189908e-04 -8.718929718944e-05 0.0 
0.0 0.0 -5.423469082676e-05 
1.016505377143e-03 -3.706654485886e-04 0.0 
-3.706654485886e-04 -2.196691987021e-04 0.0 
0.0 0.0 -6.924701466199e-05 
1.374691841568e-03 -3.600731207399e-04 0.0 
-3.600731207399e-04 -3.650587174241e-04 0.0 
0.0 0.0 -8.456438766380e-05 
1.776444192994e-03 -3.135747337774e-04 0.0 
-3.135747337774e-04 -5.394471043759e-04 0.0 
0.0 0.0 -1.145437528706e-04 
2.116489510919e-03 -3.092434709054e-04 0.0 
-3.092434709054e-04 -6.971504040322e-04 0.0 
0.0 0.0 -1.122699804219e-04 
2.340534228900e-03 -2.489648393755e-04 0.0 
-2.489648393755e-04 -7.939335318199e-04 0.0 
0.0 0.0 -1.135261812993e-04 
2.545448873624e-03 -1.895106937816e-04 0.0 
-1.895106937816e-04 -8.695809182027e-04 0.0 
0.0 0.0 -1.151526711856e-04 
2.708912883130e-03 -1.592234908312e-04 0.0 
-1.592234908312e-04 -9.353356256089e-04 0.0 
0.0 0.0 -1.168504208365e-04 
2.867102977547e-03 -9.067089989766e-05 0.0 
-9.067089989766e-05 -1.037120165575e-03 0.0 
0.0 0.0 -1.138900488129e-04 
3.013559206580e-03 5.775462477208e-05 0.0 
5.775462477208e-05 -1.103986210354e-03 0.0 
0.0 0.0 -1.064965418423e-04 
9.044639148042e-05 1.503224233843e-03 0.0 
1.503224233843e-03 8.069459763132e-04 0.0 
0.0 0.0 -3.845967290544e-04 
3.101218752310e-05 1.389622891437e-03 0.0 
1.389622891437e-03 8.345203829457e-04 0.0 
0.0 0.0 -3.709425302009e-04 
-6.590425543897e-05 1.200655924326e-03 0.0 
1.200655924326e-03 8.916163119572e-04 0.0 
0.0 0.0 -3.494108739088e-04 
-1.802420849068e-04 9.124729838111e-04 0.0 
9.124729838111e-04 9.261444817274e-04 0.0 
0.0 0.0 -2.821624884035e-04 
-2.608406740043e-04 6.544271496269e-04 0.0 
6.544271496269e-04 9.625778280616e-04 0.0 
0.0 0.0 -2.194829511001e-04 
-2.602432772314e-04 3.707535137806e-04 0.0 
3.707535137806e-04 9.879552327034e-04 0.0 
0.0 0.0 -1.989072455129e-04 
-2.188213070348e-04 1.293315500065e-04 0.0 
1.293315500065e-04 1.013126584826e-03 0.0 
0.0 0.0 -2.003763926156e-04 
-1.967524784223e-04 -4.250467933939e-05 0.0 
-4.250467933939e-05 1.041141521606e-03 0.0 
0.0 0.0 -2.038826690569e-04 
-1.863074491995e-04 -1.608341401393e-04 0.0 
-1.608341401393e-04 1.064887165977e-03 0.0 
0.0 0.0 -2.071439992780e-04 
-1.836701183181e-04 -2.421049969853e-04 0.0 
-2.421049969853e-04 1.081407281079e-03 0.0 
0.0 0.0 -2.096017110967e-04 
-1.881151191523e-04 -2.954602218087e-04 0.0 
-2.954602218087e-04 1.094295880430e-03 0.0 
0.0 0.0 -2.114222918248e-04 
-1.994551370228e-04 -3.281090957487e-04 0.0 
-3.281090957487e-04 1.104358153870e-03 0.0 
0.0 0.0 -2.101599584836e-04 
-2.158673658990e-04 -3.446587143725e-04 0.0 
-3.446587143725e-04 1.113915981750e-03 0.0 
0.0 0.0 -2.085039059745e-04 
-2.354572658064e-04 -3.494955637562e-04 0.0 
-3.494955637562e-04 1.123754934569e-03 0.0 
0.0 0.0 -2.078156123247e-04 
-2.569300231729e-04 -3.457354802338e-04 0.0 
-3.457354802338e-04 1.133803811588e-03 0.0 
0.0 0.0 -2.078240094767e-04 
-2.789098911473e-04 -3.357104529977e-04 0.0 
-3.357104529977e-04 1.143575431391e-03 0.0 
0.0 0.0 -2.083067474814e-04 
-2.996853526708e-04 -3.199113864984e-04 0.0 
-3.199113864984e-04 1.152412984502e-03 0.0 
0.0 0.0 -2.090710199275e-04 
-3.186711862841e-04 -2.992613094138e-04 0.0 
-2.992613094138e-04 1.161137343505e-03 0.0 
0.0 0.0 -2.099352730386e-04 
-3.358333817334e-04 -2.753886557637e-04 0.0 
-2.753886557637e-04 1.169389108652e-03 0.0 
0.0 0.0 -2.108248442972e-04 
-3.514329425549e-04 -2.487926028215e-04 0.0 
-2.487926028215e-04 1.177154756802e-03 0.0 
0.0 0.0 -2.116766893069e-04 
-3.643303861765e-04 -2.211931627436e-04 0.0 
-2.211931627436e-04 1.183835198547e-03 0.0 
0.0 0.0 -2.124616233480e-04 
-3.736435853244e-04 -1.922652759525e-04 0.0 
-1.922652759525e-04 1.188674928770e-03 0.0 
0.0 0.0 -2.131177114973e-04 
-3.804265465922e-04 -1.601407966267e-04 0.0 
-1.601407966267e-04 1.191815467666e-03 0.0 
0.0 0.0 -2.136257430951e-04 
-3.854962013596e-04 -1.222713575869e-04 0.0 
-1.222713575869e-04 1.194054840871e-03 0.0 
0.0 0.0 -2.140187955684e-04 
-3.902217256413e-04 -5.731615132325e-05 0.0 
-5.731615132325e-05 1.202925100014e-03 0.0 
0.0 0.0 -2.139868023952e-04 
-4.215232412941e-04 4.850826107691e-05 0.0 
4.850826107691e-05 1.231169924056e-03 0.0 
0.0 0.0 -2.124417133592e-04 
-7.207297653064e-06 1.410248700228e-03 0.0 
1.410248700228e-03 9.175792043273e-04 0.0 
0.0 0.0 -3.901593885747e-04 
-1.103118252382e-04 1.226284166577e-03 0.0 
1.226284166577e-03 1.005680539646e-03 0.0 
0.0 0.0 -3.818155682853e-04 
-2.236973215356e-04 9.228676894401e-04 0.0 
9.228676894401e-04 1.067964466156e-03 0.0 
0.0 0.0 -3.440256872597e-04 
-3.001717412203e-04 6.465580719275e-04 0.0 
6.465580719275e-04 1.119900151555e-03 0.0 
0.0 0.0 -3.112312859776e-04 
-3.384560696130e-04 4.125554091249e-04 0.0 
4.125554091249e-04 1.181369602573e-03 0.0 
0.0 0.0 -2.905217765605e-04 
-3.671141900312e-04 2.139280277678e-04 0.0 
2.139280277678e-04 1.234912370280e-03 0.0 
0.0 0.0 -2.777119786568e-04 
-3.856389411553e-04 5.817902507628e-05 0.0 
5.817902507628e-05 1.282197226204e-03 0.0 
0.0 0.0 -2.706731611972e-04 
-3.820191849387e-04 -6.508537242442e-05 0.0 
-6.508537242442e-05 1.308730380916e-03 0.0 
0.0 0.0 -2.706342179627e-04 
-3.703143423952e-04 -1.574411244472e-04 0.0 
-1.574411244472e-04 1.321932723327e-03 0.0 
0.0 0.0 -2.684045378307e-04 
-3.641196039215e-04 -2.233825472164e-04 0.0 
-2.233825472164e-04 1.330411560113e-03 0.0 
0.0 0.0 -2.653397171659e-04 
-3.632900330305e-04 -2.676761154925e-04 0.0 
-2.676761154925e-04 1.336769110866e-03 0.0 
0.0 0.0 -2.613647723489e-04 
-3.663826529774e-04 -2.947869550737e-04 0.0 
-2.947869550737e-04 1.342563643132e-03 0.0 
0.0 0.0 -2.583906591326e-04 
-3.723682720447e-04 -3.084171914783e-04 0.0 
-3.084171914783e-04 1.348504697948e-03 0.0 
0.0 0.0 -2.567504220945e-04 
-3.802726126276e-04 -3.114623459817e-04 0.0 
-3.114623459817e-04 1.354458734268e-03 0.0 
0.0 0.0 -2.560781420700e-04 
-3.890662419112e-04 -3.058910284997e-04 0.0 
-3.058910284997e-04 1.360090228651e-03 0.0 
0.0 0.0 -2.560436786581e-04 
-3.980227489140e-04 -2.925847470395e-04 0.0 
-2.925847470395e-04 1.365620540601e-03 0.0 
0.0 0.0 -2.563905779039e-04 
-4.069289975706e-04 -2.738763849274e-04 0.0 
-2.738763849274e-04 1.371409417496e-03 0.0 
0.0 0.0 -2.569343176084e-04 
-4.154545856821e-04 -2.508315946617e-04 0.0 
-2.508315946617e-04 1.376963237025e-03 0.0 
0.0 0.0 -2.575646411629e-04 
-4.233567515120e-04 -2.246556682113e-04 0.0 
-2.246556682113e-04 1.382155529590e-03 0.0 
0.0 0.0 -2.582007070939e-04 
-4.297246681568e-04 -1.963539744950e-04 0.0 
-1.963539744950e-04 1.386411622362e-03 0.0 
0.0 0.0 -2.587732053644e-04 
-4.344468407600e-04 -1.654773235865e-04 0.0 
-1.654773235865e-04 1.389390610572e-03 0.0 
0.0 0.0 -2.592381443959e-04 
-4.380675522698e-04 -1.311614178969e-04 0.0 
-1.311614178969e-04 1.391410353904e-03 0.0 
0.0 0.0 -2.596113365351e-04 
-4.417326417539e-04 -9.289261755435e-05 0.0 
-9.289261755435e-05 1.393779833431e-03 0.0 
0.0 0.0 -2.597815999307e-04 
-4.589388306385e-04 -5.470250966499e-05 0.0 
-5.470250966499e-05 1.403304691556e-03 0.0 
0.0 0.0 -2.563501177162e-04 
-4.917889058055e-04 8.456632513977e-05 0.0 
8.456632513977e-05 1.417745818538e-03 0.0 
0.0 0.0 -2.490929525304e-04 
-6.521536472921e-04 3.037039092969e-05 0.0 
3.037039092969e-05 1.927101012756e-03 0.0 
0.0 0.0 -3.061660192852e-04 
-6.146125138384e-04 -7.648421940114e-05 0.0 
-7.648421940114e-05 1.912252703488e-03 0.0 
0.0 0.0 -3.161672630275e-04 
-6.123269788261e-04 -1.356533928898e-04 0.0 
-1.356533928898e-04 1.909321831748e-03 0.0 
0.0 0.0 -3.162703440688e-04 
-6.102267992251e-04 -1.752602272705e-04 0.0 
-1.752602272705e-04 1.907124225355e-03 0.0 
0.0 0.0 -3.166480862921e-04 
-6.078351167893e-04 -2.109984893587e-04 0.0 
-2.109984893587e-04 1.904702407949e-03 0.0 
0.0 0.0 -3.172242122056e-04 
-6.049262965588e-04 -2.437778904745e-04 0.0 
-2.437778904745e-04 1.901645462579e-03 0.0 
0.0 0.0 -3.179747884623e-04 
-6.016293543077e-04 -2.733641442443e-04 0.0 
-2.733641442443e-04 1.898077561520e-03 0.0 
0.0 0.0 -3.189054167417e-04 
-5.983341509043e-04 -2.985456040918e-04 0.0 
-2.985456040918e-04 1.894265064291e-03 0.0 
0.0 0.0 -3.200558360071e-04 
-5.954052100357e-04 -3.178164354008e-04 0.0 
-3.178164354008e-04 1.890328088488e-03 0.0 
0.0 0.0 -3.215242440727e-04 
-5.932930907438e-04 -3.295287160715e-04 0.0 
-3.295287160715e-04 1.886515057030e-03 0.0 
0.0 0.0 -3.234293095895e-04 
-5.925898260158e-04 -3.311133739508e-04 0.0 
-3.311133739508e-04 1.882950221058e-03 0.0 
0.0 0.0 -3.259169466148e-04 
-5.936278952851e-04 -3.198689819626e-04 0.0 
-3.198689819626e-04 1.879252640520e-03 0.0 
0.0 0.0 -3.291674719681e-04 
-5.971550282615e-04 -2.929944648091e-04 0.0 
-2.929944648091e-04 1.875333752629e-03 0.0 
0.0 0.0 -3.334451628410e-04 
-6.039541515878e-04 -2.475050715629e-04 0.0 
-2.475050715629e-04 1.870985002452e-03 0.0 
0.0 0.0 -3.391616836831e-04 
-6.148223475090e-04 -1.792794613688e-04 0.0 
-1.792794613688e-04 1.865813361112e-03 0.0 
0.0 0.0 -3.467505649865e-04 
-6.184345348540e-04 -8.454989948401e-05 0.0 
-8.454989948401e-05 1.854651279409e-03 0.0 
0.0 0.0 -3.603039951237e-04 
-6.085923058314e-04 4.072255252298e-05 0.0 
4.072255252298e-05 1.834338896564e-03 0.0 
0.0 0.0 -3.821985994076e-04 
-5.914469538950e-04 1.951592239921e-04 0.0 
1.951592239921e-04 1.799129574179e-03 0.0 
0.0 0.0 -4.047906533002e-04 
-5.543146148656e-04 3.816821526295e-04 0.0 
3.816821526295e-04 1.738557736627e-03 0.0 
0.0 0.0 -4.206681078764e-04 
-4.908826009862e-04 5.911692506281e-04 0.0 
5.911692506281e-04 1.645052271329e-03 0.0 
0.0 0.0 -4.418263900718e-04 
-4.101061126456e-04 8.497011629847e-04 0.0 
8.497011629847e-04 1.543306508708e-03 0.0 
0.0 0.0 -4.634526724741e-04 
-3.026172258989e-04 1.152678743765e-03 0.0 
1.152678743765e-03 1.424524180282e-03 0.0 
0.0 0.0 -4.797192951453e-04 
-1.851017191588e-04 1.364462229885e-03 0.0 
1.364462229885e-03 1.258853605899e-03 0.0 
0.0 0.0 -4.601793800314e-04 
-3.917368210583e-04 1.317479250336e-03 0.0 
1.317479250336e-03 1.747874473266e-03 0.0 
0.0 0.0 -5.812018509462e-04 
-5.091690360286e-04 1.130845155862e-03 0.0 
1.130845155862e-03 1.963327675715e-03 0.0 
0.0 0.0 -6.066533733830e-04 
-6.141014296330e-04 8.542857385472e-04 0.0 
8.542857385472e-04 2.104545634073e-03 0.0 
0.0 0.0 -5.807024946757e-04 
-6.882663027808e-04 6.113252394538e-04 0.0 
6.113252394538e-04 2.202130389397e-03 0.0 
0.0 0.0 -5.506042562872e-04 
-7.485151266818e-04 4.048271456746e-04 0.0 
4.048271456746e-04 2.276572322960e-03 0.0 
0.0 0.0 -5.097853306316e-04 
-7.897555551191e-04 2.224232272700e-04 0.0 
2.224232272700e-04 2.321631848111e-03 0.0 
0.0 0.0 -4.716768144535e-04 
-8.179605038944e-04 7.373921887575e-05 0.0 
7.373921887575e-05 2.355988915550e-03 0.0 
0.0 0.0 -4.418280814132e-04 
-8.268010595159e-04 -4.483534428960e-05 0.0 
-4.483534428960e-05 2.376308389151e-03 0.0 
0.0 0.0 -4.218770227552e-04 
-8.228503060703e-04 -1.347192607701e-04 0.0 
-1.347192607701e-04 2.388847937133e-03 0.0 
0.0 0.0 -4.090523408212e-04 
-8.109185832396e-04 -1.989047172259e-04 0.0 
-1.989047172259e-04 2.395688157729e-03 0.0 
0.0 0.0 -4.015628555955e-04 
-8.019746084778e-04 -2.402503830985e-04 0.0 
-2.402503830985e-04 2.401236351570e-03 0.0 
0.0 0.0 -3.954021415690e-04 
-7.953245493492e-04 -2.629832857574e-04 0.0 
-2.629832857574e-04 2.405546845163e-03 0.0 
0.0 0.0 -3.902995700482e-04 
-7.906845303877e-04 -2.708266975381e-04 0.0 
-2.708266975381e-04 2.409326752935e-03 0.0 
0.0 0.0 -3.860854787602e-04 
-7.877188598931e-04 -2.666780701279e-04 0.0 
-2.666780701279e-04 2.412893579400e-03 0.0 
0.0 0.0 -3.826300360752e-04 
-7.859472857759e-04 -2.529812670249e-04 0.0 
-2.529812670249e-04 2.416190377898e-03 0.0 
0.0 0.0 -3.797920724705e-04 
-7.849776301162e-04 -2.317218095120e-04 0.0 
-2.317218095120e-04 2.419097107999e-03 0.0 
0.0 0.0 -3.774328490719e-04 
-7.844810121678e-04 -2.050225660717e-04 0.0 
-2.050225660717e-04 2.421538416815e-03 0.0 
0.0 0.0 -3.754828035711e-04 
-7.842654296420e-04 -1.743385635113e-04 0.0 
-1.743385635113e-04 2.423613148989e-03 0.0 
0.0 0.0 -3.739320486442e-04 
-7.843867792918e-04 -1.404633765496e-04 0.0 
-1.404633765496e-04 2.425575961632e-03 0.0 
0.0 0.0 -3.727418427549e-04 
-7.857008201318e-04 -1.044807299690e-04 0.0 
-1.044807299690e-04 2.428069777729e-03 0.0 
0.0 0.0 -3.717245115980e-04 
-7.997888929887e-04 -7.230959013771e-05 0.0 
-7.230959013771e-05 2.434645715537e-03 0.0 
0.0 0.0 -3.674400072102e-04 
-8.218042889041e-04 7.812455767352e-05 0.0 
7.812455767352e-05 2.442717993920e-03 0.0 
0.0 0.0 -3.611040392158e-04 
-9.494559103031e-04 3.245343644015e-05 0.0 
3.245343644015e-05 2.942828314072e-03 0.0 
0.0 0.0 -4.276225674433e-04 
-9.453893070207e-04 -7.111604734988e-05 0.0 
-7.111604734988e-05 2.939480324051e-03 0.0 
0.0 0.0 -4.291610623509e-04 
-9.479485626056e-04 -1.223075957800e-04 0.0 
-1.223075957800e-04 2.938148575924e-03 0.0 
0.0 0.0 -4.294518113500e-04 
-9.513509497972e-04 -1.528128127516e-04 0.0 
-1.528128127516e-04 2.937112011401e-03 0.0 
0.0 0.0 -4.303156580442e-04 
-9.561412693041e-04 -1.795418847633e-04 0.0 
-1.795418847633e-04 2.936257850339e-03 0.0 
0.0 0.0 -4.315177398476e-04 
-9.613801982685e-04 -2.020582703720e-04 0.0 
-2.020582703720e-04 2.935027659389e-03 0.0 
0.0 0.0 -4.333935888026e-04 
-9.649594115909e-04 -2.191801396652e-04 0.0 
-2.191801396652e-04 2.932403783643e-03 0.0 
0.0 0.0 -4.365863700986e-04 
-9.694509318337e-04 -2.282743571783e-04 0.0 
-2.282743571783e-04 2.928700962369e-03 0.0 
0.0 0.0 -4.403344688981e-04 
-9.752854465798e-04 -2.262425092116e-04 0.0 
-2.262425092116e-04 2.924232336100e-03 0.0 
0.0 0.0 -4.446981798157e-04 
-9.827947901593e-04 -2.105547843802e-04 0.0 
-2.105547843802e-04 2.919037677629e-03 0.0 
0.0 0.0 -4.499693714774e-04 
-9.922432754887e-04 -1.788315847570e-04 0.0 
-1.788315847570e-04 2.912643541075e-03 0.0 
0.0 0.0 -4.561666389974e-04 
-1.003596714027e-03 -1.273527626457e-04 0.0 
-1.273527626457e-04 2.903956443196e-03 0.0 
0.0 0.0 -4.633466294216e-04 
-1.016765204047e-03 -5.053958217971e-05 0.0 
-5.053958217971e-05 2.891535834080e-03 0.0 
0.0 0.0 -4.716857746087e-04 
-1.020109545419e-03 5.743003251611e-05 0.0 
5.743003251611e-05 2.872702128626e-03 0.0 
0.0 0.0 -4.852209091340e-04 
-9.964537532025e-04 1.942960321916e-04 0.0 
1.942960321916e-04 2.839351573495e-03 0.0 
0.0 0.0 -5.097743276704e-04 
-9.610160034558e-04 3.659639876319e-04 0.0 
3.659639876319e-04 2.796351539205e-03 0.0 
0.0 0.0 -5.405745080065e-04 
-9.090299886647e-04 5.649669993174e-04 0.0 
5.649669993174e-04 2.731549626740e-03 0.0 
0.0 0.0 -5.795081218868e-04 
-8.421940977849e-04 8.146075856698e-04 0.0 
8.146075856698e-04 2.654238991049e-03 0.0 
0.0 0.0 -6.241631820133e-04 
-7.469235452296e-04 1.108005846327e-03 0.0 
1.108005846327e-03 2.554144737090e-03 0.0 
0.0 0.0 -6.876227360811e-04 
-6.222319269350e-04 1.311587394284e-03 0.0 
1.311587394284e-03 2.351737594925e-03 0.0 
0.0 0.0 -7.129699783845e-04 
-8.859289441425e-04 1.243241253464e-03 0.0 
1.243241253464e-03 2.913195279952e-03 0.0 
0.0 0.0 -7.120710084939e-04 
-1.004734523472e-03 1.018600750567e-03 0.0 
1.018600750567e-03 3.106427625498e-03 0.0 
0.0 0.0 -6.771260834247e-04 
-1.079401310026e-03 7.481842232065e-04 0.0 
7.481842232065e-04 3.193468346598e-03 0.0 
0.0 0.0 -6.300277574108e-04 
-1.131577463836e-03 5.268764785930e-04 0.0 
5.268764785930e-04 3.259614661613e-03 0.0 
0.0 0.0 -5.970134556630e-04 
-1.175698392474e-03 3.505042719681e-04 0.0 
3.505042719681e-04 3.318814681410e-03 0.0 
0.0 0.0 -5.654316324824e-04 
-1.198259795194e-03 1.983623377187e-04 0.0 
1.983623377187e-04 3.357846983414e-03 0.0 
0.0 0.0 -5.431954804876e-04 
-1.193688646499e-03 8.236585560367e-05 0.0 
8.236585560367e-05 3.385843501569e-03 0.0 
0.0 0.0 -5.307242391481e-04 
-1.181400322402e-03 -2.610677248912e-06 0.0 
-2.610677248912e-06 3.403469425701e-03 0.0 
0.0 0.0 -5.217490130384e-04 
-1.169734073994e-03 -6.313793199308e-05 0.0 
-6.313793199308e-05 3.415891564710e-03 0.0 
0.0 0.0 -5.139000268513e-04 
-1.159307772713e-03 -1.048439826788e-04 0.0 
-1.048439826788e-04 3.424926224559e-03 0.0 
0.0 0.0 -5.068416884887e-04 
-1.149301363739e-03 -1.311774395022e-04 0.0 
-1.311774395022e-04 3.432400745694e-03 0.0 
0.0 0.0 -5.012787953396e-04 
-1.136366457465e-03 -1.411361358348e-04 0.0 
-1.411361358348e-04 3.437153305501e-03 0.0 
0.0 0.0 -4.980850712606e-04 
-1.124188871364e-03 -1.394547320618e-04 0.0 
-1.394547320618e-04 3.439448222641e-03 0.0 
0.0 0.0 -4.952863446172e-04 
-1.111828436603e-03 -1.308291125140e-04 0.0 
-1.308291125140e-04 3.439882520158e-03 0.0 
0.0 0.0 -4.936612140760e-04 
-1.098447969421e-03 -1.167396694570e-04 0.0 
-1.167396694570e-04 3.439293515508e-03 0.0 
0.0 0.0 -4.933333333333e-04 
-1.087594461636e-03 -9.799983896262e-05 0.0 
-9.799983896262e-05 3.438806070953e-03 0.0 
0.0 0.0 -4.933333333333e-04 
-1.079672367243e-03 -7.744480207381e-05 0.0 
-7.744480207381e-05 3.439140724054e-03 0.0 
0.0 0.0 -4.933333333333e-04 
-1.076026664782e-03 -5.828265356752e-05 0.0 
-5.828265356752e-05 3.441224913047e-03 0.0 
0.0 0.0 -4.933333333333e-04 
-1.075502650299e-03 8.431295565096e-05 0.0 
8.431295565096e-05 3.442685458650e-03 0.0 
0.0 0.0 -4.933333333333e-04 
-1.189994461039e-03 4.971329978173e-05 0.0 
4.971329978173e-05 3.933936678343e-03 0.0 
0.0 0.0 -5.600000000000e-04 
-1.189943494860e-03 -3.915048486870e-05 0.0 
-3.915048486870e-05 3.929295747162e-03 0.0 
0.0 0.0 -5.600000000000e-04 
-1.196995215316e-03 -6.619293072910e-05 0.0 
-6.619293072910e-05 3.927958942862e-03 0.0 
0.0 0.0 -5.600000000000e-04 
-1.209000108090e-03 -7.709460563794e-05 0.0 
-7.709460563794e-05 3.928987706667e-03 0.0 
0.0 0.0 -5.600000000000e-04 
-1.222591065312e-03 -8.087627347994e-05 0.0 
-8.087627347994e-05 3.928642048882e-03 0.0 
0.0 0.0 -5.600000000000e-04 
-1.242241496923e-03 -8.001653654516e-05 0.0 
-8.001653654516e-05 3.929767912219e-03 0.0 
0.0 0.0 -5.600000000000e-04 
-1.264776066821e-03 -7.096870869374e-05 0.0 
-7.096870869374e-05 3.930292006580e-03 0.0 
0.0 0.0 -5.600000000000e-04 
-1.291607559870e-03 -5.753569633380e-05 0.0 
-5.753569633380e-05 3.928177153315e-03 0.0 
0.0 0.0 -5.600000000000e-04 
-1.313480821163e-03 -2.264210671336e-05 0.0 
-2.264210671336e-05 3.919521392894e-03 0.0 
0.0 0.0 -5.618027733580e-04 
-1.334363465792e-03 3.032816973716e-05 0.0 
3.032816973716e-05 3.911166292933e-03 0.0 
0.0 0.0 -5.662115594836e-04 
-1.345626602697e-03 9.725453922173e-05 0.0 
9.725453922173e-05 3.895259009147e-03 0.0 
0.0 0.0 -5.743994467985e-04 
-1.356260887442e-03 1.893430820086e-04 0.0 
1.893430820086e-04 3.871741255735e-03 0.0 
0.0 0.0 -5.833032914833e-04 
-1.366012120890e-03 3.096264366290e-04 0.0 
3.096264366290e-04 3.841250700024e-03 0.0 
0.0 0.0 -5.938366679572e-04 
-1.351517243904e-03 4.620420004327e-04 0.0 
4.620420004327e-04 3.787895507316e-03 0.0 
0.0 0.0 -6.115999087365e-04 
-1.313173102658e-03 6.667035574404e-04 0.0 
6.667035574404e-04 3.730474013625e-03 0.0 
0.0 0.0 -6.360477204719e-04 
-1.260419596383e-03 8.991646670823e-04 0.0 
8.991646670823e-04 3.667954377089e-03 0.0 
0.0 0.0 -6.715110950050e-04 
-1.156777947287e-03 1.103879225283e-03 0.0 
1.103879225283e-03 3.481215616997e-03 0.0 
0.0 0.0 -6.945456224821e-04 
-1.413371839818e-03 9.869439785182e-04 0.0 
9.869439785182e-04 4.044630377487e-03 0.0 
0.0 0.0 -6.871907024512e-04 
-1.498556740945e-03 8.027277734388e-04 0.0 
8.027277734388e-04 4.217784539438e-03 0.0 
0.0 0.0 -6.754388315825e-04 
-1.517003084896e-03 6.032515853078e-04 0.0 
6.032515853078e-04 4.269979929512e-03 0.0 
0.0 0.0 -6.550211625735e-04 
-1.511553648353e-03 4.490191689128e-04 0.0 
4.490191689128e-04 4.314033839254e-03 0.0 
0.0 0.0 -6.432502374181e-04 
-1.500446210863e-03 3.184819489120e-04 0.0 
3.184819489120e-04 4.351230304708e-03 0.0 
0.0 0.0 -6.352144205724e-04 
-1.482245807683e-03 2.246627967315e-04 0.0 
2.246627967315e-04 4.377537132701e-03 0.0 
0.0 0.0 -6.294719905043e-04 
-1.455175852238e-03 1.513209258517e-04 0.0 
1.513209258517e-04 4.388941904323e-03 0.0 
0.0 0.0 -6.266666666667e-04 
-1.422377976552e-03 8.452613654984e-05 0.0 
8.452613654984e-05 4.398275898476e-03 0.0 
0.0 0.0 -6.266666666667e-04 
-1.387740669927e-03 5.055332934235e-05 0.0 
5.055332934235e-05 4.407309917814e-03 0.0 
0.0 0.0 -6.266666666667e-04 
-1.364267156085e-03 1.746043878918e-05 0.0 
1.746043878918e-05 4.408435903517e-03 0.0 
0.0 0.0 -6.266666666667e-04 
-1.340556828241e-03 2.310074790946e-06 0.0 
2.310074790946e-06 4.409446433091e-03 0.0 
0.0 0.0 -6.266666666667e-04 
-1.322009739859e-03 -1.793960035533e-05 0.0 
-1.793960035533e-05 4.409251285455e-03 0.0 
0.0 0.0 -6.266666666667e-04 
-1.309592160630e-03 -1.727365315460e-05 0.0 
-1.727365315460e-05 4.412670266398e-03 0.0 
0.0 0.0 -6.266666666667e-04 
-1.296178947065e-03 -2.233083817508e-05 0.0 
-2.233083817508e-05 4.407948356665e-03 0.0 
0.0 0.0 -6.266666666667e-04 
-1.291396798343e-03 -4.231649306782e-05 0.0 
-4.231649306782e-05 4.418716211488e-03 0.0 
0.0 0.0 -6.266666666667e-04 
-1.299258567356e-03 1.084144737729e-04 0.0 
1.084144737729e-04 4.428774256468e-03 0.0 
0.0 0.0 -6.266666666667e-04 
-7.719858942239e-05 1.064858333721e-03 0.0 
1.064858333721e-03 1.039393412030e-04 0.0 
0.0 0.0 -1.146032219169e-05 
1.936976575994e-04 1.398779559345e-03 0.0 
1.398779559345e-03 5.900772889955e-04 0.0 
0.0 0.0 -3.359035485407e-04 
1.625585485922e-04 1.696672057115e-03 0.0 
1.696672057115e-03 8.217515565251e-04 0.0 
0.0 0.0 -4.218471879074e-04 
5.652740135924e-05 1.735587432243e-03 0.0 
1.735587432243e-03 1.015281301015e-03 0.0 
0.0 0.0 -4.593465867320e-04 
-1.456114155099e-04 1.664381126323e-03 0.0 
1.664381126323e-03 1.357653711262e-03 0.0 
0.0 0.0 -5.194466981793e-04 
-3.792282684864e-04 1.656998493189e-03 0.0 
1.656998493189e-03 1.899294413969e-03 0.0 
0.0 0.0 -6.514569194927e-04 
-6.251830612815e-04 1.650118487789e-03 0.0 
1.650118487789e-03 2.533700233250e-03 0.0 
0.0 0.0 -8.020470760878e-04 
-9.259280155328e-04 1.541530339945e-03 0.0 
1.541530339945e-03 3.121438131384e-03 0.0 
0.0 0.0 -7.697949396469e-04 
-1.219707571260e-03 1.363862905373e-03 0.0 
1.363862905373e-03 3.712475698443e-03 0.0 
0.0 0.0 -7.416632329583e-04 
-1.501649114425e-03 1.213866345860e-03 0.0 
1.213866345860e-03 4.312722460883e-03 0.0 
0.0 0.0 -7.242776845527e-04 
3.539823178863e-04 1.710352572919e-03 0.0 
1.710352572919e-03 5.866051080763e-04 0.0 
0.0 0.0 -4.031088968411e-04 
-9.225734973571e-04 -7.785055507497e-06 0.0 
-7.785055507497e-06 4.710905526494e-03 0.0 
0.0 0.0 -1.303388942653e-03 
2.002003524453e-04 -6.228844878024e-04 0.0 
-6.228844878024e-04 2.361800845582e-04 0.0 
0.0 0.0 -1.150931346421e-04 
6.351277012353e-06 -1.034192914689e-04 0.0 
-1.034192914689e-04 -6.351277012354e-06 0.0 
0.0 0.0 0.0 
-1.143124804619e-03 -1.686232053488e-03 0.0 
-1.686232053488e-03 5.409600557008e-03 0.0 
0.0 0.0 -1.303360877099e-03 
1.234786051762e-04 1.977711876023e-03 0.0 
1.977711876023e-03 1.061132021132e-03 0.0 
0.0 0.0 -5.076902684178e-04 
-1.444704152341e-03 -3.615903752048e-04 0.0 
-3.615903752048e-04 4.407515592965e-03 0.0 
0.0 0.0 -1.026919993916e-03 
-9.479894819801e-04 1.838728918359e-03 0.0 
1.838728918359e-03 4.893992345869e-03 0.0 
0.0 0.0 -1.300998267065e-03 
-3.669420938573e-04 1.945721923899e-03 0.0 
1.945721923899e-03 2.035468676857e-03 0.0 
0.0 0.0 -7.150828212858e-04 
-1.134501767780e-03 3.078864715943e-03 0.0 
3.078864715943e-03 5.708971873236e-03 0.0 
0.0 0.0 -1.304014651794e-03 
-9.933335184060e-04 1.783041133304e-03 0.0 
1.783041133304e-03 3.368272424712e-03 0.0 
0.0 0.0 -8.139337748180e-04 
-1.367928456590e-03 -1.893022985453e-03 0.0 
-1.893022985453e-03 6.315060285992e-03 0.0 
0.0 0.0 -1.307658508868e-03 
1.393566666495e-03 -5.293231022229e-04 0.0 
-5.293231022229e-04 -2.919979710108e-04 0.0 
0.0 0.0 -1.726441863791e-04 
-1.321068622768e-03 3.408933067941e-03 0.0 
3.408933067941e-03 6.699280987615e-03 0.0 
0.0 0.0 -1.304481600125e-03 
-1.625241511018e-03 1.405941443998e-03 0.0 
1.405941443998e-03 4.657250357868e-03 0.0 
0.0 0.0 -7.595448291451e-04 
-9.674687493222e-04 -2.324067189866e-04 0.0 
-2.324067189866e-04 3.002016490702e-03 0.0 
0.0 0.0 -7.390740322083e-04 
-1.821851265128e-03 -3.597710289885e-04 0.0 
-3.597710289885e-04 5.333319395799e-03 0.0 
0.0 0.0 -1.073818338595e-03 
-1.412437544610e-03 3.130277989420e-03 0.0 
3.130277989420e-03 7.340714354146e-03 0.0 
0.0 0.0 -1.301280071178e-03 
-1.458721797288e-03 2.468181070438e-03 0.0 
2.468181070438e-03 8.007112846752e-03 0.0 
0.0 0.0 -1.304294760550e-03 
-1.442626291436e-03 7.982050020717e-04 0.0 
7.982050020717e-04 8.632923623264e-03 0.0 
0.0 0.0 -1.303238611779e-03 
-1.460924372811e-03 1.330564066234e-03 0.0 
1.330564066234e-03 8.482170570322e-03 0.0 
0.0 0.0 -1.297727402575e-03 
-1.466071718827e-03 1.860397699296e-03 0.0 
1.860397699296e-03 8.323259225048e-03 0.0 
0.0 0.0 -1.305306183856e-03 
-1.723504189141e-03 9.545217762893e-04 0.0 
9.545217762893e-04 5.069531762335e-03 0.0 
0.0 0.0 -7.528866907182e-04 
-1.609633540750e-03 4.109047618561e-04 0.0 
4.109047618561e-04 5.236232241604e-03 0.0 
0.0 0.0 -7.529849494387e-04 
-1.529214909887e-03 1.902322029956e-04 0.0 
1.902322029956e-04 5.302594416650e-03 0.0 
0.0 0.0 -7.580270452736e-04 
-1.581306103182e-03 3.146837778263e-05 0.0 
3.146837778263e-05 6.876614414943e-03 0.0 
0.0 0.0 -9.950081682429e-04 
-1.500312298629e-03 -1.404495050420e-03 0.0 
-1.404495050420e-03 6.813712989149e-03 0.0 
0.0 0.0 -1.302874185639e-03 
0.0 0.0 0.0 
0.0 0.0 0.0 
0.0 0.0 0.0 
1.991019007460e-03 -2.749999736625e-04 0.0 
-2.749999736625e-04 -4.994877663417e-04 0.0 
0.0 0.0 -1.971444476807e-04 
-2.064700972320e-03 -3.063344179821e-04 0.0 
-3.063344179821e-04 6.409893202118e-03 0.0 
0.0 0.0 -1.122886395833e-03 
-1.468245391393e-03 9.255547116428e-05 0.0 
9.255547116428e-05 5.268982738319e-03 0.0 
0.0 0.0 -7.500338828344e-04 
-3.768246537726e-04 -1.072125225081e-04 0.0 
-1.072125225081e-04 1.532862867376e-03 0.0 
0.0 0.0 -3.103003023327e-04 
-1.462480749969e-03 2.788238406384e-03 0.0 
2.788238406384e-03 7.654884390723e-03 0.0 
0.0 0.0 -1.293200138473e-03 
-1.060495443339e-03 2.586030718155e-03 0.0 
2.586030718155e-03 5.302800007763e-03 0.0 
0.0 0.0 -1.307307853467e-03 
-1.239947575843e-03 3.359554949631e-03 0.0 
3.359554949631e-03 6.201507605709e-03 0.0 
0.0 0.0 -1.304733450272e-03 
-8.851569131084e-04 1.017294528516e-03 0.0 
1.017294528516e-03 4.688446957818e-03 0.0 
0.0 0.0 -1.297928233296e-03 
-1.011734799512e-03 -8.525942349034e-04 0.0 
-8.525942349034e-04 4.907050266684e-03 0.0 
0.0 0.0 -1.305578568836e-03 
1.120011211769e-04 -9.639393047147e-04 0.0 
-9.639393047147e-04 3.552641554252e-04 0.0 
0.0 0.0 -2.002565471152e-04 
-1.668530992619e-03 6.309946100002e-04 0.0 
6.309946100002e-04 5.166924460567e-03 0.0 
0.0 0.0 -7.500980793755e-04 
-1.253144254253e-03 -1.928883033382e-03 0.0 
-1.928883033382e-03 5.781747753778e-03 0.0 
0.0 0.0 -1.293180865222e-03 
-1.565497950727e-03 6.438167873332e-05 0.0 
6.438167873332e-05 7.693447317596e-03 0.0 
0.0 0.0 -1.123598490052e-03 
6.785802533228e-04 -5.736279611176e-04 0.0 
-5.736279611176e-04 1.838174080769e-07 0.0 
0.0 0.0 -1.171618051616e-04 
-1.195500737651e-03 -3.256008312402e-04 0.0 
-3.256008312402e-04 3.719620558921e-03 0.0 
0.0 0.0 -9.209925479532e-04 
-1.429805954471e-03 5.036842419237e-04 0.0 
5.036842419237e-04 8.739646127293e-03 0.0 
0.0 0.0 -1.311981303940e-03 
-9.905702435700e-05 2.013930135586e-03 0.0 
2.013930135586e-03 1.485122832027e-03 0.0 
0.0 0.0 -5.940282032871e-04 
3.261360612195e-04 2.014048139277e-03 0.0 
2.014048139277e-03 7.944417754282e-04 0.0 
0.0 0.0 -4.802476442776e-04 
-6.470413752911e-04 1.957850985508e-03 0.0 
1.957850985508e-03 2.728601734132e-03 0.0 
0.0 0.0 -8.637206373099e-04 
-1.316804590616e-03 1.569868653343e-03 0.0 
1.569868653343e-03 4.005894671503e-03 0.0 
0.0 0.0 -7.800224789174e-04 
9.432860495297e-05 1.243651425020e-03 0.0 
1.243651425020e-03 1.469515656324e-04 0.0 
0.0 0.0 -1.034057873937e-04 
-1.536524951872e-03 3.208999903453e-05 0.0 
3.208999903453e-05 6.068754859848e-03 0.0 
0.0 0.0 -8.684787984471e-04 
-1.527482046669e-03 -8.504264765478e-04 0.0 
-8.504264765478e-04 7.084540485198e-03 0.0 
0.0 0.0 -1.313906642692e-03 
2.259445629762e-03 -9.175095740177e-05 0.0 
-9.175095740177e-05 -6.502150918460e-04 0.0 
0.0 0.0 -1.918888419282e-04 
-1.463207116020e-03 1.296765555730e-04 0.0 
1.296765555730e-04 8.413961701398e-03 0.0 
0.0 0.0 -1.253930875827e-03 
-1.717988966153e-03 1.334598389081e-03 0.0 
1.334598389081e-03 4.909530889206e-03 0.0 
0.0 0.0 -7.655439890770e-04 
-1.720228455065e-03 1.586186079137e-03 0.0 
1.586186079137e-03 4.967329360851e-03 0.0 
0.0 0.0 -7.934218816250e-04 
-1.768015179977e-03 1.461597718910e-03 0.0 
1.461597718910e-03 5.276074626724e-03 0.0 
0.0 0.0 -8.115680642089e-04 
-1.765114281844e-03 1.749488874724e-03 0.0 
1.749488874724e-03 5.323901634960e-03 0.0 
0.0 0.0 -8.428390908522e-04 
-1.776011419960e-03 1.632950866705e-03 0.0 
1.632950866705e-03 5.614599388379e-03 0.0 
0.0 0.0 -8.784658474099e-04 
-1.753067371520e-03 1.892876727445e-03 0.0 
1.892876727445e-03 5.647697331923e-03 0.0 
0.0 0.0 -9.060409163497e-04 
-1.729403370927e-03 2.034729517834e-03 0.0 
2.034729517834e-03 5.329326258993e-03 0.0 
0.0 0.0 -8.711257577414e-04 
-1.705524146156e-03 2.154135310252e-03 0.0 
2.154135310252e-03 5.649528349792e-03 0.0 
0.0 0.0 -9.341442283280e-04 
-1.669480427723e-03 2.313796081278e-03 0.0 
2.313796081278e-03 5.302391134739e-03 0.0 
0.0 0.0 -8.989774131092e-04 
-1.760017773414e-03 1.778713600910e-03 0.0 
1.778713600910e-03 5.960915318729e-03 0.0 
0.0 0.0 -9.415083590319e-04 
-1.639128685698e-03 2.400878910049e-03 0.0 
2.400878910049e-03 5.620671151866e-03 0.0 
0.0 0.0 -9.622976032585e-04 
-1.585968914987e-03 2.571269188534e-03 0.0 
2.571269188534e-03 5.245482773901e-03 0.0 
0.0 0.0 -9.268639294333e-04 
-1.553264337981e-03 2.629359401866e-03 0.0 
2.629359401866e-03 5.564461608518e-03 0.0 
0.0 0.0 -9.903372159162e-04 
-1.482148429882e-03 2.800719357184e-03 0.0 
2.800719357184e-03 5.162964478957e-03 0.0 
0.0 0.0 -9.547708836903e-04 
-1.480872876733e-03 2.756523220070e-03 0.0 
2.756523220070e-03 4.843370134984e-03 0.0 
0.0 0.0 -9.032660992691e-04 
-1.370066982921e-03 2.994500238396e-03 0.0 
2.994500238396e-03 4.734217419357e-03 0.0 
0.0 0.0 -9.261835667445e-04 
-1.296697830142e-03 2.932762897298e-03 0.0 
2.932762897298e-03 4.406716792506e-03 0.0 
0.0 0.0 -9.004111975071e-04 
-1.176154479742e-03 3.171939239460e-03 0.0 
3.171939239460e-03 4.268382598936e-03 0.0 
0.0 0.0 -9.182233496599e-04 
-1.237826052231e-03 3.181299556145e-03 0.0 
3.181299556145e-03 4.604885530242e-03 0.0 
0.0 0.0 -9.498701766430e-04 
-1.038924370446e-03 3.354505003279e-03 0.0 
3.354505003279e-03 4.108768898160e-03 0.0 
0.0 0.0 -9.343221806050e-04 
-9.113966935237e-04 3.322436674522e-03 0.0 
3.322436674522e-03 3.767445704006e-03 0.0 
0.0 0.0 -9.288662988139e-04 
-7.681433481646e-04 3.500147498246e-03 0.0 
3.500147498246e-03 3.577220508926e-03 0.0 
0.0 0.0 -9.367850320061e-04 
-6.050859616232e-04 3.441042246538e-03 0.0 
3.441042246538e-03 3.246213294712e-03 0.0 
0.0 0.0 -9.518642033955e-04 
-4.467796431526e-04 3.596824647640e-03 0.0 
3.596824647640e-03 3.023253834938e-03 0.0 
0.0 0.0 -9.541337235040e-04 
-2.817347476968e-04 3.508182660979e-03 0.0 
3.508182660979e-03 2.709346421897e-03 0.0 
0.0 0.0 -9.642822318347e-04 
-1.040481770833e-04 3.619372760828e-03 0.0 
3.619372760828e-03 2.449228749823e-03 0.0 
0.0 0.0 -9.459728402633e-04 
-2.870166289118e-04 3.676071568470e-03 0.0 
3.676071568470e-03 2.794184702227e-03 0.0 
0.0 0.0 -9.498144071847e-04 
6.429436302438e-05 3.660882361634e-03 0.0 
3.660882361634e-03 2.186835241716e-03 0.0 
0.0 0.0 -9.193128608805e-04 
2.331588354861e-04 3.548891452897e-03 0.0 
3.548891452897e-03 1.871725410986e-03 0.0 
0.0 0.0 -8.913707482552e-04 
4.174760030635e-04 3.518419278721e-03 0.0 
3.518419278721e-03 1.585153718146e-03 0.0 
0.0 0.0 -8.538425857873e-04 
5.455280992742e-04 3.365363645192e-03 0.0 
3.365363645192e-03 1.323229666394e-03 0.0 
0.0 0.0 -8.008961852862e-04 
7.498486656370e-04 3.260544319073e-03 0.0 
3.260544319073e-03 1.013594496255e-03 0.0 
0.0 0.0 -7.557613550964e-04 
5.794043773309e-04 3.414810932032e-03 0.0 
3.414810932032e-03 1.312272080423e-03 0.0 
0.0 0.0 -8.100034870355e-04 
9.766186802750e-04 3.126905533587e-03 0.0 
3.126905533587e-03 6.756506724320e-04 0.0 
0.0 0.0 -7.081154368744e-04 
1.170764685342e-03 3.063309594450e-03 0.0 
3.063309594450e-03 3.918842971428e-04 0.0 
0.0 0.0 -6.697067067790e-04 
1.469956798013e-03 2.887539401857e-03 0.0 
2.887539401857e-03 -6.720200421090e-06 0.0 
0.0 0.0 -6.271013989681e-04 
1.655398318796e-03 2.905797537394e-03 0.0 
2.905797537394e-03 -2.066635196578e-04 0.0 
0.0 0.0 -6.208863424878e-04 
1.958892900495e-03 2.587078338226e-03 0.0 
2.587078338226e-03 -5.601119320347e-04 0.0 
0.0 0.0 -5.994775579116e-04 
2.135455672651e-03 2.638700697284e-03 0.0 
2.638700697284e-03 -6.211030008372e-04 0.0 
0.0 0.0 -6.490082879202e-04 
2.410352153471e-03 2.173774944653e-03 0.0 
2.173774944653e-03 -9.107525055140e-04 0.0 
0.0 0.0 -6.426855634101e-04 
2.158594858366e-03 2.117426171510e-03 0.0 
2.117426171510e-03 -8.346185089651e-04 0.0 
0.0 0.0 -5.674184354577e-04 
2.548284906519e-03 1.577323129924e-03 0.0 
1.577323129924e-03 -1.120076299841e-03 0.0 
0.0 0.0 -6.120894028618e-04 
2.766282761562e-03 1.671188389262e-03 0.0 
1.671188389262e-03 -1.152705968468e-03 0.0 
0.0 0.0 -6.915329113260e-04 
2.831831315373e-03 9.695675877105e-04 0.0 
9.695675877105e-04 -1.281170566415e-03 0.0 
0.0 0.0 -6.645688924106e-04 
2.536993124922e-03 9.134999273791e-04 0.0 
9.134999273791e-04 -1.229619517363e-03 0.0 
0.0 0.0 -5.603029746683e-04 
2.733867997822e-03 2.586198841001e-04 0.0 
2.586198841001e-04 -1.313858956396e-03 0.0 
0.0 0.0 -6.085753034686e-04 
2.382754168972e-03 2.331723641419e-04 0.0 
2.331723641419e-04 -1.217161318829e-03 0.0 
0.0 0.0 -4.995397929185e-04 
2.475502276821e-03 -4.225569186791e-04 0.0 
-4.225569186791e-04 -1.235276730126e-03 0.0 
0.0 0.0 -5.315252342980e-04 
2.783353977069e-03 -4.207301430438e-04 0.0 
-4.207301430438e-04 -1.298298732893e-03 0.0 
0.0 0.0 -6.364522475042e-04 
2.431423533239e-03 -1.055611195596e-03 0.0 
-1.055611195596e-03 -1.141139443354e-03 0.0 
0.0 0.0 -5.529788956651e-04 
2.074488083004e-03 -1.034963949875e-03 0.0 
-1.034963949875e-03 -9.657239908617e-04 0.0 
0.0 0.0 -4.751846109182e-04 
1.948746609120e-03 -1.563616376602e-03 0.0 
-1.563616376602e-03 -7.896259199600e-04 0.0 
0.0 0.0 -4.967660096401e-04 
2.266914827687e-03 -1.646291796375e-03 0.0 
-1.646291796375e-03 -9.610891233280e-04 0.0 
0.0 0.0 -5.596395875825e-04 
1.725234701887e-03 -1.991509456133e-03 0.0 
-1.991509456133e-03 -5.081914327056e-04 0.0 
0.0 0.0 -5.215899725061e-04 
1.402225958191e-03 -1.927478583456e-03 0.0 
-1.927478583456e-03 -1.960854800127e-04 0.0 
0.0 0.0 -5.169173477906e-04 
1.209383151701e-03 -2.216403946003e-03 0.0 
-2.216403946003e-03 7.890654783241e-05 0.0 
0.0 0.0 -5.521241569428e-04 
1.437995882087e-03 -2.266737877318e-03 0.0 
-2.266737877318e-03 -1.663516021812e-04 0.0 
0.0 0.0 -5.449904056737e-04 
1.024600490131e-03 -2.464285469351e-03 0.0 
-2.464285469351e-03 3.533750076132e-04 0.0 
0.0 0.0 -5.905609276045e-04 
8.985317602796e-04 -2.606405635227e-03 0.0 
-2.606405635227e-03 5.292322287011e-04 0.0 
0.0 0.0 -6.118988524203e-04 
7.560704768117e-04 -2.818446778216e-03 0.0 
-2.818446778216e-03 7.706212678723e-04 0.0 
0.0 0.0 -6.542964620075e-04 
8.580312086144e-04 -2.682927376050e-03 0.0 
-2.682927376050e-03 6.007672926437e-04 0.0 
0.0 0.0 -6.251993576820e-04 
5.867828103229e-04 -2.962553875983e-03 0.0 
-2.962553875983e-03 1.034857146591e-03 0.0 
0.0 0.0 -6.949885529632e-04 
4.441790608849e-04 -3.069180945402e-03 0.0 
-3.069180945402e-03 1.277969962145e-03 0.0 
0.0 0.0 -7.380638670128e-04 
2.783519300776e-04 -3.113099096991e-03 0.0 
-3.113099096991e-03 1.538449359472e-03 0.0 
0.0 0.0 -7.786291240925e-04 
1.058234640361e-04 -3.171084265656e-03 0.0 
-3.171084265656e-03 1.852966267041e-03 0.0 
0.0 0.0 -8.394813133188e-04 
3.929316153892e-04 -3.010245319228e-03 0.0 
-3.010245319228e-03 1.308656505855e-03 0.0 
0.0 0.0 -7.292520519616e-04 
9.932532998196e-05 -3.071474673695e-03 0.0 
-3.071474673695e-03 1.797955184989e-03 0.0 
0.0 0.0 -8.131202207017e-04 
1.861203807317e-04 -2.953410476768e-03 0.0 
-2.953410476768e-03 1.579421639320e-03 0.0 
0.0 0.0 -7.566608657364e-04 
-8.642223961803e-05 -2.932845730897e-03 0.0 
-2.932845730897e-03 2.045062282812e-03 0.0 
0.0 0.0 -8.394171613687e-04 
7.378179429990e-04 3.236151700417e-03 0.0 
3.236151700417e-03 1.055249139964e-03 0.0 
0.0 0.0 -7.684573212697e-04 
-2.470987176264e-05 -2.774259717146e-03 0.0 
-2.774259717146e-03 1.827411113102e-03 0.0 
0.0 0.0 -7.725862462883e-04 
2.168591650758e-04 -2.749464912916e-03 0.0 
-2.749464912916e-03 1.402707795240e-03 0.0 
0.0 0.0 -6.941001258497e-04 
-2.655633051019e-04 -2.700896907473e-03 0.0 
-2.700896907473e-03 2.263406073752e-03 0.0 
0.0 0.0 -8.562183294215e-04 
-3.538412369767e-04 -2.807118068406e-03 0.0 
-2.807118068406e-03 2.524613030834e-03 0.0 
0.0 0.0 -9.303307687962e-04 
-2.182790499822e-04 -2.492668770886e-03 0.0 
-2.492668770886e-03 2.032114690057e-03 0.0 
0.0 0.0 -7.773581314605e-04 
-4.250446102995e-04 -2.387105800852e-03 0.0 
-2.387105800852e-03 2.436232383686e-03 0.0 
0.0 0.0 -8.619376171656e-04 
-3.808762253420e-04 -2.140229309317e-03 0.0 
-2.140229309317e-03 2.184406533220e-03 0.0 
0.0 0.0 -7.729415605190e-04 
1.763159166294e-03 2.932701492782e-03 0.0 
2.932701492782e-03 -2.697944395366e-04 0.0 
0.0 0.0 -6.400134543247e-04 
-1.088844513542e-03 3.301377294412e-03 0.0 
3.301377294412e-03 4.460583281383e-03 0.0 
0.0 0.0 -9.751682721562e-04 
-5.557439599788e-04 -2.010376698230e-03 0.0 
-2.010376698230e-03 2.553174357475e-03 0.0 
0.0 0.0 -8.560415989269e-04 
-5.027177784437e-04 -1.739983302349e-03 0.0 
-1.739983302349e-03 2.268016728775e-03 0.0 
0.0 0.0 -7.565566929991e-04 
-3.487326511453e-04 -1.851839421592e-03 0.0 
-1.851839421592e-03 1.937346492323e-03 0.0 
0.0 0.0 -6.808345033620e-04 
-4.519877827048e-04 -1.437771514004e-03 0.0 
-1.437771514004e-03 1.973465387895e-03 0.0 
0.0 0.0 -6.520618307959e-04 
-1.774841257907e-03 1.527132807035e-03 0.0 
1.527132807035e-03 5.918357799879e-03 0.0 
0.0 0.0 -9.126358703463e-04 
-1.762808846704e-03 1.694088373988e-03 0.0 
1.694088373988e-03 6.266633471383e-03 0.0 
0.0 0.0 -9.772611937912e-04 
-1.774288393461e-03 1.442569390130e-03 0.0 
1.442569390130e-03 6.194015386497e-03 0.0 
0.0 0.0 -9.468612964576e-04 
-1.759396418391e-03 1.612723129842e-03 0.0 
1.612723129842e-03 6.563174828670e-03 0.0 
0.0 0.0 -1.012955122490e-03 
-1.767929614200e-03 1.376342917300e-03 0.0 
1.376342917300e-03 6.485124768915e-03 0.0 
0.0 0.0 -9.835180958883e-04 
-5.788967960072e-04 -1.335257077215e-03 0.0 
-1.335257077215e-03 2.277225899990e-03 0.0 
0.0 0.0 -7.256352817785e-04 
-1.603689512328e-03 2.493470387195e-03 0.0 
2.493470387195e-03 5.946173640174e-03 0.0 
0.0 0.0 -1.026687169009e-03 
-1.736212695290e-03 1.850044700733e-03 0.0 
1.850044700733e-03 6.615422803056e-03 0.0 
0.0 0.0 -1.042264213861e-03 
-7.638319934371e-04 3.223456733069e-03 0.0 
3.223456733069e-03 3.455847564200e-03 0.0 
0.0 0.0 -9.409285294772e-04 
3.366430025168e-04 3.397992003127e-03 0.0 
3.397992003127e-03 1.628840077963e-03 0.0 
0.0 0.0 -8.423498916340e-04 
2.156368313925e-03 8.947959957603e-04 0.0 
8.947959957603e-04 -1.035979942615e-03 0.0 
0.0 0.0 -4.801664448473e-04 
-6.227154585167e-04 -2.198002757365e-03 0.0 
-2.198002757365e-03 2.831211668969e-03 0.0 
0.0 0.0 -9.464983759082e-04 
-7.218347779198e-04 -1.819122893170e-03 0.0 
-1.819122893170e-03 2.913297155100e-03 0.0 
0.0 0.0 -9.383242106009e-04 
-8.133368797394e-04 -1.945809227020e-03 0.0 
-1.945809227020e-03 3.204453228297e-03 0.0 
0.0 0.0 -1.004955155493e-03 
2.358180408842e-04 -3.147007717197e-03 0.0 
-3.147007717197e-03 1.628184027877e-03 0.0 
0.0 0.0 -7.988580294692e-04 
-1.225410220003e-04 -3.166679032327e-03 0.0 
-3.166679032327e-03 2.260222165472e-03 0.0 
0.0 0.0 -9.088386183890e-04 
-3.596074933625e-05 -3.143460862446e-03 0.0 
-3.143460862446e-03 2.089404171616e-03 0.0 
0.0 0.0 -8.720661220001e-04 
-3.940691537939e-04 -3.066493924859e-03 0.0 
-3.066493924859e-03 2.736277962959e-03 0.0 
0.0 0.0 -9.548449181928e-04 
-3.127433245065e-04 -2.982699423106e-03 0.0 
-2.982699423106e-03 2.620883950583e-03 0.0 
0.0 0.0 -9.363521337227e-04 
-6.475470341843e-04 -2.849005951016e-03 0.0 
-2.849005951016e-03 3.244198139691e-03 0.0 
0.0 0.0 -9.829094188347e-04 
-7.290342086422e-04 -2.890946438125e-03 0.0 
-2.890946438125e-03 3.342200867435e-03 0.0 
0.0 0.0 -9.972914379494e-04 
-9.540874880885e-04 -2.660066281729e-03 0.0 
-2.660066281729e-03 3.821872870679e-03 0.0 
0.0 0.0 -1.003716470558e-03 
-1.033871380646e-03 -2.655311578103e-03 0.0 
-2.655311578103e-03 3.899288306138e-03 0.0 
0.0 0.0 -1.010717982506e-03 
-5.020318707035e-04 -2.652589391131e-03 0.0 
-2.652589391131e-03 3.162848563043e-03 0.0 
0.0 0.0 -1.000386703517e-03 
-1.738328040713e-04 -2.716917287151e-03 0.0 
-2.716917287151e-03 2.542650585114e-03 0.0 
0.0 0.0 -9.561072799058e-04 
-1.217140716833e-03 -2.433745842754e-03 0.0 
-2.433745842754e-03 4.355239653684e-03 0.0 
0.0 0.0 -1.026468870702e-03 
-1.301004518180e-03 -2.384512482324e-03 0.0 
-2.384512482324e-03 4.413129634354e-03 0.0 
0.0 0.0 -1.025303715086e-03 
-1.433223260983e-03 -2.180723409209e-03 0.0 
-2.180723409209e-03 4.841898264917e-03 0.0 
0.0 0.0 -1.051254241329e-03 
-1.533782143048e-03 -2.096001782913e-03 0.0 
-2.096001782913e-03 4.882119290392e-03 0.0 
0.0 0.0 -1.038917832539e-03 
-1.344970022650e-03 -2.253929758585e-03 0.0 
-2.253929758585e-03 4.461736113479e-03 0.0 
0.0 0.0 -1.037516479237e-03 
-1.569102967331e-03 -1.933831873179e-03 0.0 
-1.933831873179e-03 4.899834166201e-03 0.0 
0.0 0.0 -1.046305699947e-03 
-1.376153231101e-03 -2.066079550050e-03 0.0 
-2.066079550050e-03 4.500968763913e-03 0.0 
0.0 0.0 -1.050803148915e-03 
1.947540486422e-03 2.152880942579e-04 0.0 
2.152880942579e-04 -9.005037723215e-04 0.0 
0.0 0.0 -4.487300203286e-04 
1.680967532914e-03 9.207071897223e-04 0.0 
9.207071897223e-04 -5.014207716637e-04 0.0 
0.0 0.0 -5.055200405360e-04 
1.438850481880e-03 2.016578593639e-04 0.0 
2.016578593639e-04 -1.625086232559e-04 0.0 
0.0 0.0 -5.470036536960e-04 
1.202172879279e-03 8.527240019949e-04 0.0 
8.527240019949e-04 3.828898779410e-04 0.0 
0.0 0.0 -6.793126102372e-04 
1.037530362003e-03 2.011510087903e-04 0.0 
2.011510087903e-04 7.506062236288e-04 0.0 
0.0 0.0 -7.663442509849e-04 
8.675854264309e-04 7.587081521114e-04 0.0 
7.587081521114e-04 1.231843798103e-03 0.0 
0.0 0.0 -8.979051750036e-04 
7.349701041777e-04 2.153247329944e-04 0.0 
2.153247329944e-04 1.546423059999e-03 0.0 
0.0 0.0 -9.701408636527e-04 
8.610381847209e-04 -3.526591051395e-04 0.0 
-3.526591051395e-04 1.156465632251e-03 0.0 
0.0 0.0 -8.646444929881e-04 
-1.453224264520e-03 2.831768754596e-03 0.0 
2.831768754596e-03 5.484804576212e-03 0.0 
0.0 0.0 -1.018102500310e-03 
3.008867090267e-03 1.058367247789e-03 0.0 
1.058367247789e-03 -1.343458179845e-03 0.0 
0.0 0.0 -7.137466758949e-04 
2.853497805066e-03 1.766083769912e-03 0.0 
1.766083769912e-03 -1.173072932721e-03 0.0 
0.0 0.0 -7.201820881480e-04 
3.053541270561e-03 1.142570270594e-03 0.0 
1.142570270594e-03 -1.348374367158e-03 0.0 
0.0 0.0 -7.307858157443e-04 
2.838618046953e-03 1.876649797015e-03 0.0 
1.876649797015e-03 -1.126367864291e-03 0.0 
0.0 0.0 -7.338215068551e-04 
2.971080593981e-03 1.270655419308e-03 0.0 
1.270655419308e-03 -1.289312095888e-03 0.0 
0.0 0.0 -7.207579277541e-04 
2.719217330289e-03 2.056721202716e-03 0.0 
2.056721202716e-03 -1.037451596634e-03 0.0 
0.0 0.0 -7.207567429950e-04 
2.772942118414e-03 1.411962470906e-03 0.0 
1.411962470906e-03 -1.228640855760e-03 0.0 
0.0 0.0 -6.618433982802e-04 
2.936188635973e-03 5.059698955333e-04 0.0 
5.059698955333e-04 -1.379043216914e-03 0.0 
0.0 0.0 -6.673480367399e-04 
2.617932977065e-03 5.853697332861e-04 0.0 
5.853697332861e-04 -1.334188021617e-03 0.0 
0.0 0.0 -5.501764094776e-04 
2.753067280877e-03 -3.549983010408e-04 0.0 
-3.549983010408e-04 -1.367545839080e-03 0.0 
0.0 0.0 -5.937949036274e-04 
2.283697930113e-03 -2.688909952497e-04 0.0 
-2.688909952497e-04 -1.277221164065e-03 0.0 
0.0 0.0 -4.313471854492e-04 
2.525026440165e-03 -1.212492314672e-03 0.0 
-1.212492314672e-03 -1.245102357231e-03 0.0 
0.0 0.0 -5.485388926860e-04 
-1.241644147846e-04 3.665257049786e-03 0.0 
3.665257049786e-03 2.568141902724e-03 0.0 
0.0 0.0 -9.405629120884e-04 
9.458807958305e-04 1.361774924333e-03 0.0 
1.361774924333e-03 9.904922510770e-04 0.0 
0.0 0.0 -8.298741629604e-04 
6.513001348098e-04 1.229100697752e-03 0.0 
1.229100697752e-03 1.753882193068e-03 0.0 
0.0 0.0 -9.993981362447e-04 
6.963768604448e-04 1.772072157614e-03 0.0 
1.772072157614e-03 1.581186938205e-03 0.0 
0.0 0.0 -9.522937794042e-04 
-3.189420848090e-04 -1.545020922433e-03 0.0 
-1.545020922433e-03 1.685829119162e-03 0.0 
0.0 0.0 -5.858087290083e-04 
-1.729227017080e-03 -1.797597956290e-03 0.0 
-1.797597956290e-03 5.304685395965e-03 0.0 
0.0 0.0 -1.052155339158e-03 
-3.558894212413e-04 -2.357175527876e-03 0.0 
-2.357175527876e-03 3.123019306479e-03 0.0 
0.0 0.0 -1.032922975483e-03 
-3.685387661375e-05 -2.333297789804e-03 0.0 
-2.333297789804e-03 2.519376975604e-03 0.0 
0.0 0.0 -9.972889278909e-04 
5.502284084495e-04 -2.540944922989e-04 0.0 
-2.540944922989e-04 1.932880194956e-03 0.0 
0.0 0.0 -1.036234461364e-03 
-5.051250462252e-04 -1.053858961610e-03 0.0 
-1.053858961610e-03 1.923683454344e-03 0.0 
0.0 0.0 -5.970694122200e-04 
2.486914527932e-03 2.192796758779e-03 0.0 
2.192796758779e-03 -9.291035182538e-04 0.0 
0.0 0.0 -6.676332898623e-04 
2.328692636026e-03 2.634849956172e-03 0.0 
2.634849956172e-03 -6.738088910714e-04 0.0 
0.0 0.0 -7.092358906949e-04 
-1.744623678677e-03 1.540348128746e-03 0.0 
1.540348128746e-03 6.846449706807e-03 0.0 
0.0 0.0 -1.048874596840e-03 
-1.750773001735e-03 1.319704536713e-03 0.0 
1.319704536713e-03 6.756146718387e-03 0.0 
0.0 0.0 -1.019458214591e-03 
-2.480160767706e-04 -2.004916630844e-03 0.0 
-2.004916630844e-03 3.137306023889e-03 0.0 
0.0 0.0 -1.070157681403e-03 
-6.234076530390e-04 -9.645286907226e-04 0.0 
-9.645286907226e-04 2.209865459266e-03 0.0 
0.0 0.0 -6.466873288763e-04 
-1.068414060457e-03 -2.374253472806e-03 0.0 
-2.374253472806e-03 4.293485734694e-03 0.0 
0.0 0.0 -1.053463316161e-03 
2.067995625182e-03 6.451329218673e-04 0.0 
6.451329218673e-04 -1.186041327943e-03 0.0 
0.0 0.0 -3.779804131024e-04 
-1.762784595192e-03 -1.607331333857e-03 0.0 
-1.607331333857e-03 5.293267446583e-03 0.0 
0.0 0.0 -1.053563116650e-03 
-1.867913240625e-03 -1.489305966451e-03 0.0 
-1.489305966451e-03 5.673891533939e-03 0.0 
0.0 0.0 -1.070920355653e-03 
-7.933761041048e-04 -2.832720245216e-03 0.0 
-2.832720245216e-03 3.452224715287e-03 0.0 
0.0 0.0 -1.021320298254e-03 
4.031722277788e-04 1.617631885485e-03 0.0 
1.617631885485e-03 2.296315845658e-03 0.0 
0.0 0.0 -1.069468904140e-03 
4.279180701410e-04 2.089566425205e-03 0.0 
2.089566425205e-03 2.165414708705e-03 0.0 
0.0 0.0 -1.033921039166e-03 
2.748961671600e-03 -1.234973564708e-03 0.0 
-1.234973564708e-03 -1.253110519415e-03 0.0 
0.0 0.0 -6.410790652217e-04 
2.518060065866e-03 -2.059438322562e-03 0.0 
-2.059438322562e-03 -1.018220698221e-03 0.0 
0.0 0.0 -6.427883004194e-04 
2.357888963389e-03 -2.118209179973e-03 0.0 
-2.118209179973e-03 -9.914742540871e-04 0.0 
0.0 0.0 -5.856063039867e-04 
2.191323313200e-03 -2.728758808394e-03 0.0 
-2.728758808394e-03 -6.479650369089e-04 0.0 
0.0 0.0 -6.614392612675e-04 
2.278763046571e-03 -2.578114575528e-03 0.0 
-2.578114575528e-03 -7.103706415061e-04 0.0 
0.0 0.0 -6.721681735992e-04 
1.895457018917e-03 -3.007528799367e-03 0.0 
-3.007528799367e-03 -3.206537863592e-04 0.0 
0.0 0.0 -6.749156710960e-04 
1.780393766489e-03 -3.161947930664e-03 0.0 
-3.161947930664e-03 -1.991738640969e-04 0.0 
0.0 0.0 -6.776656724536e-04 
1.498218282607e-03 -3.239267173229e-03 0.0 
-3.239267173229e-03 1.323736015907e-04 0.0 
0.0 0.0 -6.988250932278e-04 
1.538218957511e-03 -3.082075736210e-03 0.0 
-3.082075736210e-03 7.246781046884e-07 0.0 
0.0 0.0 -6.595472724067e-04 
1.116756184221e-03 -3.039153293536e-03 0.0 
-3.039153293536e-03 4.098621490744e-04 0.0 
0.0 0.0 -6.542649999838e-04 
9.813252680918e-04 -2.956617965048e-03 0.0 
-2.956617965048e-03 5.482338783846e-04 0.0 
0.0 0.0 -6.555253484899e-04 
6.892512545273e-04 -2.715436424775e-03 0.0 
-2.715436424775e-03 7.414890539001e-04 0.0 
0.0 0.0 -6.131744178975e-04 
-1.739487401810e-03 -1.643308528611e-03 0.0 
-1.643308528611e-03 5.674904400731e-03 0.0 
0.0 0.0 -1.101875158976e-03 
1.625849311047e-03 -1.683389643306e-04 0.0 
-1.683389643306e-04 -1.097136295050e-03 0.0 
0.0 0.0 -2.265912925699e-04 
-1.396148361601e-03 2.647702035806e-03 0.0 
2.647702035806e-03 4.519072400057e-03 0.0 
0.0 0.0 -8.810844588398e-04 
-5.349333944456e-04 -2.056134526959e-03 0.0 
-2.056134526959e-03 3.696128141265e-03 0.0 
0.0 0.0 -1.099012274073e-03 
4.001314244547e-04 2.494511169208e-04 0.0 
2.494511169208e-04 2.291122324032e-03 0.0 
0.0 0.0 -1.088453095952e-03 
-1.720074879915e-03 1.479198222822e-03 0.0 
1.479198222822e-03 7.120039440071e-03 0.0 
0.0 0.0 -1.085032576515e-03 
-1.727265597861e-03 1.269164868262e-03 0.0 
1.269164868262e-03 7.020339379643e-03 0.0 
0.0 0.0 -1.055603631703e-03 
-1.745923234167e-03 1.117194505061e-03 0.0 
1.117194505061e-03 6.644193117880e-03 0.0 
0.0 0.0 -9.897378988699e-04 
-1.726111739886e-03 1.073003689324e-03 0.0 
1.073003689324e-03 6.905750690588e-03 0.0 
0.0 0.0 -1.026001677571e-03 
-1.697815529865e-03 1.216597394983e-03 0.0 
1.216597394983e-03 7.279055033116e-03 0.0 
0.0 0.0 -1.091942449670e-03 
-1.699755368788e-03 1.027337857590e-03 0.0 
1.027337857590e-03 7.158023142695e-03 0.0 
0.0 0.0 -1.062342898562e-03 
-1.716352618538e-03 8.878056221667e-04 0.0 
8.878056221667e-04 6.774679391188e-03 0.0 
0.0 0.0 -9.962627399151e-04 
-1.692178280540e-03 8.508470267666e-04 0.0 
8.508470267666e-04 7.019991579685e-03 0.0 
0.0 0.0 -1.032646955902e-03 
-1.695660932446e-03 7.184317155414e-04 0.0 
7.184317155414e-04 6.625583462411e-03 0.0 
0.0 0.0 -9.664557332607e-04 
-1.677486126932e-03 6.911180295046e-04 0.0 
6.911180295046e-04 6.868534941944e-03 0.0 
0.0 0.0 -1.002889032254e-03 
-1.663620555798e-03 8.098065595925e-04 0.0 
8.098065595925e-04 7.259384762552e-03 0.0 
0.0 0.0 -1.069134413525e-03 
-1.655525420696e-03 6.533870042141e-04 0.0 
6.533870042141e-04 7.107625883104e-03 0.0 
0.0 0.0 -1.039387411609e-03 
-1.659615819212e-03 5.491873914478e-04 0.0 
5.491873914478e-04 6.708579784798e-03 0.0 
0.0 0.0 -9.730575354659e-04 
-1.642941155605e-03 5.125241071205e-04 0.0 
5.125241071205e-04 6.945188648216e-03 0.0 
0.0 0.0 -1.009574527126e-03 
-1.637255380195e-03 4.205204331053e-04 0.0 
4.205204331053e-04 6.536272510904e-03 0.0 
0.0 0.0 -9.431603702596e-04 
-1.623420800787e-03 3.856837058294e-04 0.0 
3.856837058294e-04 6.767271635738e-03 0.0 
0.0 0.0 -9.796061197752e-04 
-1.622026920778e-03 4.757000201370e-04 0.0 
4.757000201370e-04 7.177981971167e-03 0.0 
0.0 0.0 -1.046101832713e-03 
-5.260638759536e-04 -7.746154698035e-04 0.0 
-7.746154698035e-04 1.804698088172e-03 0.0 
0.0 0.0 -4.826019863697e-04 
6.384355500235e-04 -8.071467030727e-04 0.0 
-8.071467030727e-04 1.625869863801e-03 0.0 
0.0 0.0 -9.660701661439e-04 
3.155700960172e-04 -6.399278427758e-04 0.0 
-6.399278427758e-04 2.369342842803e-03 0.0 
0.0 0.0 -1.083831836677e-03 
-8.892645420983e-04 -1.589464053846e-03 0.0 
-1.589464053846e-03 3.243112049151e-03 0.0 
0.0 0.0 -9.683295300233e-04 
-9.893521759344e-04 -1.650588191873e-03 0.0 
-1.650588191873e-03 3.517832807879e-03 0.0 
0.0 0.0 -1.010934236754e-03 
-9.339052402119e-04 -1.988561699477e-03 0.0 
-1.988561699477e-03 3.508091553521e-03 0.0 
0.0 0.0 -1.041462402745e-03 
-1.131758993546e-03 -1.657762215853e-03 0.0 
-1.657762215853e-03 3.856452720899e-03 0.0 
0.0 0.0 -1.033211989474e-03 
-1.610140258144e-03 3.510578464752e-04 0.0 
3.510578464752e-04 7.002203508451e-03 0.0 
0.0 0.0 -1.015477767897e-03 
-1.603569950634e-03 4.323698609735e-04 0.0 
4.323698609735e-04 7.406712470395e-03 0.0 
0.0 0.0 -1.082739357160e-03 
2.075859047304e-03 2.734073794279e-03 0.0 
2.734073794279e-03 -5.151566843200e-04 0.0 
0.0 0.0 -6.688724412789e-04 
1.829803788864e-03 2.896630922712e-03 0.0 
2.896630922712e-03 -2.437374272620e-04 0.0 
0.0 0.0 -6.797427264007e-04 
-1.702624885041e-03 1.699730791061e-03 0.0 
1.699730791061e-03 7.199957864770e-03 0.0 
0.0 0.0 -1.114382729655e-03 
-1.921178658721e-03 -1.279150328982e-03 0.0 
-1.279150328982e-03 5.641022297000e-03 0.0 
0.0 0.0 -1.061085778683e-03 
-1.759404772593e-03 -1.368797781515e-03 0.0 
-1.368797781515e-03 5.258990087990e-03 0.0 
0.0 0.0 -1.062669991958e-03 
6.091469494368e-04 3.201234470351e-03 0.0 
3.201234470351e-03 1.145920310691e-03 0.0 
0.0 0.0 -7.521716829121e-04 
3.812479400786e-04 3.221138826746e-03 0.0 
3.221138826746e-03 1.454024134529e-03 0.0 
0.0 0.0 -7.865451748317e-04 
6.223231318809e-04 3.034958604236e-03 0.0 
3.034958604236e-03 1.026602646357e-03 0.0 
0.0 0.0 -7.066824763876e-04 
3.755190555598e-04 3.004529260336e-03 0.0 
3.004529260336e-03 1.328866931440e-03 0.0 
0.0 0.0 -7.304511372856e-04 
1.504650344152e-04 3.149504562038e-03 0.0 
3.149504562038e-03 1.760988080228e-03 0.0 
0.0 0.0 -8.191941919899e-04 
5.829936888595e-04 2.805741157272e-03 0.0 
2.805741157272e-03 9.386435949221e-04 0.0 
0.0 0.0 -6.521302644778e-04 
1.691581229929e-04 -2.698724546406e-03 0.0 
-2.698724546406e-03 1.880405331260e-03 0.0 
0.0 0.0 -8.664312523603e-04 
-1.632170864774e-03 7.587389543785e-04 0.0 
7.587389543785e-04 7.494664304375e-03 0.0 
0.0 0.0 -1.105708206284e-03 
-1.867627977739e-04 -1.946982532398e-03 0.0 
-1.946982532398e-03 1.623581017794e-03 0.0 
0.0 0.0 -6.157792371515e-04 
-1.766459924498e-04 -1.658792918857e-03 0.0 
-1.658792918857e-03 1.424250676640e-03 0.0 
0.0 0.0 -5.346877217957e-04 
-1.953846352874e-03 -1.181006378595e-03 0.0 
-1.181006378595e-03 5.993034579258e-03 0.0 
0.0 0.0 -1.094582683422e-03 
9.227653006670e-04 -9.923042472365e-04 0.0 
-9.923042472365e-04 8.348026981178e-04 0.0 
0.0 0.0 -7.532434280506e-04 
-4.484070588213e-04 3.613794165219e-03 0.0 
3.613794165219e-03 3.179623750880e-03 0.0 
0.0 0.0 -9.533529749162e-04 
-2.780489895403e-04 3.528284248772e-03 0.0 
3.528284248772e-03 2.993445099109e-03 0.0 
0.0 0.0 -9.681750457242e-04 
-5.507055311170e-04 3.446174456380e-03 0.0 
3.446174456380e-03 3.597530854088e-03 0.0 
0.0 0.0 -9.957130113267e-04 
-3.863084581791e-04 3.307385071573e-03 0.0 
3.307385071573e-03 3.448440357162e-03 0.0 
0.0 0.0 -1.023751803962e-03 
-6.300320690614e-04 3.259070928407e-03 0.0 
3.259070928407e-03 4.039542678780e-03 0.0 
0.0 0.0 -1.059873349132e-03 
-5.085717340789e-04 3.118830500926e-03 0.0 
3.118830500926e-03 3.927747937877e-03 0.0 
0.0 0.0 -1.087854580038e-03 
-2.514557000785e-04 3.100269023384e-03 0.0 
3.100269023384e-03 3.340960341130e-03 0.0 
0.0 0.0 -1.051791170495e-03 
1.399069373120e-04 1.939674922792e-03 0.0 
1.939674922792e-03 2.839420856551e-03 0.0 
0.0 0.0 -1.107463318235e-03 
-4.186704419438e-04 2.922768790841e-03 0.0 
2.922768790841e-03 3.866682433006e-03 0.0 
0.0 0.0 -1.115916943430e-03 
-1.595806012880e-03 2.986475684988e-04 0.0 
2.986475684988e-04 6.569860539438e-03 0.0 
0.0 0.0 -9.487150400336e-04 
9.874874757951e-04 2.001023480651e-03 0.0 
2.001023480651e-03 8.096298849095e-04 0.0 
0.0 0.0 -7.701931545877e-04 
1.099587361542e-03 -2.883577329194e-03 0.0 
-2.883577329194e-03 3.196281228081e-04 0.0 
0.0 0.0 -6.082352075787e-04 
-4.120182269500e-04 -8.254968701079e-04 0.0 
-8.254968701079e-04 1.533206618467e-03 0.0 
0.0 0.0 -4.510100977179e-04 
5.592980566656e-04 -2.545612127290e-03 0.0 
-2.545612127290e-03 8.296765578219e-04 0.0 
0.0 0.0 -5.952748347803e-04 
-6.262840441887e-04 -6.448010795071e-04 0.0 
-6.448010795071e-04 2.035833554771e-03 0.0 
0.0 0.0 -5.222488353909e-04 
-7.319508735308e-04 -8.428934672220e-04 0.0 
-8.428934672220e-04 2.464651158961e-03 0.0 
0.0 0.0 -6.822577977165e-04 
-4.713603530403e-04 -1.760178858830e-03 0.0 
-1.760178858830e-03 3.749274242464e-03 0.0 
0.0 0.0 -1.136360603439e-03 
-7.414846696447e-04 3.136821301181e-03 0.0 
3.136821301181e-03 4.510208953631e-03 0.0 
0.0 0.0 -1.124065295910e-03 
-8.446432131550e-04 3.218211498406e-03 0.0 
3.218211498406e-03 4.600039828402e-03 0.0 
0.0 0.0 -1.095615423988e-03 
1.374965702112e-04 2.907969111804e-03 0.0 
2.907969111804e-03 1.629175485309e-03 0.0 
0.0 0.0 -7.571451666514e-04 
-7.702727876907e-05 2.968579821374e-03 0.0 
2.968579821374e-03 2.049330152496e-03 0.0 
0.0 0.0 -8.452726601685e-04 
8.289727363508e-05 1.511362000005e-03 0.0 
1.511362000005e-03 2.985439199539e-03 0.0 
0.0 0.0 -1.136278651916e-03 
-1.765237675762e-03 1.222407657091e-03 0.0 
1.222407657091e-03 6.114667953270e-03 0.0 
0.0 0.0 -9.177848451843e-04 
-1.710580504207e-03 7.440398052567e-04 0.0 
7.440398052567e-04 6.380060456859e-03 0.0 
0.0 0.0 -9.302130594432e-04 
-1.676565589941e-03 5.872598873801e-04 0.0 
5.872598873801e-04 6.215440748447e-03 0.0 
0.0 0.0 -9.001900590098e-04 
-3.803857748505e-04 -5.434049098283e-04 0.0 
-5.434049098283e-04 1.471759670645e-03 0.0 
0.0 0.0 -3.494697005546e-04 
7.568627899495e-04 -2.787918667943e-03 0.0 
-2.787918667943e-03 7.221354992753e-04 0.0 
0.0 0.0 -6.338564096678e-04 
-1.662120244785e-03 1.162296850059e-03 0.0 
1.162296850059e-03 7.529797322482e-03 0.0 
0.0 0.0 -1.128363834889e-03 
2.037234962576e-03 2.841104701767e-03 0.0 
2.841104701767e-03 -4.145658898484e-04 0.0 
0.0 0.0 -6.954296025976e-04 
1.531315725723e-03 2.908052614029e-03 0.0 
2.908052614029e-03 2.448474694819e-06 0.0 
0.0 0.0 -6.573275144647e-04 
1.261589428094e-03 6.096704043663e-04 0.0 
6.096704043663e-04 -9.183369249884e-04 0.0 
0.0 0.0 -1.471082156167e-04 
7.631106832774e-04 -7.208428592914e-05 0.0 
-7.208428592914e-05 -6.801595576129e-04 0.0 
0.0 0.0 -3.555048242768e-05 
-1.589929625905e-03 3.288854672539e-04 0.0 
3.288854672539e-04 7.214274616426e-03 0.0 
0.0 0.0 -1.051814883004e-03 
-1.572388470156e-03 3.792019312018e-04 0.0 
3.792019312018e-04 7.619653826889e-03 0.0 
0.0 0.0 -1.117859435171e-03 
-1.078769339999e-03 -1.982110544533e-03 0.0 
-1.982110544533e-03 3.829235274235e-03 0.0 
0.0 0.0 -1.051224796075e-03 
-1.274189695606e-03 -1.627447894412e-03 0.0 
-1.627447894412e-03 4.185605639052e-03 0.0 
0.0 0.0 -1.050863174419e-03 
-1.969895269108e-04 -1.624325261337e-03 0.0 
-1.624325261337e-03 3.218036131210e-03 0.0 
0.0 0.0 -1.107558395918e-03 
3.636511301315e-04 -2.361072158115e-03 0.0 
-2.361072158115e-03 9.584204304499e-04 0.0 
0.0 0.0 -5.666020973920e-04 
-1.569287665322e-03 4.982993919659e-04 0.0 
4.982993919659e-04 7.796117196338e-03 0.0 
0.0 0.0 -1.149181664990e-03 
6.559202405712e-04 -1.403190814261e-03 0.0 
-1.403190814261e-03 1.391837788957e-03 0.0 
0.0 0.0 -8.776105840836e-04 
9.173022590222e-04 -1.676640049954e-03 0.0 
-1.676640049954e-03 6.107363237665e-04 0.0 
0.0 0.0 -6.548736783380e-04 
-1.171879392758e-03 -1.281686817317e-03 0.0 
-1.281686817317e-03 3.846852730435e-03 0.0 
0.0 0.0 -1.001803992689e-03 
1.504150752549e-03 2.803418453549e-03 0.0 
2.803418453549e-03 -4.311377337536e-05 0.0 
0.0 0.0 -6.261587053603e-04 
1.650316852641e-03 2.671963168056e-03 0.0 
2.671963168056e-03 -3.170419596538e-04 0.0 
0.0 0.0 -5.714035255658e-04 
1.466801754994e-03 -2.835534920743e-03 0.0 
-2.835534920743e-03 -6.856056088169e-05 0.0 
0.0 0.0 -5.992462260482e-04 
4.198225928608e-04 -2.489806032447e-03 0.0 
-2.489806032447e-03 9.452515050113e-04 0.0 
0.0 0.0 -5.850317562309e-04 
-7.228005656972e-04 -5.488391732617e-04 0.0 
-5.488391732617e-04 2.276834511977e-03 0.0 
0.0 0.0 -5.562745863746e-04 
-4.637036380639e-04 -1.428624458379e-03 0.0 
-1.428624458379e-03 3.853108176796e-03 0.0 
0.0 0.0 -1.173829981771e-03 
-1.646663843551e-03 1.358180133252e-03 0.0 
1.358180133252e-03 7.637691352308e-03 0.0 
0.0 0.0 -1.157575248917e-03 
-1.588531343900e-04 2.821657521555e-03 0.0 
2.821657521555e-03 3.283406077172e-03 0.0 
0.0 0.0 -1.080172819833e-03 
2.446831455111e-05 3.060603850123e-03 0.0 
3.060603850123e-03 2.728589719442e-03 0.0 
0.0 0.0 -1.015677837919e-03 
-3.660685555016e-04 2.667845735617e-03 0.0 
2.667845735617e-03 3.843962247037e-03 0.0 
0.0 0.0 -1.144955025780e-03 
2.673047132891e-04 -2.137865757300e-03 0.0 
-2.137865757300e-03 9.516698016607e-04 0.0 
0.0 0.0 -5.224176492642e-04 
-7.311483308604e-04 -1.856928531792e-03 0.0 
-1.856928531792e-03 4.285424001286e-03 0.0 
0.0 0.0 -1.165794428787e-03 
-2.038713827362e-03 -9.521744761757e-04 0.0 
-9.521744761757e-04 5.942161280998e-03 0.0 
0.0 0.0 -1.070719593515e-03 
-9.487823984943e-04 3.179202297983e-03 0.0 
3.179202297983e-03 5.046317585578e-03 0.0 
0.0 0.0 -1.157598467365e-03 
-1.028189826122e-03 3.189698687636e-03 0.0 
3.189698687636e-03 5.131498804919e-03 0.0 
0.0 0.0 -1.131219827106e-03 
1.693489723556e-03 2.912737131245e-03 0.0 
2.912737131245e-03 -1.493629984725e-04 0.0 
0.0 0.0 -6.617685964645e-04 
1.185947765099e-03 2.829659806798e-03 0.0 
2.829659806798e-03 2.506006467406e-04 0.0 
0.0 0.0 -6.156636050741e-04 
1.024663306531e-03 2.720941116212e-03 0.0 
2.720941116212e-03 3.858661710823e-04 0.0 
0.0 0.0 -6.045126332627e-04 
7.581467413336e-04 2.629057648791e-03 0.0 
2.629057648791e-03 6.283993164515e-04 0.0 
0.0 0.0 -5.942340247651e-04 
-1.648477658061e-03 2.188124378807e-03 0.0 
2.188124378807e-03 4.981950326516e-03 0.0 
0.0 0.0 -8.520119503206e-04 
1.288363213325e-03 2.918108490938e-03 0.0 
2.918108490938e-03 1.603315013667e-04 0.0 
0.0 0.0 -6.208691634391e-04 
-1.164374950017e-03 2.801514945082e-03 0.0 
2.801514945082e-03 4.086272555253e-03 0.0 
0.0 0.0 -8.983830653277e-04 
-1.269722602642e-03 2.487508477755e-03 0.0 
2.487508477755e-03 4.199128990551e-03 0.0 
0.0 0.0 -8.736227209573e-04 
-1.046332524412e-03 2.638264182984e-03 0.0 
2.638264182984e-03 3.789437134256e-03 0.0 
0.0 0.0 -8.954616384525e-04 
-9.535589006009e-05 3.192865815352e-03 0.0 
3.192865815352e-03 2.227004452414e-03 0.0 
0.0 0.0 -9.127067050351e-04 
-3.022280285659e-04 2.955332983640e-03 0.0 
2.955332983640e-03 2.491438051520e-03 0.0 
0.0 0.0 -9.307589223859e-04 
2.556968385694e-03 2.345203577048e-03 0.0 
2.345203577048e-03 -8.968266888023e-04 0.0 
0.0 0.0 -7.114892986678e-04 
1.812389688023e-03 1.564451495357e-03 0.0 
1.564451495357e-03 -6.179615212951e-04 0.0 
0.0 0.0 -5.118977857407e-04 
-8.515674767651e-04 -2.308299700533e-03 0.0 
-2.308299700533e-03 3.434983390257e-03 0.0 
0.0 0.0 -1.054912416397e-03 
-1.137266829401e-03 -2.398619768870e-03 0.0 
-2.398619768870e-03 4.055285407119e-03 0.0 
0.0 0.0 -1.045074301760e-03 
3.367977982503e-04 -3.065748121326e-03 0.0 
-3.065748121326e-03 1.429094799845e-03 0.0 
0.0 0.0 -7.568111134693e-04 
-1.629365191565e-03 9.257695161170e-04 0.0 
9.257695161170e-04 7.634439739813e-03 0.0 
0.0 0.0 -1.135109731873e-03 
-1.590870954180e-03 8.599854275843e-04 0.0 
8.599854275843e-04 7.870981141839e-03 0.0 
0.0 0.0 -1.171938512032e-03 
-1.643416432560e-03 4.449926551975e-04 0.0 
4.449926551975e-04 6.296597502974e-03 0.0 
0.0 0.0 -9.065739516476e-04 
-1.602464872442e-03 3.219184720994e-04 0.0 
3.219184720994e-04 6.108782366366e-03 0.0 
0.0 0.0 -8.764137937918e-04 
-2.696764371388e-04 -1.265861831851e-03 0.0 
-1.265861831851e-03 1.411045974668e-03 0.0 
0.0 0.0 -4.842067647502e-04 
-1.400634450087e-04 -1.409834388031e-03 0.0 
-1.409834388031e-03 1.204297259864e-03 0.0 
0.0 0.0 -4.502468535423e-04 
-2.319199994023e-04 -3.122878098546e-03 0.0 
-3.122878098546e-03 2.451044877422e-03 0.0 
0.0 0.0 -9.437206122825e-04 
-7.988578011231e-04 -2.058259969339e-03 0.0 
-2.058259969339e-03 4.234722114073e-03 0.0 
0.0 0.0 -1.127529358476e-03 
-1.669665556383e-03 1.635524756470e-03 0.0 
1.635524756470e-03 7.469407833496e-03 0.0 
0.0 0.0 -1.150095860580e-03 
-1.643068085807e-03 1.857648967737e-03 0.0 
1.857648967737e-03 7.542411325100e-03 0.0 
0.0 0.0 -1.179372829571e-03 
-1.673921977860e-03 1.925750498755e-03 0.0 
1.925750498755e-03 7.258395415596e-03 0.0 
0.0 0.0 -1.143369325256e-03 
-2.014473825755e-04 -1.218765106027e-03 0.0 
-1.218765106027e-03 3.345673547677e-03 0.0 
0.0 0.0 -1.144273392007e-03 
3.110341159347e-03 3.472939405717e-04 0.0 
3.472939405717e-04 -1.445647776500e-03 0.0 
0.0 0.0 -7.134400212203e-04 
1.600864292633e-03 -4.933060105816e-04 0.0 
-4.933060105816e-04 -5.124875882504e-04 0.0 
0.0 0.0 -4.664471590211e-04 
1.395368066446e-03 -9.561308999161e-04 0.0 
-9.561308999161e-04 -1.034414870566e-03 0.0 
0.0 0.0 -1.546942268056e-04 
3.758232775366e-04 3.466607308548e-03 0.0 
3.466607308548e-03 1.708095271688e-03 0.0 
0.0 0.0 -8.625807428358e-04 
-1.387284875597e-04 -1.147843400141e-03 0.0 
-1.147843400141e-03 1.071097091449e-03 0.0 
0.0 0.0 -3.720583479433e-04 
-1.231098641636e-03 3.135190691380e-03 0.0 
3.135190691380e-03 4.944666622865e-03 0.0 
0.0 0.0 -1.010319580236e-03 
-1.984786992954e-03 -8.733459957740e-04 0.0 
-8.733459957740e-04 6.259759611652e-03 0.0 
0.0 0.0 -1.122815839103e-03 
-1.861926426933e-03 -1.095524342960e-03 0.0 
-1.095524342960e-03 6.311220838631e-03 0.0 
0.0 0.0 -1.159213750608e-03 
-1.725327838232e-04 1.829528703914e-03 0.0 
1.829528703914e-03 3.501045676607e-03 0.0 
0.0 0.0 -1.171959308352e-03 
-1.590101240846e-03 1.706978125594e-03 0.0 
1.706978125594e-03 4.660773429978e-03 0.0 
0.0 0.0 -7.960146267056e-04 
5.073336669335e-04 3.214445659709e-03 0.0 
3.214445659709e-03 1.538412133141e-03 0.0 
0.0 0.0 -8.506774374544e-04 
8.851619009454e-04 2.969244090533e-03 0.0 
2.969244090533e-03 8.376787810317e-04 0.0 
0.0 0.0 -7.383602922759e-04 
-1.156062255108e-03 2.301233915827e-03 0.0 
2.301233915827e-03 3.896290621430e-03 0.0 
0.0 0.0 -8.625652443140e-04 
-9.471297243856e-04 2.440002294532e-03 0.0 
2.440002294532e-03 3.517004994648e-03 0.0 
0.0 0.0 -8.875966840820e-04 
-8.066787093543e-04 2.777426977554e-03 0.0 
2.777426977554e-03 3.370899001042e-03 0.0 
0.0 0.0 -9.244972712473e-04 
-7.192390311965e-04 2.566107428446e-03 0.0 
2.566107428446e-03 3.124935059627e-03 0.0 
0.0 0.0 -9.234394568817e-04 
1.009712769882e-03 -2.639627470040e-03 0.0 
-2.639627470040e-03 3.518698063256e-04 0.0 
0.0 0.0 -5.835353898034e-04 
7.225051380104e-04 -2.634694636205e-03 0.0 
-2.634694636205e-03 6.767854285005e-04 0.0 
0.0 0.0 -5.996959570761e-04 
-8.921567267479e-04 3.111111284804e-03 0.0 
3.111111284804e-03 5.059665355678e-03 0.0 
0.0 0.0 -1.192042136895e-03 
-6.099967263224e-04 2.870760626298e-03 0.0 
2.870760626298e-03 4.411064189710e-03 0.0 
0.0 0.0 -1.178660172201e-03 
-1.100042912757e-03 3.200343520554e-03 0.0 
3.200343520554e-03 5.573219155758e-03 0.0 
0.0 0.0 -1.193029175878e-03 
-1.160667669830e-03 3.176739035806e-03 0.0 
3.176739035806e-03 5.649176834465e-03 0.0 
0.0 0.0 -1.168165168231e-03 
-2.521445186915e-04 1.437999620024e-03 0.0 
1.437999620024e-03 3.663538457504e-03 0.0 
0.0 0.0 -1.200910491468e-03 
-1.175265126893e-05 1.083930210957e-03 0.0 
1.083930210957e-03 3.184478001405e-03 0.0 
0.0 0.0 -1.164168769488e-03 
-8.338945190871e-04 -6.899851568111e-04 0.0 
-6.899851568111e-04 2.693161182237e-03 0.0 
0.0 0.0 -7.014880017679e-04 
-2.848117966112e-04 2.692565546894e-03 0.0 
2.692565546894e-03 2.299445011333e-03 0.0 
0.0 0.0 -8.634142348809e-04 
-1.596224494799e-03 1.291320717670e-03 0.0 
1.291320717670e-03 7.883322151599e-03 0.0 
0.0 0.0 -1.194151889699e-03 
-1.353314944435e-03 2.157291733394e-03 0.0 
2.157291733394e-03 4.270289119183e-03 0.0 
0.0 0.0 -8.433929263471e-04 
-9.622501338421e-04 -1.912189492832e-03 0.0 
-1.912189492832e-03 4.776924830183e-03 0.0 
0.0 0.0 -1.192835421428e-03 
-1.026421419571e-03 -2.028541400734e-03 0.0 
-2.028541400734e-03 4.755168212354e-03 0.0 
0.0 0.0 -1.156047193884e-03 
4.478208592864e-04 -3.751585586859e-04 0.0 
-3.751585586859e-04 -4.241673929217e-04 0.0 
0.0 0.0 -1.013719987055e-05 
1.244125017972e-03 -1.917312666705e-03 0.0 
-1.917312666705e-03 -7.538799606522e-04 0.0 
0.0 0.0 -2.101050245656e-04 
-1.537691014338e-03 4.222863431362e-04 0.0 
4.222863431362e-04 8.020533850651e-03 0.0 
0.0 0.0 -1.184588873336e-03 
6.358527835684e-04 2.480430970654e-03 0.0 
2.480430970654e-03 6.941509382628e-04 0.0 
0.0 0.0 -5.700015950705e-04 
4.499471129459e-04 2.458836012126e-03 0.0 
2.458836012126e-03 9.036367217386e-04 0.0 
0.0 0.0 -5.801073577219e-04 
8.196974528425e-04 2.512758387053e-03 0.0 
2.512758387053e-03 5.135885621210e-04 0.0 
0.0 0.0 -5.714082921272e-04 
-1.721775180469e-03 -2.750261499923e-04 0.0 
-2.750261499923e-04 6.955705942823e-03 0.0 
0.0 0.0 -1.258310293365e-03 
-1.440319018305e-03 2.756393348766e-05 0.0 
2.756393348766e-05 5.261443928406e-03 0.0 
0.0 0.0 -7.479256703001e-04 
-1.851935248777e-03 -8.185806621322e-04 0.0 
-8.185806621322e-04 6.555435669483e-03 0.0 
0.0 0.0 -1.189418985649e-03 
-3.624356194934e-04 3.164434027964e-03 0.0 
3.164434027964e-03 2.710514095153e-03 0.0 
0.0 0.0 -9.658202727595e-04 
-1.517819935298e-03 5.689925216528e-04 0.0 
5.689925216528e-04 8.183121975380e-03 0.0 
0.0 0.0 -1.216510697198e-03 
6.201224625516e-04 2.820752531408e-03 0.0 
2.820752531408e-03 1.452084294343e-03 0.0 
0.0 0.0 -8.651011823288e-04 
9.038760669871e-04 3.026845929911e-03 0.0 
3.026845929911e-03 6.793831834175e-04 0.0 
0.0 0.0 -6.785396787449e-04 
8.674105580954e-05 -1.429107710981e-03 0.0 
-1.429107710981e-03 2.679701546003e-03 0.0 
0.0 0.0 -1.078177493492e-03 
-1.550932841916e-03 2.613354928632e-04 0.0 
2.613354928632e-04 7.825402361396e-03 0.0 
0.0 0.0 -1.149140729088e-03 
-1.512659112896e-03 3.422106709257e-04 0.0 
3.422106709257e-04 8.249752470507e-03 0.0 
0.0 0.0 -1.221625961084e-03 
-1.676659295308e-03 6.110344698925e-04 0.0 
6.110344698925e-04 5.968416883272e-03 0.0 
0.0 0.0 -8.638707813346e-04 
-1.641988205188e-03 4.340588364437e-04 0.0 
4.340588364437e-04 5.771155948817e-03 0.0 
0.0 0.0 -8.327709333130e-04 
-1.719162707249e-03 7.708162564075e-04 0.0 
7.708162564075e-04 6.112617701018e-03 0.0 
0.0 0.0 -8.925140200429e-04 
1.977927820577e-03 1.598623588264e-03 0.0 
1.598623588264e-03 -1.019208972965e-03 0.0 
0.0 0.0 -4.108795061196e-04 
1.108521086627e-03 1.458274724011e-03 0.0 
1.458274724011e-03 -6.824978449185e-04 0.0 
0.0 0.0 -1.825813893037e-04 
-1.599533954581e-03 7.014631110784e-04 0.0 
7.014631110784e-04 7.724369133548e-03 0.0 
0.0 0.0 -1.142090266074e-03 
-7.915237200633e-04 -1.416691550801e-03 0.0 
-1.416691550801e-03 2.916147842675e-03 0.0 
0.0 0.0 -8.917970384883e-04 
-9.526528541598e-04 -1.159662932408e-03 0.0 
-1.159662932408e-03 3.237497577102e-03 0.0 
0.0 0.0 -9.066540859529e-04 
1.679025679155e-04 -2.197795369639e-03 0.0 
-2.197795369639e-03 1.134113528401e-03 0.0 
0.0 0.0 -5.580068984213e-04 
1.993437938488e-04 -2.372930192997e-03 0.0 
-2.372930192997e-03 1.192906332053e-03 0.0 
0.0 0.0 -5.966786253865e-04 
-1.011942446972e-03 -2.270969963916e-03 0.0 
-2.270969963916e-03 3.766401779748e-03 0.0 
0.0 0.0 -1.058899862332e-03 
-7.573046355122e-04 -2.581800115454e-03 0.0 
-2.581800115454e-03 3.322201121737e-03 0.0 
0.0 0.0 -1.050266080739e-03 
-1.095827954621e-03 3.216069521876e-03 0.0 
3.216069521876e-03 4.826499025112e-03 0.0 
0.0 0.0 -1.038692069610e-03 
-1.234301998555e-03 3.107456630916e-03 0.0 
3.107456630916e-03 5.310904523361e-03 0.0 
0.0 0.0 -1.074129358999e-03 
-7.180889207275e-04 3.499463535137e-03 0.0 
3.499463535137e-03 3.763199671929e-03 0.0 
0.0 0.0 -9.722238801078e-04 
6.053063119579e-04 -2.030268547273e-03 0.0 
-2.030268547273e-03 1.237774920504e-03 0.0 
0.0 0.0 -7.898919567692e-04 
8.551862749054e-04 -2.258528060602e-03 0.0 
-2.258528060602e-03 5.423122765455e-04 0.0 
0.0 0.0 -5.989279506218e-04 
1.198969096751e-03 -1.716835984739e-03 0.0 
-1.716835984739e-03 -1.728528183354e-05 0.0 
0.0 0.0 -5.064359206787e-04 
-1.578160803348e-03 1.029909350069e-03 0.0 
1.029909350069e-03 7.988225935028e-03 0.0 
0.0 0.0 -1.199867006878e-03 
-1.525066789097e-03 9.716746199443e-04 0.0 
9.716746199443e-04 8.273760627129e-03 0.0 
0.0 0.0 -1.242728214876e-03 
1.321351467926e-03 -2.568351524438e-03 0.0 
-2.568351524438e-03 -2.315153931331e-07 0.0 
0.0 0.0 -5.661942653711e-04 
1.809254267051e-03 -2.583366555036e-03 0.0 
-2.583366555036e-03 -4.342692756295e-04 0.0 
0.0 0.0 -5.892792820379e-04 
6.921033763950e-04 -2.656898720389e-03 0.0 
-2.656898720389e-03 7.465441525006e-04 0.0 
0.0 0.0 -6.165632266696e-04 
-1.574485567314e-03 1.499311237931e-03 0.0 
1.499311237931e-03 7.988348182121e-03 0.0 
0.0 0.0 -1.223056365294e-03 
-1.741572698048e-03 -1.051965994170e-03 0.0 
-1.051965994170e-03 6.624165410999e-03 0.0 
0.0 0.0 -1.224004481682e-03 
-1.735235085971e-03 -1.304001527318e-03 0.0 
-1.304001527318e-03 6.344789461694e-03 0.0 
0.0 0.0 -1.195820777905e-03 
-2.679240954609e-05 -1.257927253223e-03 0.0 
-1.257927253223e-03 9.029103496679e-04 0.0 
0.0 0.0 -3.450663815859e-04 
-3.035170911774e-06 -1.579137764012e-03 0.0 
-1.579137764012e-03 1.039327180488e-03 0.0 
0.0 0.0 -4.410249086127e-04 
1.155100538592e-03 2.631364371344e-03 0.0 
2.631364371344e-03 1.868470155697e-04 0.0 
0.0 0.0 -5.751203803551e-04 
1.215808673203e-03 2.544029937651e-03 0.0 
2.544029937651e-03 -5.958635491021e-05 0.0 
0.0 0.0 -4.955238506970e-04 
-1.603953202991e-03 2.084851501461e-03 0.0 
2.084851501461e-03 7.579130278610e-03 0.0 
0.0 0.0 -1.207258722210e-03 
-1.637778905667e-03 2.162652518366e-03 0.0 
2.162652518366e-03 7.304299819900e-03 0.0 
0.0 0.0 -1.172631524865e-03 
-1.556077565275e-03 2.029656444368e-03 0.0 
2.029656444368e-03 7.905393318382e-03 0.0 
0.0 0.0 -1.247471551777e-03 
-8.078621275666e-04 -3.743686463011e-04 0.0 
-3.743686463011e-04 2.476609172107e-03 0.0 
0.0 0.0 -5.753817989848e-04 
1.173818397494e-04 2.725852523849e-03 0.0 
2.725852523849e-03 2.691650762888e-03 0.0 
0.0 0.0 -1.045322365442e-03 
-5.040778805934e-04 -1.070896588493e-03 0.0 
-1.070896588493e-03 3.980562278462e-03 0.0 
0.0 0.0 -1.207899217314e-03 
-2.520428194526e-04 -7.965635153337e-04 0.0 
-7.965635153337e-04 3.542662319704e-03 0.0 
0.0 0.0 -1.178012378629e-03 
-7.711086010594e-04 -1.329041706335e-03 0.0 
-1.329041706335e-03 4.567355749165e-03 0.0 
0.0 0.0 -1.244624083072e-03 
-1.223572839919e-04 2.186752793674e-03 0.0 
2.186752793674e-03 3.375840631155e-03 0.0 
0.0 0.0 -1.142102124289e-03 
-4.435966474857e-04 2.091597596222e-03 0.0 
2.091597596222e-03 3.997165180884e-03 0.0 
0.0 0.0 -1.205428683694e-03 
-6.295415077105e-04 2.617745388046e-03 0.0 
2.617745388046e-03 4.421095216534e-03 0.0 
0.0 0.0 -1.209323031234e-03 
8.913702169857e-05 -5.356610077543e-06 0.0 
-5.356610077543e-06 -8.913702169857e-05 0.0 
0.0 0.0 0.0 
-1.516551893121e-03 1.931531950452e-04 0.0 
1.931531950452e-04 8.105824831205e-03 0.0 
0.0 0.0 -1.199992767657e-03 
-1.600603275175e-03 3.197306060267e-04 0.0 
3.197306060267e-04 5.842030124630e-03 0.0 
0.0 0.0 -8.371571859873e-04 
0.0 0.0 0.0 
0.0 0.0 0.0 
0.0 0.0 0.0 
-1.547068004807e-03 2.255592860515e-04 0.0 
2.255592860515e-04 5.653808019545e-03 0.0 
0.0 0.0 -8.070151920887e-04 
-1.566358775821e-03 2.266234695203e-04 0.0 
2.266234695203e-04 5.919104175052e-03 0.0 
0.0 0.0 -8.451615393777e-04 
-1.505853756260e-03 1.425564258005e-04 0.0 
1.425564258005e-04 5.404792730384e-03 0.0 
0.0 0.0 -7.748096441827e-04 
-6.628775469822e-04 -3.015658585898e-04 0.0 
-3.015658585898e-04 2.010090265861e-03 0.0 
0.0 0.0 -4.206613647546e-04 
-1.675398106948e-03 5.868598101642e-04 0.0 
5.868598101642e-04 5.623434088204e-03 0.0 
0.0 0.0 -8.174106193842e-04 
-1.726757844430e-03 7.924650127462e-04 0.0 
7.924650127462e-04 5.855419414792e-03 0.0 
0.0 0.0 -8.556612431672e-04 
8.558548932515e-05 -1.128009013281e-03 0.0 
-1.128009013281e-03 6.309628739441e-04 0.0 
0.0 0.0 -2.713320700168e-04 
-1.513004436039e-03 1.420623121839e-03 0.0 
1.420623121839e-03 8.214217499082e-03 0.0 
0.0 0.0 -1.259301554906e-03 
1.749391661274e-04 -1.082733169331e-03 0.0 
-1.082733169331e-03 5.892299780132e-04 0.0 
0.0 0.0 -2.441793916413e-04 
1.147662153238e-04 -1.066745943300e-03 0.0 
-1.066745943300e-03 7.910181080930e-04 0.0 
0.0 0.0 -2.872885922025e-04 
-1.122672355991e-03 -1.921241529141e-03 0.0 
-1.921241529141e-03 5.266335920734e-03 0.0 
0.0 0.0 -1.221214701962e-03 
-1.203549749022e-03 -1.976762786956e-03 0.0 
-1.976762786956e-03 5.228557791274e-03 0.0 
0.0 0.0 -1.184344882880e-03 
-1.271935696370e-03 -1.932492998885e-03 0.0 
-1.932492998885e-03 5.682500405781e-03 0.0 
0.0 0.0 -1.247726601234e-03 
-1.345935677545e-03 -1.879180138911e-03 0.0 
-1.879180138911e-03 5.631962343118e-03 0.0 
0.0 0.0 -1.211018817991e-03 
-1.319489507466e-03 -1.996946989352e-03 0.0 
-1.996946989352e-03 5.223869660522e-03 0.0 
0.0 0.0 -1.147066289601e-03 
-1.457152980048e-03 -1.833275450520e-03 0.0 
-1.833275450520e-03 5.658001904065e-03 0.0 
0.0 0.0 -1.176490610025e-03 
-1.598701855115e-03 3.112456463076e-04 0.0 
3.112456463076e-04 5.594187128056e-03 0.0 
0.0 0.0 -7.985989294648e-04 
-1.425017338431e-03 -1.793987580484e-03 0.0 
-1.793987580484e-03 6.077694866820e-03 0.0 
0.0 0.0 -1.249018369598e-03 
-1.544794874514e-03 -1.654652183582e-03 0.0 
-1.654652183582e-03 6.043342076509e-03 0.0 
0.0 0.0 -1.207442871744e-03 
-1.490747382805e-03 -1.688185045970e-03 0.0 
-1.688185045970e-03 6.481641932430e-03 0.0 
0.0 0.0 -1.277927415301e-03 
-8.701201880038e-04 2.189049665711e-03 0.0 
2.189049665711e-03 3.268695103799e-03 0.0 
0.0 0.0 -8.722607330507e-04 
5.310970710450e-04 2.630450444314e-03 0.0 
2.630450444314e-03 9.000089298474e-04 0.0 
0.0 0.0 -6.133311432396e-04 
2.617133158352e-04 2.476764240616e-03 0.0 
2.476764240616e-03 1.164640329384e-03 0.0 
0.0 0.0 -6.112944193795e-04 
1.728571300418e-04 2.227493690469e-03 0.0 
2.227493690469e-03 1.142483149507e-03 0.0 
0.0 0.0 -5.637172626637e-04 
-1.229541831672e-03 3.263680413163e-03 0.0 
3.263680413163e-03 6.138633277811e-03 0.0 
0.0 0.0 -1.240180566941e-03 
-1.276361500880e-03 3.187291024850e-03 0.0 
3.187291024850e-03 6.099399323178e-03 0.0 
0.0 0.0 -1.200590015451e-03 
-2.088598425736e-03 -6.246367196868e-04 0.0 
-6.246367196868e-04 6.194373546362e-03 0.0 
0.0 0.0 -1.090180627845e-03 
-2.041663287848e-03 -6.617363893855e-04 0.0 
-6.617363893855e-04 5.852171557009e-03 0.0 
0.0 0.0 -1.067141795818e-03 
-1.532469855713e-03 1.525337910669e-04 0.0 
1.525337910669e-04 5.692847008020e-03 0.0 
0.0 0.0 -8.108182148135e-04 
-1.511312180107e-03 9.255618039040e-05 0.0 
9.255618039040e-05 5.666580148835e-03 0.0 
0.0 0.0 -8.077352941366e-04 
-1.560488436606e-03 1.911238081195e-04 0.0 
1.911238081195e-04 6.070956180256e-03 0.0 
0.0 0.0 -8.678526801547e-04 
-1.544526745633e-03 1.030985674976e-04 0.0 
1.030985674976e-04 6.005801825662e-03 0.0 
0.0 0.0 -8.609153521579e-04 
-1.580530064686e-03 1.945628071657e-04 0.0 
1.945628071657e-04 6.420611350931e-03 0.0 
0.0 0.0 -9.200517378055e-04 
-1.559403933791e-03 8.887484367551e-05 0.0 
8.887484367551e-05 6.359767284502e-03 0.0 
0.0 0.0 -9.108947733944e-04 
-1.583263469338e-03 1.334252269549e-04 0.0 
1.334252269549e-04 6.753346818615e-03 0.0 
0.0 0.0 -9.726914458129e-04 
-8.669769815257e-04 2.889098903744e-03 0.0 
2.889098903744e-03 5.024560399167e-03 0.0 
0.0 0.0 -1.245087786853e-03 
4.982055672495e-04 2.293020821825e-03 0.0 
2.293020821825e-03 7.508210362061e-04 0.0 
0.0 0.0 -5.352971157667e-04 
-1.245162061090e-03 1.941632408908e-03 0.0 
1.941632408908e-03 3.965163190857e-03 0.0 
0.0 0.0 -8.237883836899e-04 
-3.879507205886e-04 1.027612391922e-03 0.0 
1.027612391922e-03 3.877749242080e-03 0.0 
0.0 0.0 -1.228261380050e-03 
-1.475502455479e-04 6.710535629733e-04 0.0 
6.710535629733e-04 3.400758398957e-03 0.0 
0.0 0.0 -1.187396807988e-03 
-4.877113708209e-04 2.653909423409e-03 0.0 
2.653909423409e-03 2.711925927626e-03 0.0 
0.0 0.0 -9.301491777014e-04 
-4.673273112926e-04 2.354591855457e-03 0.0 
2.354591855457e-03 2.518811343451e-03 0.0 
0.0 0.0 -8.783714799336e-04 
-9.656459474725e-04 -1.750454010380e-03 0.0 
-1.750454010380e-03 4.960948450779e-03 0.0 
0.0 0.0 -1.238794375355e-03 
1.773029984471e-03 2.918628512030e-03 0.0 
2.918628512030e-03 -2.405794798709e-04 0.0 
0.0 0.0 -6.567645019713e-04 
-1.474754496101e-03 1.652724927503e-03 0.0 
1.652724927503e-03 8.365646577830e-03 0.0 
0.0 0.0 -1.295459716840e-03 
0.0 0.0 0.0 
0.0 0.0 0.0 
0.0 0.0 0.0 
1.498393906149e-04 3.022053957605e-04 0.0 
3.022053957605e-04 -1.163750170629e-04 0.0 
0.0 0.0 -1.434187437943e-05 
1.327025876230e-03 3.010605488358e-03 0.0 
3.010605488358e-03 1.473338213913e-04 0.0 
0.0 0.0 -6.318684418375e-04 
-5.499021132442e-04 2.888144921732e-03 0.0 
2.888144921732e-03 2.938437648155e-03 0.0 
0.0 0.0 -9.558721723632e-04 
3.323415439528e-04 2.743520330787e-03 0.0 
2.743520330787e-03 1.229329144075e-03 0.0 
0.0 0.0 -6.692874377263e-04 
9.209566797494e-05 2.604630668434e-03 0.0 
2.604630668434e-03 1.511290340994e-03 0.0 
0.0 0.0 -6.871654324154e-04 
3.645468755337e-04 -1.692092076938e-03 0.0 
-1.692092076938e-03 1.976975662064e-03 0.0 
0.0 0.0 -9.759998253719e-04 
1.091376312940e-04 -1.700138468344e-03 0.0 
-1.700138468344e-03 9.084482070208e-04 0.0 
0.0 0.0 -4.293607968937e-04 
9.860679807434e-04 2.546469046220e-03 0.0 
2.546469046220e-03 3.575313038065e-04 0.0 
0.0 0.0 -5.758282648071e-04 
-1.592993118431e-03 2.731466696240e-04 0.0 
2.731466696240e-04 6.800272037187e-03 0.0 
0.0 0.0 -9.796923013958e-04 
6.911227834126e-04 2.251046992259e-03 0.0 
2.251046992259e-03 5.130124139505e-04 0.0 
0.0 0.0 -5.160579417270e-04 
-2.121618955622e-03 -3.224058753556e-04 0.0 
-3.224058753556e-04 6.099005119318e-03 0.0 
0.0 0.0 -1.073807358551e-03 
2.201373567652e-03 2.690698738968e-03 0.0 
2.690698738968e-03 -6.091920316776e-04 0.0 
0.0 0.0 -6.823635154174e-04 
-1.638384935320e-04 3.372316730358e-03 0.0 
3.372316730358e-03 2.445531910937e-03 0.0 
0.0 0.0 -9.519839029876e-04 
1.275974649949e-03 2.775715452302e-03 0.0 
2.775715452302e-03 1.801999389927e-04 0.0 
0.0 0.0 -6.240748238320e-04 
8.350192799097e-04 2.727176630851e-03 0.0 
2.727176630851e-03 5.820764688072e-04 0.0 
0.0 0.0 -6.073267494501e-04 
-1.574296698924e-03 2.484580816168e-03 0.0 
2.484580816168e-03 4.927078130058e-03 0.0 
0.0 0.0 -8.786961992330e-04 
-1.699341285066e-03 1.882952510091e-03 0.0 
1.882952510091e-03 5.001649373791e-03 0.0 
0.0 0.0 -8.239340753773e-04 
-1.544077067517e-03 2.021174845409e-03 0.0 
2.021174845409e-03 4.648313902463e-03 0.0 
0.0 0.0 -8.287327148421e-04 
2.547623254183e-03 2.268646563305e-03 0.0 
2.268646563305e-03 -9.255766277510e-04 0.0 
0.0 0.0 -6.951628398994e-04 
-9.793607364304e-05 2.680641002234e-03 0.0 
2.680641002234e-03 1.905972935152e-03 0.0 
0.0 0.0 -7.748729406467e-04 
-1.401926105552e-04 2.272349151151e-03 0.0 
2.272349151151e-03 1.732062029039e-03 0.0 
0.0 0.0 -6.822297507788e-04 
-1.042335079289e-03 3.085608632330e-03 0.0 
3.085608632330e-03 3.939330989580e-03 0.0 
0.0 0.0 -9.170298757010e-04 
-1.694312562690e-03 2.003906122110e-03 0.0 
2.003906122110e-03 6.960974899569e-03 0.0 
0.0 0.0 -1.107475121065e-03 
-1.654341182746e-03 2.234400658440e-03 0.0 
2.234400658440e-03 6.989596744706e-03 0.0 
0.0 0.0 -1.136341617999e-03 
-1.591073595122e-03 2.379952355984e-03 0.0 
2.379952355984e-03 7.311228899108e-03 0.0 
0.0 0.0 -1.199268560344e-03 
-1.606550985090e-03 2.450965261895e-03 0.0 
2.450965261895e-03 7.002228799418e-03 0.0 
0.0 0.0 -1.164598082371e-03 
-1.654615127137e-03 2.306554865062e-03 0.0 
2.306554865062e-03 6.662432923767e-03 0.0 
0.0 0.0 -1.100413285504e-03 
-1.595489437176e-03 2.513437590904e-03 0.0 
2.513437590904e-03 6.653696588520e-03 0.0 
0.0 0.0 -1.129075729544e-03 
-1.546389988990e-03 2.664193302564e-03 0.0 
2.664193302564e-03 6.994860909819e-03 0.0 
0.0 0.0 -1.193594387005e-03 
-1.524710140769e-03 2.725114460972e-03 0.0 
2.725114460972e-03 6.640657221836e-03 0.0 
0.0 0.0 -1.159256375294e-03 
-1.483453285402e-03 2.879360167952e-03 0.0 
2.879360167952e-03 7.061959584516e-03 0.0 
0.0 0.0 -1.234286862126e-03 
-1.459335345335e-03 2.896614314087e-03 0.0 
2.896614314087e-03 6.597331098230e-03 0.0 
0.0 0.0 -1.187309181180e-03 
-1.487240193726e-03 2.797813669470e-03 0.0 
2.797813669470e-03 6.237817525026e-03 0.0 
0.0 0.0 -1.120864512401e-03 
-1.416348664038e-03 2.952147323061e-03 0.0 
2.952147323061e-03 6.179572228468e-03 0.0 
0.0 0.0 -1.147759711419e-03 
-1.401702611885e-03 3.058403427338e-03 0.0 
3.058403427338e-03 6.528924407833e-03 0.0 
0.0 0.0 -1.207767947030e-03 
-1.429554607918e-03 2.882577101757e-03 0.0 
2.882577101757e-03 5.825437132677e-03 0.0 
0.0 0.0 -1.082593982084e-03 
-6.657140394303e-04 1.410986986977e-03 0.0 
1.410986986977e-03 4.342280522210e-03 0.0 
0.0 0.0 -1.264544343569e-03 
1.285034861164e-03 3.046453072889e-03 0.0 
3.046453072889e-03 2.156214386420e-04 0.0 
0.0 0.0 -6.431384142027e-04 
3.221685064304e-04 2.100220635338e-04 0.0 
2.100220635338e-04 -3.125792772457e-04 0.0 
0.0 0.0 -4.109669650583e-06 
7.277286052914e-04 1.662264959666e-03 0.0 
1.662264959666e-03 -4.217765524128e-04 0.0 
0.0 0.0 -1.311223083766e-04 
-4.639929809661e-04 3.327821869830e-03 0.0 
3.327821869830e-03 2.959449472573e-03 0.0 
0.0 0.0 -9.691543639280e-04 
-1.437907230863e-03 2.996700486661e-03 0.0 
2.996700486661e-03 7.518201304671e-03 0.0 
0.0 0.0 -1.299806302097e-03 
-1.466395687024e-03 2.621641971218e-03 0.0 
2.621641971218e-03 7.881651097987e-03 0.0 
0.0 0.0 -1.301753673823e-03 
2.487482228611e-03 2.475720953215e-03 0.0 
2.475720953215e-03 -8.077451105291e-04 0.0 
0.0 0.0 -7.198873363210e-04 
-1.280305576935e-03 3.404019922885e-03 0.0 
3.404019922885e-03 6.453749912264e-03 0.0 
0.0 0.0 -1.303413959896e-03 
-1.478986277362e-03 2.335815426712e-03 0.0 
2.335815426712e-03 4.599949913439e-03 0.0 
0.0 0.0 -8.572908036711e-04 
2.443469762099e-03 1.504212848516e-03 0.0 
1.504212848516e-03 -1.149517681368e-03 0.0 
0.0 0.0 -5.545508917418e-04 
-1.188451958700e-03 3.233888318984e-03 0.0 
3.233888318984e-03 5.957074391346e-03 0.0 
0.0 0.0 -1.304286792737e-03 
-1.700650587437e-03 2.084768146748e-03 0.0 
2.084768146748e-03 6.648225866754e-03 0.0 
0.0 0.0 -1.071440646998e-03 
-1.693986595116e-03 2.166002580174e-03 0.0 
2.166002580174e-03 6.318613390721e-03 0.0 
0.0 0.0 -1.034857077839e-03 
-1.735485188954e-03 1.934897306350e-03 0.0 
1.934897306350e-03 6.303939504401e-03 0.0 
0.0 0.0 -1.006057961993e-03 
-1.460757887231e-03 2.250687193900e-03 0.0 
2.250687193900e-03 8.134933915156e-03 0.0 
0.0 0.0 -1.305867370806e-03 
-1.749991994699e-03 9.588049142227e-04 0.0 
9.588049142227e-04 6.254499179949e-03 0.0 
0.0 0.0 -9.232948652302e-04 
-1.017747060708e-03 2.242049910193e-03 0.0 
2.242049910193e-03 5.131073367086e-03 0.0 
0.0 0.0 -1.306016332489e-03 
1.333415972402e-03 1.535387923333e-03 0.0 
1.535387923333e-03 1.136937242501e-04 0.0 
0.0 0.0 -6.201898699939e-04 
1.391903311676e-03 2.154011180947e-03 0.0 
2.154011180947e-03 1.151631227136e-05 0.0 
0.0 0.0 -6.014655531204e-04 
1.815463505361e-03 2.115453371163e-03 0.0 
2.115453371163e-03 -5.458577548768e-04 0.0 
0.0 0.0 -5.441167502075e-04 
-1.566214445404e-03 2.595986134179e-03 0.0 
2.595986134179e-03 6.282321888988e-03 0.0 
0.0 0.0 -1.092245366321e-03 
-9.205735445318e-04 4.808338680360e-04 0.0 
4.808338680360e-04 4.693547071086e-03 0.0 
0.0 0.0 -1.302677999426e-03 
-5.441937307524e-04 1.925192123183e-04 0.0 
1.925192123183e-04 4.093065944914e-03 0.0 
0.0 0.0 -1.248400714067e-03 
-5.696920249624e-04 -2.362618994637e-04 0.0 
-2.362618994637e-04 4.138723512730e-03 0.0 
0.0 0.0 -1.248426544684e-03 
-2.031241474020e-04 -7.328110519664e-05 0.0 
-7.328110519664e-05 3.471353297543e-03 0.0 
0.0 0.0 -1.189114855724e-03 
-9.524782035086e-04 -4.338690848369e-04 0.0 
-4.338690848369e-04 4.786583626593e-03 0.0 
0.0 0.0 -1.303398793257e-03 
-1.386313891139e-03 3.268387124946e-03 0.0 
3.268387124946e-03 7.156994535034e-03 0.0 
0.0 0.0 -1.306665994082e-03 
-1.359095365040e-03 3.359352166101e-03 0.0 
3.359352166101e-03 6.950855487648e-03 0.0 
0.0 0.0 -1.308500709484e-03 
1.902852668699e-03 -2.817268794694e-03 0.0 
-2.817268794694e-03 -4.032967653229e-04 0.0 
0.0 0.0 -6.426668157327e-04 
2.253407391376e-03 -2.370679650838e-03 0.0 
-2.370679650838e-03 -7.551607023087e-04 0.0 
0.0 0.0 -6.421057238860e-04 
2.152188401618e-03 -2.215932361183e-03 0.0 
-2.215932361183e-03 -7.648493634962e-04 0.0 
0.0 0.0 -5.945738734806e-04 
2.568498674833e-03 -1.800335482077e-03 0.0 
-1.800335482077e-03 -1.054151680982e-03 0.0 
0.0 0.0 -6.490058545078e-04 
2.589267859695e-03 -1.939320893250e-03 0.0 
-1.939320893250e-03 -1.034701238564e-03 0.0 
0.0 0.0 -6.662428376277e-04 
2.845251393852e-03 -1.182488936622e-03 0.0 
-1.182488936622e-03 -1.266140625123e-03 0.0 
0.0 0.0 -6.767617580267e-04 
2.841382791890e-03 -1.149550775431e-03 0.0 
-1.149550775431e-03 -1.284812658761e-03 0.0 
0.0 0.0 -6.671014856266e-04 
2.966198092938e-03 -3.987988764167e-04 0.0 
-3.987988764167e-04 -1.382086548665e-03 0.0 
0.0 0.0 -6.789049475453e-04 
-1.248651035025e-03 3.111213554981e-03 0.0 
3.111213554981e-03 5.700369437698e-03 0.0 
0.0 0.0 -1.138512926666e-03 
-1.048382069547e-03 -1.181351894960e-03 0.0 
-1.181351894960e-03 5.065835417687e-03 0.0 
0.0 0.0 -1.305779161548e-03 
4.789526992596e-05 -3.017317976477e-03 0.0 
-3.017317976477e-03 1.955725826502e-03 0.0 
0.0 0.0 -8.490207048509e-04 
4.255875009583e-04 -2.891330549410e-03 0.0 
-2.891330549410e-03 1.272940405536e-03 0.0 
0.0 0.0 -7.279405313547e-04 
7.016485745697e-04 -2.791230812805e-03 0.0 
-2.791230812805e-03 8.160956132734e-04 0.0 
0.0 0.0 -6.504617947899e-04 
-6.090620729236e-04 -2.591660670729e-03 0.0 
-2.591660670729e-03 2.996920806010e-03 0.0 
0.0 0.0 -1.013136008453e-03 
-4.847718747428e-04 -2.835802633982e-03 0.0 
-2.835802633982e-03 2.833935359093e-03 0.0 
0.0 0.0 -9.978061834832e-04 
-6.569091499038e-04 -2.799289725008e-03 0.0 
-2.799289725008e-03 3.183472627718e-03 0.0 
0.0 0.0 -1.035689958333e-03 
-7.207313198164e-04 -2.290250490495e-03 0.0 
-2.290250490495e-03 3.125345330795e-03 0.0 
0.0 0.0 -1.018322119518e-03 
-1.167877884792e-04 3.342094439232e-03 0.0 
3.342094439232e-03 2.837618912037e-03 0.0 
0.0 0.0 -9.882323209451e-04 
-1.091898030697e-03 -1.486850666943e-03 0.0 
-1.486850666943e-03 5.227315460995e-03 0.0 
0.0 0.0 -1.305003056577e-03 
1.225364256890e-03 -1.147615656396e-03 0.0 
-1.147615656396e-03 3.835923769498e-05 0.0 
0.0 0.0 -5.415957833937e-04 
-1.980397502487e-04 -3.005905727183e-03 0.0 
-3.005905727183e-03 2.314319347710e-03 0.0 
0.0 0.0 -9.069769703405e-04 
-1.707142071172e-03 7.635271864477e-04 0.0 
7.635271864477e-04 5.127553643252e-03 0.0 
0.0 0.0 -7.516786372745e-04 
-1.746908817975e-03 1.023609105839e-03 0.0 
1.023609105839e-03 5.442206395915e-03 0.0 
0.0 0.0 -8.094822736869e-04 
-1.772933357879e-03 1.184262300292e-03 0.0 
1.184262300292e-03 5.385289162601e-03 0.0 
0.0 0.0 -8.097394517040e-04 
-1.768350599280e-03 1.251073624371e-03 0.0 
1.251073624371e-03 5.764313646979e-03 0.0 
0.0 0.0 -8.733121467894e-04 
-1.727990335715e-03 8.210495884293e-04 0.0 
8.210495884293e-04 5.545557871090e-03 0.0 
0.0 0.0 -8.155917408702e-04 
-1.236784994223e-03 -1.923322638249e-03 0.0 
-1.923322638249e-03 4.168389852977e-03 0.0 
0.0 0.0 -1.057296815204e-03 
-1.427088068768e-03 -1.555275096953e-03 0.0 
-1.555275096953e-03 4.526520888732e-03 0.0 
0.0 0.0 -1.060211733922e-03 
-1.439309846138e-03 -1.245667555875e-03 0.0 
-1.245667555875e-03 4.501167157264e-03 0.0 
0.0 0.0 -1.053704044192e-03 
-1.586214255689e-03 -1.181249332069e-03 0.0 
-1.181249332069e-03 4.840144294026e-03 0.0 
0.0 0.0 -1.064485974018e-03 
-1.568580492753e-03 -8.807724015312e-04 0.0 
-8.807724015312e-04 4.760936091880e-03 0.0 
0.0 0.0 -1.058069710598e-03 
-1.437909822652e-03 -9.389915626686e-04 0.0 
-9.389915626686e-04 4.447516747931e-03 0.0 
0.0 0.0 -1.040756414728e-03 
-1.718221607956e-03 -8.006521433412e-04 0.0 
-8.006521433412e-04 5.111220650433e-03 0.0 
0.0 0.0 -1.068385751750e-03 
-1.669418493281e-03 -5.082865991109e-04 0.0 
-5.082865991109e-04 4.972394175886e-03 0.0 
0.0 0.0 -1.061946884890e-03 
-1.641647603362e-03 4.850166825857e-04 0.0 
4.850166825857e-04 5.202247326036e-03 0.0 
0.0 0.0 -7.509531518293e-04 
4.681733094658e-05 -5.816533838581e-04 0.0 
-5.816533838581e-04 9.454411860111e-05 0.0 
0.0 0.0 -6.058347837758e-05 
4.397814964137e-04 -2.157349287924e-03 0.0 
-2.157349287924e-03 4.211423268834e-04 0.0 
0.0 0.0 -3.689673528416e-04 
3.155046189534e-04 -2.027375098909e-03 0.0 
-2.027375098909e-03 7.742453397045e-04 0.0 
0.0 0.0 -4.670356965677e-04 
8.520514226530e-04 -2.864865723911e-03 0.0 
-2.864865723911e-03 5.535726049248e-04 0.0 
0.0 0.0 -6.024102975334e-04 
1.107532573262e-03 -2.675867926973e-03 0.0 
-2.675867926973e-03 -1.282410957994e-04 0.0 
0.0 0.0 -4.196963474839e-04 
1.414391538560e-03 -3.037597772400e-03 0.0 
-3.037597772400e-03 4.732794591137e-06 0.0 
0.0 0.0 -6.081961427792e-04 
1.798568626031e-03 -2.807561227883e-03 0.0 
-2.807561227883e-03 -5.963916264621e-04 0.0 
0.0 0.0 -5.152187141009e-04 
4.798167785024e-04 -1.487535536050e-03 0.0 
-1.487535536050e-03 -2.160815451901e-04 0.0 
0.0 0.0 -1.130293857052e-04 
1.221925142391e-04 -6.477447924089e-04 0.0 
-6.477447924089e-04 3.263707583015e-04 0.0 
0.0 0.0 -1.721226713898e-04 
1.600896537738e-04 -1.547795297662e-03 0.0 
-1.547795297662e-03 7.330764534416e-04 0.0 
0.0 0.0 -3.827854745209e-04 
1.103966075786e-04 -5.622367864216e-04 0.0 
-5.622367864216e-04 3.103757836854e-04 0.0 
0.0 0.0 -1.517934084529e-04 
1.053013884946e-04 -1.323791722729e-03 0.0 
-1.323791722729e-03 6.739471651028e-04 0.0 
0.0 0.0 -3.339636658274e-04 
3.430982234410e-04 -2.178085181117e-03 0.0 
-2.178085181117e-03 8.728126235658e-04 0.0 
0.0 0.0 -5.211046487172e-04 
-1.935346954464e-05 -1.828430160185e-03 0.0 
-1.828430160185e-03 1.220825087692e-03 0.0 
0.0 0.0 -5.149164077774e-04 
-1.561183168720e-03 -1.084347523387e-03 0.0 
-1.084347523387e-03 6.914233553436e-03 0.0 
0.0 0.0 -1.294874803588e-03 
-1.312931512090e-03 -3.406360319044e-04 0.0 
-3.406360319044e-04 4.053324067572e-03 0.0 
0.0 0.0 -9.806349194848e-04 
-1.232619789514e-03 -6.513903715833e-04 0.0 
-6.513903715833e-04 3.864959534980e-03 0.0 
0.0 0.0 -9.593735700280e-04 
-1.113036939270e-03 -6.004263507847e-04 0.0 
-6.004263507847e-04 3.522372894904e-03 0.0 
0.0 0.0 -8.977078860960e-04 
-1.116965318077e-03 -9.982255990531e-04 0.0 
-9.982255990531e-04 3.625196753216e-03 0.0 
0.0 0.0 -9.469176294500e-04 
-1.332244483269e-03 -6.509527714259e-04 0.0 
-6.509527714259e-04 4.142116544653e-03 0.0 
0.0 0.0 -1.006312639172e-03 
-1.080865388107e-03 -2.755367266220e-04 0.0 
-2.755367266220e-04 3.371661966390e-03 0.0 
0.0 0.0 -8.426599334973e-04 
-1.024104142748e-03 -5.302931597588e-04 0.0 
-5.302931597588e-04 3.225767958481e-03 0.0 
0.0 0.0 -8.124903673991e-04 
2.119334771273e-03 -2.250984394130e-04 0.0 
-2.250984394130e-04 -5.528535054759e-04 0.0 
0.0 0.0 -1.954030217304e-04 
1.237953986699e-03 -2.579545419294e-04 0.0 
-2.579545419294e-04 1.543244489082e-04 0.0 
0.0 0.0 -2.932658944931e-04 
1.411332111426e-03 -2.759944625030e-05 0.0 
-2.759944625030e-05 3.743876493098e-05 0.0 
0.0 0.0 -2.856593951198e-04 
3.600465984566e-04 -2.066499797985e-04 0.0 
-2.066499797985e-04 8.608267290585e-04 0.0 
0.0 0.0 -3.080440922735e-04 
3.653305054747e-04 -3.597145395908e-04 0.0 
-3.597145395908e-04 8.532226922973e-04 0.0 
0.0 0.0 -3.086108473030e-04 
1.169231949576e-03 -3.840093619394e-04 0.0 
-3.840093619394e-04 1.923594400946e-04 0.0 
0.0 0.0 -2.956379591255e-04 
1.031256041784e-03 -4.886047117192e-04 0.0 
-4.886047117192e-04 2.379226924498e-04 0.0 
0.0 0.0 -2.908089562448e-04 
1.816529586793e-03 -3.500151260859e-04 0.0 
-3.500151260859e-04 -4.323507490206e-04 0.0 
0.0 0.0 -1.958374107737e-04 
8.667756449627e-04 -6.409008792115e-04 0.0 
-6.409008792115e-04 2.928477416533e-04 0.0 
0.0 0.0 -2.796976375194e-04 
1.702636575089e-04 -6.542409432277e-04 0.0 
-6.542409432277e-04 9.095668014512e-04 0.0 
0.0 0.0 -3.106791268491e-04 
1.620102908946e-03 -4.500577592913e-04 0.0 
-4.500577592913e-04 -3.726586433767e-04 0.0 
0.0 0.0 -1.892091717599e-04 
-1.577535716708e-03 5.392394720966e-05 0.0 
5.392394720966e-05 7.299934411769e-03 0.0 
0.0 0.0 -1.060427308513e-03 
-1.573061893325e-03 1.544570403577e-04 0.0 
1.544570403577e-04 7.509050943264e-03 0.0 
0.0 0.0 -1.097082233180e-03 
-1.192953449252e-03 -1.864011720090e-03 0.0 
-1.864011720090e-03 5.605209134645e-03 0.0 
0.0 0.0 -1.300897016293e-03 
-1.579855819088e-03 2.979771540211e-04 0.0 
2.979771540211e-04 5.293250471981e-03 0.0 
0.0 0.0 -7.584009903415e-04 
3.744709763724e-04 -6.364946627065e-04 0.0 
-6.364946627065e-04 1.401291707387e-04 0.0 
0.0 0.0 -1.034024162715e-04 
-1.449845600680e-03 6.382887501364e-04 0.0 
6.382887501364e-04 8.609834207447e-03 0.0 
0.0 0.0 -1.292107529982e-03 
-1.448440923656e-03 1.123280561170e-03 0.0 
1.123280561170e-03 8.566022624529e-03 0.0 
0.0 0.0 -1.303172775453e-03 
-1.434083243244e-03 9.839421265548e-04 0.0 
9.839421265548e-04 8.603548743914e-03 0.0 
0.0 0.0 -1.304823151597e-03 
-1.916252571144e-03 -2.792629766010e-04 0.0 
-2.792629766010e-04 6.698528630947e-03 0.0 
0.0 0.0 -1.191058493115e-03 
-1.809292576517e-03 -5.447261667623e-04 0.0 
-5.447261667623e-04 6.787910699568e-03 0.0 
0.0 0.0 -1.224322658093e-03 
-1.441620689681e-03 3.697909072679e-04 0.0 
3.697909072679e-04 8.644537781625e-03 0.0 
0.0 0.0 -1.294569364341e-03 
-1.966831809583e-04 -2.229424319449e-03 0.0 
-2.229424319449e-03 1.821439975238e-03 0.0 
0.0 0.0 -6.963243404055e-04 
-1.542446802675e-03 2.619749311667e-03 0.0 
2.619749311667e-03 7.342230023592e-03 0.0 
0.0 0.0 -1.225740639889e-03 
-1.563624804990e-03 6.428436196565e-04 0.0 
6.428436196565e-04 7.948413338163e-03 0.0 
0.0 0.0 -1.178628832109e-03 
2.201456429693e-03 2.341714128316e-03 0.0 
2.341714128316e-03 -8.075777083502e-04 0.0 
0.0 0.0 -5.973765948613e-04 
4.529977292289e-04 -2.561738032130e-03 0.0 
-2.561738032130e-03 9.606788663604e-04 0.0 
0.0 0.0 -6.058613981097e-04 
-1.912750157524e-03 -1.012850712710e-03 0.0 
-1.012850712710e-03 5.577288917285e-03 0.0 
0.0 0.0 -1.066202199875e-03 
-1.088098720313e-03 -2.559527887766e-03 0.0 
-2.559527887766e-03 3.979421504262e-03 0.0 
0.0 0.0 -1.028256539386e-03 
-1.822459650115e-03 -1.367111847188e-03 0.0 
-1.367111847188e-03 6.015979930005e-03 0.0 
0.0 0.0 -1.130390451587e-03 
-1.582105737625e-03 -1.721031184097e-03 0.0 
-1.721031184097e-03 4.901863080820e-03 0.0 
0.0 0.0 -1.057243679378e-03 
-1.608185598285e-03 -1.915614561762e-03 0.0 
-1.915614561762e-03 5.282640092044e-03 0.0 
0.0 0.0 -1.076106726067e-03 
-6.144948469041e-04 -6.639795998970e-04 0.0 
-6.639795998970e-04 4.224201553889e-03 0.0 
0.0 0.0 -1.244129926109e-03 
-5.789303246957e-04 -4.457683817534e-04 0.0 
-4.457683817534e-04 1.808907778624e-03 0.0 
0.0 0.0 -3.862231446352e-04 
-1.669791442216e-03 5.742208476735e-04 0.0 
5.742208476735e-04 6.461493581352e-03 0.0 
0.0 0.0 -9.364826870394e-04 
-1.605975857622e-03 3.178960195767e-04 0.0 
3.178960195767e-04 6.348918363535e-03 0.0 
0.0 0.0 -9.130351872960e-04 
-1.629937813867e-03 6.093327650254e-04 0.0 
6.093327650254e-04 7.342083193620e-03 0.0 
0.0 0.0 -1.075939795031e-03 
-6.482537929307e-04 -1.608115231979e-03 0.0 
-1.608115231979e-03 2.605453652753e-03 0.0 
0.0 0.0 -8.387999399238e-04 
-1.303549504287e-03 -1.305113709369e-03 0.0 
-1.305113709369e-03 4.181114019267e-03 0.0 
0.0 0.0 -1.034705495726e-03 
-3.971862798800e-04 -1.135666412244e-03 0.0 
-1.135666412244e-03 1.660229728604e-03 0.0 
0.0 0.0 -5.350964027253e-04 
-1.079760018860e-03 3.194336986256e-03 0.0 
3.194336986256e-03 5.659153012299e-03 0.0 
0.0 0.0 -1.251461238623e-03 
-9.146057249504e-04 2.949568127909e-03 0.0 
2.949568127909e-03 3.641380823932e-03 0.0 
0.0 0.0 -9.215523041033e-04 
5.869540678773e-04 -2.956750850037e-03 0.0 
-2.956750850037e-03 1.034406097070e-03 0.0 
0.0 0.0 -6.948686421203e-04 
-4.983222250127e-04 -2.534366466985e-03 0.0 
-2.534366466985e-03 2.700875388843e-03 0.0 
0.0 0.0 -9.439513559275e-04 
-3.730260252317e-06 -2.536920884211e-03 0.0 
-2.536920884211e-03 1.637062224885e-03 0.0 
0.0 0.0 -6.999994134141e-04 
7.353476243331e-04 -2.725229135126e-03 0.0 
-2.725229135126e-03 6.766599510438e-04 0.0 
0.0 0.0 -6.051461037329e-04 
8.595376325540e-04 3.133881433802e-03 0.0 
3.133881433802e-03 8.059885165152e-04 0.0 
0.0 0.0 -7.137969210297e-04 
-4.203429083409e-05 -3.125630815959e-03 0.0 
-3.125630815959e-03 2.086027069296e-03 0.0 
0.0 0.0 -8.759969050552e-04 
-8.028650656472e-04 -2.530764803792e-03 0.0 
-2.530764803792e-03 3.746131268308e-03 0.0 
0.0 0.0 -1.026962916580e-03 
-1.603305794962e-03 5.584175701992e-04 0.0 
5.584175701992e-04 7.571764629350e-03 0.0 
0.0 0.0 -1.112552678551e-03 
9.600606219979e-04 -6.202368537327e-04 0.0 
-6.202368537327e-04 -7.835338607429e-05 0.0 
0.0 0.0 -1.528964725408e-04 
-6.507698434307e-04 -2.317277330880e-03 0.0 
-2.317277330880e-03 3.698342537328e-03 0.0 
0.0 0.0 -1.061672265243e-03 
-4.694800132291e-04 -3.046911020093e-03 0.0 
-3.046911020093e-03 2.876301697078e-03 0.0 
0.0 0.0 -9.848592602066e-04 
-1.735611780566e-03 9.275084004437e-04 0.0 
9.275084004437e-04 6.521846032081e-03 0.0 
0.0 0.0 -9.599091010803e-04 
5.517342203791e-04 7.070794377615e-04 0.0 
7.070794377615e-04 1.993016539601e-03 0.0 
0.0 0.0 -1.047968735850e-03 
1.251262826807e-03 -3.149427623220e-03 0.0 
-3.149427623220e-03 3.147933255355e-04 0.0 
0.0 0.0 -6.711669224326e-04 
-1.667035138543e-03 9.805979703494e-04 0.0 
9.805979703494e-04 7.401003517057e-03 0.0 
0.0 0.0 -1.098747615487e-03 
-1.603855099599e-03 1.782256839983e-03 0.0 
1.782256839983e-03 7.796685969376e-03 0.0 
0.0 0.0 -1.212453547082e-03 
-1.753933973529e-03 9.797964852189e-04 0.0 
9.797964852189e-04 5.978451539688e-03 0.0 
0.0 0.0 -8.875094802107e-04 
-2.613102227183e-04 -9.949083205869e-04 0.0 
-9.949083205869e-04 1.295268273910e-03 0.0 
0.0 0.0 -4.064699368096e-04 
-1.648709990180e-03 4.475238255647e-04 0.0 
4.475238255647e-04 6.036264205668e-03 0.0 
0.0 0.0 -8.692469099983e-04 
-7.203164161434e-04 -1.605185791603e-03 0.0 
-1.605185791603e-03 4.351922217429e-03 0.0 
0.0 0.0 -1.202705989510e-03 
-1.725470359675e-03 1.770892894084e-03 0.0 
1.770892894084e-03 6.914744693878e-03 0.0 
0.0 0.0 -1.078220320736e-03 
-7.065492097226e-04 -1.209971096051e-03 0.0 
-1.209971096051e-03 2.577314578998e-03 0.0 
0.0 0.0 -7.821142971127e-04 
2.080536798912e-03 -4.379488450435e-04 0.0 
-4.379488450435e-04 -1.014496050842e-03 0.0 
0.0 0.0 -4.568746063161e-04 
3.673244141799e-05 3.501892657137e-03 0.0 
3.501892657137e-03 2.162557991526e-03 0.0 
0.0 0.0 -9.249336466263e-04 
-1.472424715948e-03 1.473284294565e-03 0.0 
1.473284294565e-03 4.326140179341e-03 0.0 
0.0 0.0 -7.656857982150e-04 
-1.552562983666e-03 7.948996227407e-04 0.0 
7.948996227407e-04 8.084351316505e-03 0.0 
0.0 0.0 -1.206557591227e-03 
1.197294541337e-03 2.931696958795e-03 0.0 
2.931696958795e-03 3.430979437177e-04 0.0 
0.0 0.0 -6.601682078804e-04 
2.014691518502e-04 -1.535153806247e-04 0.0 
-1.535153806247e-04 2.672995857900e-03 0.0 
0.0 0.0 -1.120054252910e-03 
1.167692333485e-03 -4.546798185550e-04 0.0 
-4.546798185550e-04 3.225795309946e-04 0.0 
0.0 0.0 -6.386879419198e-04 
-8.300689796229e-04 -1.036862626203e-03 0.0 
-1.036862626203e-03 2.843866615447e-03 0.0 
0.0 0.0 -8.092532257643e-04 
-1.141410086144e-03 -2.132624368424e-03 0.0 
-2.132624368424e-03 4.763879094691e-03 0.0 
0.0 0.0 -1.118919378802e-03 
2.226178382358e-03 1.538806345707e-03 0.0 
1.538806345707e-03 -1.000001690931e-03 0.0 
0.0 0.0 -5.255042963258e-04 
-1.621773390463e-03 1.105341392258e-03 0.0 
1.105341392258e-03 7.770539650855e-03 0.0 
0.0 0.0 -1.164614768972e-03 
-7.726765049569e-04 3.339866695887e-03 0.0 
3.339866695887e-03 4.168840091130e-03 0.0 
0.0 0.0 -1.031533309622e-03 
2.985503110291e-03 3.031284491510e-04 0.0 
3.031284491510e-04 -1.381029514076e-03 0.0 
0.0 0.0 -6.876315412354e-04 
-1.686948173027e-03 1.421165008995e-03 0.0 
1.421165008995e-03 7.380565372555e-03 0.0 
0.0 0.0 -1.121170216299e-03 
1.011452247809e-03 -2.344893480733e-03 0.0 
-2.344893480733e-03 3.172812092828e-04 0.0 
0.0 0.0 -5.694571958966e-04 
3.273818053523e-04 1.142366955538e-03 0.0 
1.142366955538e-03 2.480645691333e-03 0.0 
0.0 0.0 -1.099429584637e-03 
-6.433175181119e-04 3.077878174349e-03 0.0 
3.077878174349e-03 3.183682229986e-03 0.0 
0.0 0.0 -9.539696108702e-04 
-6.121546724542e-04 3.601568394799e-03 0.0 
3.601568394799e-03 3.377991454684e-03 0.0 
0.0 0.0 -9.441813108648e-04 
-1.362049427310e-03 2.994726613582e-03 0.0 
2.994726613582e-03 5.058459491364e-03 0.0 
0.0 0.0 -9.824247929831e-04 
2.242703281786e-04 3.613717884088e-03 0.0 
3.613717884088e-03 1.934819861174e-03 0.0 
0.0 0.0 -8.887186042024e-04 
-1.881029170096e-03 -6.972944591045e-04 0.0 
-6.972944591045e-04 5.485539571048e-03 0.0 
0.0 0.0 -1.071820694527e-03 
-9.158007506096e-04 -2.235649248494e-03 0.0 
-2.235649248494e-03 4.248678740424e-03 0.0 
0.0 0.0 -1.090315851396e-03 
2.052665481287e-03 -1.103532234197e-03 0.0 
-1.103532234197e-03 -1.175556670273e-03 0.0 
0.0 0.0 -3.759037761492e-04 
8.914746630086e-04 2.890953836391e-03 0.0 
2.890953836391e-03 6.027493594732e-04 0.0 
0.0 0.0 -6.403817239208e-04 
-1.758945777430e-03 1.160675475390e-03 0.0 
1.160675475390e-03 6.378359981790e-03 0.0 
0.0 0.0 -9.536514739466e-04 
-6.639671926482e-04 3.003789204226e-03 0.0 
3.003789204226e-03 4.418789612070e-03 0.0 
0.0 0.0 -1.150585697120e-03 
-1.554201493046e-03 1.231598965710e-03 0.0 
1.231598965710e-03 8.128380504732e-03 0.0 
0.0 0.0 -1.229329624135e-03 
1.209824795641e-04 3.344721880567e-03 0.0 
3.344721880567e-03 1.935063257791e-03 0.0 
0.0 0.0 -8.811624588665e-04 
-1.286404788732e-03 -2.188571958382e-03 0.0 
-2.188571958382e-03 4.794074532598e-03 0.0 
0.0 0.0 -1.081576975854e-03 
-1.629163603093e-03 1.571087997701e-03 0.0 
1.571087997701e-03 7.723510960528e-03 0.0 
0.0 0.0 -1.185355684152e-03 
-3.559661832873e-04 -3.012647310201e-03 0.0 
-3.012647310201e-03 2.646809915025e-03 0.0 
0.0 0.0 -9.737892037141e-04 
-7.230165557545e-04 -1.426683456850e-04 0.0 
-1.426683456850e-04 2.147619513236e-03 0.0 
0.0 0.0 -4.572648740992e-04 
1.660426463556e-03 2.294712628775e-03 0.0 
2.294712628775e-03 -6.270108860030e-04 0.0 
0.0 0.0 -4.428923903797e-04 
3.083725212360e-03 4.086632437554e-04 0.0 
4.086632437554e-04 -1.411678867675e-03 0.0 
0.0 0.0 -7.165912905795e-04 
1.695879907660e-03 2.562718717107e-03 0.0 
2.562718717107e-03 -3.302884133479e-04 0.0 
0.0 0.0 -5.852534975623e-04 
-5.576706971117e-04 -2.954961257328e-03 0.0 
-2.954961257328e-03 3.029681223364e-03 0.0 
0.0 0.0 -1.013304783341e-03 
-1.555713883054e-03 2.364705081961e-03 0.0 
2.364705081961e-03 7.663070105557e-03 0.0 
0.0 0.0 -1.242275372262e-03 
-1.459222448555e-03 -1.977989758638e-03 0.0 
-1.977989758638e-03 5.249777589170e-03 0.0 
0.0 0.0 -1.110186454522e-03 
5.809827755289e-05 -1.888547144195e-03 0.0 
-1.888547144195e-03 2.563693945277e-03 0.0 
0.0 0.0 -1.040857148505e-03 
2.721524112917e-04 1.325365974884e-03 0.0 
1.325365974884e-03 4.084814057533e-04 0.0 
0.0 0.0 -2.917002073050e-04 
-1.420828704055e-03 1.823492309729e-03 0.0 
1.823492309729e-03 4.313202363895e-03 0.0 
0.0 0.0 -8.070275419711e-04 
-1.590933393314e-03 -1.754583215491e-03 0.0 
-1.754583215491e-03 5.664446844218e-03 0.0 
0.0 0.0 -1.139074001596e-03 
1.644076570115e-03 -1.085629871930e-03 0.0 
-1.085629871930e-03 -5.732577340253e-04 0.0 
0.0 0.0 -4.589223583244e-04 
2.052489302078e-04 6.912241943710e-04 0.0 
6.912241943710e-04 2.710009798059e-03 0.0 
0.0 0.0 -1.126725356868e-03 
-1.535445043143e-03 -5.867914393128e-04 0.0 
-5.867914393128e-04 4.647107690583e-03 0.0 
0.0 0.0 -1.044109258258e-03 
-9.859779036616e-04 3.056684200562e-03 0.0 
3.056684200562e-03 5.375983574251e-03 0.0 
0.0 0.0 -1.249754184115e-03 
-6.610476002560e-04 2.303624772309e-03 0.0 
2.303624772309e-03 2.903406990762e-03 0.0 
0.0 0.0 -9.028501661438e-04 
-1.686501264746e-03 -1.526608176621e-03 0.0 
-1.526608176621e-03 6.045524770636e-03 0.0 
0.0 0.0 -1.168790087466e-03 
3.742641179637e-04 -1.152556169589e-03 0.0 
-1.152556169589e-03 2.146769681943e-03 0.0 
0.0 0.0 -1.036257385577e-03 
2.158291477526e-03 2.743008596258e-03 0.0 
2.743008596258e-03 -5.432811980168e-04 0.0 
0.0 0.0 -6.921472626470e-04 
-1.448920855555e-03 5.485150606776e-05 0.0 
5.485150606776e-05 5.277752212934e-03 0.0 
0.0 0.0 -7.498068730476e-04 
-1.593954056461e-03 -1.469135234964e-03 0.0 
-1.469135234964e-03 6.450266463409e-03 0.0 
0.0 0.0 -1.243807156011e-03 
5.209000563453e-05 -9.592901321100e-04 0.0 
-9.592901321100e-04 2.854437082012e-03 0.0 
0.0 0.0 -1.114542488500e-03 
3.461661553032e-05 3.551384216602e-03 0.0 
3.551384216602e-03 2.362376837699e-03 0.0 
0.0 0.0 -9.321888224300e-04 
1.558216832635e-03 -1.548696012587e-03 0.0 
-1.548696012587e-03 -4.269730613691e-04 0.0 
0.0 0.0 -4.848187591140e-04 
-1.159109189925e-03 1.672386638450e-03 0.0 
1.672386638450e-03 3.686907530899e-03 0.0 
0.0 0.0 -7.928834912169e-04 
-8.622534806161e-04 -2.703450422620e-03 0.0 
-2.703450422620e-03 3.567462389003e-03 0.0 
0.0 0.0 -1.042489463686e-03 
-8.810352068874e-04 3.464697463085e-03 0.0 
3.464697463085e-03 3.935493660585e-03 0.0 
0.0 0.0 -9.528746205426e-04 
-1.455694182561e-03 2.079571376027e-03 0.0 
2.079571376027e-03 8.238502292373e-03 0.0 
0.0 0.0 -1.306889097489e-03 
-4.021262128289e-05 -5.236218254538e-04 0.0 
-5.236218254538e-04 3.069008893941e-03 0.0 
0.0 0.0 -1.148622835147e-03 
-1.725562695568e-03 2.028005553636e-03 0.0 
2.028005553636e-03 5.979413828880e-03 0.0 
0.0 0.0 -9.696660045843e-04 
-9.371362615476e-04 -2.513813645279e-03 0.0 
-2.513813645279e-03 3.674904326905e-03 0.0 
0.0 0.0 -1.055577742195e-03 
6.828857261752e-04 2.319846812613e-03 0.0 
2.319846812613e-03 1.471382999158e-03 0.0 
0.0 0.0 -9.020111454724e-04 
3.069126660921e-04 -4.845997231989e-04 0.0 
-4.845997231989e-04 8.592191971431e-04 0.0 
0.0 0.0 -3.093966206321e-04 
-1.066278201586e-03 2.069319232208e-03 0.0 
2.069319232208e-03 3.624795843977e-03 0.0 
0.0 0.0 -8.430048313659e-04 
-1.188974335056e-03 -2.184404117123e-03 0.0 
-2.184404117123e-03 4.121734009211e-03 0.0 
0.0 0.0 -1.055179846540e-03 
3.051680346467e-03 -4.197736543643e-04 0.0 
-4.197736543643e-04 -1.412706451387e-03 0.0 
0.0 0.0 -7.024173836058e-04 
1.117277129867e-03 -2.070559341147e-03 0.0 
-2.070559341147e-03 1.215006496444e-04 0.0 
0.0 0.0 -5.309047626477e-04 
-5.077233341081e-04 1.801300421280e-03 0.0 
1.801300421280e-03 4.164826850224e-03 0.0 
0.0 0.0 -1.234277959947e-03 
-1.405357231203e-03 -1.830815427985e-03 0.0 
-1.830815427985e-03 4.525691195773e-03 0.0 
0.0 0.0 -1.058821591963e-03 
2.981871888689e-03 -4.320249597075e-04 0.0 
-4.320249597075e-04 -1.387251596233e-03 0.0 
0.0 0.0 -6.834086967669e-04 
-1.589234832291e-03 -1.465860908847e-03 0.0 
-1.465860908847e-03 4.884351969089e-03 0.0 
0.0 0.0 -1.063846254002e-03 
-8.219124233661e-04 1.884899957964e-03 0.0 
1.884899957964e-03 3.049244611375e-03 0.0 
0.0 0.0 -8.384157971481e-04 
-1.674104129450e-03 2.267631102477e-03 0.0 
2.267631102477e-03 5.977690423385e-03 0.0 
0.0 0.0 -9.983267706061e-04 
-1.746776969671e-03 -1.092710579845e-03 0.0 
-1.092710579845e-03 5.203384673320e-03 0.0 
0.0 0.0 -1.068006041337e-03 
-9.280916248974e-04 3.352222764373e-03 0.0 
3.352222764373e-03 4.310032082870e-03 0.0 
0.0 0.0 -1.003151257071e-03 
2.463563334715e-05 -8.807126364979e-04 0.0 
-8.807126364979e-04 9.974910621111e-04 0.0 
0.0 0.0 -3.190932086048e-04 
1.865633619246e-04 3.322818699054e-03 0.0 
3.322818699054e-03 2.196662702388e-03 0.0 
0.0 0.0 -9.369607680273e-04 
-1.969274810505e-03 -5.697349439415e-04 0.0 
-5.697349439415e-04 6.492408088354e-03 0.0 
0.0 0.0 -1.155419075730e-03 
4.460939102830e-04 -2.841642607167e-03 0.0 
-2.841642607167e-03 1.136269056788e-03 0.0 
0.0 0.0 -6.781555573162e-04 
7.887889646567e-04 -2.571324212251e-03 0.0 
-2.571324212251e-03 6.415432993246e-04 0.0 
0.0 0.0 -6.129995417062e-04 
-1.637827184878e-03 2.388605245637e-03 0.0 
2.388605245637e-03 6.314063370822e-03 0.0 
0.0 0.0 -1.063653581392e-03 
-4.992814516217e-04 1.972643240252e-03 0.0 
1.972643240252e-03 2.384387457051e-03 0.0 
0.0 0.0 -8.079025737556e-04 
5.124750958276e-04 -2.569400884271e-03 0.0 
-2.569400884271e-03 1.193670865080e-03 0.0 
0.0 0.0 -7.312054118175e-04 
-9.641562230990e-04 3.242704907183e-03 0.0 
3.242704907183e-03 4.707911026065e-03 0.0 
0.0 0.0 -1.067288052377e-03 
3.154663455590e-04 2.993279893955e-03 0.0 
2.993279893955e-03 2.102244501383e-03 0.0 
0.0 0.0 -9.588566822092e-04 
1.346446614896e-03 2.610050225058e-03 0.0 
2.610050225058e-03 1.067961116776e-04 0.0 
0.0 0.0 -6.228183113887e-04 
2.887356895726e-04 -2.230406662033e-03 0.0 
-2.230406662033e-03 1.886206335840e-03 0.0 
0.0 0.0 -9.159128653295e-04 
-3.070381522363e-04 2.361479177514e-03 0.0 
2.361479177514e-03 2.144874392585e-03 0.0 
0.0 0.0 -7.876441030066e-04 
-4.603323552836e-06 -2.296978514711e-03 0.0 
-2.296978514711e-03 1.485132063043e-03 0.0 
0.0 0.0 -6.345123169243e-04 
-1.725456702673e-05 -2.050421713285e-03 0.0 
-2.050421713285e-03 1.350463780520e-03 0.0 
0.0 0.0 -5.713753772113e-04 
2.694499012180e-03 -1.108798334530e-03 0.0 
-1.108798334530e-03 -1.215742971782e-03 0.0 
0.0 0.0 -6.337525887422e-04 
-1.125553493016e-03 3.166078986994e-03 0.0 
3.166078986994e-03 5.226172467772e-03 0.0 
0.0 0.0 -1.103081964739e-03 
-3.505794759798e-04 -2.805020388018e-04 0.0 
-2.805020388018e-04 1.476517852756e-03 0.0 
0.0 0.0 -3.018576685516e-04 
-1.520679869667e-03 2.700420786858e-03 0.0 
2.700420786858e-03 5.894437551981e-03 0.0 
0.0 0.0 -1.054898413167e-03 
1.434637815246e-04 -2.013001771722e-03 0.0 
-2.013001771722e-03 1.061630091320e-03 0.0 
0.0 0.0 -5.164688026476e-04 
2.470206604480e-03 -1.725455129164e-03 0.0 
-1.725455129164e-03 -1.033453851675e-03 0.0 
0.0 0.0 -6.157511797736e-04 
1.550603106910e-04 2.343951066894e-03 0.0 
2.343951066894e-03 2.741523029304e-03 0.0 
0.0 0.0 -1.077081564483e-03 
-1.567382262079e-03 5.775225248615e-06 0.0 
5.775225248615e-06 6.502023960398e-03 0.0 
0.0 0.0 -9.315431351609e-04 
1.994050342792e-03 -2.125051609346e-03 0.0 
-2.125051609346e-03 -7.055681148420e-04 0.0 
0.0 0.0 -5.522066691216e-04 
-8.473530892992e-04 -1.857205257249e-04 0.0 
-1.857205257249e-04 2.593065685554e-03 0.0 
0.0 0.0 -6.119633700263e-04 
1.664939330105e-03 -2.423764940749e-03 0.0 
-2.423764940749e-03 -3.798301328600e-04 0.0 
0.0 0.0 -5.507610845334e-04 
9.691114688175e-04 2.564299471471e-03 0.0 
2.564299471471e-03 7.430038862534e-04 0.0 
0.0 0.0 -7.337637236018e-04 
1.166584806499e-03 -2.448706473937e-03 0.0 
-2.448706473937e-03 1.644568183363e-04 0.0 
0.0 0.0 -5.704464106438e-04 
9.207629563978e-04 -2.562817695187e-03 0.0 
-2.562817695187e-03 4.684807333005e-04 0.0 
0.0 0.0 -5.953901527278e-04 
-1.509599202053e-03 7.115315669588e-04 0.0 
7.115315669588e-04 8.319494978420e-03 0.0 
0.0 0.0 -1.242975171717e-03 
6.644834369663e-04 -2.816687817472e-03 0.0 
-2.816687817472e-03 8.638079814567e-04 0.0 
0.0 0.0 -6.549820364670e-04 
-1.417913046649e-03 2.000204615730e-04 0.0 
2.000204615730e-04 8.717353493565e-03 0.0 
0.0 0.0 -1.305370344976e-03 
-1.585981038622e-03 -5.390524588140e-04 0.0 
-5.390524588140e-04 7.088561262435e-03 0.0 
0.0 0.0 -1.298405437673e-03 
-1.489518803289e-03 -4.573950556845e-06 0.0 
-4.573950556845e-06 5.635615486584e-03 0.0 
0.0 0.0 -7.997855503562e-04 
-2.605550091072e-04 1.921888767382e-03 0.0 
1.921888767382e-03 1.771030104647e-03 0.0 
0.0 0.0 -6.473464695169e-04 
0.0 0.0 0.0 
0.0 0.0 0.0 
0.0 0.0 0.0 
5.300339532942e-05 2.296518653744e-03 0.0 
2.296518653744e-03 1.380741919417e-03 0.0 
0.0 0.0 -6.144622777483e-04 
4.589079226346e-04 -2.669236835745e-03 0.0 
-2.669236835745e-03 1.017039993413e-03 0.0 
0.0 0.0 -6.325491068774e-04 
-1.344360499523e-03 2.998007223071e-03 0.0 
2.998007223071e-03 5.396263019476e-03 0.0 
0.0 0.0 -1.045752072333e-03 
-1.493847809746e-03 7.392246810856e-05 0.0 
7.392246810856e-05 5.643210332918e-03 0.0 
0.0 0.0 -8.029817139903e-04 
2.189770723719e-04 -2.551176870332e-03 0.0 
-2.551176870332e-03 1.274969331798e-03 0.0 
0.0 0.0 -6.402627446442e-04 
-1.419524211431e-03 3.075318657805e-03 0.0 
3.075318657805e-03 6.922500903080e-03 0.0 
0.0 0.0 -1.250093291501e-03 
-1.105460999237e-03 2.840056670224e-03 0.0 
2.840056670224e-03 5.499135179184e-03 0.0 
0.0 0.0 -1.306737725957e-03 
-1.583352928322e-03 1.388979039351e-04 0.0 
1.388979039351e-04 7.093261842357e-03 0.0 
0.0 0.0 -1.028769680629e-03 
3.110761131384e-05 3.070777297068e-04 0.0 
3.070777297068e-04 2.990066827201e-03 0.0 
0.0 0.0 -1.152835590205e-03 
4.038330844269e-04 2.562565156884e-03 0.0 
2.562565156884e-03 2.099896012322e-03 0.0 
0.0 0.0 -9.954397186036e-04 
-1.532870607185e-03 8.627533493903e-05 0.0 
8.627533493903e-05 8.032571934377e-03 0.0 
0.0 0.0 -1.185717314024e-03 
-1.493423908883e-03 8.976519337403e-05 0.0 
8.976519337403e-05 5.235057922781e-03 0.0 
0.0 0.0 -7.451086181774e-04 
8.476467916489e-05 -1.199388947894e-03 0.0 
-1.199388947894e-03 6.043361303539e-04 0.0 
0.0 0.0 -2.642930028689e-04 
-1.995343437528e-03 -3.338550389889e-04 0.0 
-3.338550389889e-04 5.735331553200e-03 0.0 
0.0 0.0 -1.072300834510e-03 
-4.728391316332e-06 1.911025163986e-03 0.0 
1.911025163986e-03 1.236688893795e-03 0.0 
0.0 0.0 -5.279830724910e-04 
3.550394143264e-04 2.259430213976e-03 0.0 
2.259430213976e-03 9.034181507030e-04 0.0 
0.0 0.0 -5.393389564412e-04 
6.085214745978e-04 2.284877078157e-03 0.0 
2.284877078157e-03 6.261355702317e-04 0.0 
0.0 0.0 -5.291387334984e-04 
-9.396181000691e-04 -7.967451354887e-04 0.0 
-7.967451354887e-04 3.058992386408e-03 0.0 
0.0 0.0 -8.121166773320e-04 
5.494964702923e-04 -2.584085792452e-03 0.0 
-2.584085792452e-03 8.433772001581e-04 0.0 
0.0 0.0 -5.969458587645e-04 
2.401282782028e-04 2.005638511475e-03 0.0 
2.005638511475e-03 9.040366262875e-04 0.0 
0.0 0.0 -4.903563876387e-04 
-5.261734606055e-04 6.022279658391e-04 0.0 
6.022279658391e-04 4.033101031005e-03 0.0 
0.0 0.0 -1.245112051941e-03 
-1.636730137181e-03 4.290067563108e-04 0.0 
4.290067563108e-04 5.580276288558e-03 0.0 
0.0 0.0 -8.050116406322e-04 
-1.121915910908e-04 2.515763012409e-03 0.0 
2.515763012409e-03 3.291467473346e-03 0.0 
0.0 0.0 -1.110409235593e-03 
3.679053624996e-04 1.946389288486e-03 0.0 
1.946389288486e-03 7.047317248665e-04 0.0 
0.0 0.0 -4.597016088712e-04 
-1.554707372438e-03 1.697440109364e-03 0.0 
1.697440109364e-03 8.056864122716e-03 0.0 
0.0 0.0 -1.247366155457e-03 
-7.215899275846e-04 2.377475014672e-03 0.0 
2.377475014672e-03 4.622150950018e-03 0.0 
0.0 0.0 -1.246608778627e-03 
-1.331856878630e-03 -1.983836111103e-03 0.0 
-1.983836111103e-03 6.114923973583e-03 0.0 
0.0 0.0 -1.306249356034e-03 
-3.798399904625e-04 2.398884536475e-03 0.0 
2.398884536475e-03 3.901175645834e-03 0.0 
0.0 0.0 -1.176371721005e-03 
7.581050863864e-04 2.227306199006e-03 0.0 
2.227306199006e-03 3.618205949459e-04 0.0 
0.0 0.0 -4.799681491424e-04 
-1.753134334940e-03 1.030981935736e-03 0.0 
1.030981935736e-03 5.768775069705e-03 0.0 
0.0 0.0 -8.603500797662e-04 
-1.168709675212e-03 3.249274189801e-03 0.0 
3.249274189801e-03 5.927681969270e-03 0.0 
0.0 0.0 -1.250827372426e-03 
-1.580586288305e-03 2.460651619642e-04 0.0 
2.460651619642e-04 7.417010690682e-03 0.0 
0.0 0.0 -1.080253149739e-03 
-1.410996846028e-03 -1.766992384939e-03 0.0 
-1.766992384939e-03 6.482040820837e-03 0.0 
0.0 0.0 -1.309985050881e-03 
-1.682012249170e-03 6.654682702296e-04 0.0 
6.654682702296e-04 5.457303072723e-03 0.0 
0.0 0.0 -7.979019438933e-04 
-1.482092413582e-03 4.825553233706e-04 0.0 
4.825553233706e-04 8.388620482460e-03 0.0 
0.0 0.0 -1.252774941638e-03 
2.053124764649e-03 -2.150351803165e-03 0.0 
-2.150351803165e-03 -1.002699963371e-03 0.0 
0.0 0.0 -4.501820576904e-04 
-1.472782165905e-03 2.611384925530e-04 0.0 
2.611384925530e-04 8.403666031078e-03 0.0 
0.0 0.0 -1.254166199180e-03 
-1.340636802885e-03 3.017781757784e-03 0.0 
3.017781757784e-03 5.759872352408e-03 0.0 
0.0 0.0 -1.110316242656e-03 
-1.575034003637e-03 2.533992497604e-04 0.0 
2.533992497604e-04 6.175537215493e-03 0.0 
0.0 0.0 -8.840149073763e-04 
-1.771751416511e-03 1.426780246192e-03 0.0 
1.426780246192e-03 5.587137473215e-03 0.0 
0.0 0.0 -8.570326279659e-04 
-1.684907386527e-03 -8.004631079360e-04 0.0 
-8.004631079360e-04 6.831074281255e-03 0.0 
0.0 0.0 -1.256337174517e-03 
-1.508670120193e-03 2.760870843371e-03 0.0 
2.760870843371e-03 7.327066348949e-03 0.0 
0.0 0.0 -1.249505442739e-03 
6.883790236625e-04 2.060671389361e-03 0.0 
2.060671389361e-03 2.237385116845e-05 0.0 
0.0 0.0 -3.046083749275e-04 
-1.585370214117e-03 2.593308700915e-04 0.0 
2.593308700915e-04 7.073771685170e-03 0.0 
0.0 0.0 -1.024357608964e-03 
-1.028891659838e-03 -1.361434891480e-03 0.0 
-1.361434891480e-03 3.507211596145e-03 0.0 
0.0 0.0 -9.709766588611e-04 
2.096603589134e-04 -4.522541456736e-04 0.0 
-4.522541456736e-04 -1.685826935135e-04 0.0 
0.0 0.0 -1.760471374282e-05 
-1.108111334259e-03 -1.824971532717e-03 0.0 
-1.824971532717e-03 5.280702358381e-03 0.0 
0.0 0.0 -1.249521112489e-03 
-1.346888651128e-03 3.065747420634e-03 0.0 
3.065747420634e-03 6.117675129117e-03 0.0 
0.0 0.0 -1.172189067419e-03 
-1.641216111045e-03 -1.228485444809e-03 0.0 
-1.228485444809e-03 6.632464522082e-03 0.0 
0.0 0.0 -1.251863004148e-03 
4.253395517685e-04 -1.330965256832e-05 0.0 
-1.330965256832e-05 8.162616228349e-04 0.0 
0.0 0.0 -3.073113677837e-04 
2.659967583917e-04 -9.636004765028e-04 0.0 
-9.636004765028e-04 4.197455964224e-04 0.0 
0.0 0.0 -2.058019112872e-04 
-9.341108583894e-04 -1.570273886574e-03 0.0 
-1.570273886574e-03 4.919000747850e-03 0.0 
0.0 0.0 -1.258522865334e-03 
-1.325021295734e-03 3.260852513925e-03 0.0 
3.260852513925e-03 6.529415890564e-03 0.0 
0.0 0.0 -1.257106814994e-03 
2.069780564081e-03 -2.887481408844e-03 0.0 
-2.887481408844e-03 -5.620999085580e-04 0.0 
0.0 0.0 -6.461488523668e-04 
-1.444494309143e-03 1.513018136519e-03 0.0 
1.513018136519e-03 8.529509024149e-03 0.0 
0.0 0.0 -1.314710167832e-03 
1.606042082751e-04 7.400733517384e-04 0.0 
7.400733517384e-04 -6.805152101560e-05 0.0 
0.0 0.0 -3.966543739692e-05 
-1.527500430813e-03 2.291957424775e-04 0.0 
2.291957424775e-04 5.159544215479e-03 0.0 
0.0 0.0 -7.389643750272e-04 
7.522855132365e-04 -8.129255998406e-04 0.0 
-8.129255998406e-04 2.933811725579e-04 0.0 
0.0 0.0 -2.584822669346e-04 
-1.451285018422e-03 -1.619253938531e-03 0.0 
-1.619253938531e-03 6.712702821616e-03 0.0 
0.0 0.0 -1.308531455474e-03 
-1.521082113150e-03 1.160385665173e-03 0.0 
1.160385665173e-03 8.292813149207e-03 0.0 
0.0 0.0 -1.254845750201e-03 
-1.245470008181e-03 -9.103756336826e-04 0.0 
-9.103756336826e-04 3.950697369425e-03 0.0 
0.0 0.0 -9.904446095582e-04 
-1.723966937065e-03 1.170670843267e-03 0.0 
1.170670843267e-03 5.001993590100e-03 0.0 
0.0 0.0 -7.582784842146e-04 
-9.206532372436e-04 -4.495869396707e-04 0.0 
-4.495869396707e-04 2.876332750162e-03 0.0 
0.0 0.0 -7.084058105195e-04 
-8.029287135569e-04 3.022070318119e-03 0.0 
3.022070318119e-03 4.846485263972e-03 0.0 
0.0 0.0 -1.203498912175e-03 
1.578052768763e-04 -1.733898146901e-03 0.0 
-1.733898146901e-03 8.518457615679e-04 0.0 
0.0 0.0 -4.327075879046e-04 
-1.502885003929e-03 8.385321329672e-04 0.0 
8.385321329672e-04 8.406515819115e-03 0.0 
0.0 0.0 -1.260296891839e-03 
-7.798982579111e-04 -1.032636455785e-03 0.0 
-1.032636455785e-03 4.559837266151e-03 0.0 
0.0 0.0 -1.261416966621e-03 
-1.541080814648e-03 2.248481841172e-03 0.0 
2.248481841172e-03 7.871819285488e-03 0.0 
0.0 0.0 -1.260618436842e-03 
-1.035661708301e-03 1.434119926330e-03 0.0 
1.434119926330e-03 4.999968609048e-03 0.0 
0.0 0.0 -1.317725628150e-03 
0.0 0.0 0.0 
0.0 0.0 0.0 
0.0 0.0 0.0 
-8.775793509473e-04 2.643781737553e-03 0.0 
2.643781737553e-03 4.999185491909e-03 0.0 
0.0 0.0 -1.263090216482e-03 
-3.359262024726e-04 -4.205327465571e-04 0.0 
-4.205327465571e-04 3.690481845722e-03 0.0 
0.0 0.0 -1.202239909569e-03 
-1.469921091904e-03 1.397057797389e-04 0.0 
1.397057797389e-04 5.245389338611e-03 0.0 
0.0 0.0 -7.439744481034e-04 
-1.522980262771e-03 2.574585562032e-03 0.0 
2.574585562032e-03 7.567445771786e-03 0.0 
0.0 0.0 -1.252574368527e-03 
-1.039501310576e-03 -8.329301664350e-04 0.0 
-8.329301664350e-04 3.357758752277e-03 0.0 
0.0 0.0 -8.789764298429e-04 
-3.276933337434e-04 -7.307720459036e-04 0.0 
-7.307720459036e-04 1.390604940151e-03 0.0 
0.0 0.0 -3.555153606766e-04 
-1.400496614823e-03 7.920880417302e-05 0.0 
7.920880417302e-05 8.744396333073e-03 0.0 
0.0 0.0 -1.313490227100e-03 
2.520733888645e-03 -3.426864807379e-06 0.0 
-3.426864807379e-06 -8.047604136628e-04 0.0 
0.0 0.0 -1.695477456824e-04 
-1.436285120339e-03 -8.822331672806e-06 0.0 
-8.822331672806e-06 5.224558560537e-03 0.0 
0.0 0.0 -7.402411036050e-04 
-1.541544735514e-03 -2.080816256948e-04 0.0 
-2.080816256948e-04 7.171789726740e-03 0.0 
0.0 0.0 -1.313492844077e-03 
-2.510837729256e-04 -3.936310680644e-04 0.0 
-3.936310680644e-04 1.321735893226e-03 0.0 
0.0 0.0 -2.948614013126e-04 
-1.524937947447e-03 4.475494657923e-05 0.0 
4.475494657923e-05 5.953624986698e-03 0.0 
0.0 0.0 -8.489638187885e-04 
-1.372178966628e-03 3.183705797245e-03 0.0 
3.183705797245e-03 6.771642373061e-03 0.0 
0.0 0.0 -1.260211869575e-03 
-1.590513358799e-03 -2.597680171264e-04 0.0 
-2.597680171264e-04 4.769333481416e-03 0.0 
0.0 0.0 -1.052454572086e-03 
-1.550492385742e-03 1.189328986090e-04 0.0 
1.189328986090e-04 7.800235903878e-03 0.0 
0.0 0.0 -1.148445367820e-03 
9.452528930191e-04 -2.939486558072e-03 0.0 
-2.939486558072e-03 5.700922820308e-04 0.0 
0.0 0.0 -6.494336464500e-04 
0.0 0.0 0.0 
0.0 0.0 0.0 
0.0 0.0 0.0 
-1.577256117848e-03 6.886097405366e-05 0.0 
6.886097405366e-05 6.718118974100e-03 0.0 
0.0 0.0 -9.668795991591e-04 
-7.257532866393e-04 2.108017519290e-03 0.0 
2.108017519290e-03 4.551210106726e-03 0.0 
0.0 0.0 -1.258714341260e-03 
-1.539880904137e-03 1.881264573762e-03 0.0 
1.881264573762e-03 8.091722768049e-03 0.0 
0.0 0.0 -1.263997700767e-03 
-1.584367033562e-03 2.539188043181e-04 0.0 
2.539188043181e-04 6.423614681133e-03 0.0 
0.0 0.0 -9.199601189493e-04 
1.149887053528e-03 2.260371255349e-03 0.0 
2.260371255349e-03 -3.607458547944e-04 0.0 
0.0 0.0 -3.382033708860e-04 
-1.352077778871e-03 3.162162671945e-03 0.0 
3.162162671945e-03 6.429958482634e-03 0.0 
0.0 0.0 -1.221038716794e-03 
-1.328731786449e-03 -9.755978743980e-04 0.0 
-9.755978743980e-04 4.177204897338e-03 0.0 
0.0 0.0 -1.017329335709e-03 
-1.052088232510e-03 3.182318808270e-03 0.0 
3.182318808270e-03 5.489904176315e-03 0.0 
0.0 0.0 -1.208939113964e-03 
-2.749523466846e-04 3.333334303576e-04 0.0 
3.333334303576e-04 3.590145673266e-03 0.0 
0.0 0.0 -1.203806565432e-03 
-1.313142522446e-05 6.903927968238e-04 0.0 
6.903927968238e-04 1.313142522446e-05 0.0 
0.0 0.0 0.0 
-1.710135402111e-03 -2.140528936374e-04 0.0 
-2.140528936374e-04 5.062773823412e-03 0.0 
0.0 0.0 -1.067873332563e-03 
6.585939474405e-04 -9.144432273007e-04 0.0 
-9.144432273007e-04 2.765533765623e-04 0.0 
0.0 0.0 -2.242399343496e-04 
-1.352905233575e-03 -1.915199808028e-03 0.0 
-1.915199808028e-03 5.962667998270e-03 0.0 
0.0 0.0 -1.263714160583e-03 
-1.428737268169e-03 -6.941057894653e-04 0.0 
-6.941057894653e-04 4.390777467220e-03 0.0 
0.0 0.0 -1.028704531826e-03 
6.086193370581e-05 1.489432806145e-03 0.0 
1.489432806145e-03 8.462272208416e-04 0.0 
0.0 0.0 -3.887524948060e-04 
-4.195522371654e-04 -1.053185644767e-05 0.0 
-1.053185644767e-05 1.210809654404e-03 0.0 
0.0 0.0 -2.205862019721e-04 
-4.680304609505e-05 1.561874337933e-03 0.0 
1.561874337933e-03 1.086348258463e-03 0.0 
0.0 0.0 -4.455193767289e-04 
-5.764561721916e-04 -2.047753743147e-05 0.0 
-2.047753743147e-05 1.630387565384e-03 0.0 
0.0 0.0 -2.766268288173e-04 
-2.519667786206e-04 1.472505919625e-03 0.0 
1.472505919625e-03 1.474237417008e-03 0.0 
0.0 0.0 -5.238302735944e-04 
-7.605031964952e-04 -2.368019319099e-05 0.0 
-2.368019319099e-05 2.235923404876e-03 0.0 
0.0 0.0 -3.266666666667e-04 
-4.663272730380e-04 1.445034291992e-03 0.0 
1.445034291992e-03 2.011357929561e-03 0.0 
0.0 0.0 -6.621559956526e-04 
-8.902768957816e-04 -2.344110242198e-05 0.0 
-2.344110242198e-05 2.651675222682e-03 0.0 
0.0 0.0 -3.933333333333e-04 
-7.205553837693e-04 1.411323130837e-03 0.0 
1.411323130837e-03 2.635120153819e-03 0.0 
0.0 0.0 -7.632308096241e-04 
-1.014253867293e-03 -2.134932202391e-05 0.0 
-2.134932202391e-05 3.236715286896e-03 0.0 
0.0 0.0 -4.600000000000e-04 
-1.004964497974e-03 1.297444765431e-03 0.0 
1.297444765431e-03 3.201027753380e-03 0.0 
0.0 0.0 -7.249691623289e-04 
-1.133374822382e-03 -1.604044547880e-05 0.0 
-1.604044547880e-05 3.646694996426e-03 0.0 
0.0 0.0 -5.266666666667e-04 
-1.280118750972e-03 1.130412810083e-03 0.0 
1.130412810083e-03 3.777030638565e-03 0.0 
0.0 0.0 -7.062703689559e-04 
-1.238778796526e-03 1.445476418683e-07 0.0 
1.445476418683e-07 4.216199491205e-03 0.0 
0.0 0.0 -5.933333333333e-04 
-1.543151210513e-03 1.002710923754e-03 0.0 
1.002710923754e-03 4.354039341919e-03 0.0 
0.0 0.0 -6.963727196364e-04 
-1.346425769997e-03 3.815725794878e-05 0.0 
3.815725794878e-05 4.612334605524e-03 0.0 
0.0 0.0 -6.600000000000e-04 

SCALARS node_materi_plasti_kappa_shear float
LOOKUP_TABLE default
2.115083374134e-03
3.458023789683e-03
4.967886194112e-03
5.876066285134e-03
1.429593561868e-03
9.260891180627e-04
9.750663137551e-04
1.375519170543e-03
1.749514182145e-03
2.072909783402e-03
2.372334959694e-03
2.646556194044e-03
2.900020015941e-03
3.146970300908e-03
3.414657029732e-03
3.664527045737e-03
3.866039465253e-03
4.132559423194e-03
4.398804352871e-03
4.605615939913e-03
4.743184926543e-03
4.864835234233e-03
4.967891461667e-03
5.874817732443e-03
5.871659258458e-03
5.865996944230e-03
5.879052454379e-03
5.875406408010e-03
5.881746665879e-03
5.893121739855e-03
5.904403498293e-03
5.911667380715e-03
5.942687471040e-03
5.945547502063e-03
5.964504727329e-03
5.990682248078e-03
6.003086871528e-03
6.009687630856e-03
6.018022142948e-03
6.013722829185e-03
6.018405848819e-03
6.000999157977e-03
5.961878918865e-03
5.908140669358e-03
5.805875616932e-03
5.680054112450e-03
5.512945864727e-03
5.326235031303e-03
5.099814575695e-03
4.848871496600e-03
4.578436030419e-03
4.312126051031e-03
4.068983510437e-03
3.878948019144e-03
3.696536407386e-03
3.610414615740e-03
3.648906839705e-03
3.740049181565e-03
3.899047133921e-03
4.078094335185e-03
4.265058537564e-03
4.435125269455e-03
4.594665148187e-03
4.735181100800e-03
4.838272090162e-03
4.913247143246e-03
4.935696440883e-03
4.963163630604e-03
4.970148499816e-03
4.972729571996e-03
4.968771048834e-03
4.969260551934e-03
3.740141790492e-03
4.058111443788e-03
4.339280484927e-03
4.600412294281e-03
4.861219744615e-03
5.105119180278e-03
5.341101545075e-03
5.553418984263e-03
5.788796962491e-03
2.237494990639e-04
3.540835783254e-03
9.789283800023e-04
1.774213061238e-03
1.784235768949e-03
1.840933129406e-03
1.969885892913e-03
2.264787004423e-03
2.585388498505e-03
2.853460972533e-03
3.168094353423e-03
8.704792371545e-04
1.073162065766e-03
1.425508647058e-03
1.788727031060e-03
2.132257304510e-03
2.471218391375e-03
2.803483841189e-03
3.120103201879e-03
3.399382940078e-03
3.415840330809e-03
3.424362395235e-03
3.424497136894e-03
3.479931295206e-03
3.440294557840e-03
3.439848037433e-03
3.453307638175e-03
3.471621284897e-03
3.481974088033e-03
3.486271779339e-03
3.492543524408e-03
3.498742868845e-03
3.518045244631e-03
0.0
0.0
0.0
0.0
0.0
1.744449562148e-04
3.008916063010e-04
4.050478665291e-04
5.046139784359e-04
6.936516565606e-04
8.134086808571e-04
1.035447660179e-03
1.317664285716e-03
1.556461179225e-03
1.698703308833e-03
1.829256340020e-03
1.936274606327e-03
2.057713747761e-03
2.160946537055e-03
1.618895163151e-03
1.519872712875e-03
1.367255567576e-03
1.136711208704e-03
9.609689294902e-04
8.049560056863e-04
7.240917460553e-04
7.220863182569e-04
7.491174920804e-04
7.791518941674e-04
8.054598844632e-04
8.254617541242e-04
8.407009459315e-04
8.526780660068e-04
8.622123693711e-04
8.697356828682e-04
8.747814513718e-04
8.781576931324e-04
8.804500941211e-04
8.820411306219e-04
8.828387866697e-04
8.820812448524e-04
8.799068212586e-04
8.770056965212e-04
8.778966956419e-04
9.139854724766e-04
1.563870472058e-03
1.433586595887e-03
1.215581025695e-03
1.053934217202e-03
9.665331633179e-04
9.372721168748e-04
9.463783281201e-04
9.597821557420e-04
9.713586319383e-04
9.843440652321e-04
9.960037638130e-04
1.005780416461e-03
1.013612701808e-03
1.019402592161e-03
1.023075051701e-03
1.024793432580e-03
1.025558461645e-03
1.025467437108e-03
1.024903837299e-03
1.023642744672e-03
1.021487590643e-03
1.018892149847e-03
1.017159784258e-03
1.024600024253e-03
1.056810334543e-03
1.410851678505e-03
1.383808697431e-03
1.385640841373e-03
1.388300151033e-03
1.391340236521e-03
1.394303612492e-03
1.397058219780e-03
1.399443294630e-03
1.401100902235e-03
1.401729103204e-03
1.400842359017e-03
1.397743389106e-03
1.392458267867e-03
1.385645250372e-03
1.378903873205e-03
1.369303763539e-03
1.359280357406e-03
1.354090439141e-03
1.352799741769e-03
1.365002351761e-03
1.433161107644e-03
1.567418573326e-03
1.651544285612e-03
1.850937220206e-03
1.850833601174e-03
1.786344784286e-03
1.749796523466e-03
1.737769871441e-03
1.733448498837e-03
1.741846356920e-03
1.749852201886e-03
1.756263397866e-03
1.759477367312e-03
1.762640434647e-03
1.764403705946e-03
1.764817381730e-03
1.764122728998e-03
1.762502703657e-03
1.760185883725e-03
1.757507986054e-03
1.754840510804e-03
1.752603729670e-03
1.751629968430e-03
1.757828555964e-03
1.777885292437e-03
2.120050012342e-03
2.111449579431e-03
2.113835223347e-03
2.116675236187e-03
2.120310449716e-03
2.123984102461e-03
2.126249522508e-03
2.127631391968e-03
2.128064366183e-03
2.127554982720e-03
2.126046799571e-03
2.123459660332e-03
2.120356283497e-03
2.114885182925e-03
2.101970331483e-03
2.096356667345e-03
2.097335722453e-03
2.128284095306e-03
2.196494271365e-03
2.186295543855e-03
2.483010702437e-03
2.506754027907e-03
2.468879242947e-03
2.457348499547e-03
2.466578465204e-03
2.474302737319e-03
2.478559870350e-03
2.480374252064e-03
2.482060617048e-03
2.483166610535e-03
2.483757347614e-03
2.481626238939e-03
2.477865116003e-03
2.472879665190e-03
2.467009561395e-03
2.462065239057e-03
2.458696764635e-03
2.458241881530e-03
2.465987666585e-03
2.800073416758e-03
2.792133891103e-03
2.794251622192e-03
2.799303906405e-03
2.804006642559e-03
2.811538170580e-03
2.819615238005e-03
2.827588526175e-03
2.830423737218e-03
2.834223597871e-03
2.832548011680e-03
2.829858727631e-03
2.829414630415e-03
2.819420454677e-03
2.821018701118e-03
2.841223476047e-03
2.785918999873e-03
3.125502671646e-03
3.195441658547e-03
3.182187427784e-03
3.176497158046e-03
3.175725551500e-03
3.174775535585e-03
3.166739352413e-03
3.157972763163e-03
3.150169453340e-03
3.142150136721e-03
3.134434164911e-03
3.127916890668e-03
3.125563909718e-03
3.118279613313e-03
3.123246277339e-03
3.139058430584e-03
1.072404845378e-03
1.474374331820e-03
1.809387465819e-03
1.892591139138e-03
1.942252885145e-03
2.173629989805e-03
2.503079452047e-03
2.766578717886e-03
3.045897946307e-03
3.384322342055e-03
1.792071878644e-03
3.375143360344e-03
7.233637867985e-04
1.036141330496e-04
4.185730067683e-03
2.132887875458e-03
3.290669112102e-03
3.943090107724e-03
2.459850990970e-03
5.049081016827e-03
3.049657566422e-03
4.807738799368e-03
1.182564866658e-03
5.746835578075e-03
3.688122146157e-03
2.243660734344e-03
3.956138881533e-03
5.918594875086e-03
5.957497874511e-03
5.833020523938e-03
5.849817635203e-03
5.907569221224e-03
3.796891756948e-03
3.753148626160e-03
3.750719424971e-03
4.728883318265e-03
4.949356106529e-03
0.0
1.446675358332e-03
4.662329876841e-03
3.701848086155e-03
1.172285973879e-03
5.916122430582e-03
4.554740200655e-03
5.468890302383e-03
3.503959695460e-03
3.612570973627e-03
1.012610592318e-03
3.764133124860e-03
4.509011244357e-03
5.226961181745e-03
8.281022762432e-04
2.786147332295e-03
5.862108365073e-03
2.293034409321e-03
2.118172696952e-03
2.814022264942e-03
3.328976841209e-03
1.267120225613e-03
4.215679675405e-03
4.988678889666e-03
1.603073179023e-03
5.647207016451e-03
3.826980774528e-03
3.959485929510e-03
4.093805969592e-03
4.237157459642e-03
4.355175514086e-03
4.475551541186e-03
4.360600218784e-03
4.584917723766e-03
4.472803770017e-03
4.603457862675e-03
4.678779703983e-03
4.566901197709e-03
4.755547519284e-03
4.640471696753e-03
4.457539912409e-03
4.538567241607e-03
4.334573614265e-03
4.420847848507e-03
4.584491396975e-03
4.467742894371e-03
4.290813753397e-03
4.341561214995e-03
4.161369484108e-03
4.203844918484e-03
4.020961676830e-03
4.033609205764e-03
4.190038035743e-03
3.995998885876e-03
3.816070395907e-03
3.728966813226e-03
3.537030536043e-03
3.407128807490e-03
3.586398617854e-03
3.288807272957e-03
3.252863900070e-03
3.170185754012e-03
3.233111113295e-03
3.074120756272e-03
3.162643393988e-03
2.933378461355e-03
2.797468942969e-03
2.619962109437e-03
2.778421306725e-03
2.482787310082e-03
2.288870685994e-03
2.245276885126e-03
2.009188259652e-03
2.106063465321e-03
2.298880449605e-03
2.277186157407e-03
2.045146607384e-03
2.269833337431e-03
2.492081268530e-03
2.449252250951e-03
2.235847836527e-03
2.412279828812e-03
2.543747264894e-03
2.600115002725e-03
2.727482019444e-03
2.938942653524e-03
2.800953391654e-03
3.099410076939e-03
3.236731448007e-03
3.326718393122e-03
3.458435113975e-03
3.182252973246e-03
3.349632840797e-03
3.182734544931e-03
3.297058188961e-03
3.395874895856e-03
3.084763359842e-03
2.947638229530e-03
3.173599872694e-03
3.367971322397e-03
2.907366739478e-03
2.989778207621e-03
2.681037591212e-03
3.273090083598e-03
4.583977419968e-03
2.763122244056e-03
2.422279070482e-03
2.341976270933e-03
2.055104190934e-03
4.487857016271e-03
4.743988105410e-03
4.617567667593e-03
4.883368050274e-03
4.763228887328e-03
2.160659489003e-03
4.890919826071e-03
4.994559216402e-03
4.077898647515e-03
3.620014606063e-03
2.026865546520e-03
3.041451028518e-03
2.832922892333e-03
3.077663964185e-03
3.380542676541e-03
3.577929148800e-03
3.502531489785e-03
3.663458989421e-03
3.546277218968e-03
3.702657791091e-03
3.786178392521e-03
3.850978684801e-03
3.897450996605e-03
3.504687425170e-03
3.291824593051e-03
3.999992240266e-03
4.016767369501e-03
4.146857594668e-03
4.147424783067e-03
3.977096144328e-03
4.088166746606e-03
3.903561376438e-03
1.647610095171e-03
1.670364952503e-03
1.200482357020e-03
1.361632881091e-03
1.080278838397e-03
1.418148903541e-03
1.352867822665e-03
1.212666352797e-03
4.813044669928e-03
2.629702736151e-03
2.873791510621e-03
2.692884768804e-03
2.922961960319e-03
2.693279210870e-03
2.967619989366e-03
2.640231682294e-03
2.442231823403e-03
2.256451765602e-03
2.304389301660e-03
1.970174595809e-03
2.413972446824e-03
4.105974986965e-03
1.752978929950e-03
1.881015725757e-03
2.212471553438e-03
1.986920103444e-03
4.283844059937e-03
3.257008008793e-03
2.972866264147e-03
1.546774196166e-03
1.779410363677e-03
2.938187575973e-03
3.188246772319e-03
5.018824155785e-03
4.900262887059e-03
3.011629305590e-03
1.908912131209e-03
3.906913380700e-03
1.895281348439e-03
4.211749337744e-03
4.409990212532e-03
3.799088406628e-03
2.355436507833e-03
2.649299599465e-03
2.548634680734e-03
2.876527123569e-03
2.844168383616e-03
3.212913817799e-03
3.129285464298e-03
3.337589162415e-03
3.439166685576e-03
3.438974933722e-03
3.303340296455e-03
3.181680302338e-03
3.085186834318e-03
2.829834518630e-03
4.432489689449e-03
1.483659745450e-03
4.217722169449e-03
3.341461549786e-03
1.739764648709e-03
5.152372939051e-03
5.035369681437e-03
4.778294671962e-03
4.917428704147e-03
5.167012334313e-03
5.050565403691e-03
4.795745429522e-03
4.929418857156e-03
4.668419815856e-03
4.805864584515e-03
5.058823087727e-03
4.939281816885e-03
4.682797093272e-03
4.818002280012e-03
4.556116505805e-03
4.690388347301e-03
4.950293242362e-03
1.552403935002e-03
1.574322739071e-03
1.877343647282e-03
2.891197733424e-03
3.092514519054e-03
3.276732472821e-03
3.305456961863e-03
4.827759947093e-03
5.081593595751e-03
3.163419766099e-03
3.211991907021e-03
5.265451275810e-03
4.339993450943e-03
4.108622684801e-03
3.351327486416e-03
3.414147971325e-03
3.173366515349e-03
3.179934844101e-03
3.412464276917e-03
2.933374923412e-03
3.048978120525e-03
5.184623155997e-03
2.285735175407e-03
1.964820094476e-03
4.525309975274e-03
1.417417973454e-03
4.266164728390e-03
4.121971091758e-03
4.284403972733e-03
4.105296115865e-03
4.321717176209e-03
4.160575813867e-03
3.892235684062e-03
2.811745021311e-03
3.984494120428e-03
4.554222149543e-03
2.269911801835e-03
3.028107761873e-03
1.410044382037e-03
2.660796390279e-03
1.642549087339e-03
2.019881341573e-03
3.191265930906e-03
4.449437667659e-03
4.556738233615e-03
3.151991049237e-03
3.330144195961e-03
2.615443417616e-03
4.499456307731e-03
4.528967056282e-03
4.393751219098e-03
1.261306655149e-03
2.904934706402e-03
5.293699107592e-03
3.240583809678e-03
3.137492166912e-03
1.326987575174e-03
7.734678318549e-04
4.951662652887e-03
5.199111337285e-03
3.458302994746e-03
3.498814191065e-03
2.813032372855e-03
2.488302007795e-03
5.318301846901e-03
1.850643022250e-03
1.900800904807e-03
3.131639576739e-03
3.027700141336e-03
2.957799237182e-03
3.061527549215e-03
2.613926403272e-03
1.775348210848e-03
3.082947151770e-03
5.403046930315e-03
3.649594930354e-03
3.629629087466e-03
3.791790756931e-03
2.266631384106e-03
3.561658471125e-03
4.464949176004e-03
4.749074667132e-03
4.803902692703e-03
3.195369272568e-03
2.992485238832e-03
2.855378574955e-03
2.741778446605e-03
4.234794425954e-03
3.108532495677e-03
4.079034698662e-03
3.940552543924e-03
3.815579800974e-03
3.588995439569e-03
3.476421980838e-03
3.087431809056e-03
2.199698414150e-03
3.435465997500e-03
3.826462726601e-03
3.261674752205e-03
5.297684949133e-03
5.419151855637e-03
4.414057560104e-03
4.275097580202e-03
1.647451024479e-03
1.675335589964e-03
3.606226530559e-03
3.650868628108e-03
5.391618930748e-03
5.502109459712e-03
5.372609048885e-03
2.675369016162e-03
2.527778908692e-03
1.410070067518e-03
1.620197969852e-03
3.704561518482e-03
1.421863687494e-03
4.706685273956e-03
4.622442071867e-03
4.666940698599e-03
3.076866095470e-03
3.811195532018e-03
3.440349836705e-03
3.147617514471e-03
3.657267983904e-03
3.541815125300e-03
3.706500821150e-03
3.438152628286e-03
2.775184890772e-03
2.746720812631e-03
4.705097558488e-03
4.212391869045e-03
5.032584068110e-03
5.060540397521e-03
2.962566848859e-03
2.515241370603e-03
2.118397082965e-03
3.180431248684e-03
5.518846616804e-03
3.789817242396e-03
3.891070071717e-03
3.945571653991e-03
5.986403847301e-04
2.213189616717e-03
5.440739059520e-03
2.585939956196e-03
2.577091143894e-03
2.623503978078e-03
4.897871729883e-03
3.686454329978e-03
4.752961752010e-03
3.733356492718e-03
5.550112872523e-03
3.071330919958e-03
3.165660564610e-03
2.415063932661e-03
5.310812901883e-03
5.569340241546e-03
4.247537830652e-03
4.096212274891e-03
4.376310335557e-03
2.295285634796e-03
1.760148970824e-03
5.307204263575e-03
2.597022010623e-03
2.677083653507e-03
2.361042937549e-03
2.540509620076e-03
3.590752619766e-03
3.561980325172e-03
4.687546968051e-03
4.862462070621e-03
4.404636295064e-03
2.304172143242e-03
2.399216396593e-03
1.964677543140e-03
5.518361070662e-03
5.664420780412e-03
2.775557848670e-03
2.950132041529e-03
2.770175388850e-03
5.630497223971e-03
4.810959073252e-03
4.708255592783e-03
1.439105625328e-03
1.764440458605e-03
2.782344288704e-03
2.711314613078e-03
5.598196232205e-03
5.483018715217e-03
5.749000539319e-03
1.876891076347e-03
3.340823531716e-03
3.019076182411e-03
2.638636300015e-03
3.496239648933e-03
3.233921457243e-03
3.509435497577e-03
4.060457021751e-03
9.830298147038e-05
5.472024458089e-03
4.113394862956e-03
0.0
3.974022231900e-03
4.142147385999e-03
3.808811843470e-03
1.512139063608e-03
4.035840610883e-03
4.228908811524e-03
1.229665042051e-03
5.727754258707e-03
1.213722886229e-03
1.289130077108e-03
4.190343840825e-03
4.208177283858e-03
4.453725484854e-03
4.415818037714e-03
4.236650972425e-03
4.433395698974e-03
3.960847876624e-03
4.646929544121e-03
4.602784854752e-03
4.854292446809e-03
3.246379902709e-03
2.751258169961e-03
2.634703286177e-03
2.390161293581e-03
5.366413333148e-03
5.305369359066e-03
4.571502884887e-03
4.361148070353e-03
3.986570332512e-03
3.958169901241e-03
4.225562744729e-03
4.178369498049e-03
4.446132963819e-03
4.399693690965e-03
4.649688467265e-03
4.553994310106e-03
2.395247212063e-03
3.489844342941e-03
2.935834930029e-03
2.507685734421e-03
3.320342588166e-03
3.002197588997e-03
3.920773109245e-03
3.240450602112e-03
5.870937815019e-03
0.0
3.323452107101e-04
3.218749665586e-03
3.600131537244e-03
2.907036869022e-03
2.836905823125e-03
2.270773315379e-03
1.834790987996e-03
2.673096930044e-03
4.690114924130e-03
2.348836148975e-03
4.492676789655e-03
3.205482778443e-03
3.817317219374e-03
2.948492527326e-03
2.849084286571e-03
4.354187352303e-03
4.105094102283e-03
3.949385469094e-03
3.043885708512e-03
3.025811206364e-03
2.606730506197e-03
4.199509327046e-03
5.239720060421e-03
5.342311723545e-03
5.568723597318e-03
5.436074129988e-03
5.195127512814e-03
5.275945829576e-03
5.522846822360e-03
5.362101483362e-03
5.654790167380e-03
5.418798555265e-03
5.183358795615e-03
5.228039527145e-03
5.462723589554e-03
5.010149217662e-03
3.394314338742e-03
3.254416177728e-03
3.998143781563e-04
1.780285334436e-03
3.960367887196e-03
5.943039136803e-03
5.959345631699e-03
3.141346465330e-03
5.620347987340e-03
4.084459886071e-03
2.498622170437e-03
5.268940025093e-03
5.099701809653e-03
4.951938385870e-03
4.853275658762e-03
5.939990338712e-03
4.510478805277e-03
4.274617599746e-03
1.914060081792e-03
2.484209945367e-03
2.639018446471e-03
5.114013007791e-03
3.400229055208e-03
2.914794698409e-03
2.950236209628e-03
2.471629201444e-03
3.451405133461e-03
5.898428211788e-03
5.845499826008e-03
3.178797580669e-03
2.960279401288e-03
2.804058035340e-03
2.729987471253e-03
2.829725808593e-03
2.578048860295e-03
2.561856093753e-03
2.441038645177e-03
5.056780879738e-03
3.797514540817e-03
3.350528560521e-03
3.070190277767e-03
2.914035417259e-03
3.410817836896e-03
3.523130452731e-03
3.651707279838e-03
3.259955241283e-03
3.906281668705e-03
3.999951674760e-03
1.514180247365e-03
3.455226154399e-03
3.780489020667e-03
4.041242521720e-03
4.062468817485e-03
4.304541709678e-03
4.049230948442e-03
3.629888373411e-03
3.687995609435e-03
3.556481715217e-03
3.766062809759e-03
3.630392003192e-03
3.425625743275e-03
3.859887208052e-03
3.712754465682e-03
3.753295504860e-03
5.944650398121e-04
2.225590346816e-03
2.127823725117e-03
2.979469021594e-03
2.824219377905e-03
3.230470095965e-03
3.141720754719e-03
1.550829825203e-03
7.467435189644e-04
1.647650571366e-03
6.781160949691e-04
1.418844655901e-03
2.293180220520e-03
2.042650195457e-03
4.943618431220e-03
3.031335723016e-03
2.945155604069e-03
2.688743593994e-03
2.875725181900e-03
3.142994710358e-03
2.523324995075e-03
2.457510238830e-03
1.510421340239e-03
1.007815092101e-03
1.077602730068e-03
9.323160320548e-04
9.716390507349e-04
1.014619391924e-03
1.008787792094e-03
1.356424777816e-03
1.016122513265e-03
1.104929402575e-03
1.269761046994e-03
4.987755442147e-03
5.116267723268e-03
4.373987183766e-03
3.768398534654e-03
7.723067608076e-04
5.801414033109e-03
5.849888523554e-03
5.842497446698e-03
4.794097655678e-03
4.842845514710e-03
5.795857190058e-03
2.602280117318e-03
5.684608119029e-03
5.426766964233e-03
2.915293754372e-03
2.687040126660e-03
4.231633519162e-03
3.882386612765e-03
4.556515040671e-03
3.998756045770e-03
4.293387971553e-03
3.074535552154e-03
1.408470089399e-03
4.539066931421e-03
4.423048734156e-03
5.069081138622e-03
2.521812465648e-03
3.361884437641e-03
1.678049688451e-03
5.074061553586e-03
3.958676471230e-03
3.095099427902e-03
3.226856089265e-03
2.810734054587e-03
2.838974017310e-03
3.275246495708e-03
3.484344474013e-03
3.705978157807e-03
5.196157012198e-03
1.018518931270e-03
3.521375643282e-03
3.706077620756e-03
4.658000838490e-03
1.709680317594e-03
3.305261692782e-03
5.177694957922e-03
5.612493104205e-03
4.353675085413e-03
1.412398444283e-03
4.259060800003e-03
3.477784717748e-03
5.132413977016e-03
2.272689532028e-03
1.816489196477e-03
3.846604393139e-03
3.494167407997e-03
5.528278511331e-03
3.146089818610e-03
1.957139825605e-03
1.112448474457e-03
2.360079505855e-03
4.023485214536e-03
2.432815649017e-03
5.414327495685e-03
4.449676466395e-03
2.421354826549e-03
5.279237453520e-03
2.481134471885e-03
2.154599998102e-03
3.850201562972e-03
4.337013816297e-03
4.689567346140e-03
3.889632788579e-03
4.106706360112e-03
3.777078850776e-03
2.080073589128e-03
3.024091218619e-03
4.636084587167e-03
4.310138882828e-03
5.639613987774e-03
3.640972516567e-03
4.095996415080e-03
5.509310551577e-03
3.587895264237e-03
1.596224348258e-03
2.654907617398e-03
2.518196502036e-03
2.963465931010e-03
3.699806971781e-03
5.746687556824e-03
4.270512341206e-03
2.658558888212e-03
1.385837139963e-03
3.642720607827e-03
4.434127154033e-03
1.755325851135e-03
2.085706409627e-03
3.490851329931e-03
4.839928513279e-03
3.143753996542e-03
4.591157827227e-03
1.995758212990e-03
3.213796841356e-03
3.698867822439e-03
4.783484472751e-03
2.274372036269e-03
3.942041855717e-03
2.018129477521e-03
3.179171001688e-03
3.766024258519e-03
4.461967294443e-03
5.932012927013e-03
2.263421662545e-03
4.710985723028e-03
3.694491554536e-03
2.635139483983e-03
1.025903351167e-03
3.364049018946e-03
3.741140459926e-03
2.496086040746e-03
2.247981960543e-03
3.447314890979e-03
3.806063609485e-03
2.443637327429e-03
3.889607978100e-03
2.932212877137e-03
4.809565923031e-03
3.991122142150e-03
4.535682597544e-03
1.253579093275e-03
3.692076032167e-03
4.710605835282e-03
2.989317964917e-03
2.692080032987e-03
5.041460301469e-03
2.649271473601e-03
2.763935828314e-03
4.635607043239e-03
3.377136231024e-03
2.886852932384e-03
2.656221383019e-03
2.841982051278e-03
2.546121946089e-03
2.280710634061e-03
2.448224017802e-03
4.844932991548e-03
1.159538546380e-03
4.958406181658e-03
2.170695742773e-03
2.635116820677e-03
3.060192089563e-03
4.490482294088e-03
2.676098572190e-03
1.933023820066e-03
2.768539009112e-03
2.773761821372e-03
2.620450107336e-03
2.685714993396e-03
5.648300186419e-03
2.938653539912e-03
5.823614188444e-03
4.963188208300e-03
3.932121989893e-03
2.324149862710e-03
0.0
2.514548860694e-03
2.801591293186e-03
4.851561224056e-03
3.937231005468e-03
2.729494295403e-03
5.675085357911e-03
4.803426685540e-03
4.862248751244e-03
2.171293786245e-03
3.009255413908e-03
5.428982077181e-03
3.693412385959e-03
1.283308417236e-03
4.241990484630e-03
2.118254558368e-03
2.377043969348e-03
2.382468483149e-03
2.413239708947e-03
2.697664909012e-03
2.126804265286e-03
2.932528478253e-03
3.975655703172e-03
3.423996743188e-03
2.040734890307e-03
5.723862858495e-03
4.029709976472e-03
4.729446121623e-03
3.643538952676e-03
2.324384274866e-03
4.240145590124e-03
5.248251932663e-03
5.065638731077e-03
4.865415511008e-03
3.950525462167e-03
5.659251463191e-03
2.734727135404e-03
5.648629554702e-03
5.043134290996e-03
4.301884988432e-03
4.260018092810e-03
4.871863521837e-03
5.738997361023e-03
2.142169266280e-03
4.855264715639e-03
2.941329875457e-03
4.982839675412e-04
4.155649936064e-03
5.251942821195e-03
4.831609780295e-03
9.013000089023e-04
1.077083856090e-03
3.817677234665e-03
5.571067232882e-03
3.300048357497e-03
5.920327576545e-03
7.577862853329e-04
3.663422898644e-03
1.060195543772e-03
4.951255767581e-03
5.712619248511e-03
3.070814862917e-03
3.822820158157e-03
2.186156026243e-03
4.538463984820e-03
1.851321241038e-03
5.716697476405e-03
3.395600169627e-03
5.810236312995e-03
3.850312672382e-03
0.0
4.395921499424e-03
2.651166453379e-03
3.693193394849e-03
5.779881690989e-03
2.632058365002e-03
1.305216945228e-03
5.834411797515e-03
1.794472957361e-03
3.663155821034e-03
4.974463401011e-03
1.126337765141e-03
4.139350774126e-03
5.652422135997e-03
3.542221846802e-03
5.289169342971e-03
3.063748398770e-03
0.0
4.627165150353e-03
3.844266386451e-03
5.798941796910e-03
4.453871606854e-03
2.441774290393e-03
5.465528199286e-03
3.248665564556e-03
4.976193501889e-03
2.571640358639e-03
6.945483077494e-04
3.751244995352e-03
1.075195837059e-03
4.615840899057e-03
3.326084611542e-03
1.615523002105e-03
9.197396003492e-04
1.752819851871e-03
1.220797268804e-03
1.828874842648e-03
1.638630534890e-03
2.076700773459e-03
1.933797938159e-03
2.408370959842e-03
2.324628182171e-03
2.687439418483e-03
2.614478323154e-03
2.992334186830e-03
2.991431796678e-03
3.343927869160e-03
3.270124677663e-03

SCALARS node_materi_plasti_phimob float
LOOKUP_TABLE default
-4.840264661836e+01
1.508770435770e+01
2.058035348845e+01
2.013403084189e+01
-3.070929033239e+01
-4.162332310807e+00
7.682230786445e+00
1.166090833446e+01
1.220028018497e+01
1.401323077177e+01
1.533224304758e+01
1.634385467786e+01
1.714223701256e+01
1.780653141395e+01
1.838150015352e+01
1.881252284884e+01
1.913790896593e+01
1.946902858274e+01
1.980302336237e+01
2.014128663366e+01
2.031583966538e+01
2.044761457923e+01
2.053657184553e+01
2.015042394927e+01
2.014728240749e+01
2.015190444891e+01
2.015747974227e+01
2.015139060180e+01
2.016247640045e+01
2.016374184784e+01
2.017879310070e+01
2.019353502701e+01
2.020823564014e+01
2.021099508532e+01
2.023470805914e+01
2.024869707630e+01
2.027454528993e+01
2.028519758154e+01
2.030899984712e+01
2.033052553359e+01
2.035541891269e+01
2.039276907487e+01
2.042812740673e+01
2.046836175565e+01
2.048919381084e+01
2.053445073766e+01
2.056717495784e+01
2.059665850555e+01
2.061170821781e+01
2.064795747685e+01
2.064811316980e+01
2.067297091564e+01
2.067043426080e+01
2.069360912807e+01
2.069761776494e+01
2.069838179812e+01
2.070421452778e+01
2.070428536671e+01
2.070557606525e+01
2.069486285927e+01
2.069361322490e+01
2.067713181735e+01
2.067683736926e+01
2.066179098514e+01
2.063651877218e+01
2.061937819531e+01
2.063210989451e+01
2.059880163466e+01
2.060938774998e+01
2.060069762395e+01
2.059541237863e+01
2.059764607923e+01
1.604193643860e+01
1.684730448483e+01
1.749737384127e+01
1.804175711861e+01
1.852605836196e+01
1.893833939303e+01
1.931425976368e+01
1.964829003257e+01
1.994971883578e+01
1.837324259506e+01
1.491938673182e+01
3.088526311949e+01
1.113289892287e+01
-6.603638598728e+00
-2.087708766363e+00
4.242286870462e+00
9.021244724892e+00
1.163136743428e+01
1.282058690431e+01
1.388505859550e+01
-5.119039235328e+01
-3.221556074188e+01
-9.777899376941e+00
8.427181731693e-01
6.479804588483e+00
9.876921803989e+00
1.216159276847e+01
1.377534209431e+01
1.491154069680e+01
1.495662549365e+01
1.495362468449e+01
1.492223490743e+01
1.503310372932e+01
1.488936506247e+01
1.483808899825e+01
1.482385424853e+01
1.482251967079e+01
1.478905983327e+01
1.475243946808e+01
1.474106057143e+01
1.474999258564e+01
1.480478010851e+01
9.746611441517e+00
8.198783732462e+00
8.883033518955e+00
9.943435757057e+00
1.090604807392e+01
-9.671776700393e-01
-3.108768084656e+01
-4.650956676027e+01
-5.180947665962e+01
-5.207546967278e+01
-5.075995877614e+01
-4.987334400505e+01
-5.006517001167e+01
-5.038745069414e+01
-5.038016664638e+01
-5.041529442976e+01
-5.025294094772e+01
-4.981600256643e+01
-4.967522206323e+01
-1.583808124096e+01
-3.383795647364e+01
-4.667951628140e+01
-5.105936701189e+01
-5.230729941949e+01
-6.043184809743e+00
4.048871479325e+01
3.977624987386e+01
4.017110442800e+01
4.129167114605e+01
-6.356008443193e+00
-5.484851004751e+01
-5.507223386086e+01
-5.524580960232e+01
-5.530191243642e+01
-5.516673524114e+01
-5.478778180301e+01
-5.426026779368e+01
-5.372016312488e+01
-5.322186263257e+01
-5.277916184177e+01
-5.238836424880e+01
-5.196934891434e+01
-5.141941757858e+01
-5.062146015081e+01
-4.977659540404e+01
-2.164187472849e+01
-2.438262344283e+01
-2.955533580430e+01
-3.225918030153e+01
-1.012875799480e+01
-1.114088787218e+01
-1.113075155738e+01
-1.094341720928e+01
-1.084955704535e+01
-3.524189290897e+01
-3.542769805442e+01
-3.559159272730e+01
-3.573056742242e+01
-3.574598409166e+01
-3.556658669080e+01
-3.518678821210e+01
-3.472067873893e+01
-3.426234654921e+01
-3.384739207929e+01
-3.348869951069e+01
-3.318947013165e+01
-3.291793992244e+01
-3.268674783083e+01
-3.279587556597e+01
-3.244337698552e+01
-1.038530185948e+01
-1.034475013174e+01
-1.027765299768e+01
-1.023684185099e+01
-1.019144861549e+01
-1.013635469824e+01
-1.007028781624e+01
-9.991085068801e+00
-9.898792836732e+00
-9.793654649280e+00
-9.672612479365e+00
-9.531768924124e+00
-9.369827936731e+00
-9.203501062084e+00
-9.032236204975e+00
-8.803805938515e+00
-8.430061697477e+00
-8.048347234497e+00
-7.882876396574e+00
-7.545888474245e+00
-6.782889292499e+00
-5.137572599714e+00
-5.768098933445e+00
3.250705380183e+00
4.002298849912e+00
3.226839163518e+00
2.749200757978e+00
2.265515921644e+00
1.803742034190e+00
1.486279964525e+00
1.260317338746e+00
1.111927310298e+00
1.009908193252e+00
9.319309840724e-01
8.730881355146e-01
8.281449664819e-01
7.922114790472e-01
7.630864220636e-01
7.416363766066e-01
7.258166015956e-01
7.134588575248e-01
7.038592805105e-01
6.952915176056e-01
7.333623479876e-01
9.198265453375e-01
6.368156322790e+00
6.368912449712e+00
6.370067707748e+00
6.365427155098e+00
6.357324391717e+00
6.348793710134e+00
6.342536383134e+00
6.338183330190e+00
6.337692553181e+00
6.342665552341e+00
6.355486497976e+00
6.380008931830e+00
6.422369987694e+00
6.523816554626e+00
6.711980367974e+00
6.982384755014e+00
7.331775985901e+00
7.808940551554e+00
8.622479545980e+00
8.465565924379e+00
1.075370069623e+01
1.080529596220e+01
1.032194262626e+01
1.003952340306e+01
9.829494266078e+00
9.695302684185e+00
9.649765573442e+00
9.638556901560e+00
9.640185890714e+00
9.647915546975e+00
9.665172678846e+00
9.692278935097e+00
9.714738569586e+00
9.736767826108e+00
9.759844554223e+00
9.777573018719e+00
9.790864454859e+00
9.823701509250e+00
9.891389651676e+00
1.212661505590e+01
1.209936961486e+01
1.208291263866e+01
1.206714747002e+01
1.204102790156e+01
1.201379055701e+01
1.198359591283e+01
1.194493666925e+01
1.190435493520e+01
1.188638625604e+01
1.187822109556e+01
1.187454011196e+01
1.189424390925e+01
1.195183034467e+01
1.210635762568e+01
1.241458222459e+01
1.228871875930e+01
1.353465646689e+01
1.369685035933e+01
1.354715251817e+01
1.350643996477e+01
1.350587340914e+01
1.351907901412e+01
1.353660573713e+01
1.357399466838e+01
1.361211601064e+01
1.364819470428e+01
1.367670278528e+01
1.370133222683e+01
1.372732940057e+01
1.373836139417e+01
1.377187168445e+01
1.381717861553e+01
3.499586537224e+01
2.375290354285e+01
6.727347717001e-01
-3.002786393598e+00
2.319331749516e+00
7.398984648395e+00
1.105779760308e+01
1.240998396001e+01
1.348655193755e+01
1.446674225738e+01
1.953169511794e+01
2.083140492313e+01
-3.680499517908e+01
1.357953368797e+01
2.081220786610e+01
4.842525884329e+00
1.813570264185e+01
2.074057340442e+01
1.044389607644e+01
2.058008126901e+01
1.384064449842e+01
2.066432749165e+01
-3.825544536464e+01
2.033449669978e+01
1.542047316110e+01
1.481282305170e+01
1.927429170365e+01
2.019632118600e+01
2.011553328144e+01
2.002712282207e+01
2.001035978909e+01
2.007773872161e+01
1.571942772329e+01
1.574869542424e+01
1.587095021408e+01
1.829158315635e+01
2.060197459142e+01
1.119908397561e+01
-3.653666466776e+01
2.024238533201e+01
1.584455454146e+01
1.017413854639e+01
2.010926107358e+01
2.067287248048e+01
2.046691623899e+01
2.080894427815e+01
2.084736529056e+01
-4.390590469521e+00
1.567869422227e+01
2.076823651353e+01
1.913129500325e+01
-3.789168685835e+01
1.679939960090e+01
2.006412073402e+01
7.937146406076e+00
6.212223676734e+00
1.302002883273e+01
1.463137364017e+01
3.133255358132e+01
1.722741115637e+01
2.059323393628e+01
-3.749402665176e+01
1.978686659548e+01
1.578573205821e+01
1.621340855705e+01
1.654355286173e+01
1.698193494364e+01
1.730814878779e+01
1.763871124384e+01
1.734629210365e+01
1.795012467368e+01
1.769773352477e+01
1.790775634519e+01
1.825151529121e+01
1.803547851543e+01
1.853927365870e+01
1.835858245175e+01
1.784037829704e+01
1.819245195101e+01
1.767682366895e+01
1.806205178447e+01
1.852372842767e+01
1.842209852598e+01
1.797564668056e+01
1.835753443103e+01
1.794191726787e+01
1.834762181343e+01
1.790616395152e+01
1.826706326891e+01
1.874213100912e+01
1.861439229720e+01
1.805535177524e+01
1.841644296510e+01
1.779616183508e+01
1.845843413605e+01
1.916960436655e+01
1.942633499103e+01
1.875422785724e+01
1.974150145351e+01
1.923426283931e+01
2.019993146507e+01
1.979396327357e+01
2.064534603703e+01
2.098943800340e+01
2.130692814737e+01
2.101521357572e+01
2.148684480425e+01
2.179447332415e+01
2.178607465535e+01
2.209773811853e+01
2.193733040851e+01
2.162888734783e+01
2.159971304859e+01
2.190247381537e+01
2.142652649883e+01
2.110930449215e+01
2.083407716669e+01
2.119978263330e+01
2.048911735164e+01
2.017070706914e+01
1.960348505385e+01
1.985865247000e+01
1.889170647129e+01
1.848876036951e+01
1.801806313044e+01
1.851036862613e+01
1.809738440151e+01
1.860341044564e+01
1.758846851852e+01
1.784959397402e+01
1.724403707904e+01
1.755071863292e+01
2.011715807565e+01
1.682782989425e+01
1.650052400227e+01
1.720563972302e+01
1.792565934629e+01
1.634208404918e+01
1.680992494981e+01
1.579721445021e+01
1.870864161964e+01
1.883469108233e+01
1.635728478161e+01
1.516659489694e+01
1.443391239610e+01
1.352101435492e+01
1.760939336887e+01
1.817524759713e+01
1.789200734828e+01
1.842633610213e+01
1.817928341702e+01
1.441873929806e+01
1.872616287322e+01
1.866114235972e+01
1.748989554035e+01
1.738943305544e+01
2.207017363462e+01
1.727198056117e+01
1.688722097542e+01
1.761230227764e+01
1.908606592790e+01
1.921062779026e+01
1.990138970743e+01
1.995422500611e+01
2.069922059877e+01
2.063377384852e+01
2.001690649148e+01
2.058102699973e+01
2.003733358770e+01
2.103685704403e+01
2.118087705289e+01
2.053871084230e+01
2.008027071350e+01
2.050178033339e+01
2.013888662453e+01
1.967251493310e+01
1.973473511365e+01
1.941521552603e+01
2.231717843856e+01
2.226294346061e+01
2.240580994811e+01
2.222466852172e+01
2.211924600269e+01
2.181676774528e+01
2.172630184583e+01
2.193452205883e+01
1.881295046219e+01
2.129964813186e+01
2.086503737353e+01
2.127616451334e+01
2.082726264053e+01
2.141466985905e+01
2.091178976872e+01
2.171783031822e+01
2.178475110559e+01
2.224737239738e+01
2.181054516100e+01
2.253020240358e+01
2.143017977568e+01
1.917870626552e+01
2.190274350417e+01
2.149750219186e+01
2.148194599835e+01
1.245745218942e+01
2.019762310334e+01
2.124641517939e+01
2.142071746441e+01
2.164250481678e+01
1.230059339293e+01
2.118094362893e+01
1.999333748270e+01
1.866323427452e+01
1.843789817796e+01
2.134533753820e+01
1.329454708517e+01
2.080853837484e+01
2.316730307398e+01
1.980492045907e+01
2.023298537942e+01
1.959084684283e+01
2.121920005951e+01
2.114963687237e+01
2.113996779539e+01
2.025279691200e+01
2.037901559561e+01
1.865594396231e+01
1.913060633769e+01
1.763936462787e+01
1.712959862907e+01
1.652785324205e+01
1.698949301341e+01
1.582360526577e+01
1.450490856147e+01
1.396670644648e+01
2.043608105549e+01
2.390154194406e+01
1.727182961690e+01
2.119263816624e+01
2.145435628318e+01
1.888764214260e+01
1.868323312350e+01
1.820456945681e+01
1.847405546500e+01
1.891763506379e+01
1.872438829984e+01
1.825673847961e+01
1.852154306498e+01
1.802541569601e+01
1.830986487539e+01
1.876768694162e+01
1.857388844645e+01
1.809195629154e+01
1.837108833908e+01
1.786090313183e+01
1.815202160787e+01
1.862807441172e+01
1.101619287828e+01
2.179253780947e+01
2.155286740736e+01
1.714595120050e+01
1.768908288760e+01
1.813569919938e+01
1.816913502435e+01
1.842193216574e+01
1.887097072369e+01
2.012568104636e+01
1.861725309446e+01
1.908610753280e+01
1.990929779250e+01
1.956580396806e+01
1.713573252929e+01
1.657841077338e+01
1.636166947471e+01
1.557103292202e+01
1.597605167787e+01
1.537511228531e+01
2.134271169532e+01
1.899932981350e+01
1.361521759971e+01
1.117421331438e+01
2.028192164657e+01
2.205685174163e+01
1.915436569368e+01
1.970144156162e+01
1.956471416808e+01
1.999006661223e+01
1.983636877848e+01
2.016917297842e+01
2.033105469730e+01
2.099455650847e+01
2.043037324498e+01
1.790465311864e+01
2.179943776045e+01
1.644661462115e+01
9.056681641709e+00
1.143106191944e+01
1.175561617978e+01
1.390781461698e+01
2.122962635168e+01
2.006260642653e+01
1.974272777922e+01
1.472399664385e+01
1.530545682429e+01
2.104591287746e+01
1.760956731624e+01
1.771852879206e+01
1.745224440908e+01
8.906742075771e+00
1.217208694704e+01
1.913692647078e+01
1.883607347472e+01
1.716549561986e+01
2.485388997826e+01
2.613593133267e+01
1.866383187042e+01
1.907725142087e+01
1.851780648772e+01
1.858758192522e+01
2.136793689906e+01
1.159245727425e+01
1.925686698890e+01
2.186444103556e+01
2.202555652286e+01
1.773986229543e+01
1.846707956882e+01
2.025654779022e+01
1.771289901642e+01
1.389386934287e+01
1.245314215726e+01
2.121134523261e+01
1.930677363094e+01
2.058119656394e+01
2.054691272848e+01
2.059331282617e+01
7.496939854966e+00
2.110192716041e+01
2.004882085659e+01
2.000484093036e+01
1.974142917221e+01
1.775061535556e+01
1.603627911409e+01
1.511685419513e+01
1.443178714965e+01
1.707502026303e+01
1.679986557209e+01
1.711357850661e+01
1.663561993231e+01
1.646062836614e+01
1.648002966481e+01
1.591754595779e+01
2.015590601181e+01
2.189964178524e+01
1.848688353631e+01
1.935521110200e+01
2.000344964208e+01
1.917145630509e+01
1.937952045257e+01
1.753558686187e+01
1.725441670376e+01
9.161298886280e+00
7.003745155628e+00
1.895237761389e+01
2.105739780472e+01
1.928242158031e+01
1.945990328513e+01
1.927487958289e+01
2.132574560714e+01
2.144050679942e+01
2.237795461877e+01
2.378892843013e+01
1.993633195709e+01
3.240634527408e+00
1.894515696603e+01
2.029441331196e+01
2.040228164299e+01
2.089334548607e+01
1.590629219630e+01
2.064727715815e+01
2.087374108890e+01
1.588925344382e+01
1.568660865405e+01
1.633470523446e+01
1.555178854421e+01
1.735206028434e+01
1.624549031917e+01
2.026459661826e+01
2.050488258373e+01
2.001756944322e+01
1.980337595090e+01
2.090871927986e+01
2.106911557369e+01
1.428252763263e+01
1.458578670831e+01
1.949588293068e+01
1.612193486607e+01
2.097512863328e+01
2.093401168389e+01
2.491539911647e+01
2.210924793344e+01
1.944964900763e+01
1.286366098579e+01
1.236075384084e+01
1.391246731971e+01
2.049044836007e+01
1.583683853479e+01
2.040015464791e+01
1.684055472594e+01
1.960595103612e+01
2.112529885734e+01
1.711677458356e+01
2.151239481442e+01
1.925814206187e+01
1.964524067033e+01
1.708383180077e+01
1.675943315840e+01
1.736599865087e+01
2.314018080374e+01
2.485024227298e+01
1.921589379344e+01
1.626726954207e+01
1.650014923431e+01
1.209743505653e+01
1.418752870819e+01
1.882616625638e+01
1.876010607691e+01
1.920839267820e+01
1.930825518441e+01
1.910633278094e+01
2.181179763554e+01
2.170254286348e+01
2.201364868607e+01
1.953192169178e+01
1.974829471197e+01
1.869636744041e+01
1.912963639894e+01
1.698511308786e+01
1.965189447490e+01
2.049419029258e+01
2.050878269642e+01
-7.525433610386e-01
4.398887647375e+00
1.848557150861e+01
2.080817886256e+01
1.962594631427e+01
1.946066345406e+01
1.981275255033e+01
1.304703802831e+01
2.077429654902e+01
2.113964236197e+01
2.126144682514e+01
2.102002290993e+01
2.083238413125e+01
2.078899935041e+01
2.061198184487e+01
2.196809990251e+01
1.952922580019e+01
1.684285779672e+01
1.731478144166e+01
1.651786715617e+01
1.695966968790e+01
1.611859317186e+01
1.142088959502e+01
1.654620442736e+01
1.699224333965e+01
-1.032991712850e+01
1.982477049225e+01
-8.332685516566e+00
-2.215631498396e+00
2.085929285547e+01
2.082619379885e+01
2.078420931014e+01
2.074612969258e+01
2.074219563233e+01
2.066628075451e+01
1.640084974089e+01
2.067158537391e+01
2.060462149062e+01
2.065469129916e+01
1.473151294741e+01
1.412464575401e+01
1.236760317227e+01
9.401468253771e+00
2.010314710122e+01
1.988567854429e+01
2.015937554747e+01
1.980384405485e+01
1.659864710757e+01
1.657359282793e+01
1.721105632159e+01
1.713984711527e+01
1.769979805472e+01
1.761761287742e+01
1.812097676706e+01
2.056120411039e+01
1.044566344620e+01
1.527492774738e+01
2.093123811016e+01
2.109424193854e+01
1.526311360032e+01
1.388004868184e+01
2.096323501970e+01
1.824223517974e+01
2.001575627147e+01
1.636918752627e+01
2.334138669018e+01
1.745313561910e+01
1.625108309306e+01
1.422353086841e+01
1.305454729623e+01
2.168648338409e+01
1.724222851758e+00
1.607706150767e+01
1.816584634875e+01
1.586548774693e+01
1.996569254551e+01
1.941989025370e+01
1.730944722338e+01
1.659461979324e+01
1.551730268318e+01
1.746749723381e+01
1.666837849199e+01
1.638711176133e+01
2.033201493493e+01
1.377681424015e+01
1.132513886339e+01
1.756092883682e+01
1.908547694254e+01
1.928592449542e+01
1.962770079852e+01
1.947529681462e+01
1.910710657984e+01
1.931148173155e+01
1.965655607951e+01
1.951248350287e+01
1.988194844797e+01
1.970178641257e+01
1.936134726148e+01
1.955974943995e+01
1.984781081006e+01
1.920969969567e+01
2.080417446501e+01
1.809023893492e+01
2.591234025381e+01
2.563522119430e+01
1.747514841065e+01
2.017092643992e+01
2.012388718396e+01
2.003443134373e+01
2.038984718081e+01
1.684014616450e+01
2.223951312800e+01
2.052125265502e+01
1.888721086741e+01
1.867962836606e+01
1.843074413822e+01
2.009972515270e+01
1.765492183676e+01
2.070143282472e+01
2.209887974804e+01
2.168056909492e+01
2.133540250083e+01
1.914370796413e+01
2.082412023564e+01
2.099352661835e+01
2.101151176541e+01
2.119750966566e+01
2.084767883430e+01
2.025140060930e+01
2.030235090719e+01
1.832868861603e+01
1.966357490313e+01
2.013279250493e+01
2.059632246537e+01
2.035215414259e+01
2.109051054020e+01
2.113579435358e+01
2.153656154028e+01
1.961962971577e+01
2.084195795747e+01
2.077295453420e+01
2.087628280556e+01
2.026704219267e+01
1.828429657076e+01
1.853955937561e+01
1.899493251021e+01
1.798866923367e+01
2.020204599998e+01
2.082558261065e+01
2.228065262144e+01
1.818614018816e+01
1.569701752976e+01
1.646799628539e+01
1.649310643659e+01
1.717503119760e+01
1.652537502164e+01
1.887485933282e+01
1.895734801286e+01
1.869014198936e+01
1.905721828163e+01
1.880083724456e+01
1.841368456969e+01
1.915954663711e+01
1.890988897147e+01
1.569577527352e+01
1.313659455267e+01
1.311164475606e+01
4.009964913095e+00
1.300367153270e+01
1.713275985372e+01
1.611572130136e+01
1.875794626587e+01
2.043012914602e+01
-2.151779405841e+01
-3.932345468629e+00
-3.161694245962e+01
-9.130163131155e+00
5.481627926759e+00
9.859453373575e+00
2.058723502144e+01
1.750800962537e+01
1.725683128669e+01
1.650726499905e+01
1.706304941842e+01
1.780524930696e+01
1.592677501534e+01
1.565838045893e+01
-3.649401320813e+01
-1.100316458894e+01
-1.302173805420e+01
2.817267079347e+00
2.499714862871e+00
-1.076869729440e+01
-1.082734742478e+01
-3.680248241462e+01
-1.151237241165e+01
1.986463696525e+00
-3.770097304436e+01
1.874234175952e+01
1.897091461470e+01
2.079490229499e+01
1.584014672047e+01
-3.802439202090e+01
1.997436284541e+01
2.002764872230e+01
2.002749905643e+01
2.038167181893e+01
2.043963908563e+01
1.998442422237e+01
1.521028168652e+01
1.978365517109e+01
1.941860756234e+01
2.160362923146e+01
1.534022339718e+01
1.965975682183e+01
1.962300155221e+01
2.041573773650e+01
1.948807134916e+01
2.046866874945e+01
2.105128746352e+01
1.095033868012e+01
1.778318174577e+01
1.760526005774e+01
1.881852822245e+01
1.584148625797e+01
1.827913983685e+01
1.096505966476e+01
2.034463754002e+01
1.699265382599e+01
1.935902478105e+01
1.762169997029e+01
1.589785164290e+01
1.536536141541e+01
1.777115136018e+01
1.840954722225e+01
2.091328190155e+01
1.904789182945e+01
-3.441743808131e+01
2.109184244155e+01
1.946319822774e+01
1.796941143355e+01
2.148678586016e+01
1.529889696074e+01
1.895589309124e+01
1.962651460252e+01
1.731146325406e+01
6.454894089048e+00
1.716941642523e+01
2.108027254344e+01
1.887854812641e+01
1.505462556734e+01
2.221824203395e+01
1.770796051529e+01
1.500859397937e+01
1.956815020942e+01
2.030437816860e+01
2.140992897608e+01
2.228979695959e+01
1.540539704417e+01
2.084507704149e+01
2.162046998068e+01
1.934026357849e+01
1.944869986813e+01
2.153129726010e+01
1.910181037744e+01
2.076843255603e+01
2.125316996118e+01
1.694159002885e+01
1.871629979939e+01
1.866219354801e+01
1.910735481823e+01
1.948004057494e+01
2.096052317219e+01
2.228352547970e+01
1.638433351722e+01
1.791883247745e+01
2.032519241959e+01
1.967772162905e+01
1.696658775300e+01
2.070941293559e+01
1.946978662321e+01
1.875766676368e+01
1.166470277954e+01
2.225614766280e+01
2.154495244561e+01
2.061705350095e+01
1.920034408608e+01
1.982650668458e+01
2.062413895710e+01
2.150963357282e+01
2.575583821724e+01
1.558156440193e+01
2.055992839416e+01
2.217403532141e+01
2.126296376400e+01
1.851270579682e+01
2.044567022200e+01
1.448463753602e+01
2.053030138359e+01
2.165973474785e+01
1.913662325463e+01
1.585455266613e+01
2.058915679680e+01
2.144861740344e+01
1.983102577163e+01
2.177837071931e+01
1.421731790395e+01
1.931909608272e+01
1.875581751469e+01
2.009034666009e+01
2.133775632362e+01
1.818982544656e+01
1.909063134734e+01
2.140010219363e+01
2.229152057054e+00
1.498081603220e+01
1.912990443358e+01
2.140241603904e+01
2.148044321571e+01
2.081763506775e+01
1.919896274934e+01
2.144077928681e+01
1.928371914705e+01
1.344009103021e+01
1.846623504410e+01
1.937355190889e+01
1.912154038610e+01
2.017134986622e+00
2.041489648430e+01
2.032357977784e+01
1.699697431820e+01
2.108866294569e+01
1.891937100353e+01
1.193388864020e+01
2.150840684126e+01
1.944837338848e+01
2.081002191843e+01
2.107048407154e+01
2.161161625814e+01
1.282463199069e+01
1.463815385782e+01
1.279421254663e+01
2.132199374332e+01
1.952808058831e+01
9.774077536128e+00
1.897559304664e+01
8.566222149159e+00
2.083765614181e+01
2.090787461883e+01
1.780458845051e+01
2.046849370631e+01
1.332765902319e+01
1.967313723553e+01
2.144792319999e+01
1.925498422315e+01
1.810879203140e+01
1.974943568706e+01
1.751473561937e+01
2.001980589925e+01
2.055736594112e+01
1.650806834608e+01
8.712725799206e+00
1.076966994001e+01
1.094147739852e+01
1.627446771951e+01
1.906903441068e+01
1.653029819656e+01
1.553848043926e+01
1.999286884229e+01
2.063254779226e+01
1.852643072240e+01
2.124502110317e+01
2.103291410959e+01
1.946347110370e+01
1.573493082529e+01
-1.195575960038e+01
1.960839592716e+01
5.091021162154e+00
9.614883504340e+00
1.246016952883e+01
1.554674932835e+01
8.831401020772e+00
4.707798240129e+00
2.096147986453e+01
1.642302815680e+01
2.073067550352e+01
1.074767323365e+01
1.979536879227e+01
2.070959655987e+01
2.071936299723e+01
2.071000632128e+01
1.959266816553e+01
1.703188685807e+01
2.025753416515e+01
1.885547654450e+01
2.064148982458e+01
1.629423706211e+01
1.978983178295e+01
2.112070924051e+01
1.979391838025e+01
1.942615067519e+01
1.734952079836e+01
1.703766464297e+01
2.050165838443e+01
1.992839445593e+01
2.428778407769e+01
1.848899714781e+01
1.725924329172e+01
2.061828944086e+01
2.088357011523e+01
1.972703554353e+01
2.056578631551e+01
2.855154084942e+00
-1.509976488215e+01
2.096141713162e+01
2.010353666781e+01
1.835196760945e+01
2.009773576188e+01
2.803050730930e+01
1.558202491831e+01
-1.355971639396e+01
2.061257286164e+01
1.981197766506e+01
1.759730146189e+01
1.576951443454e+01
1.453150037256e+01
2.043927569278e+01
7.027699279406e-01
1.983817638889e+01
2.100335792381e+01
1.990005350605e+01
2.075462181270e+01
1.862456894826e+01
2.065717674487e+01
2.118192159791e+01
1.575892800134e+01
1.989435382969e+01
1.631172661788e+01
7.901598404421e+00
2.005009864857e+01
-4.107025413697e+01
1.575572615347e+01
2.056961751329e+01
8.720555258102e+00
1.703260477764e+01
2.007061768453e+01
1.862098393858e+01
1.926165401499e+01
1.363471313084e+01
1.079734229929e+01
1.808103264285e+01
2.076710458164e+01
1.989006351584e+01
1.768807309036e+01
2.319057320460e+01
1.994063813167e+01
1.801623811785e+01
2.019344290604e+01
2.111147348378e+01
2.778887623079e+01
1.897836228343e+01
-1.559943083907e+01
2.073527248601e+01
1.819984029432e+01
-1.894617505343e+01
-4.718623656435e+01
-8.429764963181e+00
-1.869104675511e+01
5.795100185141e-01
-2.829795830691e+00
6.781188428470e+00
4.080113728630e+00
1.040843537861e+01
8.539928630253e+00
1.189656268690e+01
1.111040530556e+01
1.313450136748e+01
1.311156308160e+01
1.421817165640e+01
1.444799277052e+01

SCALARS node_materi_stress_average_a_sig float
LOOKUP_TABLE default
-8.296680339911e+00
-1.002819632837e+02
-2.427632197147e+02
-2.145934913890e+02
-1.317657393719e+01
-2.270451253697e+01
-3.259943161956e+01
-4.641868959480e+01
-6.168947648426e+01
-7.626384820728e+01
-9.029094191845e+01
-1.037995771396e+02
-1.168179617724e+02
-1.295064665618e+02
-1.420292380095e+02
-1.539537277528e+02
-1.645955079515e+02
-1.759352059651e+02
-1.874098622143e+02
-1.989700314970e+02
-2.112827366705e+02
-2.237253717975e+02
-2.356693843007e+02
-2.152707228508e+02
-2.146038100094e+02
-2.148224054849e+02
-2.148790097338e+02
-2.146389611962e+02
-2.151897911123e+02
-2.156351434210e+02
-2.156019806014e+02
-2.163952792682e+02
-2.166815257856e+02
-2.167372585837e+02
-2.175435116443e+02
-2.184660886874e+02
-2.187419755616e+02
-2.193336864454e+02
-2.195712531510e+02
-2.203386682581e+02
-2.218222477433e+02
-2.230127681798e+02
-2.242752827784e+02
-2.253204725502e+02
-2.264436543648e+02
-2.275989420946e+02
-2.287826832120e+02
-2.301257641695e+02
-2.315185868304e+02
-2.327205796011e+02
-2.339673997031e+02
-2.349128358633e+02
-2.364580863462e+02
-2.373520033206e+02
-2.378121634434e+02
-2.388790742403e+02
-2.399797391546e+02
-2.409244584337e+02
-2.416841447693e+02
-2.423621311196e+02
-2.426334893291e+02
-2.428179364166e+02
-2.427392547663e+02
-2.430754002329e+02
-2.437228903560e+02
-2.439261990506e+02
-2.421977280948e+02
-2.435259797086e+02
-2.428624115640e+02
-2.431265223312e+02
-2.435083709133e+02
-2.433992581167e+02
-1.126304036750e+02
-1.247067618965e+02
-1.367178349122e+02
-1.484264085802e+02
-1.603578193453e+02
-1.724016063716e+02
-1.841491509180e+02
-1.957647069500e+02
-2.077841921138e+02
-5.830096723202e+01
-1.049008250341e+02
-3.258373059735e+01
-2.628509064301e+01
-2.251279189439e+01
-3.221912023470e+01
-4.399203111031e+01
-5.639720916913e+01
-6.896447954454e+01
-8.131035286232e+01
-9.300343068775e+01
-7.677347449585e+00
-1.527207055746e+01
-2.737709208530e+01
-3.931448592598e+01
-5.145702815517e+01
-6.359571239577e+01
-7.574306313064e+01
-8.783953770298e+01
-9.877226674522e+01
-9.958851383596e+01
-9.964118751855e+01
-9.960346869630e+01
-1.014091692134e+02
-1.000692278420e+02
-1.002091527414e+02
-1.005198999321e+02
-1.010196951847e+02
-1.012917839433e+02
-1.016784077194e+02
-1.020583075779e+02
-1.026733563704e+02
-1.034506364128e+02
-8.073628977830e+01
-9.148221117882e+01
-9.396831100601e+01
-8.558005750501e+01
-5.368486583433e+01
-2.354775140465e+01
-1.246035000299e+01
-9.294603969316e+00
-8.221750467544e+00
-7.833107832769e+00
-7.843978725083e+00
-8.326858744819e+00
-8.162496204213e+00
-7.790165396554e+00
-7.736792731400e+00
-7.861679359191e+00
-7.894517459594e+00
-7.766045584120e+00
-7.665872233831e+00
-1.214682080393e+01
-1.040225360227e+01
-8.035701243676e+00
-6.780705425222e+00
-6.075009348802e+00
-5.464406593436e+00
-5.105953728170e+00
-4.928113474129e+00
-4.895258012608e+00
-4.936061056597e+00
-5.123657441957e+00
-5.411739039958e+00
-5.761304103594e+00
-6.145520620288e+00
-6.536954117960e+00
-6.917246299665e+00
-7.273507847606e+00
-7.597968554541e+00
-7.887284939928e+00
-8.140413069332e+00
-8.357978375789e+00
-8.541368428353e+00
-8.692340487341e+00
-8.814230257968e+00
-8.959845908168e+00
-8.869085336312e+00
-1.680982344287e+01
-1.724242877037e+01
-1.488671181000e+01
-1.383002787240e+01
-1.313235005444e+01
-1.269555551341e+01
-1.248152066607e+01
-1.238058918619e+01
-1.243973635396e+01
-1.259742676357e+01
-1.279598412350e+01
-1.303116165239e+01
-1.328242624908e+01
-1.354206356340e+01
-1.379896196250e+01
-1.404353859644e+01
-1.426932730430e+01
-1.447260364499e+01
-1.465101680674e+01
-1.480338790932e+01
-1.492881948110e+01
-1.502515316537e+01
-1.508830566878e+01
-1.516448078716e+01
-1.525640495456e+01
-2.727702810439e+01
-2.717601721653e+01
-2.715620284909e+01
-2.712456779786e+01
-2.708064666507e+01
-2.702478609603e+01
-2.695797758172e+01
-2.688220501733e+01
-2.680004146959e+01
-2.671552987853e+01
-2.663495184922e+01
-2.656626072050e+01
-2.651740474372e+01
-2.648856124140e+01
-2.644838498410e+01
-2.643020592233e+01
-2.646908965493e+01
-2.660804528756e+01
-2.692641323320e+01
-2.732592418862e+01
-2.800781303117e+01
-2.989097808172e+01
-2.886983334952e+01
-4.130371244309e+01
-4.281823880034e+01
-4.145959186799e+01
-4.098287077966e+01
-4.063682191566e+01
-4.032505871704e+01
-4.010057227910e+01
-3.993049405477e+01
-3.978733079291e+01
-3.961821918943e+01
-3.949619162305e+01
-3.941314946854e+01
-3.935806608999e+01
-3.932068190244e+01
-3.929446897530e+01
-3.927687710276e+01
-3.926308577234e+01
-3.924833055558e+01
-3.923110433254e+01
-3.920735554114e+01
-3.921326830795e+01
-3.930606221004e+01
-5.142702643711e+01
-5.134284327921e+01
-5.135293341336e+01
-5.138332780025e+01
-5.143158999940e+01
-5.149871995547e+01
-5.158694432891e+01
-5.169771510830e+01
-5.183385505262e+01
-5.199317597905e+01
-5.219130037758e+01
-5.244308798387e+01
-5.276682309912e+01
-5.311572406453e+01
-5.346375471208e+01
-5.387822818297e+01
-5.430613417726e+01
-5.478405996149e+01
-5.599454086491e+01
-5.420200242797e+01
-6.705981915876e+01
-6.877771845132e+01
-6.748834779403e+01
-6.688864710455e+01
-6.639589187938e+01
-6.588930651990e+01
-6.541524794892e+01
-6.500925232804e+01
-6.467525339665e+01
-6.440007164863e+01
-6.417296959852e+01
-6.399144339126e+01
-6.385258038376e+01
-6.373942821845e+01
-6.365451403711e+01
-6.359393287504e+01
-6.356250426907e+01
-6.355648100772e+01
-6.359060688380e+01
-7.574528850055e+01
-7.574708593003e+01
-7.578093694144e+01
-7.584805415360e+01
-7.594366877872e+01
-7.605944515712e+01
-7.620842243714e+01
-7.638709887646e+01
-7.661322297493e+01
-7.691459459562e+01
-7.729847095733e+01
-7.776018734651e+01
-7.830554272190e+01
-7.890106026186e+01
-7.955711647600e+01
-8.093743041819e+01
-7.936260435901e+01
-9.102885396768e+01
-9.243274560853e+01
-9.108113872494e+01
-9.046680739772e+01
-8.995243850035e+01
-8.953558405723e+01
-8.914635419779e+01
-8.885282000081e+01
-8.869038398110e+01
-8.845151823523e+01
-8.828816510865e+01
-8.816391538650e+01
-8.805933326139e+01
-8.795308485336e+01
-8.797030745653e+01
-8.795263789308e+01
-3.857218183525e+01
-3.110042336069e+01
-2.136391847224e+01
-2.895719429328e+01
-3.973810798987e+01
-5.162967948401e+01
-6.403671664637e+01
-7.661669160259e+01
-8.853672005695e+01
-1.000386176596e+02
-3.587266725107e+01
-2.339454571653e+02
-1.337191009598e+01
-6.388372379372e+01
-2.372370075364e+02
-4.197627699354e+01
-1.362989544536e+02
-2.294648454406e+02
-6.281597033367e+01
-2.256156067849e+02
-8.745603498848e+01
-2.388219747701e+02
-1.148510966930e+01
-2.209919458405e+02
-1.104382494094e+02
-8.404407250753e+01
-1.684922917227e+02
-2.174251043735e+02
-2.144365160755e+02
-2.104296821423e+02
-2.102983115262e+02
-2.128464825342e+02
-1.141734158272e+02
-1.123086200176e+02
-1.123202036766e+02
-1.544995934680e+02
-2.380080470040e+02
-7.724208722056e+01
-1.163193919119e+01
-2.046694401008e+02
-1.103468487465e+02
-3.936773412346e+01
-2.138347819368e+02
-2.284312744958e+02
-2.232581774922e+02
-2.308861412957e+02
-2.359833647374e+02
-2.399455626771e+01
-1.127348720343e+02
-2.358650777500e+02
-1.779482598155e+02
-1.220933909911e+01
-1.104523496712e+02
-2.118286540191e+02
-5.294297664859e+01
-3.492928386539e+01
-7.502480061284e+01
-9.900282965445e+01
-4.005847444872e+01
-1.317304678279e+02
-2.399039139429e+02
-1.121956414768e+01
-2.010832082751e+02
-1.156877885358e+02
-1.210772629050e+02
-1.261504516706e+02
-1.325064426723e+02
-1.382506226077e+02
-1.439924616309e+02
-1.383027951366e+02
-1.498181181036e+02
-1.440424259509e+02
-1.499778351603e+02
-1.556175273573e+02
-1.498214860944e+02
-1.614286840953e+02
-1.556420826940e+02
-1.441728309438e+02
-1.499817760065e+02
-1.387581712915e+02
-1.445537906043e+02
-1.558406037966e+02
-1.503469168711e+02
-1.392324871744e+02
-1.450327790604e+02
-1.339823710154e+02
-1.398172817825e+02
-1.287225013668e+02
-1.347568070074e+02
-1.456149675238e+02
-1.406332009956e+02
-1.298001950645e+02
-1.357591562661e+02
-1.248919375323e+02
-1.307591533107e+02
-1.414129258375e+02
-1.363131552238e+02
-1.254455579184e+02
-1.311255578955e+02
-1.202963399449e+02
-1.260564550550e+02
-1.152772872619e+02
-1.210736632884e+02
-1.316563013777e+02
-1.267232162024e+02
-1.163254821461e+02
-1.218758420457e+02
-1.322301873365e+02
-1.272548076816e+02
-1.375634955772e+02
-1.325681676712e+02
-1.224648050069e+02
-1.275681801355e+02
-1.376927981844e+02
-1.326341585104e+02
-1.225027705819e+02
-1.274097047771e+02
-1.380291633424e+02
-1.325690430935e+02
-1.218973163704e+02
-1.266819900101e+02
-1.379793381899e+02
-1.319296294267e+02
-1.203868924231e+02
-1.255410047725e+02
-1.372305187930e+02
-1.307256799839e+02
-1.422684663946e+02
-1.187597234612e+02
-1.238932888401e+02
-1.116063656498e+02
-1.167886615471e+02
-1.468397211042e+02
-1.042000115265e+02
-9.916940722946e+01
-1.094618074144e+02
-1.219425189683e+02
-9.655307993179e+01
-1.019129274025e+02
-8.868388368662e+01
-1.090521459975e+02
-1.617267493907e+02
-9.414068371523e+01
-8.060599963094e+01
-7.517213943706e+01
-6.679327157661e+01
-1.442870391491e+02
-1.559109818887e+02
-1.498134592401e+02
-1.618204681148e+02
-1.559938936397e+02
-7.231406984372e+01
-1.673488754699e+02
-1.676580364817e+02
-1.280929147639e+02
-1.185983715552e+02
-1.427312395350e+02
-1.072234860536e+02
-9.957694408410e+01
-1.125908046420e+02
-1.484868838893e+02
-1.532313326769e+02
-1.590707513991e+02
-1.638308305661e+02
-1.695534051075e+02
-1.746352137425e+02
-1.687421441641e+02
-1.798481302664e+02
-1.737978697851e+02
-1.808580544155e+02
-1.755041202629e+02
-1.850540600469e+02
-1.788258708016e+02
-1.902651786841e+02
-1.838615782494e+02
-1.727548628878e+02
-1.777105416007e+02
-1.666412656620e+02
-1.480893241998e+02
-1.533672335095e+02
-1.587196343488e+02
-1.638626826423e+02
-1.697691078367e+02
-1.752908327716e+02
-1.813694846561e+02
-1.757775458478e+02
-1.672253967892e+02
-1.119015788990e+02
-1.062252559119e+02
-1.022509624214e+02
-9.639346516394e+01
-9.293714863146e+01
-8.690294211024e+01
-8.420474883510e+01
-8.973355245549e+01
-8.188069295104e+01
-8.641242495811e+01
-7.913327645093e+01
-8.213650612078e+01
-1.513913492750e+02
-1.692001371376e+02
-1.810921446533e+02
-1.749116600173e+02
-6.148858330391e+01
-1.889377701281e+02
-1.872356139596e+02
-1.815684744536e+02
-1.874381415894e+02
-5.835519251130e+01
-7.786199117449e+01
-8.035832666789e+01
-1.677919498872e+02
-1.619923348396e+02
-1.936322863048e+02
-6.398143733621e+01
-1.916055153668e+02
-7.491711001164e+01
-1.826448826290e+02
-1.940421330812e+02
-1.628286636980e+02
-1.870687939889e+02
-1.808012135019e+02
-9.022200089262e+01
-8.483446420613e+01
-7.631849331639e+01
-7.880350078061e+01
-8.800189051242e+01
-8.150849831617e+01
-7.181716245650e+01
-7.385745871641e+01
-8.437046410903e+01
-7.661679034302e+01
-6.566130289700e+01
-6.812823914788e+01
-2.007907948368e+02
-7.273586366065e+01
-1.329738677400e+02
-1.993066501743e+02
-1.932444114975e+02
-1.738192153598e+02
-1.680657914710e+02
-1.561581355417e+02
-1.623327400103e+02
-1.742162174426e+02
-1.685275868202e+02
-1.566019454736e+02
-1.628410668600e+02
-1.508812151925e+02
-1.571731435556e+02
-1.691112422330e+02
-1.635079876193e+02
-1.515375946828e+02
-1.579109833749e+02
-1.458991542319e+02
-1.522918544903e+02
-1.643214161426e+02
-5.003058737589e+01
-1.816409606555e+02
-1.936073838445e+02
-1.055323838310e+02
-1.180267127922e+02
-1.251271271925e+02
-1.306151203874e+02
-1.586780376194e+02
-1.707128453502e+02
-7.107595981149e+01
-7.333141789967e+01
-1.795813907620e+02
-1.876115694884e+02
-1.765115848307e+02
-1.136162002209e+02
-1.070042849151e+02
-1.019218490603e+02
-9.479288936685e+01
-1.002301568382e+02
-8.964846367726e+01
-1.702024483834e+02
-1.754321359166e+02
-6.998606905737e+01
-5.662800923064e+01
-1.992457126828e+02
-1.703165952549e+02
-1.566471849359e+02
-1.624307972716e+02
-1.680038232664e+02
-1.739516312705e+02
-1.797133229967e+02
-1.856685736471e+02
-1.799111456656e+02
-1.931544989580e+02
-1.916832039614e+02
-1.465411490152e+02
-1.632910923066e+02
-8.743406208928e+01
-4.438871172383e+01
-5.550074106325e+01
-5.537867996440e+01
-6.988161717936e+01
-2.058217474599e+02
-1.914459741707e+02
-1.853546453766e+02
-8.782028539975e+01
-9.349047037376e+01
-1.993956445210e+02
-1.441650350996e+02
-1.446629716492e+02
-1.388364921893e+02
-4.000689331746e+01
-5.378436276691e+01
-1.804089318920e+02
-8.339114242924e+01
-7.643670207390e+01
-6.898037366003e+01
-6.765437970879e+01
-1.649887100235e+02
-1.769369319142e+02
-1.373836960850e+02
-1.426348178137e+02
-2.000207059559e+02
-5.873987618694e+01
-1.827003867608e+02
-1.759890910837e+02
-1.649647106232e+02
-1.234560892278e+02
-6.381666577747e+01
-6.273153947250e+01
-9.486969395286e+01
-7.105969143841e+01
-6.138034119221e+01
-2.122647127797e+02
-1.860104095576e+02
-1.859114456635e+02
-1.740299233619e+02
-1.979096092524e+02
-4.597361505877e+01
-2.116519663639e+02
-1.926759906844e+02
-1.966134381567e+02
-1.909922827758e+02
-8.700292513002e+01
-8.030081169200e+01
-6.912860122381e+01
-7.293086835679e+01
-1.326101365690e+02
-9.144343295183e+01
-1.275946475744e+02
-1.217458912607e+02
-1.162902052586e+02
-1.055283383972e+02
-9.905921995408e+01
-1.001653956997e+02
-1.478961420858e+02
-1.321094349278e+02
-1.616991272190e+02
-1.542999499074e+02
-1.809307113366e+02
-1.872976718331e+02
-1.395113715959e+02
-1.338541637232e+02
-4.789374691996e+01
-4.342922147464e+01
-1.470494133125e+02
-2.048538262667e+02
-1.854610476923e+02
-1.912077199186e+02
-1.852934804201e+02
-2.062335934908e+02
-1.077220877867e+02
-1.535308743652e+02
-6.902811820093e+01
-1.519704291474e+02
-3.473396280604e+01
-1.673443970256e+02
-2.046533215890e+02
-2.113773916280e+02
-2.052842357540e+02
-1.158717895437e+02
-1.573035498210e+02
-1.521239483112e+02
-1.104141499341e+02
-1.047874753641e+02
-1.106750427619e+02
-9.893406863294e+01
-9.820096291580e+01
-9.071259516733e+01
-2.040586020853e+02
-2.033787621129e+02
-2.023822724448e+02
-1.970058567826e+02
-2.116091052588e+02
-2.055132162531e+02
-7.544420905240e+01
-8.697065021827e+01
-1.922235816062e+02
-1.158983316864e+02
-2.169319755332e+02
-2.103946589125e+02
-6.634171080482e+01
-6.249692452382e+01
-1.890349020653e+02
-6.075369408287e+01
-6.432412326128e+01
-5.765004768448e+01
-2.294803484909e+02
-1.099635301493e+02
-2.169018975211e+02
-1.110089596858e+02
-1.948599991253e+02
-1.627452665927e+02
-1.082821083722e+02
-1.940213561436e+02
-1.826257636489e+02
-1.955869937562e+02
-1.326482652814e+02
-1.263998992010e+02
-1.381237001501e+02
-6.875873661474e+01
-6.160712508975e+01
-1.817082900925e+02
-9.197422629216e+01
-9.905222200838e+01
-6.187099552880e+01
-7.440504670236e+01
-1.440197649289e+02
-1.389100448702e+02
-1.733464058551e+02
-1.789870359292e+02
-1.620813882671e+02
-1.704027161746e+02
-1.596702330666e+02
-1.539974431848e+02
-1.924317408372e+02
-2.001343392000e+02
-1.052472395635e+02
-1.015395071437e+02
-1.020546171356e+02
-1.977848493290e+02
-2.234128585615e+02
-2.180210294266e+02
-3.062363257833e+01
-3.904294240797e+01
-5.427654710782e+01
-5.448065876888e+01
-1.966359096424e+02
-1.911653015046e+02
-2.035990965781e+02
-6.598406806259e+01
-1.801194182193e+02
-2.180325737480e+02
-2.119375165645e+02
-2.256158013973e+02
-1.989002254492e+02
-2.106538083155e+02
-2.097177070260e+02
-6.914891564350e+01
-1.913962188687e+02
-1.268533082530e+02
-7.138089323849e+01
-1.212731437389e+02
-1.280701343204e+02
-1.149017953414e+02
-5.156194701792e+01
-1.242366282751e+02
-1.319298416514e+02
-2.422308234979e+01
-2.036668565673e+02
-2.319653109959e+01
-2.722989970711e+01
-2.226129294719e+02
-2.157832297236e+02
-2.276057357727e+02
-2.207045468333e+02
-2.089663138255e+02
-2.145128271226e+02
-1.201949009839e+02
-2.279796544620e+02
-2.201933987068e+02
-2.336142358530e+02
-9.323250646964e+01
-7.695794634931e+01
-6.907505604355e+01
-5.540064177328e+01
-2.100230396389e+02
-2.019488385470e+02
-1.982190638264e+02
-1.866198250733e+02
-1.216295380237e+02
-1.208826415545e+02
-1.318596907142e+02
-1.302919976591e+02
-1.412975269470e+02
-1.396055832793e+02
-1.507990212174e+02
-2.154698193065e+02
-4.811583428040e+01
-1.046522479850e+02
-2.176145612680e+02
-2.106969616858e+02
-9.276185848605e+01
-8.078355878422e+01
-2.253576365530e+02
-9.781490640981e+01
-2.107170993278e+02
-6.318262495628e+01
-6.138573996406e+01
-1.027245323287e+02
-1.048744677461e+02
-8.192470824793e+01
-7.532743742624e+01
-1.818247544619e+02
-3.558642812328e+01
-5.565849189625e+01
-1.522886416486e+02
-4.541179283435e+01
-1.926032776990e+02
-1.043433138027e+02
-1.172863941918e+02
-6.606563977496e+01
-8.493333374268e+01
-1.383764559816e+02
-1.268913014525e+02
-1.214550576173e+02
-1.105094336096e+02
-8.105094265077e+01
-6.704571579269e+01
-1.334216474989e+02
-1.794120427611e+02
-1.851817985143e+02
-1.965092673765e+02
-1.909875844872e+02
-1.793745926345e+02
-1.852123660853e+02
-1.967590238413e+02
-1.914564258354e+02
-2.049679622744e+02
-1.972588772107e+02
-1.851923526309e+02
-1.907554447097e+02
-2.019358298693e+02
-1.790067029174e+02
-2.234913038083e+02
-1.142203792613e+02
-6.565841041020e+01
-5.513919107008e+01
-1.226508212506e+02
-2.161451634913e+02
-2.147973565301e+02
-9.010203154981e+01
-2.219690786453e+02
-1.271800661819e+02
-7.614450303732e+01
-2.244474488113e+02
-1.735089512626e+02
-1.675094698323e+02
-1.616953848074e+02
-2.141598489196e+02
-1.440566074756e+02
-2.293114310967e+02
-1.583067600713e+02
-1.527608822187e+02
-1.422608939989e+02
-1.792558364286e+02
-2.328637299870e+02
-2.232291942847e+02
-2.241101154012e+02
-2.125702048338e+02
-2.348708836503e+02
-2.192143258326e+02
-2.205328498987e+02
-9.151491145555e+01
-9.769551466893e+01
-1.074338612065e+02
-1.032759291507e+02
-9.390136136352e+01
-9.899669314587e+01
-1.082532913116e+02
-9.453306488159e+01
-1.906881425051e+02
-2.367277438743e+02
-1.646347449224e+02
-1.597294813450e+02
-1.491573899558e+02
-1.269990154857e+02
-1.339199611033e+02
-1.455018131379e+02
-1.198640808103e+02
-1.681858038594e+02
-2.371589543287e+02
-1.592725611009e+02
-1.289555865180e+02
-1.134556024009e+02
-1.243438752883e+02
-1.251161932815e+02
-1.362933291275e+02
-1.249059388383e+02
-1.491416649818e+02
-1.542070669204e+02
-1.478299608430e+02
-1.592366576151e+02
-1.526723164945e+02
-1.419409695996e+02
-1.640321214520e+02
-1.567184485979e+02
-1.124253941896e+02
-3.969693752104e+01
-4.258204791954e+01
-3.373037491857e+01
-4.876815500830e+01
-5.573788984204e+01
-6.167978896543e+01
-6.412198961694e+01
-5.339641251442e+01
-1.806935344790e+01
-2.913728984082e+01
-1.499955741914e+01
-2.583890226552e+01
-4.083627818026e+01
-5.246951403900e+01
-2.363551422494e+02
-1.231175972994e+02
-1.169843914706e+02
-1.045846220423e+02
-1.113714114913e+02
-1.280970437119e+02
-9.743731511628e+01
-9.251935901783e+01
-1.159496355018e+01
-1.945716776284e+01
-1.863029173346e+01
-2.820955425826e+01
-2.823371514380e+01
-1.983749829098e+01
-1.995387831906e+01
-1.155912371046e+01
-2.003654106993e+01
-2.927661092988e+01
-1.132759725151e+01
-1.665110094427e+02
-1.729740047962e+02
-2.371750561935e+02
-1.130222893395e+02
-1.268091454403e+01
-2.083873454616e+02
-2.109935836604e+02
-2.109589414234e+02
-2.171887764387e+02
-2.233297959494e+02
-2.084613865425e+02
-8.331157003809e+01
-2.023512189301e+02
-1.880414349970e+02
-6.945018470674e+01
-8.285377973247e+01
-1.815025159854e+02
-1.678111786370e+02
-2.060108270383e+02
-1.715860430669e+02
-1.955106721938e+02
-2.242052741802e+02
-4.699642051157e+01
-1.451427298377e+02
-1.402594386886e+02
-1.698686890705e+02
-8.615939151888e+01
-1.364175322124e+02
-5.286088597502e+01
-2.143195634642e+02
-1.221788753194e+02
-1.434034942258e+02
-1.146879030274e+02
-9.134185295931e+01
-7.948583689203e+01
-1.196673922304e+02
-1.357351836573e+02
-1.862426689677e+02
-1.762385516954e+02
-1.312632206596e+01
-1.927813161837e+02
-1.579620721069e+02
-1.503732329336e+02
-1.871923770659e+02
-6.405780587716e+01
-1.747456823299e+02
-1.965604530186e+02
-1.378696450259e+02
-3.920228918447e+01
-1.328600063326e+02
-2.180679871098e+02
-1.735917454507e+02
-7.812241119783e+01
-1.428305639398e+02
-1.236099101364e+02
-1.047174007527e+02
-1.931691382222e+02
-1.417165611581e+02
-1.995719354161e+02
-1.644662243691e+02
-8.409801318709e+01
-2.036977229680e+02
-1.372606262317e+02
-1.865943204221e+02
-1.736831011456e+02
-1.172596089747e+02
-1.798318130173e+02
-1.435700837416e+02
-1.932510396478e+02
-1.166386861925e+02
-1.508516346897e+02
-1.614500475459e+02
-1.463750284896e+02
-1.754318817712e+02
-1.982670908573e+02
-7.515324377651e+01
-9.672826588636e+01
-1.500520046408e+02
-1.971233848803e+02
-1.982902937067e+02
-1.121079787765e+02
-1.969365043455e+02
-1.912759209879e+02
-1.406048182243e+02
-5.539144258325e+01
-6.248152136660e+01
-9.839713308393e+01
-1.366870940457e+02
-1.518500407345e+02
-2.038324560856e+02
-2.022663559258e+02
-1.877728038167e+02
-3.710444688530e+01
-1.102428271554e+02
-2.076359009944e+02
-1.482346402889e+02
-1.991984805708e+02
-1.456736373305e+02
-2.151334368376e+02
-8.698445658439e+01
-2.131486624613e+02
-1.877485732422e+02
-9.370536362745e+01
-1.103953776915e+02
-2.270399342536e+02
-2.000394326946e+02
-1.570626205273e+02
-1.431268210444e+02
-9.329771995901e+01
-1.567491728752e+02
-1.561778000501e+02
-2.137114487647e+02
-2.056014958528e+02
-1.556685699356e+02
-1.504636503881e+02
-1.686360153931e+02
-2.856028993936e+01
-9.903188758944e+01
-1.554856355667e+02
-1.034738330099e+02
-1.488493657734e+02
-2.170931510936e+02
-1.604864924410e+02
-1.128680504439e+02
-1.654512011992e+02
-8.134949313752e+01
-1.615312604092e+02
-1.703802197976e+02
-1.676577306902e+02
-3.075663691411e+01
-1.626300710425e+02
-2.106357540776e+02
-1.066049540669e+02
-1.545148937857e+02
-1.733899510131e+02
-6.889439980832e+01
-1.649835146642e+02
-1.793649354017e+02
-1.682809550332e+02
-1.472206622004e+02
-1.759102575386e+02
-7.494409127024e+01
-7.839174992238e+01
-6.547004961420e+01
-1.176961265030e+02
-1.850839774365e+02
-3.800454731114e+01
-1.732233431841e+02
-4.887964514039e+01
-1.128009906666e+02
-1.867396262645e+02
-1.433630633080e+02
-1.172817414131e+02
-7.005043059962e+01
-1.115976057109e+02
-1.575776469908e+02
-1.158327386416e+02
-1.091611870913e+02
-1.997099832373e+02
-1.137368679632e+02
-2.105477912496e+02
-2.370662314110e+02
-1.195233218594e+02
-5.580083363075e+01
-8.074082196716e+01
-6.401853048776e+01
-9.464327901169e+01
-1.730412964681e+02
-1.200442672289e+02
-8.677581176616e+01
-2.088713720214e+02
-2.271524722411e+02
-1.607140586291e+02
-2.048479379138e+02
-1.744520789640e+02
-1.887616930605e+02
-1.099415678423e+02
-2.391070627178e+01
-1.811570429322e+02
-4.427363862067e+01
-5.139059959623e+01
-4.583632242662e+01
-8.878560668289e+01
-4.268680084507e+01
-3.782903270810e+01
-2.215877088344e+02
-1.217599394623e+02
-1.922114978630e+02
-3.355422782935e+01
-2.025134795908e+02
-2.177089141843e+02
-2.384687498570e+02
-2.044582610122e+02
-4.584798891895e+01
-1.334785565741e+02
-2.130511557760e+02
-1.702642961568e+02
-2.393005157833e+02
-1.210576796565e+02
-2.010002527857e+02
-6.925335004762e+01
-2.010020930298e+02
-1.847941032916e+02
-1.350091179508e+02
-1.339342391204e+02
-2.291096266152e+02
-2.068144962666e+02
-4.797693415045e+01
-1.602110997693e+02
-1.115786891654e+02
-6.331260377972e+01
-2.275335813372e+02
-1.959000644764e+02
-2.283404351558e+02
-2.766401499243e+01
-2.009340317759e+01
-2.287148509003e+02
-2.119669460514e+02
-7.005273903290e+01
-2.138087979698e+02
-5.156100520284e+01
-1.090700642341e+02
-1.955841832867e+01
-2.389892480542e+02
-2.024069021240e+02
-1.226365811754e+02
-1.151788358141e+02
-7.962060706524e+01
-2.071181248083e+02
-3.441465440699e+01
-2.030947866098e+02
-2.281655129765e+02
-2.065358797628e+02
-2.336922223906e+02
-7.067480265703e+01
-2.198744428605e+02
-2.157944731173e+02
-1.095863597044e+02
-2.061728764092e+02
-9.957984738064e+01
-3.851896714476e+01
-2.117293556262e+02
-1.046189570673e+01
-1.086327731955e+02
-2.396986554034e+02
-3.565479602560e+01
-1.283996446845e+02
-2.115862798713e+02
-1.487001754126e+02
-1.820167600414e+02
-5.420826808239e+01
-8.028597389733e+01
-1.496782488517e+02
-2.208417887483e+02
-2.060582028121e+02
-1.415351292332e+02
-5.612505218802e+01
-2.050214742335e+02
-1.320903650717e+02
-2.061735384864e+02
-2.144418283753e+02
-4.829258135402e+01
-1.588642464420e+02
-1.880021712591e+01
-2.306114369286e+02
-1.372697571795e+02
-1.224103476759e+01
-9.569681690375e+00
-2.437974702233e+01
-2.102121683132e+01
-3.635511885587e+01
-3.358873520301e+01
-4.869192874841e+01
-4.505343630352e+01
-6.149247799251e+01
-5.785845820590e+01
-7.418735901728e+01
-6.933020087059e+01
-8.615314095043e+01
-8.217346429563e+01
-9.771522426460e+01
-9.353999971587e+01

SCALARS node_materi_stress_size_dev_sd_sig float
LOOKUP_TABLE default
4.830514702928e+00
6.961790964821e+01
1.837889671207e+02
1.619776987470e+02
9.657593000994e+00
2.137347215109e+01
3.156323239390e+01
4.017123643208e+01
4.658521066692e+01
5.402797635590e+01
6.223871288894e+01
7.101035075009e+01
8.027803098711e+01
9.003693004679e+01
1.004916608266e+02
1.107199945750e+02
1.201211195270e+02
1.308112372448e+02
1.418125299383e+02
1.518222998409e+02
1.609613277822e+02
1.700755881118e+02
1.786970233593e+02
1.625628307128e+02
1.621656042993e+02
1.623348900274e+02
1.624322974893e+02
1.621993063590e+02
1.626218811966e+02
1.628300618256e+02
1.629916139440e+02
1.635733205040e+02
1.638888332289e+02
1.638976962942e+02
1.646039497814e+02
1.652067569318e+02
1.656512144994e+02
1.660324750291e+02
1.664287340781e+02
1.670775595956e+02
1.681427520808e+02
1.692490493880e+02
1.703495395915e+02
1.712678172329e+02
1.721410212663e+02
1.731638351424e+02
1.741430703273e+02
1.752163008058e+02
1.762499184836e+02
1.772647742218e+02
1.781219117350e+02
1.789025939708e+02
1.799506460022e+02
1.806889865916e+02
1.810263124176e+02
1.817640529424e+02
1.825523743684e+02
1.832026588431e+02
1.837320525675e+02
1.841403087287e+02
1.843198857528e+02
1.843568864462e+02
1.843007927460e+02
1.844496122985e+02
1.847564404828e+02
1.848018609337e+02
1.836777638068e+02
1.844140115304e+02
1.840169125275e+02
1.841502659159e+02
1.843832601434e+02
1.843207876505e+02
7.883425631628e+01
8.831595020115e+01
9.769893272325e+01
1.070118581386e+02
1.166370947815e+02
1.262993697792e+02
1.360594268690e+02
1.458240967562e+02
1.558831056542e+02
4.894474248676e+01
6.902593532688e+01
4.773442888936e+01
3.239055590479e+01
1.909618336237e+01
2.033650339003e+01
2.689397888996e+01
3.524776637167e+01
4.339668456209e+01
5.104121736338e+01
5.941468645691e+01
4.533589747821e+00
6.930383870128e+00
1.505221259933e+01
2.401214399702e+01
3.299303338955e+01
4.199650357391e+01
5.100491771718e+01
5.997889588427e+01
6.826181325037e+01
6.872907753338e+01
6.872230516881e+01
6.852099831953e+01
6.963160171369e+01
6.844986966824e+01
6.817874744952e+01
6.817597874768e+01
6.830320412113e+01
6.816684132927e+01
6.803735304788e+01
6.802759937939e+01
6.811421921821e+01
6.844010816705e+01
3.692654778045e+01
3.443071109966e+01
3.574343263612e+01
3.537037508558e+01
3.663018158563e+01
2.522725099807e+01
9.150723032417e+00
4.868831166858e+00
3.831125436957e+00
3.991135232721e+00
4.112500472244e+00
4.326538604438e+00
4.764438087569e+00
4.781962810592e+00
4.676478666463e+00
4.668227736620e+00
4.705262723537e+00
4.813762534711e+00
5.127420542185e+00
1.804612993429e+01
9.836345576970e+00
6.268807268409e+00
4.834369662706e+00
4.626170645935e+00
5.089110828831e+00
5.610329382104e+00
5.896089045146e+00
5.955210857405e+00
5.876055203802e+00
5.636540196319e+00
5.273264544137e+00
4.863792612355e+00
4.463155133391e+00
4.118887452194e+00
3.869411719248e+00
3.725765060359e+00
3.677154281875e+00
3.701972616574e+00
3.775256822523e+00
3.874652058320e+00
3.981870141343e+00
4.084205461187e+00
4.174818716288e+00
4.265141401392e+00
4.335211618589e+00
1.225695924915e+01
1.104728083870e+01
9.292829770882e+00
8.790055282960e+00
8.829534782713e+00
9.023531418188e+00
9.198221425648e+00
9.214471802521e+00
9.087110706277e+00
8.878253626433e+00
8.640683835881e+00
8.380881009550e+00
8.112751690636e+00
7.866686779781e+00
7.655299125732e+00
7.481041712480e+00
7.342077164289e+00
7.234936953302e+00
7.155237432492e+00
7.097623496114e+00
7.056637837932e+00
7.027217186452e+00
7.000589338473e+00
6.949956757147e+00
6.918204104791e+00
1.509923678076e+01
1.516698038734e+01
1.521081322038e+01
1.525210418925e+01
1.530236730959e+01
1.536515319460e+01
1.544144101329e+01
1.553291948104e+01
1.563841895885e+01
1.575591882873e+01
1.588580932395e+01
1.602871064276e+01
1.618318465668e+01
1.633252330754e+01
1.648897744621e+01
1.665894018611e+01
1.686000343590e+01
1.703918938760e+01
1.712052454475e+01
1.720024125093e+01
1.753217294416e+01
1.844433155868e+01
1.757466865718e+01
2.537602977274e+01
2.670938496360e+01
2.585045109412e+01
2.538872893768e+01
2.500178671149e+01
2.464445523825e+01
2.443179295302e+01
2.427130653741e+01
2.417549164432e+01
2.411886764162e+01
2.408273624033e+01
2.406044582150e+01
2.404648207655e+01
2.403569966511e+01
2.402707873861e+01
2.402401222532e+01
2.402464475905e+01
2.402641143718e+01
2.402898604097e+01
2.402803437042e+01
2.402655615854e+01
2.402000946517e+01
3.297232677233e+01
3.295905964890e+01
3.294555205955e+01
3.291661419144e+01
3.287263607134e+01
3.281658831084e+01
3.274605274279e+01
3.267050995537e+01
3.259465127125e+01
3.251922401748e+01
3.244872158143e+01
3.239153162585e+01
3.236092877369e+01
3.241238231898e+01
3.253692475277e+01
3.278600710466e+01
3.312904554152e+01
3.370967749451e+01
3.491758044740e+01
3.385706307281e+01
4.144070304677e+01
4.259301281970e+01
4.161857528547e+01
4.117328185858e+01
4.094855337729e+01
4.083633339801e+01
4.086482538879e+01
4.095485092550e+01
4.107472441966e+01
4.120602406907e+01
4.134879584332e+01
4.148862961471e+01
4.160736233245e+01
4.170557912607e+01
4.178563987212e+01
4.184290314444e+01
4.188380411537e+01
4.193778777805e+01
4.198221556597e+01
5.101177129401e+01
5.089848114803e+01
5.083038314220e+01
5.077348719162e+01
5.067672454057e+01
5.057831460593e+01
5.047118393074e+01
5.033188632073e+01
5.015517280164e+01
5.003316674883e+01
4.989387038237e+01
4.977129122208e+01
4.972898073755e+01
4.971892923098e+01
5.000246859028e+01
5.086108698709e+01
4.943557510509e+01
5.801022812836e+01
5.960772831527e+01
5.897542584816e+01
5.889118685609e+01
5.895620184187e+01
5.906358442674e+01
5.913793377522e+01
5.927006626157e+01
5.942594372645e+01
5.956210006253e+01
5.967269886617e+01
5.977182827083e+01
5.988292806888e+01
5.991475285726e+01
6.005376420093e+01
6.017166674529e+01
5.475008782956e+01
4.285376674777e+01
2.364925870347e+01
1.993516570857e+01
2.444735703336e+01
3.190792557061e+01
4.048446573435e+01
4.794324137366e+01
5.594997612875e+01
6.476333180615e+01
4.204282738315e+01
1.790720482332e+02
6.258170679775e+00
4.143272865766e+01
1.812423506036e+02
2.836602505523e+01
9.565659619463e+01
1.755079479014e+02
3.962352199068e+01
1.720452961620e+02
5.583932151163e+01
1.815428002524e+02
6.795613812247e+00
1.676562910978e+02
7.328633051270e+01
5.851951285515e+01
1.239434872274e+02
1.641651546974e+02
1.615105960359e+02
1.583074991256e+02
1.579890506794e+02
1.601984029993e+02
7.712126897985e+01
7.680931985188e+01
7.765634487534e+01
1.118417762790e+02
1.806510675112e+02
4.097894858569e+01
7.636400669341e+00
1.561303636366e+02
7.690499501706e+01
3.595562803406e+01
1.611070504192e+02
1.744509120437e+02
1.698626791792e+02
1.768396242700e+02
1.805641757609e+02
2.144684738912e+01
7.646278324837e+01
1.800616075546e+02
1.310092686662e+02
6.382779572057e+00
7.575120609208e+01
1.595531620872e+02
3.379691441444e+01
3.072526030600e+01
4.821971248458e+01
6.408717894388e+01
5.263422901278e+01
9.367958171687e+01
1.819021044115e+02
7.178930734850e+00
1.502882213488e+02
7.765886115477e+01
8.218277038182e+01
8.648101937342e+01
9.194756911911e+01
9.663137060703e+01
1.015958827608e+02
9.697421879921e+01
1.066777474641e+02
1.021500225033e+02
1.063392153986e+02
1.118970957655e+02
1.074905054703e+02
1.172249293293e+02
1.129779138844e+02
1.031971395188e+02
1.088836981354e+02
9.888725703808e+01
1.047968010097e+02
1.146569397324e+02
1.108418037355e+02
1.007638535664e+02
1.070477737638e+02
9.695960601055e+01
1.034409643260e+02
9.343208875943e+01
9.997424541848e+01
1.099959305580e+02
1.065688989691e+02
9.670828824365e+01
1.033267238233e+02
9.381560060305e+01
1.005127252341e+02
1.097424693776e+02
1.066079909424e+02
9.777271924475e+01
1.037335861883e+02
9.566885889368e+01
1.017604230510e+02
9.444631453702e+01
1.003425407442e+02
1.073727643988e+02
1.055949944360e+02
9.883377866949e+01
1.034934819315e+02
1.102023196995e+02
1.073930816393e+02
1.141500258559e+02
1.106900414862e+02
1.041199535847e+02
1.066512077119e+02
1.134940240527e+02
1.089623065635e+02
1.020903463086e+02
1.041155546809e+02
1.119602437379e+02
1.066311082697e+02
9.901787952078e+01
1.007228237283e+02
1.086094590740e+02
1.023863489723e+02
9.414170606052e+01
9.596755078314e+01
1.047820305133e+02
9.837177000280e+01
1.077018310167e+02
8.937211906633e+01
9.188202333222e+01
8.273444540987e+01
8.542909117932e+01
1.158112427234e+02
7.623510148879e+01
7.381848590846e+01
7.916325559726e+01
8.862920824876e+01
6.997271251848e+01
7.314345198615e+01
6.404126893943e+01
8.778722526654e+01
1.204751547124e+02
6.740210299873e+01
5.845074768518e+01
5.499607259281e+01
4.965949874634e+01
1.014413421056e+02
1.112576316544e+02
1.061367744989e+02
1.162107370402e+02
1.113315103146e+02
5.323618162221e+01
1.217354009675e+02
1.211598021817e+02
9.069089425447e+01
8.696926306464e+01
1.172718220444e+02
7.655153291594e+01
7.094384824690e+01
8.003404005782e+01
1.141097145129e+02
1.175624884338e+02
1.241204857993e+02
1.277301814218e+02
1.341856464106e+02
1.375848147132e+02
1.312057190051e+02
1.408710286140e+02
1.345887326430e+02
1.433142344685e+02
1.400261443345e+02
1.442004937380e+02
1.380740917786e+02
1.475642119400e+02
1.416485546102e+02
1.315274133111e+02
1.352195380289e+02
1.249921237505e+02
1.214090700777e+02
1.251983568786e+02
1.296785412158e+02
1.335639446135e+02
1.379311436821e+02
1.415612500020e+02
1.459255542794e+02
1.421538680922e+02
1.226294707951e+02
9.701119091831e+01
9.229851893825e+01
9.092352296777e+01
8.612749166198e+01
8.517363117375e+01
8.019994386471e+01
7.963309817481e+01
8.349114957223e+01
7.823933038884e+01
8.081464262731e+01
7.598629746553e+01
7.697138331230e+01
1.164234366916e+02
1.371887768743e+02
1.449819212831e+02
1.403926137584e+02
4.596068854618e+01
1.452867717821e+02
1.485845358942e+02
1.452774595582e+02
1.502299341567e+02
4.472726921902e+01
7.449388305220e+01
7.414619290363e+01
1.212396224552e+02
1.164025032757e+02
1.534908512545e+02
4.832955660131e+01
1.497467213579e+02
7.372231074588e+01
1.390551993575e+02
1.489379225057e+02
1.245889836566e+02
1.483299892856e+02
1.436067738475e+02
8.235731514618e+01
7.724645796789e+01
7.172475253997e+01
7.081486991400e+01
7.720293207287e+01
7.012519850203e+01
6.302908504515e+01
6.179668894009e+01
6.970881292525e+01
6.117056454258e+01
5.178641624256e+01
5.174752704391e+01
1.543837979778e+02
7.224465030073e+01
9.318674618555e+01
1.567843542676e+02
1.536701493048e+02
1.263473085594e+02
1.215749482382e+02
1.116488174783e+02
1.169211620142e+02
1.268644291327e+02
1.222233762689e+02
1.123477498450e+02
1.176313416524e+02
1.078101799444e+02
1.131131212021e+02
1.229511332711e+02
1.184639323874e+02
1.087067439631e+02
1.140334088047e+02
1.043399592746e+02
1.095867694156e+02
1.193853990503e+02
4.057896637060e+01
1.464333557038e+02
1.543789616383e+02
7.452234130901e+01
8.315324388497e+01
8.930012183116e+01
9.268758916923e+01
1.148702040045e+02
1.247963292092e+02
6.830600321047e+01
6.711562437775e+01
1.312167666635e+02
1.430399174993e+02
1.326629863286e+02
8.458615075712e+01
7.733579565641e+01
7.543398853804e+01
6.764904690981e+01
7.028715490347e+01
6.619907679709e+01
1.363976845191e+02
1.283417769757e+02
5.147903479876e+01
4.197590448798e+01
1.526488072192e+02
1.380518630937e+02
1.196409064521e+02
1.256299416145e+02
1.287296297951e+02
1.343388133706e+02
1.375814511717e+02
1.429564159412e+02
1.397268385988e+02
1.516163304189e+02
1.481516038589e+02
1.049885043069e+02
1.323302123145e+02
6.978570141711e+01
3.658186233478e+01
4.102831604426e+01
4.356856078681e+01
5.145554698217e+01
1.615053042414e+02
1.463982807132e+02
1.409506320915e+02
6.043616299420e+01
6.370238901479e+01
1.561782957140e+02
1.014009967626e+02
1.025707939363e+02
9.807523991744e+01
3.529583494556e+01
4.176477827997e+01
1.321952234080e+02
7.356336676716e+01
6.606312845526e+01
7.027596596619e+01
7.039351396940e+01
1.200523863585e+02
1.299206799976e+02
9.879620007555e+01
1.023755136633e+02
1.580747101711e+02
4.265833485712e+01
1.346866104053e+02
1.422272640205e+02
1.335554113164e+02
8.648077928817e+01
6.085551022524e+01
6.251223175450e+01
7.748416801911e+01
5.312788928770e+01
4.662724246383e+01
1.659228073681e+02
1.368284988438e+02
1.448522253596e+02
1.365848155278e+02
1.531195372833e+02
3.189187459402e+01
1.649713395163e+02
1.471288985368e+02
1.496199575231e+02
1.445272179910e+02
7.312267559420e+01
6.541235616207e+01
5.763688720610e+01
5.695625292212e+01
9.234504023396e+01
7.308773233772e+01
8.880843133794e+01
8.325007230509e+01
7.902824816045e+01
7.361909340670e+01
6.749252819981e+01
8.668249865353e+01
1.203557651677e+02
9.549151640914e+01
1.213973132606e+02
1.204830910165e+02
1.328447123134e+02
1.383366758161e+02
9.904293680499e+01
9.464214819917e+01
3.661368945102e+01
3.210576661922e+01
1.110608594022e+02
1.600318963642e+02
1.362728165638e+02
1.411915376024e+02
1.361026172510e+02
1.622406971398e+02
9.474258098566e+01
1.254493581487e+02
6.880972429929e+01
1.191835629929e+02
2.714242269123e+01
1.241385909166e+02
1.563595612647e+02
1.614367791986e+02
1.595654029210e+02
7.772376202031e+01
1.249176976709e+02
1.214617672967e+02
7.368929076534e+01
6.963316844332e+01
7.505543204310e+01
6.581533881393e+01
7.832238924018e+01
7.077409967725e+01
1.558238644886e+02
1.564622030789e+02
1.534676514305e+02
1.484910734739e+02
1.640130640623e+02
1.605388975913e+02
5.419386795388e+01
5.779056538643e+01
1.421324040408e+02
7.795080186178e+01
1.680258131511e+02
1.632971294644e+02
6.733769374576e+01
6.223445804372e+01
1.400340589919e+02
4.813523161413e+01
4.735453764404e+01
4.988138135709e+01
1.742214262068e+02
7.673114253484e+01
1.651875817817e+02
7.725907350209e+01
1.448323714819e+02
1.302715233690e+02
8.292981408974e+01
1.544947164296e+02
1.346818769914e+02
1.457025807024e+02
9.281997769714e+01
8.819488807829e+01
9.709182856642e+01
6.969079513464e+01
6.495712542467e+01
1.337345985798e+02
6.535133056607e+01
6.930376828930e+01
4.514662326685e+01
5.524702599850e+01
1.050960709552e+02
1.017520964416e+02
1.298177437743e+02
1.335884412142e+02
1.228792313518e+02
1.375811691127e+02
1.284405453977e+02
1.249415402649e+02
1.426971600185e+02
1.493026880655e+02
8.536385887036e+01
8.444278607267e+01
7.924299491576e+01
1.468513076733e+02
1.700976587622e+02
1.664861481084e+02
2.248657961867e+01
2.766375653231e+01
5.481898612474e+01
5.736816894460e+01
1.459448893519e+02
1.411828716171e+02
1.518860369500e+02
4.908353375110e+01
1.416735901771e+02
1.695997554659e+02
1.659346244781e+02
1.742771811003e+02
1.548749645589e+02
1.627847087147e+02
1.613009670884e+02
6.479825351608e+01
1.421695749314e+02
8.899680329974e+01
5.575401852086e+01
8.474743669745e+01
9.028923330625e+01
8.002593131551e+01
4.219020258571e+01
8.592575624821e+01
9.183883639862e+01
1.605805020554e+01
1.520787581555e+02
1.787110048704e+01
2.236802203034e+01
1.713836911920e+02
1.665040849622e+02
1.744517884078e+02
1.695032527140e+02
1.614019306453e+02
1.648524822220e+02
8.357010284044e+01
1.741287319132e+02
1.684453842638e+02
1.779113764854e+02
6.066719949930e+01
5.677936144112e+01
4.807961682985e+01
3.768403949453e+01
1.589362974371e+02
1.520587871073e+02
1.514181437535e+02
1.414068432932e+02
8.549183950666e+01
8.504710667451e+01
9.359381280923e+01
9.248259930507e+01
1.011535332949e+02
9.980563380291e+01
1.086994178801e+02
1.650021625202e+02
3.943947863743e+01
6.868593222035e+01
1.682838337559e+02
1.642687886944e+02
6.185228006358e+01
5.272420753581e+01
1.738103931054e+02
8.028935664900e+01
1.582645065939e+02
4.820429465414e+01
6.068257926147e+01
8.091303262268e+01
7.132032685382e+01
5.781007955604e+01
5.085180180518e+01
1.462887936475e+02
2.408763010643e+01
5.238637167542e+01
1.097357152288e+02
4.608643587391e+01
1.466065732939e+02
8.716871650909e+01
8.350725738975e+01
5.915468643614e+01
6.577153914231e+01
9.766762006334e+01
8.727071738527e+01
8.257057524765e+01
9.336953742215e+01
5.394585901460e+01
4.337523082230e+01
9.465074396300e+01
1.311324704446e+02
1.361870613007e+02
1.459037518382e+02
1.412808008655e+02
1.313720687943e+02
1.365153751673e+02
1.464110291684e+02
1.419873810037e+02
1.535384708079e+02
1.472589739550e+02
1.371245030745e+02
1.422541153951e+02
1.515284333734e+02
1.324222986631e+02
1.717121275566e+02
8.918548596379e+01
6.804942051259e+01
6.107594576411e+01
8.706065698113e+01
1.631482198914e+02
1.617987321849e+02
8.030263719180e+01
1.685981128623e+02
8.771737871829e+01
7.437795739986e+01
1.709496560495e+02
1.262064088282e+02
1.212990331390e+02
1.162050721172e+02
1.611550192335e+02
1.017708941587e+02
1.752033099872e+02
1.288562519409e+02
1.235301182851e+02
1.150548612972e+02
1.317525610352e+02
1.782866221065e+02
1.724897462066e+02
1.731939521046e+02
1.660700855093e+02
1.797955135116e+02
1.658623401200e+02
1.671290842606e+02
7.732307019952e+01
8.384396060518e+01
9.043556900961e+01
8.945209214069e+01
8.324526715182e+01
8.812170526348e+01
9.401652789592e+01
8.623423364735e+01
1.429895366179e+02
1.810490570631e+02
1.305442030023e+02
1.267071440708e+02
1.172155180694e+02
9.208561422599e+01
9.832620826207e+01
1.081168263936e+02
8.599162454704e+01
1.312830265726e+02
1.812605795361e+02
1.296521127167e+02
9.491240931343e+01
7.679313929275e+01
8.534959711853e+01
8.576420313568e+01
9.486719481736e+01
8.597347265846e+01
1.085918990956e+02
1.123112615678e+02
1.061956620684e+02
1.162157956061e+02
1.099418107438e+02
1.007067739561e+02
1.200900250890e+02
1.132822466284e+02
7.648937601889e+01
3.669366319102e+01
4.040981549214e+01
2.772361632742e+01
4.282133880385e+01
5.250860883701e+01
5.483244924213e+01
6.124804650543e+01
5.265916771982e+01
1.170241358137e+01
1.989039001040e+01
7.748233724120e+00
1.622755932688e+01
2.870086658311e+01
3.806736254462e+01
1.794395085825e+02
8.514285583079e+01
8.086500348330e+01
7.189508972309e+01
7.725991006096e+01
8.922950061565e+01
6.684752447397e+01
6.410913847898e+01
7.613574205427e+00
1.733369681252e+01
1.631404402578e+01
2.697962911240e+01
2.663779541360e+01
1.740402165432e+01
1.730103729934e+01
7.512387344268e+00
1.691466171479e+01
2.649913930190e+01
7.154819227139e+00
1.215485610098e+02
1.269172078515e+02
1.811078788395e+02
7.763185304513e+01
6.109113199841e+00
1.565489284811e+02
1.585860314625e+02
1.585760559325e+02
1.652937510837e+02
1.697651472348e+02
1.567275681831e+02
6.078044093545e+01
1.508560234736e+02
1.391737476382e+02
6.917949248021e+01
6.294137567217e+01
1.368269400109e+02
1.279981211546e+02
1.578468980111e+02
1.287617049235e+02
1.509594937015e+02
1.734573029179e+02
3.989557596651e+01
1.033406665523e+02
9.992651675602e+01
1.238430598646e+02
6.196935827313e+01
9.668113752532e+01
4.096656353733e+01
1.631671905118e+02
8.468863151862e+01
1.110957815676e+02
8.248336009494e+01
6.710790360646e+01
6.161631420914e+01
9.158950372882e+01
1.012842170669e+02
1.465123324150e+02
1.292648576133e+02
7.668268566559e+00
1.517888890164e+02
1.211028978662e+02
1.070773899284e+02
1.494281091752e+02
5.335898850566e+01
1.275362782242e+02
1.459136968841e+02
9.652988835626e+01
3.202534078265e+01
9.359623221319e+01
1.693303490115e+02
1.261440831081e+02
5.665070625626e+01
1.176936616715e+02
9.004110285738e+01
6.851531922716e+01
1.435182826962e+02
1.123118940775e+02
1.579475729241e+02
1.339534199652e+02
5.981259350462e+01
1.582497369828e+02
1.126001832833e+02
1.375162528152e+02
1.319654103728e+02
1.008904567305e+02
1.315150945350e+02
1.146033767893e+02
1.528140580416e+02
8.089536615992e+01
1.133880542969e+02
1.185240605061e+02
1.130365549630e+02
1.306837150745e+02
1.550178443790e+02
7.245928243989e+01
7.435683908594e+01
1.064745944358e+02
1.513901948918e+02
1.474380230345e+02
8.017851187968e+01
1.529761524684e+02
1.413482331955e+02
1.046466980445e+02
4.366328026346e+01
6.420798970083e+01
8.900849576513e+01
1.095337397044e+02
1.145542292669e+02
1.521963019692e+02
1.562496133353e+02
1.500769005841e+02
4.730527371871e+01
7.307269709013e+01
1.596299142228e+02
1.212030873863e+02
1.570213749575e+02
1.035954886797e+02
1.642124433024e+02
5.682765114344e+01
1.632611034354e+02
1.505911750369e+02
8.024634552944e+01
7.697369142480e+01
1.730622798511e+02
1.584524117899e+02
1.225295147881e+02
1.167990886086e+02
5.981258653521e+01
1.180028488593e+02
1.168898271194e+02
1.608099472243e+02
1.618536256485e+02
1.113054311751e+02
1.114930876300e+02
1.354741664124e+02
2.652343956717e+01
6.457288055704e+01
1.149346864340e+02
9.187986536302e+01
1.199885440430e+02
1.673647096085e+02
1.185999059667e+02
9.784293270318e+01
1.224307489086e+02
5.193973947427e+01
1.165063613200e+02
1.263872483644e+02
1.262460339089e+02
2.680115693790e+01
1.281757390252e+02
1.605567354234e+02
8.062082351934e+01
1.230766787378e+02
1.265197400100e+02
4.391956873679e+01
1.324016559636e+02
1.354365424372e+02
1.334598714897e+02
1.180227961586e+02
1.415828918635e+02
4.851127391970e+01
5.774423059809e+01
4.813579231605e+01
1.002256426480e+02
1.391438088221e+02
3.523191738686e+01
1.270865510114e+02
3.455578110541e+01
9.571422282515e+01
1.467984332315e+02
1.028549505695e+02
9.700926998806e+01
5.072945589329e+01
9.143181326509e+01
1.269659210729e+02
9.305974971140e+01
8.639626097412e+01
1.490981030915e+02
8.743387544580e+01
1.582779262075e+02
1.797672002190e+02
8.414283155787e+01
3.510198617287e+01
3.989687566776e+01
4.237709087296e+01
7.195495479244e+01
1.280719631155e+02
8.445137742157e+01
6.473510857120e+01
1.570405638456e+02
1.733663997427e+02
1.168077717021e+02
1.608948089639e+02
1.386485404918e+02
1.400786061682e+02
7.602909364769e+01
1.446885215218e+01
1.358953226101e+02
2.846789774273e+01
3.794823288565e+01
4.232082983978e+01
6.214964281415e+01
3.327706684817e+01
2.850019954058e+01
1.711893407350e+02
8.418013918665e+01
1.498146398128e+02
3.474165605696e+01
1.511014470966e+02
1.672621687527e+02
1.815955621059e+02
1.581471975956e+02
5.001997390269e+01
9.265944388771e+01
1.618846459622e+02
1.244271823359e+02
1.817461796911e+02
8.302796684423e+01
1.502848906076e+02
6.738509411320e+01
1.503260995558e+02
1.377367612896e+02
9.583896398010e+01
9.285939496405e+01
1.740283866439e+02
1.550845153477e+02
5.492437068295e+01
1.161756104117e+02
7.802883999368e+01
5.855763942768e+01
1.749140842678e+02
1.469210181452e+02
1.738340643873e+02
2.675452766221e+01
1.381569680413e+01
1.761348213622e+02
1.601456987600e+02
6.491671949597e+01
1.609914860460e+02
5.939766880487e+01
7.479996018490e+01
1.559353369460e+01
1.813754006699e+02
1.512656305493e+02
8.527125108004e+01
7.765284907828e+01
5.641060901456e+01
1.587105841987e+02
2.269277730460e+01
1.519643649790e+02
1.759698213525e+02
1.545415271480e+02
1.784940886042e+02
5.807044659052e+01
1.684926942453e+02
1.682500496777e+02
7.609337177208e+01
1.542811877595e+02
6.900340433405e+01
3.375645741616e+01
1.593080230887e+02
5.972486543442e+00
7.580481938261e+01
1.816339828792e+02
3.341863377631e+01
9.095679462765e+01
1.595217277697e+02
1.061004845517e+02
1.344122915957e+02
4.505773036095e+01
3.776865477336e+01
1.078535864435e+02
1.697030612706e+02
1.541598945397e+02
1.011100728748e+02
6.030560556215e+01
1.543472008762e+02
9.262143543962e+01
1.569214058067e+02
1.669674915953e+02
5.484947501366e+01
1.150743938085e+02
1.405984365287e+01
1.762719811493e+02
9.659693179357e+01
1.551585070839e+01
4.594129760636e+00
1.611534388683e+01
1.054297213113e+01
2.217561082230e+01
1.978501865038e+01
3.029131857330e+01
2.823737755940e+01
3.867790766799e+01
3.772310385911e+01
4.617279027151e+01
4.624368722110e+01
5.428904056039e+01
5.577499818225e+01
6.316954326098e+01
6.440832711808e+01

SCALARS node_materi_strain_total_average_a_ept float
LOOKUP_TABLE default
5.104718077026e-04
1.828977162067e-03
1.964207342285e-03
3.276258618344e-03
4.599006637880e-04
4.758930108217e-04
4.630623304701e-04
4.820376719215e-04
4.887522487430e-04
5.096905128743e-04
5.428362563847e-04
5.875741337046e-04
6.472852430930e-04
7.200624945588e-04
8.067844962413e-04
9.046271435103e-04
1.009890793295e-03
1.126380476091e-03
1.258590760547e-03
1.396556542565e-03
1.543301326376e-03
1.698626598766e-03
1.849872843796e-03
3.285027182474e-03
3.274145083996e-03
3.271207675307e-03
3.262580024802e-03
3.244495556059e-03
3.236579099417e-03
3.215810737160e-03
3.190935812789e-03
3.168220312512e-03
3.138606628647e-03
3.095348842713e-03
3.059590385450e-03
3.009870161674e-03
2.956973160304e-03
2.893923031304e-03
2.825096040539e-03
2.748052524270e-03
2.667427449417e-03
2.583853499893e-03
2.495099672920e-03
2.397029340233e-03
2.292337656366e-03
2.187494538235e-03
2.081177905867e-03
1.978145687357e-03
1.880885740939e-03
1.782495458308e-03
1.700768402343e-03
1.618926635356e-03
1.556728152860e-03
1.496110300350e-03
1.446509574188e-03
1.411964962619e-03
1.403578971757e-03
1.403408481979e-03
1.411933954247e-03
1.447990215015e-03
1.477215354767e-03
1.526401272184e-03
1.573006759210e-03
1.634097951225e-03
1.701443417819e-03
1.754533868988e-03
1.791922542394e-03
1.858145033490e-03
1.890636059555e-03
1.928854472662e-03
1.956202879889e-03
1.968998407008e-03
1.972888891855e-03
2.114767849772e-03
2.258612962304e-03
2.402541803907e-03
2.551179745438e-03
2.702473146763e-03
2.854797543007e-03
3.011753188502e-03
3.165997317135e-03
-1.404155870754e-03
1.514261617075e-03
-3.389412467318e-04
2.839011038967e-04
6.463282907736e-04
7.580448073144e-04
8.426001059314e-04
9.381037854664e-04
1.053443124105e-03
1.188720140690e-03
1.343069813798e-03
8.052192377597e-04
8.843653658674e-04
1.015381435112e-03
1.148852046356e-03
1.282822049438e-03
1.417655543146e-03
1.552492525658e-03
1.687930195713e-03
1.811282165198e-03
1.817555853709e-03
1.812410098658e-03
1.802669362384e-03
1.811689010851e-03
1.783363920131e-03
1.765801204616e-03
1.749722757947e-03
1.729460195355e-03
1.702159504444e-03
1.671724980313e-03
1.637531383082e-03
1.599997644950e-03
1.561367266060e-03
-2.024564877086e-03
-2.309010151071e-03
-2.387005502799e-03
-2.163515288203e-03
-1.296879891250e-03
-4.706351102407e-04
-1.361118037268e-04
-6.142416037272e-06
5.658130222973e-05
1.185309435305e-04
1.701338372568e-04
2.309011048033e-04
2.976802150268e-04
3.594304333335e-04
4.062244281302e-04
4.474244143038e-04
4.782911151965e-04
4.997341467616e-04
5.211056499764e-04
6.308916896356e-04
7.420428576494e-04
8.136174968410e-04
8.428969606022e-04
8.678869541535e-04
8.996865299638e-04
9.309533314431e-04
9.512215678678e-04
9.624074946326e-04
9.668859915146e-04
9.640910938344e-04
9.564037808581e-04
9.453492629989e-04
9.320826047408e-04
9.178336189696e-04
9.034621653989e-04
8.897277971674e-04
8.773669357423e-04
8.663851649449e-04
8.567398289337e-04
8.486041087889e-04
8.420038550292e-04
8.365944487997e-04
8.322696102375e-04
8.297787689106e-04
8.218186400920e-04
7.489951742108e-04
7.921491360899e-04
8.364348375202e-04
8.673649648550e-04
9.006012506816e-04
9.248139201728e-04
9.424544901886e-04
9.552099477064e-04
9.626783115946e-04
9.643860326467e-04
9.628118585356e-04
9.584324662769e-04
9.522639679609e-04
9.449142981659e-04
9.370211170273e-04
9.292413753560e-04
9.219999726575e-04
9.153785728602e-04
9.095055754816e-04
9.045475720316e-04
9.004666889761e-04
8.972397372899e-04
8.950670460816e-04
8.916190934095e-04
8.854505212790e-04
1.017761921498e-03
1.024686071989e-03
1.024964982531e-03
1.025650194225e-03
1.026619337472e-03
1.027809385514e-03
1.029190416866e-03
1.030655114220e-03
1.032020661160e-03
1.033072311027e-03
1.033437989052e-03
1.032607694098e-03
1.030002616232e-03
1.025150311512e-03
1.018345438852e-03
1.009387647437e-03
9.975624951990e-04
9.803050035488e-04
9.587095406319e-04
9.309786706162e-04
8.985964492539e-04
8.534453468313e-04
8.142537829838e-04
8.918184212661e-04
9.325343754208e-04
9.754358978862e-04
1.005987833763e-03
1.033553148576e-03
1.055842704836e-03
1.073829293749e-03
1.088841371944e-03
1.102430720047e-03
1.115694172357e-03
1.125832535004e-03
1.133401367205e-03
1.139081596640e-03
1.143407821523e-03
1.146742278320e-03
1.149289931308e-03
1.151287024207e-03
1.152960853196e-03
1.154430775438e-03
1.155796445347e-03
1.154562894678e-03
1.149552674110e-03
1.283862573786e-03
1.285834164114e-03
1.284171176300e-03
1.281593059847e-03
1.278023880412e-03
1.273452091960e-03
1.267967485214e-03
1.261032784324e-03
1.252513435165e-03
1.242273145889e-03
1.229643198794e-03
1.213855353679e-03
1.193913002498e-03
1.172704582970e-03
1.152007705219e-03
1.128167591035e-03
1.099506927336e-03
1.068385638111e-03
1.027598382571e-03
9.841614463019e-04
1.096153227079e-03
1.143718069072e-03
1.183879374102e-03
1.215532880139e-03
1.244226657590e-03
1.270637950936e-03
1.298292482225e-03
1.322082190228e-03
1.341634619600e-03
1.357812566044e-03
1.371549895133e-03
1.383350990714e-03
1.392811080875e-03
1.400635092890e-03
1.407272585484e-03
1.412343437549e-03
1.415933782873e-03
1.418004366993e-03
1.417755863660e-03
1.552550823531e-03
1.550972903744e-03
1.547274035188e-03
1.541825533207e-03
1.534630271535e-03
1.525368045353e-03
1.514058492707e-03
1.499645005554e-03
1.482837764570e-03
1.463585677781e-03
1.441562872133e-03
1.414898474141e-03
1.383430608920e-03
1.348675622353e-03
1.316672401916e-03
1.279040848902e-03
1.228775291793e-03
1.377668328562e-03
1.430396414360e-03
1.470488194683e-03
1.507295120555e-03
1.539791531082e-03
1.567657536645e-03
1.591797016532e-03
1.613668551731e-03
1.632557287578e-03
1.647126873982e-03
1.659723243164e-03
1.669153882670e-03
1.677221592730e-03
1.682951984888e-03
1.687676049985e-03
1.688879330333e-03
-7.531645939904e-04
-4.484917770996e-05
5.362773214911e-04
7.071412016058e-04
7.947755285682e-04
8.918970112694e-04
9.990980925828e-04
1.126009933625e-03
1.272821571768e-03
1.433928983402e-03
7.781490801382e-05
1.398954309683e-03
5.100100827655e-05
-1.411638324624e-03
1.470420546430e-03
6.778031691841e-04
7.620721751685e-04
1.559040855981e-03
8.993992267526e-04
1.886258224305e-03
1.170208043748e-03
1.676528271381e-03
2.978815806009e-04
2.279804677605e-03
1.511885969079e-03
5.233465100687e-04
1.044139708692e-03
2.542267620221e-03
2.843741501668e-03
3.159278423486e-03
3.078875215788e-03
2.994131664888e-03
1.689273077484e-03
1.836672224788e-03
1.910500741691e-03
2.477932230433e-03
1.796401016039e-03
-1.768401032679e-03
4.289251449270e-04
1.462755430856e-03
1.932277007684e-03
4.736185294065e-04
2.685652165415e-03
1.716917913364e-03
2.081746972636e-03
1.458218524609e-03
1.391219384684e-03
-2.425871934887e-04
1.768136076391e-03
1.543481197060e-03
2.773133088577e-03
1.711958241117e-04
6.133910024850e-04
3.205533581240e-03
7.886296198609e-04
4.991312887624e-04
1.024966460722e-03
1.335499900284e-03
-5.504087733352e-04
2.198102597260e-03
1.882226098934e-03
4.688439363230e-04
3.082131464701e-03
1.598647697470e-03
1.611930543351e-03
1.720904958220e-03
1.724730545151e-03
1.842953068096e-03
1.846393369503e-03
1.725306325530e-03
1.848017171202e-03
1.722503720306e-03
1.966209817101e-03
1.846645886599e-03
1.716695748731e-03
1.841764704998e-03
1.708115340746e-03
1.588543142076e-03
1.574669877654e-03
1.462107246015e-03
1.443219533984e-03
1.559483057198e-03
1.423404933755e-03
1.314450501282e-03
1.288515361391e-03
1.187001316340e-03
1.155827705240e-03
1.063150279873e-03
1.027713945036e-03
1.126869602499e-03
9.954595018042e-04
9.093773792263e-04
8.753666782430e-04
8.027856366842e-04
7.720368502131e-04
8.490052730823e-04
7.492089534314e-04
6.844145527628e-04
6.610604061355e-04
6.078828177146e-04
5.932944087724e-04
5.614462954974e-04
5.530584449860e-04
5.782768458258e-04
5.376424062259e-04
5.077123875550e-04
4.966053715586e-04
5.174486606902e-04
4.774608768385e-04
4.980990567759e-04
4.510351593844e-04
4.244452528075e-04
3.998973101857e-04
4.386930128229e-04
3.881598384268e-04
3.443722483811e-04
3.444724701117e-04
4.022855550156e-04
3.691106669284e-04
3.086269784144e-04
3.489995626731e-04
4.019724619645e-04
3.863328529869e-04
3.378014593170e-04
3.787059228434e-04
4.329317063893e-04
4.266316045893e-04
4.951870129186e-04
3.760797805310e-04
4.252044203205e-04
3.781775354879e-04
4.269470363667e-04
8.325578980106e-04
3.824209214304e-04
3.357493782957e-04
4.304102533759e-04
4.827197906798e-04
3.879191645054e-04
4.347000475198e-04
3.954233851248e-04
5.686558620915e-04
1.544303530858e-03
4.395534524365e-04
4.035290526968e-04
3.620870747548e-04
3.727776624395e-04
1.954474932857e-03
2.087732437929e-03
2.070301011341e-03
2.208600377260e-03
2.187929478400e-03
4.124560610457e-04
1.976071652907e-03
2.224621243494e-03
1.218660409186e-03
8.434463657744e-04
5.463621144908e-04
4.836334485334e-04
4.848193799499e-04
5.352514514374e-04
5.094041427210e-04
5.898269776754e-04
6.167173738974e-04
7.111616770461e-04
7.521042127968e-04
8.500848319299e-04
8.090007607407e-04
9.473317120209e-04
9.064714777237e-04
8.986853170349e-04
8.049440291502e-04
1.043847656315e-03
1.002433853141e-03
1.139779409134e-03
1.095316891645e-03
9.620256309272e-04
1.050987653798e-03
9.243732640184e-04
5.399645874413e-04
6.197408313312e-04
6.462340985139e-04
7.636491916780e-04
7.960932723029e-04
9.045907393575e-04
9.305156441384e-04
8.308022464225e-04
1.832806468848e-03
4.419401741045e-04
4.475311937353e-04
3.649575060282e-04
3.741689231764e-04
2.673447936888e-04
2.805240625212e-04
1.316780218023e-04
1.349903471922e-04
-5.171669045160e-05
-3.784737293560e-06
-2.271677805111e-04
-1.062824205751e-04
1.102381358984e-03
8.834438205574e-04
1.013579781589e-03
9.969344806716e-04
3.320534028810e-04
1.184664258868e-03
9.518195780158e-04
8.643094488112e-04
9.662458320386e-04
3.848491487710e-04
1.578666227502e-04
3.026941253113e-04
2.328307441032e-03
2.303731160564e-03
1.008135199037e-03
4.252615889921e-04
1.088153196388e-03
-2.864159139153e-04
1.136784092807e-03
1.272346724759e-03
7.754746877509e-04
1.124132058077e-03
1.110577435547e-03
6.639498351504e-05
1.455775485849e-05
-1.239514338559e-04
-5.049459693084e-06
9.485676649256e-05
7.173886314498e-05
-9.202115929412e-06
8.782312789362e-05
1.371481908386e-04
1.421995245452e-04
8.547498157253e-05
1.493524243331e-04
1.324538043318e-03
-4.926813541981e-04
1.479731053642e-03
1.091726725767e-03
1.055715912029e-03
2.447749770811e-03
2.418399424324e-03
2.275006952254e-03
2.385459415591e-03
2.532137395408e-03
2.494845880018e-03
2.349148522274e-03
2.454521874070e-03
2.309864882270e-03
2.411288715901e-03
2.559071454775e-03
2.511868653444e-03
2.365050918762e-03
2.462106687613e-03
2.315941226461e-03
2.409309201897e-03
2.558367527670e-03
4.081503499974e-04
8.746711889620e-04
1.009044371579e-03
5.301249153976e-04
5.897850019331e-04
6.029808185246e-04
6.648621889501e-04
2.501106697515e-03
2.653512860825e-03
1.961778085025e-04
3.311199514492e-04
2.473298665643e-03
1.218630485950e-03
1.088408089304e-03
7.473431272776e-04
7.937135859679e-04
7.036128147957e-04
7.545046848483e-04
8.416811753182e-04
6.626671216374e-04
7.123839029702e-04
2.662292997953e-03
3.200269084640e-04
2.886036616814e-04
1.357028256170e-03
7.296151838216e-04
1.243666315832e-03
1.227815480795e-03
1.371849321631e-03
1.358537263367e-03
1.501292780100e-03
1.485614115311e-03
1.348937959523e-03
1.237416994693e-03
1.475147719642e-03
2.351607179726e-03
8.581626981679e-04
1.830107714774e-04
3.654710205328e-04
1.198049370348e-04
4.366457937028e-04
4.572445256519e-04
1.143638825849e-03
1.629119707439e-03
1.644863226091e-03
8.069720037479e-04
8.898711110784e-04
1.244732674520e-03
2.052111160212e-03
2.207657148565e-03
2.169380000614e-03
4.223466923933e-04
5.222753976611e-05
2.644584461001e-03
4.048925749919e-04
4.276858336016e-04
-5.786204255616e-04
-7.871424882412e-04
2.591934922344e-03
2.744511888168e-03
6.843218863054e-04
7.534600760131e-04
1.068699799979e-03
1.756280563989e-04
2.807285632780e-03
7.856687820414e-04
6.310559488415e-04
6.458042913306e-04
2.297234441131e-04
4.374681293588e-05
1.785634054956e-04
2.086886344917e-04
4.647300623961e-04
1.196336858755e-03
2.682385603747e-03
1.342520973513e-03
1.213055022386e-03
1.464261223791e-03
1.435660061103e-04
1.227456042152e-03
1.296723716799e-03
1.768590159452e-03
1.788519032220e-03
4.816857267023e-04
4.998145235564e-04
4.580911102710e-04
5.440052086845e-04
1.608218703440e-03
5.399830351675e-04
1.364051831130e-03
1.384586801537e-03
1.276333264058e-03
9.315353920255e-04
9.753468348962e-04
4.548990734882e-04
6.162230630951e-04
6.148252345274e-04
8.373386376276e-04
5.328844450760e-04
2.710198984246e-03
2.816235818273e-03
2.221404650263e-03
2.172508212092e-03
3.000173574498e-04
2.550312289471e-04
5.719936212699e-04
1.177943974028e-03
2.595876567922e-03
2.622217140902e-03
2.494956072099e-03
1.127657633091e-03
3.602679415980e-04
5.527799055693e-04
-6.218377128668e-04
9.508136825003e-04
2.716618560820e-04
1.684714418684e-03
1.439425937150e-03
1.500214224639e-03
1.352832330361e-03
1.510590771664e-03
9.481579892897e-04
8.272865770530e-04
1.298590305802e-03
1.201554261452e-03
1.171928879809e-03
1.105411539903e-03
2.304851338980e-04
2.387408056117e-04
1.765595282954e-03
1.594667470235e-03
1.917121806306e-03
1.941283826278e-03
1.356552074485e-03
1.255844308516e-03
4.864455559820e-04
9.336389347692e-04
2.798274269042e-03
1.400146218813e-03
1.308660436146e-03
1.270405107127e-03
-9.593608784980e-04
-6.301183346198e-04
2.900739034822e-03
5.240401425363e-04
6.182614614410e-04
4.195754406163e-04
1.774496872296e-03
1.938753628665e-03
1.588655579026e-03
1.030122166425e-03
2.965831967124e-03
9.598012805783e-04
6.606099545097e-04
9.969099486821e-04
2.824950899072e-03
2.995952202236e-03
2.070430472936e-03
2.027357713525e-03
2.101534205246e-03
-2.534136521157e-04
-5.379206518614e-04
2.764286432005e-03
4.860147919602e-04
5.340319071597e-04
2.312002000245e-04
2.644565989617e-04
7.040867853426e-04
6.273205632432e-04
1.672224326524e-03
1.814304456262e-03
1.386900646178e-03
6.991996108842e-04
5.507896551013e-04
5.110699888953e-04
2.862288100402e-03
2.984067752835e-03
2.300972579437e-04
1.917602162505e-04
2.850846594697e-04
2.836751160411e-03
1.647654862200e-03
1.559505674500e-03
2.212475756160e-04
2.135043839194e-04
1.333174376717e-04
-9.100658475760e-05
2.642172823570e-03
2.512034333389e-03
2.782264878949e-03
4.901452629711e-04
1.217549320022e-03
1.241900030360e-03
1.193045729288e-03
1.329892538581e-03
1.348776836297e-03
1.452009152298e-03
1.575771982864e-03
-1.178096409995e-03
2.950266758924e-03
2.074617770787e-03
-1.390673229864e-03
2.027816576765e-03
2.119297025865e-03
1.967424447630e-03
4.744692093223e-04
1.947866114449e-03
1.994175406363e-03
1.576058180469e-04
2.956907064864e-03
2.421278967691e-04
3.013206837151e-04
1.408727689916e-03
1.366952080298e-03
1.497112733149e-03
1.456092840702e-03
1.322134241454e-03
1.420171745970e-03
1.977403489845e-03
1.574304682911e-03
1.522683904980e-03
1.681333414743e-03
1.137950848445e-03
6.324819469182e-04
7.019967523715e-04
6.979890078341e-04
2.094430037489e-03
2.083104767879e-03
1.377432356779e-03
1.239645789980e-03
2.055206888649e-03
2.058006463251e-03
2.184272007389e-03
2.174992961001e-03
2.303462843634e-03
2.289557207538e-03
2.423288890805e-03
1.723216003085e-03
5.090416197908e-04
1.316759329579e-03
1.359295884711e-03
1.260578890565e-03
1.015987070988e-03
9.754510684161e-04
1.373980180909e-03
5.281102395068e-04
3.012917740482e-03
-1.395018943849e-03
-1.011037692282e-03
5.828645969389e-04
1.069464829659e-03
7.211501615238e-04
7.769509897465e-04
8.539060860768e-04
1.689259525045e-04
2.865067669050e-04
2.430968480378e-03
2.029293796935e-04
1.320484365451e-03
5.209619216052e-04
9.885776241370e-04
3.584600626541e-04
5.722001538893e-04
1.599677172694e-03
1.612922312481e-03
1.504627564174e-03
5.151927747878e-04
8.612504729434e-04
8.356329724905e-04
1.340138473360e-03
2.366386355099e-03
2.379723094714e-03
2.520591884119e-03
2.386325208087e-03
2.245794333922e-03
2.250229047004e-03
2.394999383976e-03
2.253870658991e-03
2.422901860794e-03
2.246752209024e-03
2.107163380061e-03
2.097505664093e-03
2.220735981728e-03
1.962529785320e-03
1.446253554995e-03
6.290152129310e-04
-9.041298884439e-04
-6.118121034826e-04
1.100749432938e-03
2.619702953099e-03
2.777035109743e-03
3.860430806024e-04
2.180153591828e-03
1.494015804480e-03
-4.324291959759e-05
1.983487250709e-03
2.237267405538e-03
2.106686236647e-03
2.099008764697e-03
2.900910669927e-03
2.134244966330e-03
1.643996713102e-03
7.331860988061e-04
7.168765778250e-04
6.268811095710e-04
2.110884785815e-03
1.419126150774e-03
1.329960238576e-03
1.313317919757e-03
1.224222977543e-03
1.389583321085e-03
2.468952607286e-03
2.383325368767e-03
1.375558028181e-04
1.696328693402e-04
2.310156481677e-04
2.182352980782e-04
1.311121374127e-04
1.940419499798e-04
2.847565457111e-04
1.622556675248e-04
1.949231411864e-03
1.413084864917e-03
6.566206601269e-04
5.691077036724e-04
4.679480873189e-04
5.463828599301e-04
5.524912995938e-04
6.413109519883e-04
5.410692574373e-04
1.217766198146e-03
1.437026755332e-03
5.827723211405e-04
4.839117834887e-04
1.730825424152e-03
1.821118331171e-03
1.774161817032e-03
1.921837417556e-03
1.877433958233e-03
7.802449060867e-04
8.534844026300e-04
8.185546887471e-04
9.229726313372e-04
8.785198658590e-04
7.869657092035e-04
9.870465538883e-04
9.255690799963e-04
1.801399599426e-03
-7.218797158682e-04
-3.553580051921e-04
-8.544265865469e-05
-1.324883159324e-04
-3.771030605144e-04
-1.371582143394e-04
-2.926296548813e-04
-7.567630346088e-04
-8.394819800580e-05
1.237296046471e-06
-6.979148972223e-06
5.813981549293e-05
8.780739638469e-05
2.475228119574e-04
1.813698130639e-03
6.788295204975e-04
6.370749009036e-04
5.816460911677e-04
5.947983315200e-04
7.047610647582e-04
5.618525567543e-04
5.407416699563e-04
4.542656427976e-04
4.559469458135e-04
4.700218666533e-04
4.640409794606e-04
4.538913641367e-04
4.385724668799e-04
4.079731626844e-04
3.945583977428e-04
3.720787092341e-04
3.972251074095e-04
3.500230125940e-04
2.627086966891e-03
2.709211832424e-03
1.508346589211e-03
1.873653231396e-03
1.071419991119e-04
3.147982417635e-03
3.119673324388e-03
3.146143598027e-03
1.615461558256e-03
1.683469217275e-03
3.172626655664e-03
3.524448956949e-04
2.523709546059e-03
2.864746516126e-03
1.441145268863e-05
2.502147746958e-04
1.163649387851e-03
8.699573962316e-04
1.413948074655e-03
1.008174628902e-03
1.233600354866e-03
1.302855665842e-03
4.533739271773e-04
2.266952463682e-03
2.263682851199e-03
2.611693504302e-03
4.447695224598e-04
7.298670823349e-04
3.464468764820e-04
1.926359942993e-03
1.249626311579e-03
4.461348619301e-04
4.830971385928e-04
3.434325702248e-04
1.942746587396e-04
7.120195354805e-04
4.875217700408e-04
9.932216132479e-04
2.710332736783e-03
2.348485423803e-04
1.041161570395e-03
6.806451548663e-04
2.242781822122e-03
1.032321924004e-03
-6.151955273290e-07
2.602953785919e-03
2.742710389284e-03
2.026973833526e-03
3.242105716225e-04
2.123596897395e-03
1.266696669493e-03
2.349524280843e-03
4.499414212942e-04
4.885592032165e-04
9.479838916848e-04
1.423141101620e-03
2.916651492269e-03
7.309818126568e-04
1.094285767813e-03
6.843046268789e-04
4.858581120477e-04
1.227925062158e-03
5.611778910679e-04
2.754591831516e-03
1.515949490730e-03
4.365785406130e-04
2.565986245320e-03
4.279831846334e-04
1.137573809249e-03
1.137834098966e-03
1.264211183699e-03
1.696703829489e-03
9.689495491521e-04
1.108801445525e-03
1.133193941835e-03
-3.411954621240e-04
6.131274841296e-04
2.164453091877e-03
1.605690139708e-03
2.908077736835e-03
8.871569016873e-04
1.183245789124e-03
2.715314091339e-03
5.603301389479e-04
4.807745029478e-04
-1.956440917192e-04
2.683564376188e-04
6.422072062982e-04
6.582514465083e-04
2.669407884304e-03
1.278458939238e-03
9.287194927987e-04
-1.916991185913e-04
1.413815661904e-03
1.374028242874e-03
4.947579639600e-04
1.151197989654e-03
8.318873525659e-04
1.832992272880e-03
1.055402886323e-03
1.470771718103e-03
9.324871430181e-04
4.658793968416e-04
1.939212523702e-03
1.641186113388e-03
1.064947710973e-03
1.085894441179e-03
4.469113560461e-04
1.250211532402e-03
7.481486289742e-04
1.404350905676e-03
2.954187334769e-03
1.127784154993e-03
1.972896313521e-03
7.247782263816e-04
9.781513764140e-04
4.324627177895e-04
1.227497059693e-03
8.079216930324e-04
2.770947003013e-04
4.638267957711e-04
1.459051387056e-03
8.886973975693e-04
3.598411042121e-04
9.660263417660e-04
1.095370542032e-03
1.976440117876e-03
1.040390562237e-03
1.529974730719e-03
3.601170466890e-04
1.079046253672e-03
1.525630806972e-03
3.320315028115e-04
5.006646938030e-04
2.111059053035e-03
9.609111973422e-04
6.230153143192e-04
1.659071363274e-03
1.084177231124e-03
7.184252802030e-04
7.802537925573e-04
9.064217821110e-04
3.098510963073e-04
2.784839218264e-04
3.580189435059e-04
1.804487861418e-03
4.636642215546e-04
1.970899919472e-03
2.026290219458e-04
2.891304749537e-04
1.228990013137e-03
2.337358998143e-03
2.882800210816e-04
4.956567577662e-04
2.468009746194e-04
8.346029121939e-04
2.890090863582e-04
2.838778882546e-04
3.017019342155e-03
3.321013216247e-04
3.203168551640e-03
1.862232203119e-03
2.051449174406e-03
8.555552187317e-04
-1.840289096658e-03
7.539744535804e-04
2.890119925172e-04
1.822737740277e-03
2.054626729349e-03
2.980308762530e-04
2.372666545263e-03
1.798625207781e-03
2.552554255495e-03
1.166402197273e-03
1.098330065681e-03
2.919286308684e-03
1.898757064169e-03
1.019153928727e-04
1.185264313452e-03
7.450497983684e-04
6.068045099019e-04
3.812653854320e-04
5.162217947991e-04
2.095601709332e-05
6.076879158668e-04
1.343308325364e-03
1.950419645735e-03
1.343942640150e-03
3.464177365896e-04
2.861634682733e-03
1.585437633475e-03
1.624213593412e-03
1.461194640935e-03
-1.519350759995e-05
1.938646912887e-03
2.016874583900e-03
2.664137096418e-03
1.716703936232e-03
1.877512980923e-03
3.063821767976e-03
-3.290896851881e-04
3.078847581272e-03
1.954594753125e-03
2.211110239924e-03
1.843156559964e-03
1.745262572199e-03
2.529717167282e-03
-3.425598911472e-04
2.536736985769e-03
5.764150358781e-04
-1.111272339555e-03
1.428684845938e-03
2.084983554830e-03
1.691763998042e-03
4.731820733489e-04
1.900119015017e-04
1.379626043591e-03
2.225658156322e-03
-1.044616445722e-04
3.091432242746e-03
-8.148904559359e-04
1.854745868226e-03
3.264002030200e-04
1.781194374766e-03
2.991732817496e-03
6.601369506791e-04
1.648349735244e-03
5.110793099721e-04
1.699974527238e-03
1.154914977588e-04
3.044611532437e-03
1.340428600923e-03
2.763492658593e-03
1.536048955025e-03
-1.340207589686e-03
1.683779097558e-03
1.232643256910e-03
1.913836508414e-03
2.637528085837e-03
5.534842768076e-04
3.954823774195e-04
3.227079335995e-03
4.878745420451e-04
1.924867157322e-03
1.910026184480e-03
4.465993075347e-04
2.154835359885e-03
2.316357464561e-03
8.607640818996e-04
2.829472188487e-03
-3.022006872360e-05
-1.875884488745e-03
2.414376756279e-03
1.537387390821e-03
2.866828161259e-03
2.296390808830e-03
-3.341106279894e-04
2.188358950112e-03
7.114058587475e-04
1.883784302560e-03
1.263426290457e-03
-9.910961336383e-04
9.497575476919e-04
2.818083265739e-04
1.563297850831e-03
7.587288508266e-04
6.962379140933e-04
8.239211155677e-04
7.527742379129e-04
9.429801837343e-04
8.243413512006e-04
1.087218241824e-03
9.117676894277e-04
1.210152251984e-03
1.016087417212e-03
1.355706032155e-03
1.138973899408e-03
1.480079145910e-03
1.282683368849e-03
1.625625628121e-03
1.437011291418e-03
1.752014063864e-03

SCALARS node_materi_strain_total_size_dev_sd_ept float
LOOKUP_TABLE default
2.466743989720e-03
5.997332210594e-03
4.954240035167e-03
8.132131607784e-03
1.787287694280e-03
9.393703735712e-04
6.145152790772e-04
1.295983258127e-03
2.041542166736e-03
2.642717588910e-03
3.120176828947e-03
3.480558330364e-03
3.742877404437e-03
3.938950663004e-03
4.086734757488e-03
4.215468686567e-03
4.326848833400e-03
4.427545788403e-03
4.542340988249e-03
4.655283773683e-03
4.765005032744e-03
4.862701916498e-03
4.939048096977e-03
8.126055954443e-03
8.111353630902e-03
8.111308743071e-03
8.101136914360e-03
8.089959669727e-03
8.083341607491e-03
8.069557815663e-03
8.044287346035e-03
8.027883958411e-03
7.996425445455e-03
7.966361906334e-03
7.933557779695e-03
7.892283273954e-03
7.836044206921e-03
7.778473441738e-03
7.696197235141e-03
7.613132173876e-03
7.518416983002e-03
7.403526785307e-03
7.268669918253e-03
7.099453112728e-03
6.905885479960e-03
6.679108515410e-03
6.419243596327e-03
6.137135887279e-03
5.827083863562e-03
5.492170169354e-03
5.133952481149e-03
4.771069045931e-03
4.441495252066e-03
4.099952429818e-03
3.762749617957e-03
3.497697933288e-03
3.351627922876e-03
3.275901071120e-03
3.304534755930e-03
3.399469520612e-03
3.547087830431e-03
3.714860869263e-03
3.908711983484e-03
4.107358429534e-03
4.306572467609e-03
4.456118747457e-03
4.567085455477e-03
4.706509917574e-03
4.781489007644e-03
4.850667313495e-03
4.905034447195e-03
4.932139719602e-03
6.329215741402e-03
6.640687124679e-03
6.920508593890e-03
7.168730858178e-03
7.396324615514e-03
7.598353743342e-03
7.775910886514e-03
7.927949195306e-03
8.070150507396e-03
4.313540568179e-03
6.140741738298e-03
4.890111254131e-03
4.526160154449e-03
3.780417762595e-03
3.748938603599e-03
3.928631894135e-03
4.272412027104e-03
4.714414895875e-03
5.196338002435e-03
5.680393338559e-03
2.913920546086e-03
3.176507081050e-03
3.601671830322e-03
4.020733634383e-03
4.434166159854e-03
4.840549946456e-03
5.238690972330e-03
5.617830513296e-03
5.945815375344e-03
5.973089021022e-03
5.987675283844e-03
5.998599787894e-03
6.059202815471e-03
6.040869668676e-03
6.060950758401e-03
6.083940242560e-03
6.120522335670e-03
6.142796013725e-03
6.158430231630e-03
6.166992889869e-03
6.162181024364e-03
6.149632418775e-03
3.075273028515e-03
2.872881642946e-03
3.024366737757e-03
2.995762107227e-03
3.158983453721e-03
2.312151561936e-03
8.179750157063e-04
3.170319715426e-04
1.583061039975e-04
2.874612851757e-04
5.543968389955e-04
9.069398539979e-04
1.292509555449e-03
1.635683595461e-03
1.874567127845e-03
2.084782510083e-03
2.249499600031e-03
2.401414936944e-03
2.508937464891e-03
3.627797487705e-03
2.981506778545e-03
2.666005641152e-03
2.493725064188e-03
2.388476270027e-03
2.303765985199e-03
2.246059831019e-03
2.235728716260e-03
2.251261447502e-03
2.277028976836e-03
2.315347242746e-03
2.363543715343e-03
2.418207048410e-03
2.477377519896e-03
2.538095263608e-03
2.597123108220e-03
2.651995312409e-03
2.702562514898e-03
2.748354375318e-03
2.789317081739e-03
2.824430977113e-03
2.852599497535e-03
2.874502777036e-03
2.891405057761e-03
2.909332520486e-03
2.951178490173e-03
3.250301348433e-03
3.056701764104e-03
2.830054883956e-03
2.734004997425e-03
2.671850075853e-03
2.650146681135e-03
2.657492396814e-03
2.674809068058e-03
2.697743910056e-03
2.728981844941e-03
2.763092605749e-03
2.801677171040e-03
2.843512541933e-03
2.884941643743e-03
2.924127486547e-03
2.960596143097e-03
2.994513184312e-03
3.025217603143e-03
3.052391820033e-03
3.075120161167e-03
3.093082829477e-03
3.106946364235e-03
3.119048502642e-03
3.140994778080e-03
3.168373213179e-03
3.588718138016e-03
3.558246840290e-03
3.551160734589e-03
3.546003303019e-03
3.540120344214e-03
3.532569457156e-03
3.523369097166e-03
3.512630438148e-03
3.500577089154e-03
3.487617876648e-03
3.473703271844e-03
3.458048147939e-03
3.440511247354e-03
3.422813054684e-03
3.404458031867e-03
3.380470373043e-03
3.350503986917e-03
3.321857377463e-03
3.297177498888e-03
3.286425680017e-03
3.303500615468e-03
3.408900408425e-03
3.491113815839e-03
3.819436489747e-03
3.846879447469e-03
3.838918631401e-03
3.874305386388e-03
3.914580548986e-03
3.951457052126e-03
3.983243223481e-03
4.005590612547e-03
4.016471004728e-03
4.017346621786e-03
4.016394541234e-03
4.013734768062e-03
4.010455595131e-03
4.007381231823e-03
4.004493501273e-03
4.001385642475e-03
3.998251454332e-03
3.995451319822e-03
3.993340305980e-03
3.993253517961e-03
4.001571859787e-03
4.016799600864e-03
4.431181074040e-03
4.428229962476e-03
4.431182550311e-03
4.437408455879e-03
4.446789994711e-03
4.458272938344e-03
4.470562371529e-03
4.483499506036e-03
4.496857490484e-03
4.510722711935e-03
4.524467576897e-03
4.536609582349e-03
4.545443825091e-03
4.540761792892e-03
4.515782143187e-03
4.479836202099e-03
4.433621322825e-03
4.379683587632e-03
4.344237099407e-03
4.263147100192e-03
4.750748240855e-03
4.860429613120e-03
4.909626304221e-03
4.963011189860e-03
5.004674908202e-03
5.025655806534e-03
5.022994244250e-03
5.008449767802e-03
4.990235565658e-03
4.970600314027e-03
4.950426530631e-03
4.928954773627e-03
4.908740005073e-03
4.890041335445e-03
4.873000337745e-03
4.860150555412e-03
4.851499958857e-03
4.845568959605e-03
4.842687028188e-03
5.241267291108e-03
5.248587897371e-03
5.258265935969e-03
5.271599882466e-03
5.288827059698e-03
5.310742138681e-03
5.334882566556e-03
5.362779442987e-03
5.388594993000e-03
5.411929737373e-03
5.430832813770e-03
5.445719054476e-03
5.453174107722e-03
5.439516941450e-03
5.397012436327e-03
5.355361544075e-03
5.245978046499e-03
5.714490857456e-03
5.813938315061e-03
5.835174433021e-03
5.840360043909e-03
5.833695070222e-03
5.818103846192e-03
5.795028659969e-03
5.766767890495e-03
5.737677589496e-03
5.710126346810e-03
5.686114582844e-03
5.665548139500e-03
5.650162298058e-03
5.635499070906e-03
5.628427353512e-03
5.629264097252e-03
5.498286765927e-03
4.906434542332e-03
4.113205804281e-03
3.825711166294e-03
3.886211071302e-03
4.138651647216e-03
4.535335608433e-03
4.997305978164e-03
5.482638168965e-03
5.947942964697e-03
4.907977127625e-03
3.027011460075e-03
6.352325061719e-04
3.306991252714e-03
3.343861127869e-03
4.109424399161e-03
4.005715611982e-03
4.236384197508e-03
4.387933786484e-03
5.746658104232e-03
5.230298896789e-03
4.265706873362e-03
1.095843900169e-03
6.877137304910e-03
6.188694605467e-03
2.910924480450e-03
4.324745450285e-03
7.388619389342e-03
7.785313169839e-03
8.059896866083e-03
8.008452703043e-03
7.934713608946e-03
6.419799165205e-03
6.417548149431e-03
6.384109047919e-03
7.288464211979e-03
4.685853939449e-03
3.062198049521e-03
1.692877972779e-03
4.684489934834e-03
6.290966537512e-03
9.166122901306e-04
7.598744547736e-03
5.066175618532e-03
6.379400553280e-03
3.536174281625e-03
2.925605933477e-03
2.490799140745e-03
6.430773857760e-03
3.748183069671e-03
7.687926781497e-03
4.933133810218e-04
3.611204782551e-03
8.094318986599e-03
4.203087084928e-03
4.385619155326e-03
4.774721081597e-03
5.716711822374e-03
5.334503215652e-03
6.806527419845e-03
4.876336696390e-03
1.955433765463e-03
7.986806783360e-03
6.372424062833e-03
6.413868113875e-03
6.579499766030e-03
6.594621846248e-03
6.753213181952e-03
6.738544115533e-03
6.572225435573e-03
6.697372701444e-03
6.512347448420e-03
6.909371718817e-03
6.623436645823e-03
6.417056385653e-03
6.517964511981e-03
6.289435791241e-03
6.194995218128e-03
6.055519064815e-03
5.939983755781e-03
5.794750461270e-03
5.881514232131e-03
5.613587974545e-03
5.511987396621e-03
5.336315916748e-03
5.244617463498e-03
5.073444525870e-03
5.002969700060e-03
4.843705337031e-03
4.881509034208e-03
4.672006169489e-03
4.664507224334e-03
4.513954762210e-03
4.543120269078e-03
4.431047729163e-03
4.362139115070e-03
4.363598754564e-03
4.539006959059e-03
4.590142606630e-03
4.842451937036e-03
4.910365516021e-03
5.131074869832e-03
5.173761695370e-03
4.912790875354e-03
5.143393783846e-03
5.373252167812e-03
5.286250308113e-03
5.027939621800e-03
5.116772407591e-03
4.804685633841e-03
4.846861547552e-03
5.121301073616e-03
4.797006253139e-03
4.405675833202e-03
4.311453279815e-03
4.704809802729e-03
4.168923391567e-03
3.703349569928e-03
3.612925839734e-03
4.020236374039e-03
3.576491681424e-03
3.301829616261e-03
3.344368268357e-03
3.585533797649e-03
3.390339251339e-03
3.144956479796e-03
3.219684043796e-03
3.014495507455e-03
3.418294900949e-03
3.280896112033e-03
3.410320333854e-03
3.311235564236e-03
4.225492758494e-03
3.349777576260e-03
3.463469789150e-03
3.297557572700e-03
3.290029015703e-03
3.235755307233e-03
3.234827649583e-03
3.072211561777e-03
5.028152744552e-03
5.672418456978e-03
3.117990903028e-03
2.852099481333e-03
2.822504185187e-03
2.487849731090e-03
6.909920083225e-03
7.071105536206e-03
7.054063560975e-03
7.228776960866e-03
7.204083663116e-03
2.573609399934e-03
6.744841919605e-03
7.229300011007e-03
5.394574976712e-03
4.663186473997e-03
4.641028983680e-03
3.294551345868e-03
3.219481783012e-03
3.402538975927e-03
2.893273158784e-03
2.821376439597e-03
2.642853271033e-03
2.637219471074e-03
2.387223506180e-03
2.488364497559e-03
2.754445579044e-03
2.719887488111e-03
2.968744928811e-03
2.202000975141e-03
2.102386656972e-03
3.026149904025e-03
3.241677670437e-03
3.360065979765e-03
3.540959057539e-03
3.447483810321e-03
3.711429869250e-03
3.627828080179e-03
4.298021693250e-03
4.017070607290e-03
3.498102247759e-03
3.187779820841e-03
2.665652662359e-03
2.520529180668e-03
2.088327548114e-03
2.195373466310e-03
6.385304710614e-03
5.522430766442e-03
5.554309630326e-03
5.677496146839e-03
5.672420403953e-03
5.765713908366e-03
5.773664402012e-03
5.830720552787e-03
5.759486307436e-03
5.758527909775e-03
5.689320591224e-03
5.603128519058e-03
5.647912254795e-03
4.666002202051e-03
2.979851079833e-03
2.532436692827e-03
2.939536822327e-03
2.456709467236e-03
3.840700585771e-03
1.919400471156e-03
1.801091478552e-03
1.694196961336e-03
2.098766024804e-03
5.830420754607e-03
5.695942019297e-03
7.373286929130e-03
7.341322507695e-03
1.674031879051e-03
2.229761528190e-03
2.807586527952e-03
5.625939612658e-03
3.970139198934e-03
4.111978768474e-03
2.993641720341e-03
2.715777948740e-03
3.067254612559e-03
5.565624238015e-03
5.537180101554e-03
5.673477291184e-03
5.416907599873e-03
5.257300483090e-03
5.076656432607e-03
5.204877631971e-03
4.808540383778e-03
4.694421270413e-03
4.315650232248e-03
4.193492263276e-03
3.774470700406e-03
4.006873228459e-03
5.443222755269e-03
6.052522822182e-03
2.008850852254e-03
1.799549377092e-03
7.506835250327e-03
7.467418898210e-03
7.286167245278e-03
7.409221354280e-03
7.581154751666e-03
7.522129988470e-03
7.334294555376e-03
7.448237709872e-03
7.244002978829e-03
7.360536451226e-03
7.554684072009e-03
7.469692795914e-03
7.260036347263e-03
7.374029269127e-03
7.148464078058e-03
7.267238040057e-03
7.481455211914e-03
1.661872579790e-03
1.770881489076e-03
1.394897454396e-03
3.352452798746e-03
3.539874783389e-03
3.534876530758e-03
3.689851883120e-03
7.380115003120e-03
7.583185885619e-03
5.754012542116e-03
5.517604347126e-03
7.526772885943e-03
4.202768033002e-03
4.082027105849e-03
4.580621918016e-03
4.665443499307e-03
4.617204775222e-03
4.645137698806e-03
4.729883964207e-03
4.615101199686e-03
2.206296328931e-03
7.652297027679e-03
2.852739796788e-03
2.479765404939e-03
4.344066153275e-03
2.415264397421e-03
4.890057823967e-03
4.610336367083e-03
4.874134775829e-03
4.576691884973e-03
4.926688909245e-03
4.653739231235e-03
4.275514810878e-03
3.047062305775e-03
4.391785840817e-03
7.148175890684e-03
3.440965117021e-03
4.221518311612e-03
1.532766639791e-03
3.460958315731e-03
1.821417225943e-03
2.414690549388e-03
1.876166915475e-03
5.085684541371e-03
5.316123922287e-03
4.658319940316e-03
4.768743704104e-03
2.763443411993e-03
7.017844808316e-03
7.121398444782e-03
7.010223408580e-03
1.100140820646e-03
3.920342412477e-03
7.684952712574e-03
5.464790927710e-03
5.245743836855e-03
5.373101106004e-03
5.140932202753e-03
7.485972834221e-03
7.676035235163e-03
3.633521425830e-03
3.800486500248e-03
1.512398005216e-03
3.213400831473e-03
7.758034764108e-03
1.975403047634e-03
2.681275964291e-03
3.707491332859e-03
5.479818286560e-03
5.686408963711e-03
4.487526065166e-03
3.497922909865e-03
2.044517189447e-03
1.850538156243e-03
7.728501031058e-03
3.977315130672e-03
3.972401749231e-03
4.137976068708e-03
2.790314481764e-03
2.341534915086e-03
4.401963200552e-03
5.530806860989e-03
5.717214463316e-03
5.200174683109e-03
4.964748713549e-03
4.967536406506e-03
4.738025854030e-03
6.376483042659e-03
4.926772409831e-03
5.783417912173e-03
5.872990730088e-03
5.613184840009e-03
4.855467305581e-03
4.918999055807e-03
5.497020189631e-03
4.357883492338e-03
3.475444743719e-03
3.403501137868e-03
2.773448292013e-03
7.721521652144e-03
7.809456614423e-03
7.022606727613e-03
6.892977151624e-03
1.976403275583e-03
1.994402359661e-03
2.987149849147e-03
2.434727840657e-03
7.650446020934e-03
7.662850929750e-03
7.530384677212e-03
1.481657312081e-03
5.592774792357e-03
3.760908789849e-03
5.527203938838e-03
4.280089431950e-03
1.443408348470e-03
5.951886218717e-03
4.537961458335e-03
4.499904378735e-03
3.242279970334e-03
6.198452191793e-03
4.036344688560e-03
4.068342865078e-03
5.673125881331e-03
5.424669725487e-03
5.359635021577e-03
5.181240567369e-03
4.010157183546e-03
3.827214771541e-03
5.384961594296e-03
4.651425300928e-03
5.960487095071e-03
6.120264347653e-03
3.042063533071e-03
2.520553118798e-03
2.611173645216e-03
4.776018716167e-03
7.824224612941e-03
5.926723911302e-03
2.818135480598e-03
2.891846003307e-03
4.963592286693e-03
5.648550691607e-03
7.842969061733e-03
4.700396755067e-03
4.549427722288e-03
4.897758664127e-03
4.882864587215e-03
6.261088857955e-03
4.672034768473e-03
5.038578602698e-03
7.913345985566e-03
3.725077747401e-03
4.626355820140e-03
1.338364642630e-03
7.756938757290e-03
7.925928240185e-03
6.879091861136e-03
6.743873508898e-03
6.984211383116e-03
5.828690434512e-03
5.542014618485e-03
7.743175348616e-03
3.087471324370e-03
3.284244266678e-03
3.060529459546e-03
3.325170394944e-03
3.529552625206e-03
3.371146087460e-03
5.750932516695e-03
6.074783760467e-03
5.152146572396e-03
2.246537549422e-03
2.869060148894e-03
3.301481777005e-03
7.855804702854e-03
7.946778470899e-03
4.198910531253e-03
4.673372886966e-03
3.713314162280e-03
7.857856643568e-03
4.651383650039e-03
4.453445104141e-03
1.418309324181e-03
2.023277024903e-03
5.390082648118e-03
5.611722992676e-03
7.649837440098e-03
7.520611371000e-03
7.785629508701e-03
2.217713626992e-03
3.653246076062e-03
1.943381057364e-03
1.629880486748e-03
2.463032024610e-03
3.465534715204e-03
3.755007017074e-03
4.459465409390e-03
4.426777583816e-03
7.873674521916e-03
6.740648603890e-03
3.832551835718e-03
6.594445435543e-03
6.750990987682e-03
6.425047948370e-03
1.555421370029e-03
6.698236900971e-03
6.849998271981e-03
1.209789665633e-03
7.930714493488e-03
9.126817916567e-04
9.743906984622e-04
3.275946219278e-03
3.329036400697e-03
3.686417750319e-03
3.709624023557e-03
3.426103287546e-03
3.801763135660e-03
6.594121786881e-03
4.092634708288e-03
4.135745603677e-03
4.416595129786e-03
5.216288711828e-03
4.603795946369e-03
4.492792053553e-03
4.314801649272e-03
6.429377466255e-03
6.479952503761e-03
4.562079961051e-03
4.438310616903e-03
6.587012025601e-03
6.557430010381e-03
6.825246604598e-03
6.782654315373e-03
7.031020886603e-03
6.986537470607e-03
7.221845606357e-03
5.083683624951e-03
4.597011969569e-03
5.704584200234e-03
2.890359602377e-03
2.327061247542e-03
4.956228603213e-03
4.760483784627e-03
2.897703571842e-03
5.133130455827e-03
7.960871777313e-03
3.872893984692e-03
4.592381864434e-03
4.862754358263e-03
5.122374405133e-03
4.584235723501e-03
4.547793834918e-03
1.647052429556e-03
2.084128015453e-03
5.127026458650e-03
7.255853730433e-03
5.015051700972e-03
4.567663022094e-03
5.278113270131e-03
4.930614477880e-03
5.217357802879e-03
4.726500787520e-03
6.302005978849e-03
6.414527972411e-03
6.181231766955e-03
5.368869674616e-03
4.646916120582e-03
4.418875238417e-03
5.661409380170e-03
7.378174398811e-03
7.353326524054e-03
7.483104406178e-03
7.312276388425e-03
7.168065429565e-03
7.110027076836e-03
7.261418539102e-03
7.042167778579e-03
7.249313864532e-03
6.952299249183e-03
6.781102338636e-03
6.670932882988e-03
6.847250281974e-03
6.512676698500e-03
3.517280025420e-03
4.721707351685e-03
4.796247435223e-03
5.705617938310e-03
5.145860637367e-03
7.505326590350e-03
7.720192939682e-03
5.604784708315e-03
6.643259082128e-03
6.133382102287e-03
5.839975562487e-03
6.078843350282e-03
7.209444104655e-03
7.023126163979e-03
7.060268456712e-03
7.850993702850e-03
7.079229864230e-03
4.703837019052e-03
3.687642308493e-03
4.049423229571e-03
4.533564747065e-03
6.879866709240e-03
3.245830133332e-03
2.513531319534e-03
2.337609621393e-03
1.885944890400e-03
2.914822525769e-03
7.256497435541e-03
7.094648422364e-03
4.910703209240e-03
5.053135568754e-03
4.838013464219e-03
5.188553699250e-03
5.365015286464e-03
5.452978640636e-03
5.324589154310e-03
5.637729038906e-03
6.252885923501e-03
3.014229535622e-03
2.446998836256e-03
2.654919169675e-03
3.004016444834e-03
3.351670963770e-03
3.259790003750e-03
3.229829750846e-03
3.401523138459e-03
4.297315459052e-03
3.156340899033e-03
3.179811959878e-03
3.222965951012e-03
6.438974933717e-03
6.645875193941e-03
6.635143198008e-03
6.844403117075e-03
6.690941218291e-03
3.708209959845e-03
3.886930711584e-03
3.958171216284e-03
4.054950544348e-03
4.096211768569e-03
3.990404079784e-03
4.207471581184e-03
4.203069248206e-03
6.430061131545e-03
3.445190540144e-03
4.427113445229e-03
3.351669647229e-03
4.580447973488e-03
5.226827487166e-03
5.074575044824e-03
5.748850762506e-03
4.923281697326e-03
1.418597380180e-03
2.357517312012e-03
9.087879253682e-04
1.756858660119e-03
2.915001841734e-03
2.556732960086e-03
4.777861730498e-03
3.832624800941e-03
3.708512323067e-03
3.470271767050e-03
3.553387662736e-03
3.886843655494e-03
3.312959948257e-03
3.159819603239e-03
1.822302750029e-03
1.118789376211e-03
1.260845007992e-03
6.123478824086e-04
6.389158266830e-04
1.058641620520e-03
9.575138231705e-04
1.515710547729e-03
8.564364783195e-04
7.498727672256e-04
1.323763190321e-03
7.503499086545e-03
7.608514083216e-03
3.545493223621e-03
6.424383211713e-03
4.889131061237e-04
8.051920036690e-03
8.038361101292e-03
8.052127376906e-03
4.798930446955e-03
4.809354367522e-03
8.063785107019e-03
3.094990526214e-03
7.459597072934e-03
7.827326654620e-03
5.913455035561e-03
3.614035089082e-03
4.278641466574e-03
3.199424803709e-03
4.276540530293e-03
3.858486735589e-03
3.694882039933e-03
2.234402248950e-03
1.366954648191e-03
7.138048352617e-03
7.026628791041e-03
7.572299940586e-03
2.946857437445e-03
3.852153223312e-03
2.004169256854e-03
5.876495293634e-03
5.519465705292e-03
3.069443442234e-03
3.316819410364e-03
3.308744088999e-03
3.884637170446e-03
4.522257531594e-03
3.127342769031e-03
2.459254243068e-03
7.668340299432e-03
7.489280965955e-04
2.213381120068e-03
2.859744521243e-03
7.212752706170e-03
2.141453602963e-03
4.699490304847e-03
7.625944201969e-03
7.766738102495e-03
6.942032232280e-03
1.448101944309e-03
6.884277331302e-03
2.317581273524e-03
7.385881040730e-03
2.713594799198e-03
4.420099789381e-03
4.804663319683e-03
5.957738365363e-03
7.880900422922e-03
4.325886354683e-03
1.553965146043e-03
2.921330131594e-03
2.889688922169e-03
3.023913346933e-03
4.831462806644e-03
7.779391301838e-03
5.191064218783e-03
5.372647515040e-03
7.624137017708e-03
3.284223942937e-03
2.379015769207e-03
5.266128191779e-03
5.132003041823e-03
6.132137572299e-03
4.486062115463e-03
4.325120834687e-03
2.601657442268e-03
5.621789838679e-03
4.698412179813e-03
7.152941354354e-03
4.844814076867e-03
7.908370096797e-03
4.769447913615e-03
3.184787450792e-03
7.755800308952e-03
3.135053402968e-03
1.745919663887e-03
5.839141818678e-03
5.692485130234e-03
4.601144356616e-03
3.057910833394e-03
7.649090788195e-03
3.554182884296e-03
1.528301017895e-03
4.961401608913e-03
5.954426705435e-03
3.898572923146e-03
3.856057363031e-03
2.084277126584e-03
4.100750048923e-03
5.526662529934e-03
4.980636917490e-03
4.209415686705e-03
1.446269133001e-03
5.376897504751e-03
6.279197899670e-03
4.452799807562e-03
1.305710494154e-03
4.411094444108e-03
3.799236239989e-03
5.476868041962e-03
3.205509943440e-03
5.398115205617e-03
7.898106384908e-03
1.467698461035e-03
6.881524512543e-03
3.384620644371e-03
3.349371169460e-03
6.607006058962e-04
5.463515050371e-03
3.574065614986e-03
5.559689296120e-03
3.296021973725e-03
3.626202484850e-03
3.776145738321e-03
5.385468770550e-03
3.975365697176e-03
4.999881032062e-03
6.827910898434e-03
4.165794770909e-03
5.438293056162e-03
9.346579155824e-04
4.113965751403e-03
4.689188518212e-03
3.550327387700e-03
2.954198138632e-03
6.964062976273e-03
4.574159460525e-03
2.489814988427e-03
5.537528383512e-03
3.785508010303e-03
4.248088418715e-03
1.922729198293e-03
4.592693464162e-03
3.186251910084e-03
2.935104105605e-03
5.084814709087e-03
5.901648007993e-03
8.896688311609e-04
6.638371716236e-03
2.643299026537e-03
4.989845060404e-03
3.345045333327e-03
7.065129122380e-03
4.576212484843e-03
2.387956925453e-03
4.401420407264e-03
3.822001974667e-03
3.891076229273e-03
3.788910450371e-03
7.957934689990e-03
3.586662085502e-03
8.090036430369e-03
4.900677934542e-03
6.510769444790e-03
4.208638959691e-03
2.874328821237e-03
4.414373101911e-03
3.614443492139e-03
6.235614690545e-03
6.528391465900e-03
3.448441028680e-03
7.116765862656e-03
5.423230774704e-03
7.405508371884e-03
1.881800207639e-03
3.432195958740e-03
7.842765769316e-03
6.306955172352e-03
1.404572486995e-03
4.451687607058e-03
4.057598490642e-03
4.436716124499e-03
4.808471861122e-03
3.038211056371e-03
3.686531349451e-03
4.212510983825e-03
2.730321841037e-03
6.641738122648e-03
3.706847229669e-03
4.601574435381e-03
7.861186879160e-03
4.389044609208e-03
4.074635598275e-03
3.937624686687e-03
5.277788710807e-03
6.838024560283e-03
6.180003956902e-03
7.573522510198e-03
4.414187601454e-03
6.624846329942e-03
7.980330958214e-03
5.876719731691e-03
7.985513968036e-03
6.383834213685e-03
6.903409514968e-03
6.752147427051e-03
4.785762261792e-03
7.421354305649e-03
5.588549659666e-03
7.401464050947e-03
3.507383125961e-03
4.494660886406e-03
3.248048991748e-03
6.559558653566e-03
4.614152793422e-03
6.237867738054e-04
8.016163017239e-04
2.817400233500e-03
6.772129542369e-03
5.584904134250e-03
8.014981870404e-03
5.210116668690e-03
6.313518492431e-03
8.157085865203e-04
4.606620933089e-03
7.954310625441e-03
3.780638791497e-03
6.396811750832e-03
2.750449496501e-03
5.082958891699e-03
2.247129647183e-03
7.986159887618e-03
2.480051341515e-03
7.749867014434e-03
4.073382870521e-03
4.009785384884e-03
4.877220773533e-03
1.855120403210e-03
6.279966838358e-03
7.579699486229e-03
3.333919426964e-03
1.144683917282e-03
8.101833708593e-03
2.164297293307e-03
6.224844589616e-03
4.943408626993e-03
8.257739517769e-04
6.732292386373e-03
6.980152763885e-03
4.153816510108e-03
7.746854702588e-03
4.429399862568e-03
2.818155896139e-03
7.198412503094e-03
4.121846754666e-03
7.860158599713e-03
7.042027274664e-03
5.789057707728e-03
6.735894618473e-03
3.880546123096e-03
5.806213213739e-03
2.214937917226e-03
5.109578339948e-03
4.250339705627e-03
7.795276851521e-04
3.957098963127e-03
3.986850501763e-03
3.531473820589e-03
2.983992471463e-03
3.592490625716e-03
3.372822849776e-03
3.761862076185e-03
3.825767681844e-03
4.087713205130e-03
4.213925036796e-03
4.526603128191e-03
4.651269621131e-03
5.006302188873e-03
5.029981518783e-03
5.495462164380e-03
5.444975053068e-03
5.947760780715e-03
5.796793013241e-03


CELL_DATA 2299

SCALARS element_number int
LOOKUP_TABLE default
407
408
409
410
411
412
413
414
415
416
417
418
419
420
421
422
423
424
425
426
427
428
429
430
431
432
433
434
435
436
437
438
439
440
441
442
443
444
445
446
447
448
449
450
451
452
453
454
455
456
457
458
459
460
461
462
463
464
465
466
467
468
469
470
471
472
473
474
475
476
477
478
479
480
481
482
483
484
485
486
487
488
489
490
491
492
493
494
495
496
497
498
499
500
501
502
503
504
505
506
507
508
509
510
511
512
513
514
515
516
517
518
519
520
521
522
523
524
525
526
527
528
529
530
531
532
533
534
535
536
537
538
539
540
541
542
543
544
545
546
547
548
549
550
551
552
553
554
555
556
557
558
559
560
561
562
563
564
565
566
567
568
569
570
571
572
573
574
575
576
577
578
579
580
581
582
583
584
585
586
587
588
589
590
591
592
593
594
595
596
597
598
599
600
601
602
603
604
605
606
607
608
609
610
611
612
613
614
615
616
617
618
619
620
621
622
623
624
625
626
627
628
629
630
631
632
633
634
635
636
637
638
639
640
641
642
643
644
645
646
647
648
649
650
651
652
653
654
655
656
657
658
659
660
661
662
663
664
665
666
667
668
669
670
671
672
673
674
675
676
677
678
679
680
681
682
683
684
685
686
687
688
689
690
691
692
693
694
695
696
697
698
699
700
701
702
703
704
705
706
707
708
709
710
711
712
713
714
715
716
717
718
719
720
721
722
723
724
725
726
727
728
729
730
731
732
733
734
735
736
737
738
739
740
741
742
743
744
745
746
747
748
749
750
751
752
753
754
755
756
757
758
759
760
761
762
763
764
765
766
767
768
769
770
771
772
773
774
775
776
777
778
779
780
781
782
783
784
785
786
787
788
789
790
791
792
793
794
795
796
797
798
799
800
801
802
803
804
805
806
807
808
809
810
811
812
813
814
815
816
817
818
819
820
821
822
823
824
825
826
827
828
829
830
831
832
833
834
835
836
837
838
839
840
841
842
843
844
845
846
847
848
849
850
851
852
853
854
855
856
857
858
859
860
861
862
863
864
865
866
867
868
869
870
871
872
873
874
875
876
877
878
879
880
881
882
883
884
885
886
887
888
889
890
891
892
893
894
895
896
897
898
899
900
901
902
903
904
905
906
907
908
909
910
911
912
913
914
915
916
917
918
919
920
921
922
923
924
925
926
927
928
929
930
931
932
933
934
935
936
937
938
939
940
941
942
943
944
945
946
947
948
949
950
951
952
953
954
955
956
957
958
959
960
961
962
963
964
965
966
967
968
969
970
971
972
973
974
975
976
977
978
979
980
981
982
983
984
985
986
987
988
989
990
991
992
993
994
995
996
997
998
999
1000
1001
1002
1003
1004
1005
1006
1007
1008
1009
1010
1011
1012
1013
1014
1015
1016
1017
1018
1019
1020
1021
1022
1023
1024
1025
1026
1027
1028
1029
1030
1031
1032
1033
1034
1035
1036
1037
1038
1039
1040
1041
1042
1043
1044
1045
1046
1047
1048
1049
1050
1051
1052
1053
1054
1055
1056
1057
1058
1059
1060
1061
1062
1063
1064
1065
1066
1067
1068
1069
1070
1071
1072
1073
1074
1075
1076
1077
1078
1079
1080
1081
1082
1083
1084
1085
1086
1087
1088
1089
1090
1091
1092
1093
1094
1095
1096
1097
1098
1099
1100
1101
1102
1103
1104
1105
1106
1107
1108
1109
1110
1111
1112
1113
1114
1115
1116
1117
1118
1119
1120
1121
1122
1123
1124
1125
1126
1127
1128
1129
1130
1131
1132
1133
1134
1135
1136
1137
1138
1139
1140
1141
1142
1143
1144
1145
1146
1147
1148
1149
1150
1151
1152
1153
1154
1155
1156
1157
1158
1159
1160
1161
1162
1163
1164
1165
1166
1167
1168
1169
1170
1171
1172
1173
1174
1175
1176
1177
1178
1179
1180
1181
1182
1183
1184
1185
1186
1187
1188
1189
1190
1191
1192
1193
1194
1195
1196
1197
1198
1199
1200
1201
1202
1203
1204
1205
1206
1207
1208
1209
1210
1211
1212
1213
1214
1215
1216
1217
1218
1219
1220
1221
1222
1223
1224
1225
1226
1227
1228
1229
1230
1231
1232
1233
1234
1235
1236
1237
1238
1239
1240
1241
1242
1243
1244
1245
1246
1247
1248
1249
1250
1251
1252
1253
1254
1255
1256
1257
1258
1259
1260
1261
1262
1263
1264
1265
1266
1267
1268
1269
1270
1271
1272
1273
1274
1275
1276
1277
1278
1279
1280
1281
1282
1283
1284
1285
1286
1287
1288
1289
1290
1291
1292
1293
1294
1295
1296
1297
1298
1299
1300
1301
1302
1303
1304
1305
1306
1307
1308
1309
1310
1311
1312
1313
1314
1315
1316
1317
1318
1319
1320
1321
1322
1323
1324
1325
1326
1327
1328
1329
1330
1331
1332
1333
1334
1335
1336
1337
1338
1339
1340
1341
1342
1343
1344
1345
1346
1347
1348
1349
1350
1351
1352
1353
1354
1355
1356
1357
1358
1359
1360
1361
1362
1363
1364
1365
1366
1367
1368
1369
1370
1371
1372
1373
1374
1375
1376
1377
1378
1379
1380
1381
1382
1383
1384
1385
1386
1387
1388
1389
1390
1391
1392
1393
1394
1395
1396
1397
1398
1399
1400
1401
1402
1403
1404
1405
1406
1407
1408
1409
1410
1411
1412
1413
1414
1415
1416
1417
1418
1419
1420
1421
1422
1423
1424
1425
1426
1427
1428
1429
1430
1431
1432
1433
1434
1435
1436
1437
1438
1439
1440
1441
1442
1443
1444
1445
1446
1447
1448
1449
1450
1451
1452
1453
1454
1455
1456
1457
1458
1459
1460
1461
1462
1463
1464
1465
1466
1467
1468
1469
1470
1471
1472
1473
1474
1475
1476
1477
1478
1479
1480
1481
1482
1483
1484
1485
1486
1487
1488
1489
1490
1491
1492
1493
1494
1495
1496
1497
1498
1499
1500
1501
1502
1503
1504
1505
1506
1507
1508
1509
1510
1511
1512
1513
1514
1515
1516
1517
1518
1519
1520
1521
1522
1523
1524
1525
1526
1527
1528
1529
1530
1531
1532
1533
1534
1535
1536
1537
1538
1539
1540
1541
1542
1543
1544
1545
1546
1547
1548
1549
1550
1551
1552
1553
1554
1555
1556
1557
1558
1559
1560
1561
1562
1563
1564
1565
1566
1567
1568
1569
1570
1571
1572
1573
1574
1575
1576
1577
1578
1579
1580
1581
1582
1583
1584
1585
1586
1587
1588
1589
1590
1591
1592
1593
1594
1595
1596
1597
1598
1599
1600
1601
1602
1603
1604
1605
1606
1607
1608
1609
1610
1611
1612
1613
1614
1615
1616
1617
1618
1619
1620
1621
1622
1623
1624
1625
1626
1627
1628
1629
1630
1631
1632
1633
1634
1635
1636
1637
1638
1639
1640
1641
1642
1643
1644
1645
1646
1647
1648
1649
1650
1651
1652
1653
1654
1655
1656
1657
1658
1659
1660
1661
1662
1663
1664
1665
1666
1667
1668
1669
1670
1671
1672
1673
1674
1675
1676
1677
1678
1679
1680
1681
1682
1683
1684
1685
1686
1687
1688
1689
1690
1691
1692
1693
1694
1695
1696
1697
1698
1699
1700
1701
1702
1703
1704
1705
1706
1707
1708
1709
1710
1711
1712
1713
1714
1715
1716
1717
1718
1719
1720
1721
1722
1723
1724
1725
1726
1727
1728
1729
1730
1731
1732
1733
1734
1735
1736
1737
1738
1739
1740
1741
1742
1743
1744
1745
1746
1747
1748
1749
1750
1751
1752
1753
1754
1755
1756
1757
1758
1759
1760
1761
1762
1763
1764
1765
1766
1767
1768
1769
1770
1771
1772
1773
1774
1775
1776
1777
1778
1779
1780
1781
1782
1783
1784
1785
1786
1787
1788
1789
1790
1791
1792
1793
1794
1795
1796
1797
1798
1799
1800
1801
1802
1803
1804
1805
1806
1807
1808
1809
1810
1811
1812
1813
1814
1815
1816
1817
1818
1819
1820
1821
1822
1823
1824
1825
1826
1827
1828
1829
1830
1831
1832
1833
1834
1835
1836
1837
1838
1839
1840
1841
1842
1843
1844
1845
1846
1847
1848
1849
1850
1851
1852
1853
1854
1855
1856
1857
1858
1859
1860
1861
1862
1863
1864
1865
1866
1867
1868
1869
1870
1871
1872
1873
1874
1875
1876
1877
1878
1879
1880
1881
1882
1883
1884
1885
1886
1887
1888
1889
1890
1891
1892
1893
1894
1895
1896
1897
1898
1899
1900
1901
1902
1903
1904
1905
1906
1907
1908
1909
1910
1911
1912
1913
1914
1915
1916
1917
1918
1919
1920
1921
1922
1923
1924
1925
1926
1927
1928
1929
1930
1931
1932
1933
1934
1935
1936
1937
1938
1939
1940
1941
1942
1943
1944
1945
1946
1947
1948
1949
1950
1951
1952
1953
1954
1955
1956
1957
1958
1959
1960
1961
1962
1963
1964
1965
1966
1967
1968
1969
1970
1971
1972
1973
1974
1975
1976
1977
1978
1979
1980
1981
1982
1983
1984
1985
1986
1987
1988
1989
1990
1991
1992
1993
1994
1995
1996
1997
1998
1999
2000
2001
2002
2003
2004
2005
2006
2007
2008
2009
2010
2011
2012
2013
2014
2015
2016
2017
2018
2019
2020
2021
2022
2023
2024
2025
2026
2027
2028
2029
2030
2031
2032
2033
2034
2035
2036
2037
2038
2039
2040
2041
2042
2043
2044
2045
2046
2047
2048
2049
2050
2051
2052
2053
2054
2055
2056
2057
2058
2059
2060
2061
2062
2063
2064
2065
2066
2067
2068
2069
2070
2071
2072
2073
2074
2075
2076
2077
2078
2079
2080
2081
2082
2083
2084
2085
2086
2087
2088
2089
2090
2091
2092
2093
2094
2095
2096
2097
2098
2099
2100
2101
2102
2103
2104
2105
2106
2107
2108
2109
2110
2111
2112
2113
2114
2115
2116
2117
2118
2119
2120
2121
2122
2123
2124
2125
2126
2127
2128
2129
2130
2131
2132
2133
2134
2135
2136
2137
2138
2139
2140
2141
2142
2143
2144
2145
2146
2147
2148
2149
2150
2151
2152
2153
2154
2155
2156
2157
2158
2159
2160
2161
2162
2163
2164
2165
2166
2167
2168
2169
2170
2171
2172
2173
2174
2175
2176
2177
2178
2179
2180
2181
2182
2183
2184
2185
2186
2187
2188
2189
2190
2191
2192
2193
2194
2195
2196
2197
2198
2199
2200
2201
2202
2203
2204
2205
2206
2207
2208
2209
2210
2211
2212
2213
2214
2215
2216
2217
2218
2219
2220
2221
2222
2223
2224
2225
2226
2227
2228
2229
2230
2231
2232
2233
2234
2235
2236
2237
2238
2239
2240
2241
2242
2243
2244
2245
2246
2247
2248
2249
2250
2251
2252
2253
2254
2255
2256
2257
2258
2259
2260
2261
2262
2263
2264
2265
2266
2267
2268
2269
2270
2271
2272
2273
2274
2275
2276
2277
2278
2279
2280
2281
2282
2283
2284
2285
2286
2287
2288
2289
2290
2291
2292
2293
2294
2295
2296
2297
2298
2299
2300
2301
2302
2303
2304
2305
2306
2307
2308
2309
2310
2311
2312
2313
2314
2315
2316
2317
2318
2319
2320
2321
2322
2323
2324
2325
2451
2452
2453
2454
2455
2456
2457
2458
2459
2460
2461
2462
2463
2464
2465
2466
2467
2468
2469
2470
2471
2472
2473
2474
2475
2476
2477
2478
2479
2480
2481
2482
2483
2484
2485
2486
2487
2488
2489
2490
2491
2492
2493
2494
2495
2496
2497
2498
2499
2500
2501
2502
2503
2504
2505
2506
2507
2508
2509
2510
2511
2512
2513
2514
2515
2516
2517
2518
2519
2520
2521
2522
2523
2524
2525
2526
2527
2528
2529
2530
2531
2532
2533
2534
2535
2536
2537
2538
2539
2540
2541
2542
2543
2544
2545
2546
2547
2548
2549
2550
2551
2552
2553
2554
2555
2556
2557
2558
2559
2560
2561
2562
2563
2564
2565
2566
2567
2568
2569
2570
2571
2572
2573
2574
2575
2576
2577
2578
2579
2580
2581
2582
2583
2584
2585
2586
2587
2588
2589
2590
2591
2592
2593
2594
2595
2596
2597
2598
2599
2600
2601
2602
2603
2604
2605
2606
2607
2608
2609
2610
2611
2612
2613
2614
2615
2616
2617
2618
2619
2620
2621
2622
2623
2624
2625
2626
2627
2628
2629
2630
2631
2632
2633
2634
2635
2636
2637
2638
2639
2640
2641
2642
2643
2644
2645
2646
2647
2648
2649
2650
2651
2652
2653
2654
2655
2656
2657
2658
2659
2660
2661
2662
2663
2664
2665
2666
2667
2668
2669
2670
2671
2672
2673
2674
2675
2676
2677
2678
2679
2680
2681
2682
2683
2684
2685
2686
2687
2688
2689
2690
2691
2692
2693
2694
2695
2696
2697
2698
2699
2700
2701
2702
2703
2704
2705
2706
2707
2708
2709
2710
2711
2712
2713
2714
2715
2716
2717
2718
2719
2720
2721
2722
2723
2724
2725
2726
2727
2728
2729
2730
2731
2732
2733
2734
2735
2736
2737
2738
2739
2740
2741
2742
2743
2744
2745
2746
2747
2748
2749
2750
2751
2752
2753
2754
2755
2756
2757
2758
2759
2760
2761
2762
2763
2764
2765
2766
2767
2768
2769
2770
2771
2772
2773
2774
2775
2776
2777
2778
2779
2780
2781
2782
2783
2784
2785
2786
2787
2788
2789
2790
2791
2792
2793
2794
2795
2796
2797
2798
2799
2800
2801
2802
2803
2804
2805
2806
2807
2808
2809
2810
2811
2812
2813
2814
2815
2816
2817
2818
2819
2820
2821
2822
2823
2824
2825
2826
2827
2828
2829
2830

SCALARS element_group int
LOOKUP_TABLE default
0
0
0
0
0
0
0
0
0
0
0
0
0
0
0
0
0
0
0
0
0
0
0
0
0
0
0
0
0
0
0
0
0
0
0
0
0
0
0
0
0
0
0
0
0
0
0
0
0
0
0
0
0
0
0
0
0
0
0
0
0
0
0
0
0
0
0
0
0
0
0
0
0
0
0
0
0
0
0
0
0
0
0
0
0
0
0
0
0
0
0
0
0
0
0
0
0
0
0
0
0
0
0
0
0
0
0
0
0
0
0
0
0
0
0
0
0
0
0
0
0
0
0
0
0
0
0
0
0
0
0
0
0
0
0
0
0
0
0
0
0
0
0
0
0
0
0
0
0
0
0
0
0
0
0
0
0
0
0
0
0
0
0
0
0
0
0
0
0
0
0
0
0
0
0
0
0
0
0
0
0
0
0
0
0
0
0
0
0
0
0
0
0
0
0
0
0
0
0
0
0
0
0
0
0
0
0
0
0
0
0
0
0
0
0
0
0
0
0
0
0
0
0
0
0
0
0
0
0
0
0
0
0
0
0
0
0
0
0
0
0
0
0
0
0
0
0
0
0
0
0
0
0
0
0
0
0
0
0
0
0
0
0
0
0
0
0
0
0
0
0
0
0
0
0
0
0
0
0
0
0
0
0
0
0
0
0
0
0
0
0
0
0
0
0
0
0
0
0
0
0
0
0
0
0
0
0
0
0
0
0
0
0
0
0
0
0
0
0
0
0
0
0
0
0
0
0
0
0
0
0
0
0
0
0
0
0
0
0
0
0
0
0
0
0
0
0
0
0
0
0
0
0
0
0
0
0
0
0
0
0
0
0
0
0
0
0
0
0
0
0
0
0
0
0
0
0
0
0
0
0
0
0
0
0
0
0
0
0
0
0
0
0
0
0
0
0
0
0
0
0
0
0
0
0
0
0
0
0
0
0
0
0
0
0
0
0
0
0
0
0
0
0
0
0
0
0
0
0
0
0
0
0
0
0
0
0
0
0
0
0
0
0
0
0
0
0
0
0
0
0
0
0
0
0
0
0
0
0
0
0
0
0
0
0
0
0
0
0
0
0
0
0
0
0
0
0
0
0
0
0
0
0
0
0
0
0
0
0
0
0
0
0
0
0
0
0
0
0
0
0
0
0
0
0
0
0
0
0
0
0
0
0
0
0
0
0
0
0
0
0
0
0
0
0
0
0
0
0
0
0
0
0
0
0
0
0
0
0
0
0
0
0
0
0
0
0
0
0
0
0
0
0
0
0
0
0
0
0
0
0
0
0
0
0
0
0
0
0
0
0
0
0
0
0
0
0
0
0
0
0
0
0
0
0
0
0
0
0
0
0
0
0
0
0
0
0
0
0
0
0
0
0
0
0
0
0
0
0
0
0
0
0
0
0
0
0
0
0
0
0
0
0
0
0
0
0
0
0
0
0
0
0
0
0
0
0
0
0
0
0
0
0
0
0
0
0
0
0
0
0
0
0
0
0
0
0
0
0
0
0
0
0
0
0
0
0
0
0
0
0
0
0
0
0
0
0
0
0
0
0
0
0
0
0
0
0
0
0
0
0
0
0
0
0
0
0
0
0
0
0
0
0
0
0
0
0
0
0
0
0
0
0
0
0
0
0
0
0
0
0
0
0
0
0
0
0
0
0
0
0
0
0
0
0
0
0
0
0
0
0
0
0
0
0
0
0
0
0
0
0
0
0
0
0
0
0
0
0
0
0
0
0
0
0
0
0
0
0
0
0
0
0
0
0
0
0
0
0
0
0
0
0
0
0
0
0
0
0
0
0
0
0
0
0
0
0
0
0
0
0
0
0
0
0
0
0
0
0
0
0
0
0
0
0
0
0
0
0
0
0
0
0
0
0
0
0
0
0
0
0
0
0
0
0
0
0
0
0
0
0
0
0
0
0
0
0
0
0
0
0
0
0
0
0
0
0
0
0
0
0
0
0
0
0
0
0
0
0
0
0
0
0
0
0
0
0
0
0
0
0
0
0
0
0
0
0
0
0
0
0
0
0
0
0
0
0
0
0
0
0
0
0
0
0
0
0
0
0
0
0
0
0
0
0
0
0
0
0
0
0
0
0
0
0
0
0
0
0
0
0
0
0
0
0
0
0
0
0
0
0
0
0
0
0
0
0
0
0
0
0
0
0
0
0
0
0
0
0
0
0
0
0
0
0
0
0
0
0
0
0
0
0
0
0
0
0
0
0
0
0
0
0
0
0
0
0
0
0
0
0
0
0
0
0
0
0
0
0
0
0
0
0
0
0
0
0
0
0
0
0
0
0
0
0
0
0
0
0
0
0
0
0
0
0
0
0
0
0
0
0
0
0
0
0
0
0
0
0
0
0
0
0
0
0
0
0
0
0
0
0
0
0
0
0
0
0
0
0
0
0
0
0
0
0
0
0
0
0
0
0
0
0
0
0
0
0
0
0
0
0
0
0
0
0
0
0
0
0
0
0
0
0
0
0
0
0
0
0
0
0
0
0
0
0
0
0
0
0
0
0
0
0
0
0
0
0
0
0
0
0
0
0
0
0
0
0
0
0
0
0
0
0
0
0
0
0
0
0
0
0
0
0
0
0
0
0
0
0
0
0
0
0
0
0
0
0
0
0
0
0
0
0
0
0
0
0
0
0
0
0
0
0
0
0
0
0
0
0
0
0
0
0
0
0
0
0
0
0
0
0
0
0
0
0
0
0
0
0
0
0
0
0
0
0
0
0
0
0
0
0
0
0
0
0
0
0
0
0
0
0
0
0
0
0
0
0
0
0
0
0
0
0
0
0
0
0
0
0
0
0
0
0
0
0
0
0
0
0
0
0
0
0
0
0
0
0
0
0
0
0
0
0
0
0
0
0
0
0
0
0
0
0
0
0
0
0
0
0
0
0
0
0
0
0
0
0
0
0
0
0
0
0
0
0
0
0
0
0
0
0
0
0
0
0
0
0
0
0
0
0
0
0
0
0
0
0
0
0
0
0
0
0
0
0
0
0
0
0
0
0
0
0
0
0
0
0
0
0
0
0
0
0
0
0
0
0
0
0
0
0
0
0
0
0
0
0
0
0
0
0
0
0
0
0
0
0
0
0
0
0
0
0
0
0
0
0
0
0
0
0
0
0
0
0
0
0
0
0
0
0
0
0
0
0
0
0
0
0
0
0
0
0
0
0
0
0
0
0
0
0
0
0
0
0
0
0
0
0
0
0
0
0
0
0
0
0
0
0
0
0
0
0
0
0
0
0
0
0
0
0
0
0
0
0
0
0
0
0
0
0
0
0
0
0
0
0
0
0
0
0
0
0
0
0
0
0
0
0
0
0
0
0
0
0
0
0
0
0
0
0
0
0
0
0
0
0
0
0
0
0
0
0
0
0
0
0
0
0
0
0
0
0
0
0
0
0
0
0
0
0
0
0
0
0
0
0
0
0
0
0
0
0
0
0
0
0
0
0
0
0
0
0
0
0
0
0
0
0
0
0
0
0
0
0
0
0
0
0
0
0
0
0
0
0
0
0
0
0
0
0
0
0
0
0
0
0
0
0
0
0
0
0
0
0
0
0
0
0
0
0
0
0
0
0
0
0
0
0
0
0
0
0
0
0
0
0
0
0
0
0
0
0
0
0
0
0
0
0
0
0
0
0
0
0
0
0
0
0
0
0
0
0
0
0
0
0
0
0
0
0
0
0
0
0
0
0
0
0
0
0
0
0
0
0
0
0
0
0
0
0
0
0
0
0
0
0
0
0
0
0
0
0
0
0
0
0
0
0
0
0
0
0
0
0
0
0
0
0
0
0
0
0
0
0
0
0
0
0
0
0
0
0
0
0
0
0
0
0
0
0
0
0
0
0
0
0
0
0
0
0
0
0
0
0
0
0
0
0
0
0
0
0
0
0
0
0
0
0
0
0
0
0
0
0
0
0
0
0
0
0
0
0
0
0
0
0
0
0
0
0
0
0
0
0
0
0
0
0
0
0
0
0
0
0
0
0
0
0
0
0
0
0
0
0
0
0
0
0
0
0
0
0
0
0
0
0
0
0
0
0
0
0
0
0
0
0
0
0
0
0
0
0
0
0
0
0
0
0
0
0
0
0
0
0
0
0
0
0
0
0
0
0
0
0
0
0
0
0
0
0
0
0
0
0
0
0
0
0
0
0
0
0
0
0
0
0
0
0
0
0
0
0
0
0
0
0
0
0
0
0
0
0
0
0
0
0
0
0
0
0
0
0
0
0
0
0
0
0
0
0
0
0
0
0
0
0
0
0
0
0
0
0
0
0
0
0
0
0
0
0
0
0
0
0
0
0
0
0
0
0
0
0
0
0
0
0
0
0
0
0
0
0
0
0
0
0
0
0
0
0
0
0
0
0
0
0
0
0
0
0
0
0
0
0
0
0
0
0
0
0
0
0
0
0
0
0
0
0
0
0
0
0
0
0
0
0
0
0
0
0
0
0
0
0
0
0
0
0
0
0
0
0
0
0
0
0
0
0
0
0
0
0
0
0
0
0
0
0
0
0
0
0
0
0
0
0
0
0
0
0
0
0
0
0
0
0
0
0
0
0
0
0
0
0
0
0
0
0
0
0
0
0
0
0
0
0
0
0
0
0
0
0
0
0
0
0
0
0
0
0
0
0
0
0
0
0
0
0
0
0
0
0
0
0
0
0
0
0
0
0
0
0
0
0
0
0
0
0
0
0
0
0
0
0
0
0
0
0
0
0
0
0
0
0
0
0
0
0
0
0
0
0
0
0
0
0
0
0
0
0
0
0
0
0
0
0
0
0
0
0
0
0
0
0
0
0
0
0
0
0
0
0
0
0
0
0
0
0
0
0
0
0
0
0
0
0
0
0
0
0
0
0
0
0
0
0
0
0
0
0
0
0
0
0
0
0
0
0
0
0
0
0
0
0
0
0
0
0
0
0
0
0
0
0
0
0
0
0
0
0
0
0
0
0
0
0
0
0
0
0
0
0
0
0
0
0
0
0
0
0
0
0
0
0
0
0
0
0
0
0
0
0
0
0
0
0
0
0
0
0
0
0
0
0
0
0
0
0
0
0
0
0
0
0
0
0
0
0
0
0
0
0
0
0
0
0
0
0
0
0
0
0
0
0
0
0
0
0
0
0
0
0
0
0
0
0
0
0
0
0
0
0
0
0
0
0
0
0
0
0
0
0
0
0
0
0
0
0


VECTORS element_materi_velocity float
2.111023320413e-03 1.137701360200e-02 0.0 
2.251504802159e-03 1.090976482594e-02 0.0 
5.564326029703e-04 1.038212208987e-03 0.0 
6.474396562037e-05 1.495582709770e-03 0.0 
7.135605842422e-04 8.381918698573e-03 0.0 
4.414851528649e-04 3.905299926760e-03 0.0 
5.295193878217e-04 8.280517278908e-03 0.0 
2.182905150792e-03 1.081930396581e-02 0.0 
5.887677654695e-04 8.339969719010e-03 0.0 
9.532984454308e-05 1.532221851540e-03 0.0 
1.962123400137e-04 -1.898470564812e-04 0.0 
1.940483903127e-03 1.123281364680e-02 0.0 
8.980236291657e-05 3.285769191011e-05 0.0 
1.103958368906e-03 7.512045592074e-03 0.0 
7.419256924779e-05 2.897657771175e-05 0.0 
5.209394046134e-05 1.057745188193e-03 0.0 
9.396542352146e-04 8.737863329848e-03 0.0 
4.625842921623e-04 3.458639053008e-03 0.0 
1.061782320765e-04 -7.641658374456e-04 0.0 
8.756625759647e-05 -7.549480611820e-04 0.0 
1.137491107523e-04 1.570740008957e-03 0.0 
2.252156349897e-03 1.125691042185e-02 0.0 
2.360340821427e-03 1.090553435322e-02 0.0 
1.046223955632e-03 3.906921613999e-04 0.0 
1.282824158859e-03 6.528765074882e-03 0.0 
2.163806154129e-04 -1.513219254161e-04 0.0 
1.546705460867e-03 9.538117489392e-03 0.0 
9.308911798257e-04 8.177850651761e-04 0.0 
1.366827282032e-03 6.528167033604e-03 0.0 
8.610958042160e-04 3.148797812674e-04 0.0 
6.286002699084e-04 1.127050183441e-03 0.0 
1.168556669055e-04 -3.899169925081e-04 0.0 
6.387308261914e-04 1.271965670756e-03 0.0 
6.205620844780e-05 -1.799052569946e-05 0.0 
4.610975231583e-04 1.150804346979e-04 0.0 
1.346069237440e-04 3.278058967379e-05 0.0 
1.236407191787e-04 3.045171573625e-05 0.0 
8.944953460146e-04 4.860746226885e-04 0.0 
4.419114698407e-04 9.218136914227e-03 0.0 
4.009717084115e-04 9.224686278045e-03 0.0 
2.319608077101e-03 1.054387009263e-02 0.0 
4.390547851282e-04 1.278808539384e-04 0.0 
1.673362450541e-03 1.068579030313e-02 0.0 
1.617466088800e-03 9.190795329880e-03 0.0 
3.468329177310e-05 2.114742582753e-03 0.0 
1.767018021653e-03 1.005313202974e-02 0.0 
4.065720069390e-04 1.147224606389e-03 0.0 
3.931710978501e-05 1.797100100575e-03 0.0 
4.124909409448e-05 9.347096125447e-04 0.0 
1.085026707660e-03 7.974967527082e-03 0.0 
2.355008662962e-03 1.075638505465e-02 0.0 
1.212026300571e-04 -7.273712683160e-04 0.0 
1.166331782261e-03 1.266605584914e-03 0.0 
2.262265246289e-03 1.093688847693e-02 0.0 
3.946149303934e-04 1.053790292889e-03 0.0 
2.389197613406e-04 -6.360582081418e-04 0.0 
1.005531290209e-04 -7.133694413856e-04 0.0 
1.256718369269e-04 -1.710238786830e-05 0.0 
1.934032512323e-04 -7.407774556512e-04 0.0 
6.262954151786e-05 1.067003062297e-03 0.0 
-2.255748978591e-04 1.610502633683e-03 0.0 
1.417692049593e-03 1.090936390722e-03 0.0 
3.016439405885e-03 8.490260598195e-03 0.0 
9.850458713978e-04 1.169490700759e-03 0.0 
1.457312924207e-04 3.853617137302e-05 0.0 
2.268005449707e-03 1.114386621472e-02 0.0 
-1.440741872815e-04 1.839623686371e-03 0.0 
6.893765834110e-04 1.233852609390e-03 0.0 
5.704882187545e-04 -3.293314011082e-05 0.0 
6.931061468276e-04 8.457448348792e-04 0.0 
3.246320454574e-04 -1.056595764959e-04 0.0 
6.437665990954e-05 3.022780426362e-04 0.0 
1.220859949903e-03 1.111942104314e-03 0.0 
9.857137334799e-06 -8.271315797705e-04 0.0 
2.177659474600e-04 -6.172312452371e-04 0.0 
2.257365952638e-04 1.386563839504e-03 0.0 
4.940158140881e-04 1.277242887464e-03 0.0 
1.192853910680e-03 8.315966836945e-03 0.0 
2.308111583989e-04 -7.203416054982e-04 0.0 
1.135403435935e-03 9.212234658771e-03 0.0 
6.129061397102e-04 8.708972270530e-05 0.0 
8.795442685936e-04 8.461792287819e-03 0.0 
2.331194980735e-03 1.099084937640e-02 0.0 
2.170055718455e-03 1.139170067199e-02 0.0 
6.670390600798e-04 7.804705348033e-03 0.0 
6.080638865308e-04 7.765368224416e-03 0.0 
1.906665737151e-04 -8.871995877962e-05 0.0 
3.341554310341e-05 -3.880028263811e-05 0.0 
1.668767700413e-03 3.515370728066e-03 0.0 
7.708149551632e-04 8.355289822623e-03 0.0 
1.565887366051e-04 -3.228213856020e-04 0.0 
1.549924528424e-03 8.321647694364e-03 0.0 
1.074398742746e-04 4.217763566758e-03 0.0 
1.308142625007e-04 4.559082597915e-03 0.0 
1.287805910976e-04 5.611987541884e-04 0.0 
6.418937821324e-04 3.493586515985e-04 0.0 
9.962029814468e-04 8.507607617659e-03 0.0 
5.067390615002e-04 1.415508593373e-04 0.0 
8.182553433822e-05 6.677826455252e-03 0.0 
2.862895103884e-03 9.097463682794e-03 0.0 
6.941444369408e-04 8.865562621020e-03 0.0 
9.518083593563e-05 3.122798723314e-05 0.0 
2.494405009667e-03 2.019320698872e-03 0.0 
1.422881632706e-03 1.042772825485e-03 0.0 
2.963201367581e-03 7.406349004057e-03 0.0 
2.734285960115e-04 9.210943928765e-04 0.0 
1.042819315173e-04 2.599819954738e-05 0.0 
1.081651014372e-04 3.637575559310e-03 0.0 
-1.109686786792e-04 1.145842457981e-03 0.0 
1.733551704722e-04 4.288293293741e-05 0.0 
1.836663263129e-03 3.955255736882e-03 0.0 
1.494933610156e-05 -8.322430050315e-04 0.0 
3.392598860321e-03 5.704438490733e-03 0.0 
1.965381284295e-03 9.245366531646e-03 0.0 
4.001643805336e-04 -4.983640739231e-04 0.0 
2.753194034100e-03 9.337870286700e-03 0.0 
3.082732057678e-03 8.097043179263e-03 0.0 
3.296678098618e-04 8.481016084916e-05 0.0 
1.043063890803e-04 7.087419100301e-03 0.0 
2.993775817701e-03 8.282823600728e-03 0.0 
4.610059769559e-04 -3.145251859564e-04 0.0 
1.621254345040e-03 8.575457633936e-03 0.0 
8.500860547905e-05 3.335584037837e-03 0.0 
3.048535880786e-03 7.820137029901e-03 0.0 
4.681116082943e-04 5.975433673486e-03 0.0 
2.176341317479e-03 9.987586614213e-03 0.0 
3.461021747809e-04 -5.260876393179e-04 0.0 
2.157042952820e-03 1.040742041746e-02 0.0 
1.713315806346e-04 9.825822329785e-04 0.0 
7.744884386467e-04 5.597985153168e-03 0.0 
3.036624748913e-04 -1.406671009044e-04 0.0 
5.120386054652e-05 1.479948585966e-03 0.0 
2.866435142117e-03 8.517845570849e-03 0.0 
2.253219320091e-03 1.029156050307e-02 0.0 
4.930738734324e-04 1.273465361442e-04 0.0 
6.166680819412e-05 3.093108033603e-05 0.0 
2.685800035840e-04 -8.217977810409e-05 0.0 
2.856759872451e-03 8.183100528972e-03 0.0 
6.134535227020e-04 2.117175539920e-04 0.0 
2.665942271462e-03 9.277249181393e-03 0.0 
1.298600013291e-04 1.096200620679e-03 0.0 
7.966653948132e-04 1.034464026356e-03 0.0 
1.174690066762e-03 7.473697943139e-03 0.0 
2.563645641263e-04 5.528961197416e-03 0.0 
2.764543733953e-03 9.069921007903e-03 0.0 
2.218904929841e-03 1.069951964778e-02 0.0 
2.927074442490e-03 7.647397939826e-03 0.0 
3.198418133787e-03 6.785656423761e-03 0.0 
5.074598431895e-04 8.757028106454e-03 0.0 
3.386864771422e-03 5.321869212512e-03 0.0 
1.594836459874e-04 -4.494481774538e-04 0.0 
1.194901338922e-04 7.981547404039e-03 0.0 
8.322627791079e-05 -7.848126551279e-04 0.0 
2.078906183012e-03 9.636468862744e-03 0.0 
5.001178520913e-04 1.672698776524e-04 0.0 
2.933428232590e-03 7.934354016692e-03 0.0 
1.445860852826e-04 -6.287410900934e-05 0.0 
1.947727254477e-03 1.057055551848e-02 0.0 
2.505108969471e-03 2.144472148498e-03 0.0 
2.820105735505e-04 8.407360548118e-03 0.0 
3.329642819926e-03 5.369334944693e-03 0.0 
1.415086291959e-04 1.964969618685e-06 0.0 
5.009734099432e-04 -2.318224395594e-04 0.0 
1.459822258993e-04 2.864281469271e-05 0.0 
2.188251135466e-03 8.185756603314e-03 0.0 
1.984336214714e-04 4.692000607279e-05 0.0 
1.191671963921e-04 8.474435949630e-03 0.0 
3.095613377347e-03 6.843287532451e-03 0.0 
1.980750776976e-03 9.694729037026e-03 0.0 
1.259235008520e-04 -2.036461518166e-04 0.0 
1.821848140629e-03 1.112668371450e-02 0.0 
3.300916024428e-03 4.952288150563e-03 0.0 
2.225041757301e-04 5.009874975079e-03 0.0 
3.232998782187e-04 8.744625468778e-03 0.0 
3.281853459358e-03 6.270216455707e-03 0.0 
2.077685557721e-03 1.007545011393e-02 0.0 
1.699476474424e-03 2.542409709524e-03 0.0 
4.142396853869e-04 -4.548137672424e-04 0.0 
7.589989081372e-04 6.258163981459e-04 0.0 
8.513704961168e-04 1.006440087351e-03 0.0 
2.573336393838e-03 9.904729263375e-03 0.0 
3.684075342528e-04 -4.417776031125e-04 0.0 
1.518966414523e-03 6.700740543506e-04 0.0 
2.550508224136e-03 9.821706708073e-03 0.0 
2.407583049767e-03 1.015171084188e-02 0.0 
2.031355023655e-03 8.749301908843e-03 0.0 
3.344936226040e-03 6.187984704222e-03 0.0 
9.333740875627e-05 1.156662114544e-03 0.0 
1.582040288482e-03 4.016110008781e-03 0.0 
9.889112819680e-05 1.507791821812e-05 0.0 
1.511217950021e-03 9.320304569576e-03 0.0 
3.157666191557e-03 4.510774108205e-03 0.0 
1.586138919625e-03 3.526811597931e-03 0.0 
-8.432538271740e-04 3.962162768216e-03 0.0 
2.451602678012e-03 9.998088019756e-03 0.0 
1.698685122029e-03 6.359179636715e-04 0.0 
1.857806041383e-04 -6.936645577275e-04 0.0 
5.807133059938e-04 1.364563237779e-03 0.0 
1.442587608529e-03 5.489999690154e-03 0.0 
1.495032246105e-03 7.127646812647e-05 0.0 
1.758724100396e-03 7.019150256190e-04 0.0 
1.541296445248e-03 7.805946610946e-03 0.0 
1.267903807624e-03 6.991326426911e-03 0.0 
8.231512197164e-04 2.865191211934e-04 0.0 
1.000496067009e-03 -2.554544265476e-04 0.0 
3.065590098411e-03 6.913938024150e-03 0.0 
2.337556843509e-03 7.590395385591e-03 0.0 
1.338259069489e-03 5.001201990245e-03 0.0 
2.132547904970e-03 7.744336978957e-03 0.0 
2.132661789422e-03 8.690843482342e-03 0.0 
2.901141500110e-03 2.396282046017e-03 0.0 
1.848126620534e-03 2.960262569115e-03 0.0 
-3.031995383737e-04 3.617216542880e-03 0.0 
2.499695724816e-03 1.029067510884e-02 0.0 
2.789685104444e-03 9.443678425356e-03 0.0 
3.018434247298e-03 7.436681786120e-03 0.0 
1.427044680787e-03 3.550960063982e-03 0.0 
1.176792653694e-03 3.852078201634e-03 0.0 
1.734896180318e-03 5.869653526350e-04 0.0 
3.645036811714e-04 8.626213545931e-03 0.0 
3.210688846204e-03 4.942153055766e-03 0.0 
1.734359521280e-03 5.195913059707e-04 0.0 
1.611228415379e-04 -5.849275934084e-04 0.0 
1.305677316058e-03 4.513640180647e-03 0.0 
1.190735013665e-04 -6.091187083113e-04 0.0 
1.979314380330e-04 -7.115508729545e-04 0.0 
1.441762570145e-03 1.008770880738e-02 0.0 
8.640413287653e-04 -2.960106831134e-04 0.0 
1.183093060679e-03 4.028010579534e-03 0.0 
8.230878707019e-04 -2.749047112946e-04 0.0 
2.179123073597e-03 7.265343263275e-03 0.0 
9.503662502609e-04 6.123727751279e-04 0.0 
5.352855414864e-04 -3.471648110885e-04 0.0 
1.682840895063e-03 7.293308340140e-04 0.0 
2.291697707545e-03 8.103252787912e-03 0.0 
1.730358758566e-04 4.180685513979e-05 0.0 
-6.796390649304e-04 3.605204146638e-03 0.0 
2.616044487341e-03 6.797247956855e-03 0.0 
3.332032291620e-03 4.543941460560e-03 0.0 
2.511257039899e-03 1.018698535867e-02 0.0 
1.804032031706e-03 6.559136808685e-04 0.0 
2.132857788597e-04 4.986136775513e-05 0.0 
1.639963410029e-03 4.492818102891e-03 0.0 
2.699868347914e-03 4.266515770612e-03 0.0 
1.631460157895e-03 6.663838030627e-04 0.0 
1.594367561100e-04 -1.228545816832e-04 0.0 
2.887731483060e-03 7.312195943829e-03 0.0 
1.507056269646e-03 5.004780361179e-03 0.0 
1.179002848960e-03 9.026048500968e-04 0.0 
3.282751183926e-03 4.167850241276e-03 0.0 
2.423422620413e-03 7.373790350055e-03 0.0 
2.093079559895e-03 6.794410859980e-03 0.0 
1.036618635051e-04 5.128857654826e-04 0.0 
3.145195787099e-03 6.688085725763e-03 0.0 
3.212582507009e-03 2.904257050930e-03 0.0 
2.711845345202e-04 7.813693901848e-03 0.0 
5.123012720044e-04 1.669844731550e-04 0.0 
2.032816048695e-03 7.799575261589e-03 0.0 
2.782666837251e-03 4.745360925298e-03 0.0 
1.715993992009e-03 3.688573677073e-03 0.0 
7.989191565933e-04 1.311658955648e-03 0.0 
1.108242829681e-03 4.023080502818e-03 0.0 
2.270915205508e-03 7.165539516713e-03 0.0 
3.181113772217e-03 7.234500908577e-03 0.0 
9.847750233212e-04 3.535220890919e-03 0.0 
1.666236170958e-03 4.000665665427e-03 0.0 
2.738365266535e-03 7.123979204275e-03 0.0 
2.411545067796e-04 5.853757105652e-05 0.0 
3.141952327675e-03 2.638471050505e-03 0.0 
2.572730945032e-03 6.875039780237e-03 0.0 
3.418184455378e-03 5.600465311840e-03 0.0 
3.112938893472e-03 2.605823869524e-03 0.0 
2.155540773968e-03 3.548760495782e-03 0.0 
1.403149103863e-03 8.426286262150e-03 0.0 
3.223754888669e-03 3.484245003847e-03 0.0 
2.074773934796e-03 1.563536862418e-03 0.0 
1.554014852680e-03 4.504071970209e-03 0.0 
-8.363254120397e-04 3.235996754823e-03 0.0 
1.970240709391e-03 7.340918312656e-03 0.0 
2.794239306079e-03 3.928946732983e-03 0.0 
2.576607383718e-03 6.178938944871e-03 0.0 
2.054428106552e-03 3.128980899278e-03 0.0 
2.102987756776e-03 6.297897386582e-03 0.0 
2.645585553481e-04 -3.083603171181e-04 0.0 
2.782650594652e-03 9.460073265298e-03 0.0 
3.014345323209e-03 2.352981388281e-03 0.0 
2.169352839049e-03 7.236977294678e-03 0.0 
1.388789691178e-03 7.799499993283e-03 0.0 
7.801106443247e-04 3.216022763093e-03 0.0 
2.179357026894e-03 1.827628695411e-03 0.0 
1.790405497830e-03 1.218434622705e-03 0.0 
2.606343365637e-03 1.007003087472e-02 0.0 
1.593809888291e-03 4.995600554507e-03 0.0 
2.866916798458e-03 9.166358793190e-03 0.0 
3.146388726010e-03 3.449389444994e-03 0.0 
3.198612262087e-03 4.144817983717e-03 0.0 
1.092711317830e-03 3.382313635352e-03 0.0 
3.431103821534e-03 5.149559494120e-03 0.0 
1.561108756598e-03 6.893513601808e-03 0.0 
2.024229565649e-04 5.182769490144e-04 0.0 
2.675175501186e-04 5.437228076604e-04 0.0 
3.166114235693e-03 6.186813793994e-03 0.0 
2.491798461414e-03 4.142237232643e-03 0.0 
2.270419927998e-03 5.442566698858e-03 0.0 
2.587467532728e-03 6.373183675611e-03 0.0 
2.352439203811e-03 4.492383875221e-03 0.0 
1.889709435550e-03 1.457129768762e-03 0.0 
2.791974677388e-03 7.486416476179e-03 0.0 
1.696787204038e-04 1.333043361120e-03 0.0 
3.031816841411e-03 4.452992474004e-03 0.0 
2.928399896809e-03 2.570202565471e-03 0.0 
1.840304293043e-03 6.385312209999e-03 0.0 
2.961337701383e-04 1.150602844357e-04 0.0 
2.440449319250e-03 5.020407945806e-03 0.0 
2.925026880625e-03 6.796600011096e-03 0.0 
1.334966400233e-03 3.085043174560e-03 0.0 
2.443737954182e-03 1.175498437933e-03 0.0 
3.289096930525e-03 3.819660839014e-03 0.0 
1.869422304868e-03 1.099513289089e-03 0.0 
2.440304506572e-03 7.493877796692e-03 0.0 
2.878853750808e-04 4.146633810050e-04 0.0 
3.010000179925e-03 3.697935119846e-03 0.0 
2.958106237243e-03 2.158140051273e-03 0.0 
1.768078030546e-03 5.708807446246e-03 0.0 
9.038308803573e-04 5.909728805693e-03 0.0 
1.810983905378e-03 5.891799237332e-04 0.0 
2.624218947869e-03 8.049075839880e-03 0.0 
9.007959060133e-04 6.401812472638e-03 0.0 
3.608760050803e-04 3.837674412995e-04 0.0 
1.577317522407e-03 5.153104748810e-04 0.0 
2.881763351297e-04 4.635496565401e-04 0.0 
1.119833199333e-03 6.466609405865e-03 0.0 
1.920778814668e-03 3.923531084253e-03 0.0 
2.168702221552e-03 8.684079874180e-03 0.0 
2.434842243243e-03 8.420130931200e-03 0.0 
2.472874601695e-03 6.984558361187e-03 0.0 
2.392064141706e-03 6.577524909023e-03 0.0 
3.250526060599e-03 6.690052546531e-03 0.0 
3.866252709059e-04 3.397571797234e-04 0.0 
1.443220277625e-03 6.977881455594e-03 0.0 
1.987212513423e-03 8.299453312447e-03 0.0 
3.127591846027e-03 3.761773022602e-03 0.0 
7.085065378422e-04 -3.263637816217e-04 0.0 
2.263455280541e-03 9.046144489167e-03 0.0 
2.811437880071e-03 7.438135152273e-03 0.0 
2.424321180589e-04 8.707790085661e-03 0.0 
1.768581216076e-03 8.968166475392e-04 0.0 
2.955171245839e-03 4.023198446760e-03 0.0 
1.337726716168e-03 4.031130746221e-03 0.0 
2.805580538733e-03 6.855072558150e-03 0.0 
2.494567427908e-03 7.901029904970e-03 0.0 
2.845857437217e-03 1.941244579051e-03 0.0 
1.891510822408e-03 4.232980214540e-04 0.0 
3.703802978163e-04 2.490309652525e-04 0.0 
2.468433933128e-03 9.619475029800e-03 0.0 
2.196066055534e-03 2.308701884643e-03 0.0 
1.497159927691e-03 9.840441344634e-05 0.0 
2.458590355371e-03 9.744005629383e-03 0.0 
2.592372037636e-03 8.639130026673e-03 0.0 
1.411899390180e-03 3.076799858672e-03 0.0 
2.856093117754e-03 6.461024969767e-03 0.0 
2.602367992483e-03 9.975767496021e-03 0.0 
2.461813375558e-03 8.826010453264e-03 0.0 
3.725174019423e-04 1.819521448504e-04 0.0 
9.286181905998e-04 4.809103707553e-04 0.0 
1.337001033819e-03 3.085503981369e-03 0.0 
1.387187500631e-03 4.514503516428e-03 0.0 
1.955478423932e-03 4.693431431581e-04 0.0 
3.078028466657e-03 8.250479388874e-03 0.0 
2.393839240163e-03 3.688172189225e-03 0.0 
2.700182120638e-03 3.512999384265e-03 0.0 
3.011525691169e-03 6.609058245123e-03 0.0 
2.561647955715e-03 1.310781689453e-03 0.0 
1.050398173431e-03 -2.030986227249e-04 0.0 
1.120838654300e-03 3.087777587138e-03 0.0 
2.092344584671e-03 1.999968120673e-03 0.0 
3.323620511423e-03 6.609098220721e-03 0.0 
2.640292538804e-03 7.262912144286e-03 0.0 
3.245570319073e-03 7.328554932303e-03 0.0 
2.794927372237e-04 5.029519813731e-04 0.0 
2.415412699302e-04 5.489968177230e-04 0.0 
6.147041459908e-04 1.364813147394e-03 0.0 
1.917505026166e-03 4.689825977743e-04 0.0 
9.177460305071e-04 3.521241570664e-03 0.0 
2.425739739602e-03 8.042555638956e-03 0.0 
2.920462386675e-03 3.320879526149e-03 0.0 
1.621503972785e-03 3.243554936712e-03 0.0 
2.831869359301e-03 9.153974718312e-03 0.0 
1.256509224031e-03 8.438021992913e-03 0.0 
1.044669972199e-03 6.451951611288e-03 0.0 
7.428334940321e-04 2.998161667193e-04 0.0 
1.565544017002e-03 3.061471430180e-03 0.0 
1.993699286513e-03 6.843113595327e-03 0.0 
2.395615640584e-03 6.081614091834e-03 0.0 
1.800392909046e-03 2.984490189382e-03 0.0 
2.737052840077e-04 2.790274699197e-05 0.0 
3.408740153372e-03 4.883372492459e-03 0.0 
3.331820454547e-03 5.917632011241e-03 0.0 
3.427393608426e-03 4.815035952960e-03 0.0 
4.470247654928e-04 6.791524636207e-03 0.0 
2.243967040591e-04 7.554382028801e-03 0.0 
6.498610895378e-04 -3.007564113902e-04 0.0 
2.728232769264e-03 5.696266449514e-03 0.0 
1.555438260695e-04 6.265879457454e-05 0.0 
2.724313231487e-03 1.981306500637e-03 0.0 
1.892620431216e-03 8.335002276325e-03 0.0 
5.235105787620e-05 -7.973506563014e-04 0.0 
3.181630340764e-03 6.956512919805e-03 0.0 
3.382634469068e-03 4.522491534637e-03 0.0 
2.201198239004e-03 6.236912780216e-03 0.0 
3.159612169346e-04 4.093364994044e-04 0.0 
2.334720185943e-03 8.525836225244e-03 0.0 
2.681852169299e-03 6.251260465981e-03 0.0 
1.143493546149e-03 -1.566455830352e-04 0.0 
1.124932938221e-03 3.551280990154e-03 0.0 
1.833244001841e-03 4.240548335623e-04 0.0 
3.482362562289e-04 4.091732037773e-04 0.0 
1.455621278599e-04 2.469719798273e-04 0.0 
9.446862738948e-05 2.570229374059e-04 0.0 
1.335869407548e-04 2.877428061146e-04 0.0 
2.193390270619e-03 5.745783621521e-03 0.0 
1.198056409136e-03 3.553537821060e-03 0.0 
1.294833513340e-03 2.617286143354e-03 0.0 
3.184892948845e-03 7.678033330671e-03 0.0 
3.001715858669e-03 8.580362841308e-03 0.0 
8.994598263695e-04 -2.954781894758e-04 0.0 
1.191461910987e-03 3.088966700181e-03 0.0 
3.752759554451e-04 3.626449037073e-04 0.0 
9.201316870032e-04 3.064398072821e-03 0.0 
2.950282490000e-03 2.297520065086e-03 0.0 
9.854393709042e-04 3.075528095339e-03 0.0 
2.737526963397e-03 3.337292103530e-03 0.0 
3.359323557763e-03 6.109563485152e-03 0.0 
2.740220639211e-03 9.403160671937e-03 0.0 
1.993331222309e-03 5.275923860308e-03 0.0 
2.496774402134e-04 1.094237319094e-03 0.0 
3.204998488678e-03 7.507783571575e-03 0.0 
1.209186991892e-03 1.221691226564e-03 0.0 
9.887153383135e-04 -2.554925422317e-04 0.0 
1.507713356220e-03 6.237421375531e-04 0.0 
5.843061595018e-04 2.260933694359e-04 0.0 
2.945865702477e-03 6.319520097149e-03 0.0 
1.426142072698e-04 2.165776767128e-04 0.0 
4.354107810143e-04 1.029472349704e-03 0.0 
2.859638771477e-03 5.967677054173e-03 0.0 
1.175343748885e-04 3.245136613102e-05 0.0 
1.706900491236e-04 2.112507951122e-04 0.0 
6.595478865464e-04 2.990102052533e-04 0.0 
1.599920796105e-03 8.028701426508e-04 0.0 
2.775577798983e-03 1.895862195320e-03 0.0 
3.838621505157e-04 2.371446753088e-04 0.0 
-6.603714113688e-05 -5.773017820024e-05 0.0 
3.319297922237e-03 6.791643986314e-03 0.0 
2.675221865965e-03 5.762099193752e-03 0.0 
3.024490124459e-03 6.111321411901e-03 0.0 
2.765188309334e-03 6.614183630596e-03 0.0 
2.340952289392e-03 6.053937706323e-03 0.0 
1.833297979750e-04 1.858450326344e-04 0.0 
3.062800215056e-03 3.111605473532e-03 0.0 
7.418542738144e-04 2.771759723858e-03 0.0 
3.098874515054e-04 7.350498426764e-05 0.0 
6.000447374376e-05 -6.690893372282e-05 0.0 
2.571489411709e-03 9.081134936125e-03 0.0 
7.085076074270e-04 8.921060166217e-04 0.0 
2.164843456099e-03 9.128647930863e-03 0.0 
3.432398276200e-04 1.543046602248e-04 0.0 
1.946791134358e-04 1.629573086505e-04 0.0 
2.292852408583e-03 6.661988475650e-03 0.0 
3.715390545520e-04 7.242757145154e-04 0.0 
4.525474781335e-04 2.615418605752e-03 0.0 
5.845898029982e-04 7.154617612083e-04 0.0 
9.319362606234e-04 1.864840557829e-04 0.0 
1.334986521264e-03 8.748560073811e-03 0.0 
1.840321898652e-03 7.874552687654e-03 0.0 
1.845739984628e-04 1.293442676624e-04 0.0 
1.189955936899e-03 8.753407074787e-03 0.0 
1.758447616709e-04 5.059774403536e-04 0.0 
2.610962662343e-03 2.968408719903e-03 0.0 
9.643219027127e-04 6.935995394003e-03 0.0 
2.688931761466e-03 9.075601387747e-03 0.0 
2.823763765801e-03 2.057296344346e-03 0.0 
1.513537755321e-03 3.999826481203e-03 0.0 
1.980558511622e-04 1.174579777188e-04 0.0 
1.339306093638e-04 2.559800015458e-04 0.0 
1.079543291754e-04 2.612540116084e-04 0.0 
1.736859535077e-03 3.459584365362e-04 0.0 
7.517006098273e-04 -3.797728275941e-04 0.0 
3.396515521290e-03 5.799269140659e-03 0.0 
1.647855972741e-03 3.136779515356e-04 0.0 
1.975301500410e-04 1.004550806716e-04 0.0 
2.662607066191e-03 5.149106457914e-03 0.0 
2.140572791446e-03 1.423096128008e-03 0.0 
2.080653816811e-03 1.084799892816e-03 0.0 
8.322194725134e-04 6.371061815051e-03 0.0 
2.705952476859e-04 9.781837539438e-05 0.0 
2.633261720846e-04 5.601560655766e-04 0.0 
1.682525757187e-04 7.280759604596e-05 0.0 
1.826644299391e-03 8.034720042865e-04 0.0 
1.452711678110e-04 1.980857042923e-04 0.0 
1.365849359373e-03 2.613398584727e-03 0.0 
-1.623060116285e-04 5.437500871711e-05 0.0 
3.400627772807e-03 5.946956279199e-03 0.0 
7.959066297872e-04 3.029652390195e-03 0.0 
1.775462071054e-04 1.979224086651e-04 0.0 
2.288595939076e-03 5.674948499765e-03 0.0 
2.491749990073e-03 2.506641964122e-03 0.0 
1.436609184769e-03 5.504467044088e-03 0.0 
1.059381001179e-03 4.692205821839e-04 0.0 
1.765935634774e-03 5.599025599434e-04 0.0 
1.973614105755e-03 8.932008379157e-04 0.0 
-5.520387353009e-05 7.435878920227e-04 0.0 
1.919461574701e-04 1.767998710729e-04 0.0 
1.995995595686e-03 3.849288526247e-03 0.0 
1.468983961744e-03 4.974101547109e-04 0.0 
9.497581658713e-04 7.480215998378e-03 0.0 
1.220188733510e-03 2.727679975389e-05 0.0 
2.034525099238e-03 1.197767700737e-03 0.0 
2.491162688267e-03 5.986791439372e-03 0.0 
1.858062993535e-04 1.196866975901e-04 0.0 
7.265326072215e-04 -3.616682320558e-04 0.0 
1.701891927462e-03 4.387263682590e-04 0.0 
3.226070003805e-03 5.481616427508e-03 0.0 
2.301936899776e-03 9.176188964111e-04 0.0 
2.295920298946e-03 1.521037520566e-03 0.0 
1.833330091832e-03 4.593928951383e-04 0.0 
3.231252804442e-03 5.953721167059e-03 0.0 
2.589160183843e-03 3.719783875763e-03 0.0 
2.570741737397e-03 1.755148320047e-03 0.0 
3.333375773540e-03 5.448586909295e-03 0.0 
1.266998491341e-03 -1.029495180663e-04 0.0 
2.907955036631e-03 5.779023000498e-03 0.0 
8.365478742410e-04 -3.459019789346e-04 0.0 
2.641511098852e-03 2.843666141511e-03 0.0 
2.993630644784e-03 2.183158329437e-03 0.0 
3.237964017882e-04 1.354663906205e-04 0.0 
7.848730772213e-04 2.592552108105e-03 0.0 
1.091785644445e-03 -3.968999904002e-05 0.0 
1.749872519013e-04 8.149706417888e-05 0.0 
7.836779132442e-04 3.436374282189e-04 0.0 
3.414980707952e-03 4.412885412608e-03 0.0 
6.876274591953e-05 5.658530234157e-04 0.0 
2.498900472275e-04 8.459745272625e-05 0.0 
9.665646978233e-04 2.631986174412e-03 0.0 
1.575162610523e-03 5.463929963937e-04 0.0 
1.405899440688e-04 5.240148986116e-05 0.0 
1.640197049427e-03 3.471705969854e-04 0.0 
2.950263012399e-03 8.587891615205e-03 0.0 
1.872338641554e-03 7.380346774843e-03 0.0 
3.078883164952e-03 2.410646847426e-03 0.0 
1.790112816038e-03 3.352724478767e-04 0.0 
2.363156358392e-03 1.051320009089e-03 0.0 
1.529874624114e-03 5.492714725307e-03 0.0 
2.759018396743e-03 8.373217184034e-03 0.0 
2.462294796016e-03 1.779335280656e-03 0.0 
2.108793566674e-04 6.987296437265e-03 0.0 
1.172085033752e-03 -1.599130175629e-04 0.0 
2.636840287344e-03 1.690272464364e-03 0.0 
1.665129011391e-03 4.155170320365e-04 0.0 
9.434407259083e-04 -2.315836745858e-05 0.0 
-2.404247562344e-04 2.986344583784e-04 0.0 
3.084135053580e-03 6.339521219666e-03 0.0 
1.725433133723e-03 6.321763582386e-04 0.0 
1.014829080153e-03 -1.930142398001e-04 0.0 
3.401826201046e-03 4.615912604978e-03 0.0 
1.729286701753e-03 4.147891435620e-04 0.0 
8.219899523775e-04 6.856382885348e-03 0.0 
1.482241552659e-03 3.952922738900e-04 0.0 
1.300053036171e-04 4.541688553322e-05 0.0 
2.762103659723e-03 5.631674442773e-03 0.0 
8.819898631979e-04 -2.153334956409e-04 0.0 
2.941536967639e-03 5.805515262280e-03 0.0 
9.234311270771e-04 -2.307920775575e-04 0.0 
-1.244998896781e-04 1.617853352948e-04 0.0 
1.800309907173e-03 6.914943560555e-03 0.0 
2.607501051972e-04 -4.999116556730e-04 0.0 
7.029925339212e-05 -6.705486210737e-04 0.0 
7.457160542784e-04 -2.936282813933e-04 0.0 
1.579407951579e-03 3.937961052590e-04 0.0 
2.144499441119e-04 3.080421971436e-03 0.0 
2.494117733855e-03 1.157238154626e-03 0.0 
2.391839943912e-03 1.041010513952e-03 0.0 
1.838749414005e-03 8.829860773157e-03 0.0 
1.196290953133e-03 9.387019176213e-03 0.0 
3.029737433802e-04 1.023754711206e-03 0.0 
3.099472980294e-03 5.914929259160e-03 0.0 
5.238066447918e-05 -6.987574494891e-04 0.0 
4.919737002457e-04 -4.164232319871e-04 0.0 
9.536821072059e-05 2.711897671293e-04 0.0 
9.736132368091e-04 -2.407118854015e-04 0.0 
1.759495694180e-03 2.496307291972e-03 0.0 
2.459249392451e-04 3.114818235935e-03 0.0 
9.970107283567e-04 1.783058100947e-04 0.0 
8.620128386315e-04 -3.773197310229e-04 0.0 
8.588997864304e-04 -5.227303205115e-05 0.0 
1.293966949110e-03 4.252867514945e-04 0.0 
1.255976619653e-03 2.685677710768e-03 0.0 
1.847950013205e-04 -5.081552568935e-04 0.0 
1.288315267210e-04 -6.073531567613e-04 0.0 
2.346986339233e-04 7.435544556089e-05 0.0 
1.198847436104e-04 3.918056719303e-05 0.0 
1.919131430064e-04 -4.387484208409e-04 0.0 
7.923547451334e-04 -2.458505055563e-04 0.0 
1.719722553032e-03 3.028606271709e-04 0.0 
1.206225237951e-03 4.359027912206e-04 0.0 
5.482091857635e-04 -4.381669636046e-04 0.0 
1.358119762668e-03 4.015499443607e-04 0.0 
1.587961616216e-04 -7.369069227733e-04 0.0 
7.816647536766e-04 -3.131813016469e-04 0.0 
1.064760159108e-03 -1.422484879659e-04 0.0 
9.879331446738e-05 -7.782752519178e-04 0.0 
1.532080764483e-04 -4.753727366862e-04 0.0 
7.276770128194e-04 2.571785745735e-03 0.0 
5.426556268860e-05 -7.490190947680e-04 0.0 
1.333835810883e-03 9.343831033831e-03 0.0 
1.402567582166e-03 9.622689321255e-03 0.0 
2.388888720347e-03 1.166737269459e-03 0.0 
6.401482699362e-05 -6.139787865064e-04 0.0 
1.531705452475e-03 3.366901078281e-04 0.0 
2.136089846200e-03 6.563799631527e-03 0.0 
6.393324909576e-04 1.273451227724e-04 0.0 
7.184054332211e-04 7.159696943583e-04 0.0 
4.559404834467e-04 3.760634958363e-03 0.0 
2.749817834847e-03 8.556194351700e-03 0.0 
3.427458190392e-04 -3.559843541575e-04 0.0 
2.561212771677e-03 8.693295138082e-03 0.0 
8.268579177735e-04 9.339324903508e-03 0.0 
7.731948026851e-04 9.639845486385e-03 0.0 
7.152973060388e-05 -7.260817300487e-04 0.0 
1.209623617436e-04 -7.433451590290e-04 0.0 
8.338779371409e-05 -7.991282958901e-04 0.0 
6.675474978110e-04 -4.708528917671e-04 0.0 
7.463372411977e-05 -7.953355720103e-04 0.0 
1.570418197704e-04 -4.031463610894e-04 0.0 
-3.656996259047e-04 1.152850777793e-03 0.0 
7.758933542486e-04 -4.265410467020e-04 0.0 
1.855522206126e-04 5.873841276782e-03 0.0 
1.128644090707e-03 9.693531915452e-03 0.0 
1.480120770788e-03 2.183221767760e-03 0.0 
1.533799092692e-03 3.144495939524e-04 0.0 
1.680657403483e-04 6.760175845574e-03 0.0 
3.414647791991e-05 -5.835607444319e-04 0.0 
9.279263124757e-05 -7.951876448517e-04 0.0 
3.616098683127e-05 2.703072264380e-04 0.0 
8.284476134480e-05 5.633181082328e-04 0.0 
8.760026490360e-04 7.431354147311e-03 0.0 
9.442549826089e-04 9.378062063248e-03 0.0 
1.703095426436e-04 -5.728091349752e-04 0.0 
5.312102245874e-05 5.330436984826e-04 0.0 
7.569777993040e-04 -4.252158954669e-04 0.0 
1.261693529885e-03 9.666905054360e-03 0.0 
1.065991755892e-03 9.398900318087e-03 0.0 
2.276173767212e-03 9.466101921330e-03 0.0 
8.137613428137e-05 2.489545029477e-04 0.0 
6.484176114028e-05 5.320778464113e-04 0.0 
9.447050076658e-05 -7.647466714855e-04 0.0 
6.554370262679e-05 -7.685452874032e-04 0.0 
3.943281083925e-04 -4.555703662182e-04 0.0 
1.158460727191e-03 -9.889883082162e-05 0.0 
6.780622258105e-05 3.044985322825e-05 0.0 
-5.463957877849e-04 1.384752249796e-03 0.0 
5.722889051670e-05 3.876224771755e-03 0.0 
-2.728107673957e-04 7.574158505377e-04 0.0 
2.237974379859e-03 9.400218705567e-04 0.0 
-3.308383432646e-04 5.943807861163e-04 0.0 
-4.310887469966e-04 9.555458908711e-04 0.0 
2.192802944953e-03 8.238903598304e-04 0.0 
2.680511434519e-04 4.375347618606e-05 0.0 
1.559283895159e-04 6.201880876293e-03 0.0 
2.733576161111e-03 8.011735127239e-03 0.0 
7.310018841927e-05 -8.036897882103e-04 0.0 
7.078540978258e-04 -6.248190160209e-05 0.0 
1.247458133861e-05 3.167814138504e-04 0.0 
2.462622845918e-05 5.369135975295e-04 0.0 
1.003577234652e-03 9.689566250845e-03 0.0 
2.247254694527e-03 1.037470181078e-03 0.0 
2.868077430900e-05 2.617706199733e-04 0.0 
2.508351750862e-03 2.393132231455e-03 0.0 
5.554513627357e-05 -8.122155762493e-04 0.0 
5.160851675373e-05 -8.166771207166e-04 0.0 
4.345830214150e-05 -8.212622577173e-04 0.0 
3.750321572545e-05 -5.155248667505e-04 0.0 
5.426865477705e-05 1.858712546479e-05 0.0 
6.698779500285e-06 1.456659664819e-03 0.0 
3.771848492664e-05 -8.223594846054e-04 0.0 
8.083353748687e-05 -4.037616618873e-04 0.0 
1.842167499612e-05 7.271705001703e-06 0.0 
7.641877697686e-05 2.291422898189e-05 0.0 
2.200303959724e-04 6.560151739576e-05 0.0 
3.236424033797e-05 4.842481042665e-03 0.0 
1.254604322353e-05 3.387897986884e-03 0.0 
3.584697978094e-05 1.131542046309e-05 0.0 
4.057179719593e-05 1.159880851880e-05 0.0 
2.800439374112e-05 3.876066524911e-03 0.0 
2.419955182254e-05 -8.318604725060e-04 0.0 
5.719766252397e-04 9.610585436973e-03 0.0 
8.868675300383e-04 9.670809669059e-03 0.0 
5.357087256592e-05 -8.003178826094e-04 0.0 
6.575831339766e-05 1.727570962161e-05 0.0 
2.105167350205e-04 5.926762162666e-05 0.0 
1.053002293610e-04 2.884098259876e-05 0.0 
3.814730503834e-05 -8.143544626982e-04 0.0 
4.880366477375e-05 -7.870561784346e-04 0.0 
1.148138903129e-04 3.517487836786e-05 0.0 
1.052165056595e-04 3.042663902790e-05 0.0 
1.690588982038e-05 5.339352529278e-03 0.0 
2.946015068637e-04 9.575912977183e-03 0.0 
1.545835051759e-05 4.353931360378e-03 0.0 
2.102205126947e-05 7.294838659561e-03 0.0 
1.251730928582e-04 9.557527047961e-03 0.0 
4.235798791855e-05 -6.332307095194e-04 0.0 
-3.905956192323e-06 -4.407029157920e-04 0.0 
-4.361423910215e-05 -3.089037757521e-04 0.0 
-9.735467415128e-05 -1.451929411934e-04 0.0 
4.107409736268e-05 -3.668353353065e-04 0.0 
3.975944012419e-05 -4.426073517842e-04 0.0 
2.029511705692e-05 -3.830820047166e-04 0.0 
4.181417750336e-05 -1.548558040957e-04 0.0 
-1.729062174856e-05 -2.370119818934e-04 0.0 
6.440393118801e-05 2.589207115522e-04 0.0 
2.444024814974e-05 2.712730785093e-04 0.0 
4.668377451353e-05 2.930108817949e-04 0.0 
1.892063302041e-05 -7.824073191549e-04 0.0 
2.986834907371e-05 -6.451873271743e-04 0.0 
2.301018239514e-05 3.260392879546e-04 0.0 
2.864066534439e-05 -3.227264266112e-08 0.0 
1.215164712056e-05 2.201321836792e-04 0.0 
2.099812748001e-05 2.372640708733e-05 0.0 
1.277662643613e-05 2.873991302999e-05 0.0 
7.726265584964e-05 -4.786163668316e-04 0.0 
4.745043054488e-05 5.973123664638e-04 0.0 
3.516182951570e-05 5.461714716337e-04 0.0 
4.963879282441e-05 1.396881378793e-05 0.0 
3.377475391614e-05 2.928716519840e-05 0.0 
4.232086968708e-04 -6.033868410556e-05 0.0 
-1.940028317485e-04 4.293294254951e-04 0.0 
6.435839796022e-04 -3.883525259082e-04 0.0 
1.092997315190e-04 -7.242064102274e-04 0.0 
5.986894769555e-04 1.120025149836e-04 0.0 
8.697447084108e-04 -2.808621077265e-04 0.0 
4.816996216021e-04 3.205969226954e-05 0.0 
6.355445105809e-04 -4.649198423561e-04 0.0 
2.169690821393e-04 -6.634028522123e-04 0.0 
3.350918342645e-04 4.223807599595e-05 0.0 
6.588103101276e-04 -3.195225563470e-04 0.0 
1.429960586417e-04 -5.451114955946e-04 0.0 
4.239989048021e-04 1.997918929556e-05 0.0 
7.759994935232e-05 2.463386300557e-03 0.0 
7.164969364535e-05 -5.492374753062e-04 0.0 
1.523730584070e-03 4.052968508913e-04 0.0 
1.200713901525e-03 8.429544759256e-05 0.0 
4.975282225905e-04 -4.668767169258e-05 0.0 
3.626788202107e-04 -4.141441471378e-05 0.0 
2.954465541822e-03 3.046933457444e-03 0.0 
2.670092203919e-03 8.915290399401e-03 0.0 
3.420811733589e-03 5.035008225364e-03 0.0 
7.883685692060e-04 -3.952136919534e-05 0.0 
3.027080708855e-04 1.930222233166e-05 0.0 
2.387921405593e-04 -3.189336310083e-05 0.0 
8.922957583267e-04 -1.940993463334e-04 0.0 
1.482495876929e-04 2.543430892321e-03 0.0 
1.915011629671e-04 3.518910900478e-03 0.0 
3.748800621474e-04 8.104642792217e-03 0.0 
8.703402305787e-04 2.124666611662e-05 0.0 
6.392797323439e-04 -4.661747063601e-05 0.0 
1.005930589290e-04 2.515451126012e-03 0.0 
1.297004528797e-04 3.018690966531e-03 0.0 
1.281606488229e-03 8.855091176416e-05 0.0 
2.282329388157e-04 3.751398780964e-05 0.0 
4.117351826855e-04 3.726480201995e-03 0.0 
1.700751666910e-04 -3.695039208836e-05 0.0 
4.443436746850e-04 8.507971066112e-05 0.0 
1.733889841707e-04 2.569771349008e-03 0.0 
3.461630855431e-04 5.088197279790e-03 0.0 
1.500404769135e-03 3.371378775289e-04 0.0 
3.277833392156e-04 -6.667940440471e-04 0.0 
8.970340622660e-04 -6.672549664953e-05 0.0 
3.193797917165e-04 -4.277711135206e-04 0.0 
-1.200863642995e-05 4.146296213096e-04 0.0 
1.573067037774e-04 3.019289465174e-03 0.0 
2.430260636981e-04 2.720566654401e-05 0.0 
2.929888195832e-05 1.490404482313e-04 0.0 
1.160945923547e-03 2.637166222474e-03 0.0 
4.403820075842e-04 7.622766781038e-03 0.0 
5.584375757280e-04 2.434539554014e-05 0.0 
3.082782023848e-04 -1.522093432146e-07 0.0 
1.470369074540e-03 1.678269019972e-04 0.0 
2.495134018144e-04 -8.006328875643e-06 0.0 
4.248122619529e-04 8.128369778204e-03 0.0 
2.531454760071e-03 1.625548432801e-03 0.0 
3.395769952349e-04 7.110913966633e-05 0.0 
1.737224061966e-04 -7.133819794854e-04 0.0 
5.527094455951e-04 1.219281096416e-04 0.0 
2.645517197514e-04 4.539863315018e-03 0.0 
2.694607733746e-04 -6.702032374808e-04 0.0 
1.015333611603e-03 -1.345648598029e-04 0.0 
3.558253901850e-04 -2.750818358324e-04 0.0 
4.797749147681e-04 6.160855911254e-03 0.0 
7.836479031164e-04 -4.078690558457e-04 0.0 
1.937435677563e-04 3.990391722532e-03 0.0 
2.989057076445e-04 5.534169630745e-03 0.0 
7.464641543345e-04 -2.259199413791e-04 0.0 
2.912164890200e-04 -5.127689934629e-05 0.0 
3.690192723205e-04 -1.417675893589e-05 0.0 
2.268691831686e-04 4.502042069821e-03 0.0 
3.608410924392e-04 -6.557719568630e-04 0.0 
6.177611931472e-04 -2.960126960205e-04 0.0 
1.904960045408e-03 1.355058303442e-03 0.0 
3.013891732818e-04 4.098195515239e-03 0.0 
6.118103819065e-04 -3.657598704529e-04 0.0 
1.114087640765e-03 4.482705077596e-05 0.0 
7.159361457488e-04 1.602182018763e-04 0.0 
3.027278558311e-04 5.052904653605e-03 0.0 
4.182403898849e-04 2.253558399995e-03 0.0 
2.649965045253e-04 -5.885798964104e-04 0.0 
1.707333840504e-03 2.602518880204e-03 0.0 
3.549556368158e-04 2.809514340719e-05 0.0 
3.877384789283e-04 5.604446851082e-03 0.0 
2.567337598652e-04 -2.180796335049e-04 0.0 
5.097069923252e-04 7.165754672943e-03 0.0 
1.246101489043e-03 3.849102191700e-04 0.0 
6.098426691784e-04 -2.266164672342e-04 0.0 
4.324924088075e-04 -2.838281372653e-06 0.0 
2.757177529453e-04 -6.849424635977e-04 0.0 
4.828362904036e-04 9.706523463003e-05 0.0 
6.587763464991e-04 -2.501878568897e-04 0.0 
2.134344501444e-04 -6.848502526549e-04 0.0 
5.332171295134e-04 -3.149680876586e-04 0.0 
6.897680036047e-04 -4.274052922493e-04 0.0 
7.054920817085e-04 -4.707039306278e-04 0.0 
3.379816200947e-04 -2.051005692859e-04 0.0 
6.665478557798e-05 -5.985100344045e-04 0.0 
5.082503159494e-05 -5.026963390975e-04 0.0 
5.628227614693e-04 -6.451573333313e-05 0.0 
3.251370778287e-04 -6.761759492285e-04 0.0 
7.927292305912e-04 -3.971055301363e-06 0.0 
9.505205086715e-04 1.481101681522e-05 0.0 
1.101209018209e-03 -2.149566204388e-04 0.0 
1.333011398675e-03 3.156642208377e-04 0.0 
3.512956142950e-04 3.217761841033e-03 0.0 
6.992189815929e-04 4.215506318107e-03 0.0 
5.902370335120e-04 -4.341985771158e-04 0.0 
1.160650825505e-03 3.959892320659e-04 0.0 
2.736771625821e-04 -7.038380103899e-04 0.0 
4.700224308546e-04 6.643125810197e-03 0.0 
4.930049326695e-04 7.661277343388e-03 0.0 
5.018250625906e-04 -4.948526490993e-04 0.0 
8.991266659513e-04 2.122164428186e-04 0.0 
5.326293771963e-04 4.751478426696e-03 0.0 
3.737416616468e-04 -6.526071614763e-04 0.0 
3.634183392432e-04 2.790966514795e-03 0.0 
3.266646596730e-04 2.755673235005e-03 0.0 
4.350522627871e-04 -6.197821666280e-04 0.0 
2.817782096124e-03 8.916447623566e-03 0.0 
6.068208776506e-04 -5.161608265406e-04 0.0 
5.004714824175e-04 -1.642492473756e-05 0.0 
4.734458304513e-04 -2.191834498049e-04 0.0 
9.042888853424e-04 2.621993513519e-03 0.0 
3.140653971215e-04 3.183839006322e-03 0.0 
6.422296435856e-04 -1.368623505665e-05 0.0 
7.151646704527e-04 5.999647871241e-06 0.0 
5.450235943317e-04 -5.065570648231e-04 0.0 
5.687159325380e-04 -1.321750798751e-06 0.0 
4.824754548001e-04 4.716959818900e-03 0.0 
3.895504764233e-04 -2.336274516145e-04 0.0 
4.357391921602e-04 5.641780436267e-03 0.0 
4.264796233148e-04 4.203352579963e-03 0.0 
3.207539845321e-03 2.915878088072e-03 0.0 
2.929392270431e-04 3.623289712487e-03 0.0 
4.899024450140e-04 -3.602046290092e-04 0.0 
5.240205493558e-04 -2.456112455340e-04 0.0 
5.524047377686e-04 -4.994677650840e-04 0.0 
1.210106691667e-03 -1.487366478344e-04 0.0 
4.376885103391e-04 5.161420274903e-03 0.0 
1.647588189445e-03 2.029719956791e-04 0.0 
5.626404229501e-04 -5.513086590428e-04 0.0 
3.629057671342e-04 -5.135994347680e-04 0.0 
4.867869199998e-04 5.197415552903e-03 0.0 
6.258499066035e-04 -5.146867141663e-04 0.0 
5.817093928328e-04 1.341298742193e-04 0.0 
3.459461745496e-04 4.610346439137e-03 0.0 
6.215112023029e-04 4.042804054510e-05 0.0 
6.229136803873e-04 2.615906777651e-04 0.0 
5.274465804267e-04 -3.874865514771e-04 0.0 
4.909307896536e-04 -5.899436195066e-04 0.0 
4.141672358145e-04 -5.311379860315e-04 0.0 
8.612090499794e-04 5.230060193973e-05 0.0 
3.363672101601e-04 6.051068975969e-03 0.0 
2.851964258257e-04 -5.431919051882e-04 0.0 
7.042013972581e-04 -4.429076150255e-04 0.0 
1.851150145043e-04 -7.263454380736e-04 0.0 
5.326096121286e-04 6.198523910822e-03 0.0 
6.112530549086e-04 -4.551467479186e-04 0.0 
1.032742406107e-03 4.658669748012e-05 0.0 
4.769843618074e-04 -5.205835474032e-04 0.0 
2.235050068237e-04 3.553702950053e-03 0.0 
7.126881501126e-04 -4.647478903176e-04 0.0 
1.082359910625e-03 1.413388921846e-04 0.0 
8.329872100106e-04 -1.637234439411e-04 0.0 
1.026264603155e-03 8.001737459402e-05 0.0 
4.041103579000e-04 -3.031646153164e-04 0.0 
7.731579655192e-04 5.553000978460e-05 0.0 
2.403682598570e-03 1.768248399913e-03 0.0 
2.310840380227e-04 -7.125529373599e-04 0.0 
4.070746174354e-04 7.089775354646e-03 0.0 
2.157524010557e-03 8.359838388394e-04 0.0 
3.267413393123e-03 6.918686567788e-03 0.0 
3.817647517317e-04 6.086053570121e-03 0.0 
1.032794643424e-03 -2.226538278886e-06 0.0 
7.085696216696e-04 5.819323211549e-03 0.0 
2.316897090463e-04 -7.220665789707e-04 0.0 
7.562700919613e-04 1.437785483372e-04 0.0 
2.176921949830e-03 9.349332110203e-04 0.0 
2.435861490702e-03 1.660592721904e-03 0.0 
2.612638829411e-04 2.236232855691e-03 0.0 
1.621315083253e-03 2.299806947877e-04 0.0 
4.049620042102e-04 -6.260095519514e-04 0.0 
1.375140275101e-03 1.753915749627e-04 0.0 
7.565120818460e-04 1.799981919220e-04 0.0 
1.438082454109e-03 2.102952405941e-04 0.0 
7.047245859800e-04 3.444677713410e-05 0.0 
3.894708861137e-04 4.646235849065e-03 0.0 
1.341033224091e-03 5.360513858674e-04 0.0 
1.198178171271e-03 1.200429173123e-04 0.0 
7.426722339435e-04 7.313277065034e-03 0.0 
3.182313460717e-04 -6.369092011246e-04 0.0 
7.887736675568e-04 -4.175492853464e-04 0.0 
3.275602594039e-03 5.247382884056e-03 0.0 
9.349115251205e-04 7.929562975223e-05 0.0 
3.035843307961e-03 8.307994210309e-03 0.0 
3.368143471382e-03 5.179476147091e-03 0.0 
5.915660457077e-04 5.267683604888e-03 0.0 
4.200129810502e-04 6.605657054250e-03 0.0 
7.568292856617e-04 6.823784070460e-03 0.0 
4.884101630427e-04 -2.881380268276e-04 0.0 
1.093263034274e-03 2.763987953362e-04 0.0 
1.555321673567e-03 2.494414897584e-04 0.0 
5.655175685386e-04 7.210393113869e-03 0.0 
1.074597873439e-03 2.133333844831e-03 0.0 
2.297583196001e-03 1.652975755953e-03 0.0 
1.105074107559e-03 1.140051976096e-04 0.0 
3.825734642890e-04 4.168623888127e-03 0.0 
1.114774369950e-03 -2.162346725629e-04 0.0 
9.477026283988e-04 -3.227705542042e-04 0.0 
4.966274085391e-04 -5.521746490473e-04 0.0 
1.449534631922e-03 2.593106373208e-04 0.0 
8.540617738767e-04 -3.584958844099e-04 0.0 
5.922975024932e-04 5.751193158024e-03 0.0 
7.047151168443e-04 6.306647229671e-03 0.0 
3.001881518979e-03 2.185243222172e-03 0.0 
9.404246536704e-04 -3.242295875791e-04 0.0 
2.771576267149e-03 3.230195504346e-03 0.0 
8.676970835356e-04 -3.742840099775e-04 0.0 
1.033009592447e-03 -2.714690536088e-04 0.0 
5.264217046280e-04 -5.558453613538e-04 0.0 
1.300036405702e-03 3.578226603501e-04 0.0 
1.563311276378e-03 1.106707847033e-04 0.0 
3.305988064862e-04 3.657828675447e-03 0.0 
1.738294406335e-03 2.590313194282e-04 0.0 
1.463398289483e-03 2.277951785766e-04 0.0 
1.589769408942e-03 1.815738190616e-04 0.0 
3.399705388517e-03 4.328313333381e-03 0.0 
4.737411002843e-04 -5.930062094433e-04 0.0 
9.448153021373e-04 2.382805193494e-04 0.0 
8.159496298014e-04 2.186809352167e-04 0.0 
2.743255339401e-03 4.009032103603e-03 0.0 
1.205813275851e-03 -1.563872774950e-04 0.0 
1.545917766123e-03 2.088420423758e-04 0.0 
5.376722991815e-04 5.715443713835e-03 0.0 
1.010934695489e-03 -2.640831054178e-04 0.0 
3.359113220093e-03 6.439796389285e-03 0.0 
6.405175125327e-04 -5.006705478891e-04 0.0 
1.249687277880e-03 1.839228080868e-04 0.0 
1.287161381700e-03 -9.814572587433e-05 0.0 
5.701119604752e-04 -5.432485330759e-04 0.0 
3.827302282160e-04 -6.339725423105e-04 0.0 
1.490811826507e-03 1.148661785717e-04 0.0 
1.281846270833e-03 1.624148350353e-04 0.0 
1.880094190802e-03 2.402510999572e-03 0.0 
2.908973221211e-05 -5.494890664573e-04 0.0 
2.197348282568e-03 7.837671449128e-04 0.0 
1.875227263401e-03 4.006725442532e-04 0.0 
1.383916687227e-03 -2.869884510780e-05 0.0 
6.447330274673e-04 6.271842237450e-03 0.0 
1.595240011363e-03 1.480647759347e-04 0.0 
6.371565241185e-04 -4.885105020977e-04 0.0 
1.462262029378e-03 3.149944108343e-05 0.0 
2.634299481957e-04 4.063005017304e-03 0.0 
5.638748133250e-04 -5.173291964869e-04 0.0 
3.068277028836e-04 -6.059259011331e-04 0.0 
4.175507338479e-04 -5.874087084665e-04 0.0 
1.305294433498e-03 1.371559939051e-04 0.0 
1.117474055941e-03 -2.070073552319e-04 0.0 
2.054881222567e-03 5.795138139723e-04 0.0 
1.634988512668e-03 1.707556690263e-04 0.0 
8.159794099401e-04 -2.290850808010e-05 0.0 
3.785659338626e-04 -6.240827632811e-04 0.0 
1.037832120436e-03 6.963400167567e-03 0.0 
5.047446323609e-04 -5.726307795553e-04 0.0 
1.384692953291e-03 3.595033068893e-04 0.0 
2.143984779473e-03 2.634323771001e-03 0.0 
1.908380616069e-03 6.388719203780e-03 0.0 
5.706579474435e-04 3.378806050040e-03 0.0 
1.597431628891e-03 2.119820538795e-03 0.0 
3.137792739803e-03 2.653817083392e-03 0.0 
2.476620396450e-03 3.314239595038e-03 0.0 
1.027859499496e-03 1.638469903201e-04 0.0 
1.334520844404e-03 -4.647357525744e-05 0.0 
3.378523750562e-03 4.144045966619e-03 0.0 
1.603580864058e-03 1.112725979098e-03 0.0 
7.777718673583e-04 1.532496281372e-04 0.0 
9.391930831803e-04 -3.166626581373e-04 0.0 
1.769807026669e-03 2.945467044714e-04 0.0 
1.948270933865e-03 4.626840366797e-04 0.0 
5.018684736249e-04 -5.588714887576e-04 0.0 
1.749524126763e-03 2.837906921110e-04 0.0 
2.089075807161e-03 6.444997275712e-04 0.0 
2.375833419862e-03 9.958429099198e-04 0.0 
1.031415862623e-03 -2.698923659383e-04 0.0 
2.375915883110e-03 1.258371922959e-03 0.0 
6.478560755071e-04 5.301008666191e-03 0.0 
2.521129988930e-03 1.277106984283e-03 0.0 
1.145681184398e-03 3.103870571572e-04 0.0 
1.259252324410e-03 3.790741916557e-04 0.0 
9.627049586869e-04 3.224179421713e-04 0.0 
1.905038133146e-03 4.146860002383e-04 0.0 
1.276881501977e-03 1.757900409026e-03 0.0 
2.564331093933e-03 5.399566397884e-03 0.0 
1.105590576871e-03 1.115070746967e-04 0.0 
2.001989755654e-03 5.857836054827e-03 0.0 
7.375032909325e-04 3.009275132790e-03 0.0 
2.059212757141e-03 5.751676345418e-04 0.0 
3.272294142142e-03 5.834135974398e-03 0.0 
2.077204016245e-03 5.323279490142e-03 0.0 
3.279230075683e-03 6.188532725553e-03 0.0 
8.740089137222e-04 9.393036591388e-05 0.0 
2.777028487509e-04 1.431960793344e-03 0.0 
6.773244426206e-04 -8.361210867287e-05 0.0 
1.425514705495e-03 7.787590330821e-04 0.0 
2.292369048435e-04 2.654374098972e-03 0.0 
2.158332355014e-03 1.011848994003e-03 0.0 
5.786677044287e-04 6.725432250691e-03 0.0 
6.022759526840e-04 3.855923563940e-03 0.0 
2.268780404516e-03 8.453479161994e-04 0.0 
2.923065983403e-03 1.984350352801e-03 0.0 
4.379780936196e-04 2.409354467070e-03 0.0 
1.156577510375e-03 1.768633413624e-04 0.0 
6.976304836661e-04 4.847935706405e-03 0.0 
2.026640299850e-03 7.461511412125e-04 0.0 
1.098197126241e-03 2.996726945281e-04 0.0 
7.398007210104e-04 4.393228880374e-03 0.0 
8.923464224700e-04 8.637192551525e-04 0.0 
8.495270994347e-04 2.411386865996e-04 0.0 
1.433029076913e-03 1.852850312579e-05 0.0 
6.361659164556e-04 6.763001133130e-03 0.0 
6.819909541145e-04 7.287299119925e-03 0.0 
1.800481842347e-03 3.171591227685e-04 0.0 
1.342390153578e-03 2.363937631820e-04 0.0 
1.378078167233e-03 3.032910821579e-04 0.0 
3.782890928643e-04 -5.780764611745e-04 0.0 
2.507851941222e-03 3.396503378477e-03 0.0 
2.689098499189e-03 1.521611668083e-03 0.0 
2.413593374371e-03 1.099301285471e-03 0.0 
3.403780115917e-03 5.338226904544e-03 0.0 
3.462346164532e-04 1.920379977136e-03 0.0 
1.093698082275e-03 2.638113810713e-03 0.0 
2.597177832768e-04 2.688855906398e-03 0.0 
2.960505700473e-03 8.285002131777e-03 0.0 
8.986726756167e-04 3.982740864128e-03 0.0 
1.262959806871e-03 1.919015645104e-04 0.0 
3.266895405473e-04 2.321992690586e-03 0.0 
8.868827247982e-04 4.927872426858e-03 0.0 
1.494329822607e-03 7.500895365409e-05 0.0 
2.831271424548e-03 1.893805541927e-03 0.0 
6.809105867622e-04 4.365242807709e-03 0.0 
4.844279211447e-04 2.874723316613e-03 0.0 
5.208388464722e-04 4.272025944127e-03 0.0 
6.398998156933e-04 4.817482630067e-03 0.0 
9.866131909626e-04 2.144706456923e-04 0.0 
1.662250193813e-03 1.005048971459e-03 0.0 
1.180969021185e-03 2.784868575259e-04 0.0 
1.372364762243e-03 1.372751214114e-04 0.0 
2.370753722467e-03 9.757297957964e-03 0.0 
2.100951211641e-03 1.063369991839e-03 0.0 
1.256647424313e-03 4.998509357928e-03 0.0 
4.413945679694e-04 -6.105294526436e-04 0.0 
2.586516335722e-03 1.333497235010e-03 0.0 
2.490780735074e-03 1.131122890863e-03 0.0 
2.783422337316e-03 1.772925099664e-03 0.0 
1.886841075483e-03 1.882365926351e-03 0.0 
2.730848359406e-03 1.674242183789e-03 0.0 
2.583147438420e-03 1.551397239825e-03 0.0 
2.634373328256e-03 8.165968544563e-03 0.0 
1.447720418255e-03 6.320853290855e-05 0.0 
9.741947288194e-04 5.932463170778e-03 0.0 
6.283267917171e-04 8.862950765074e-03 0.0 
-8.489938788225e-05 8.448192079189e-03 0.0 
1.451218869181e-03 1.490792776427e-04 0.0 
1.992946019755e-03 8.878709805771e-04 0.0 
8.681676593781e-04 2.201603538304e-03 0.0 
2.930433783783e-03 1.982710249789e-03 0.0 
1.427658603876e-03 1.035102895646e-04 0.0 
7.709133106229e-04 5.851138982040e-03 0.0 
4.574280217953e-04 1.090444502818e-02 0.0 
2.217328122355e-03 1.110375400552e-03 0.0 
2.749378569094e-03 1.619662903167e-03 0.0 
2.594699116802e-03 7.779582833515e-03 0.0 
1.304328012446e-03 2.576859244427e-04 0.0 
1.513937251124e-03 8.998581405946e-04 0.0 
1.318043718897e-03 3.141557658860e-04 0.0 
1.073147869572e-03 3.255224105554e-04 0.0 
2.433422658237e-03 1.376246944985e-03 0.0 
5.718192551699e-04 4.304705086195e-03 0.0 
2.299953587095e-03 2.283655191555e-03 0.0 
1.030810921894e-03 2.947265325532e-04 0.0 
1.160010169392e-03 1.193971493811e-02 0.0 
8.322715686677e-04 5.391116679085e-03 0.0 
1.682453081348e-03 1.188159642342e-03 0.0 
5.509152890646e-04 3.825838918763e-03 0.0 
2.659449850158e-03 1.588667491393e-03 0.0 
2.884033170898e-03 1.936497153454e-03 0.0 
8.725327024962e-04 -1.519610702206e-04 0.0 
9.754651667393e-04 2.538685132325e-03 0.0 
4.322545946264e-04 3.287209877191e-03 0.0 
3.794352146427e-04 -6.188269255048e-04 0.0 
1.633067789330e-03 1.223711602587e-02 0.0 
2.431546685589e-03 2.724854944813e-03 0.0 
2.315472237184e-04 2.203338361796e-03 0.0 
1.248766152115e-03 6.171383786400e-04 0.0 
3.148470845445e-03 5.240873912200e-03 0.0 
8.208617541489e-04 4.903760945135e-03 0.0 
1.202189571928e-03 -4.859773177695e-05 0.0 
1.788789018460e-03 1.603619407433e-03 0.0 
3.177380492805e-03 5.845809629667e-03 0.0 
8.374264690335e-04 2.896856600455e-04 0.0 
1.329462739263e-03 8.018171282694e-04 0.0 
1.072789268336e-03 5.266805919303e-04 0.0 
2.825106475962e-03 1.791012595249e-03 0.0 
1.508613678205e-04 4.938039688312e-04 0.0 
1.903080548621e-03 1.220741152448e-02 0.0 
8.038737995149e-04 1.644498628635e-04 0.0 
3.063465757027e-03 2.848013962878e-03 0.0 
1.041266588826e-03 5.456074004212e-03 0.0 
1.449455123663e-03 2.462218163742e-03 0.0 
9.230674628213e-04 2.923276529853e-04 0.0 
1.004001142142e-03 3.661921020302e-04 0.0 
4.218093593990e-04 -5.611980350888e-04 0.0 
2.366378154706e-03 1.431211066777e-03 0.0 
2.115382755057e-03 6.373402689145e-04 0.0 
1.896901931484e-03 1.279340137017e-03 0.0 
3.248620140132e-03 7.107927871716e-03 0.0 
1.149215439884e-03 4.506017471614e-03 0.0 
1.422037601787e-03 8.148461410939e-04 0.0 
7.679304324331e-04 5.363277513020e-03 0.0 
9.246777871437e-04 2.206542061562e-03 0.0 
7.721348046209e-04 3.938419562759e-03 0.0 
7.919001806629e-04 3.483751124673e-03 0.0 
2.094934804278e-03 4.338846862269e-03 0.0 
8.220276501581e-04 1.374572540211e-04 0.0 
8.653610626911e-04 4.443066809380e-03 0.0 
3.265153280642e-03 3.161320646813e-03 0.0 
2.015204369429e-03 1.189228973613e-02 0.0 
1.175216645579e-03 6.726744517882e-04 0.0 
2.189493327370e-03 2.877350569465e-03 0.0 
4.352233956601e-04 -5.816245450404e-04 0.0 
2.099088368230e-03 1.421763570919e-03 0.0 
4.130778793622e-05 -7.642235860513e-04 0.0 
3.359986143738e-03 4.487765178012e-03 0.0 
2.148155215956e-03 1.155904372763e-03 0.0 
6.223783837412e-04 2.534767507577e-03 0.0 
5.934431796801e-04 2.086138974837e-03 0.0 
2.322038901797e-03 1.320784803501e-03 0.0 
6.220872941007e-04 3.407589528912e-03 0.0 
3.210301524125e-03 3.186764316880e-03 0.0 
2.291951392509e-03 3.017883966931e-03 0.0 
1.998308851360e-03 1.135420805798e-02 0.0 
1.238632754155e-03 2.210158819743e-03 0.0 
1.886649397242e-03 1.064491352189e-02 0.0 
1.805791889751e-03 1.024009709563e-02 0.0 
3.079766238768e-03 2.414371843172e-03 0.0 
1.709143399713e-03 9.811395720898e-03 0.0 
3.161152382124e-03 3.378355443511e-03 0.0 
3.392216534392e-03 4.102776384089e-03 0.0 
2.732953854110e-03 1.564358564006e-03 0.0 
1.578528378963e-03 1.490429545497e-03 0.0 
2.974880281694e-03 2.163354377982e-03 0.0 
4.413796288672e-04 2.845736607273e-03 0.0 
1.015608640007e-03 2.144509801254e-03 0.0 
9.784896989600e-04 1.324762142357e-04 0.0 
1.669854749200e-03 1.063654119117e-03 0.0 
2.221009461599e-03 7.639069538000e-04 0.0 
7.324634552845e-04 3.460598113791e-03 0.0 
2.827465460677e-03 1.759680691240e-03 0.0 
6.596227410617e-04 1.065771728912e-04 0.0 
7.125954335894e-04 3.912693115476e-03 0.0 
9.661151866061e-04 3.999854052714e-03 0.0 
2.458554141588e-03 1.289112604791e-03 0.0 
3.103889116269e-03 2.636532430767e-03 0.0 
1.932827989668e-03 2.342385450743e-03 0.0 
2.474656552807e-03 5.502335433875e-03 0.0 
1.492624162280e-03 1.238231263219e-03 0.0 
2.086701963405e-03 2.517206275340e-03 0.0 
3.329007268383e-03 6.576851635415e-03 0.0 
3.087012390684e-03 5.441094116917e-03 0.0 
5.101055520334e-04 8.322994390618e-05 0.0 
9.324622083085e-04 4.464235099867e-03 0.0 
3.018861377949e-03 2.375198346357e-03 0.0 
2.821855078365e-03 4.435089262134e-03 0.0 
1.918157991113e-03 9.230508609549e-04 0.0 
4.762489915466e-04 3.319734695524e-03 0.0 
1.658052533597e-03 2.090937631704e-03 0.0 
1.121968157000e-03 5.965232443673e-03 0.0 
1.521215709978e-03 5.490693152678e-04 0.0 
2.846864836277e-03 1.784004943386e-03 0.0 
1.869148566568e-03 8.460782562409e-04 0.0 
3.343335031746e-03 4.748110040946e-03 0.0 
4.813388007628e-04 2.448874260982e-03 0.0 
1.334173140324e-03 1.740601597613e-03 0.0 
2.640607908745e-03 1.457165794574e-03 0.0 
1.858577674045e-03 2.386865295975e-03 0.0 
2.115622744296e-03 1.966445396717e-03 0.0 
3.238612348994e-03 3.952436092702e-03 0.0 
3.133600903438e-03 2.888317247374e-03 0.0 
2.592363328454e-03 1.444257878386e-03 0.0 
1.514318783398e-03 4.598267968554e-04 0.0 
1.762438256986e-03 2.060758710957e-03 0.0 
2.763769129030e-03 1.614295354315e-03 0.0 
1.984013983508e-03 5.374347317083e-03 0.0 
4.665197953657e-04 7.114805968408e-05 0.0 
2.041579274621e-03 4.846423894069e-03 0.0 
2.270298719120e-03 2.377125593854e-03 0.0 
1.906762888330e-03 5.899955136678e-03 0.0 
1.706893704321e-03 6.937105436973e-03 0.0 
2.525702532527e-03 4.930672614053e-03 0.0 
1.873231325671e-03 1.134380468215e-03 0.0 
9.347058254449e-04 1.499503228592e-04 0.0 
1.026594071462e-03 4.967152195663e-03 0.0 
5.465478894567e-04 2.069497994086e-03 0.0 
1.812893304566e-03 6.421120706820e-03 0.0 
2.857348277486e-03 2.719919710206e-03 0.0 
1.893550527415e-03 1.737645116612e-03 0.0 
3.606564332511e-04 2.344237964731e-03 0.0 
3.357505025512e-03 3.955323692960e-03 0.0 
3.310815790836e-03 4.096164897424e-03 0.0 
2.972054818560e-03 2.554211842470e-03 0.0 
1.074116789623e-03 4.496770341765e-03 0.0 
3.129676400813e-03 7.750788158953e-03 0.0 
3.061767799317e-03 3.051159583770e-03 0.0 
3.202413433709e-03 7.450710731748e-03 0.0 
2.255083840261e-03 1.447878676057e-03 0.0 
1.411261557336e-03 1.205753428617e-03 0.0 
2.860419384046e-03 2.078645462653e-03 0.0 
9.159830201761e-04 2.187507362336e-03 0.0 
6.907188423509e-04 2.112467938707e-03 0.0 
3.042190235615e-03 7.739540936194e-03 0.0 
2.368079677339e-03 9.493776317042e-04 0.0 
1.672289022777e-03 1.439581769558e-03 0.0 
1.100806141787e-03 4.982574248975e-03 0.0 
1.115012201622e-03 1.963561506490e-04 0.0 
3.334267319712e-03 3.817306490280e-03 0.0 
6.480650390027e-04 2.058721748111e-03 0.0 
3.338450145450e-04 5.734246948376e-05 0.0 
3.110892587606e-03 4.795702205730e-03 0.0 
2.633381866543e-03 2.027710879122e-03 0.0 
1.742221496788e-03 1.973887137036e-03 0.0 
1.712317241890e-04 2.141680775180e-03 0.0 
1.183332356985e-03 2.326865350576e-04 0.0 
2.953683390988e-03 4.837585914913e-03 0.0 
1.200782354329e-03 5.975771998988e-03 0.0 
1.172955112551e-03 1.315981855191e-06 0.0 
2.957162226651e-03 2.333181042555e-03 0.0 
6.095314318581e-04 8.979012578270e-05 0.0 
3.159910192470e-03 3.585233678348e-03 0.0 
2.874272012253e-03 2.490789605885e-03 0.0 
3.004221729320e-03 4.547371817795e-03 0.0 
6.049168464302e-04 1.732720438684e-03 0.0 
2.527903161206e-03 3.204812905473e-03 0.0 
2.224887481592e-03 1.348096908177e-03 0.0 
1.046035269910e-03 1.432208830980e-03 0.0 
2.191727102059e-03 2.553838730925e-03 0.0 
2.389768903406e-03 2.425647300046e-03 0.0 
9.098508178588e-04 1.044207748189e-04 0.0 
3.119612483622e-04 1.884250184137e-03 0.0 
9.043125476970e-04 5.423749780789e-04 0.0 
2.083022317804e-03 1.335409049775e-03 0.0 
3.250336842475e-03 3.197040504952e-03 0.0 
2.797850058799e-03 3.869253914027e-03 0.0 
3.802127771578e-04 5.099730641635e-05 0.0 
2.737415277115e-04 -2.866785956740e-04 0.0 
2.390976479852e-03 2.827972237291e-03 0.0 
9.686563877790e-04 5.437962525894e-03 0.0 
7.660233132605e-04 1.155984863639e-04 0.0 
1.120007814059e-03 2.426227844127e-04 0.0 
2.487011816462e-04 9.284247999141e-03 0.0 
1.655560887777e-04 9.277856975765e-03 0.0 
1.860590930501e-03 4.931460779690e-03 0.0 
2.695037667997e-03 3.470578996623e-03 0.0 
1.014526131613e-03 -3.160125386265e-05 0.0 
2.388229089920e-03 4.568402397513e-03 0.0 
3.239494232953e-03 3.500715644409e-03 0.0 
1.333299493294e-03 5.659284556869e-04 0.0 
3.308960596206e-03 3.492166843185e-03 0.0 
1.338891647271e-04 5.037701774357e-04 0.0 
1.740505663428e-03 7.922241403544e-03 0.0 
3.310455485140e-03 3.851322683969e-03 0.0 
1.264984190986e-03 4.579001309577e-05 0.0 
2.404618695846e-03 3.005461355220e-03 0.0 
1.349637689777e-03 3.198622952790e-06 0.0 
2.934303564407e-03 4.126415855199e-03 0.0 
2.921087798991e-03 5.332846620427e-03 0.0 
1.194292856479e-03 5.482035612839e-03 0.0 
2.316509694719e-03 4.118655739378e-03 0.0 
2.152332396989e-03 3.757171172285e-03 0.0 
1.020054396657e-04 -7.861261658325e-04 0.0 
1.297738861620e-03 -5.000303468490e-05 0.0 
3.125780640392e-03 7.485224368267e-03 0.0 
2.262586326375e-03 5.196652896169e-03 0.0 
2.131755916294e-03 4.790632421852e-03 0.0 
1.646851138741e-03 8.986843881422e-04 0.0 
2.238715491581e-05 -7.455363365028e-04 0.0 
1.445802588199e-03 1.647523512010e-03 0.0 
3.244670807895e-03 4.807529217577e-03 0.0 
1.201625020954e-03 -1.032115429661e-04 0.0 
1.892109722620e-03 1.019664617378e-02 0.0 
1.796419416663e-03 9.783189859314e-03 0.0 
1.275035488744e-03 5.488723591943e-03 0.0 
1.905856214028e-03 4.700228094304e-03 0.0 
1.145089999340e-03 -4.441774206880e-05 0.0 
1.933902290751e-03 8.066547809064e-04 0.0 
1.531660409198e-03 1.939106158553e-03 0.0 
7.438960581298e-04 6.733517731519e-04 0.0 
6.300547650973e-04 2.970308726992e-03 0.0 
9.250036199979e-04 -1.671892537690e-04 0.0 
8.100626074462e-04 1.000361157852e-04 0.0 
1.600575914479e-04 -7.507482688201e-04 0.0 
1.959124600635e-03 7.433517861840e-04 0.0 
3.157559959821e-03 4.596591054560e-03 0.0 
1.220794577513e-04 -7.792732622420e-04 0.0 
5.792179749450e-04 2.943026589396e-03 0.0 
1.369921109416e-03 2.124912027109e-03 0.0 
2.353099892423e-03 5.118862482740e-03 0.0 
2.991580366200e-03 5.164817627805e-03 0.0 
2.430537877594e-03 1.049263684623e-03 0.0 
1.925884613473e-03 5.413006574930e-04 0.0 
5.743665832845e-04 2.518954112662e-03 0.0 
1.785301024022e-03 5.079253630152e-04 0.0 
3.222083217909e-03 4.173293469015e-03 0.0 
3.277635547759e-03 4.577367136672e-03 0.0 
-1.275151988091e-05 6.887848997191e-03 0.0 
1.116960458843e-03 1.997193804146e-03 0.0 
2.061874664556e-03 2.130400550790e-03 0.0 
1.628150713150e-03 6.457465195442e-03 0.0 
1.869457315650e-03 1.808129868386e-03 0.0 
3.013345887294e-03 5.324087998512e-03 0.0 
1.348753399227e-03 3.553475194556e-03 0.0 
1.785524437766e-03 1.915983121751e-03 0.0 
1.867367756851e-03 9.290376432082e-03 0.0 
2.023873253233e-03 2.203996395382e-03 0.0 
7.470722302476e-04 7.814037856340e-05 0.0 
2.884693323086e-03 3.570735630105e-03 0.0 
1.297252693848e-03 2.912137162809e-07 0.0 
1.332182199695e-03 4.894523466500e-05 0.0 
7.448269665709e-04 2.130779321602e-03 0.0 
2.016699477623e-03 5.631286188805e-04 0.0 
2.946367962676e-03 4.716267035153e-03 0.0 
3.159688489897e-03 2.825741632408e-03 0.0 
1.595273057211e-03 4.618930568468e-04 0.0 
3.338297690576e-03 3.689057474851e-03 0.0 
2.459608588818e-03 2.223683681011e-03 0.0 
2.583344149868e-03 1.302830901284e-03 0.0 
2.721926426830e-03 2.634170894401e-03 0.0 
2.305300990942e-03 4.653823230209e-03 0.0 
2.617138720355e-03 2.323969132029e-03 0.0 
2.607537578315e-03 4.823231712639e-03 0.0 
1.854355166891e-03 1.064102992910e-03 0.0 
2.033949800355e-03 1.165349806590e-03 0.0 
3.357733880021e-03 3.751938086752e-03 0.0 
1.365528109767e-03 5.981861936814e-03 0.0 
6.529416268584e-04 7.691570203352e-05 0.0 
5.958139784529e-04 6.028659666572e-05 0.0 
1.360466931252e-03 4.893277926259e-03 0.0 
2.544921604054e-03 4.373206322115e-03 0.0 
3.691113024771e-04 6.534896336026e-05 0.0 
2.538454987266e-03 1.030683533051e-02 0.0 
9.033451411209e-04 -1.071299139487e-04 0.0 
1.333674940226e-04 7.347723978563e-03 0.0 
5.088180267850e-04 6.107913619280e-05 0.0 
2.495530179753e-03 2.762262476498e-03 0.0 
2.262187537202e-04 -2.582032756750e-04 0.0 
2.655266264806e-03 2.166671678682e-03 0.0 
1.451468584376e-03 5.980445402709e-03 0.0 
1.537761572076e-03 6.466771140461e-03 0.0 
3.095243070422e-03 4.183029275796e-03 0.0 
2.038143097299e-03 1.093164213933e-02 0.0 
1.974069826306e-03 1.058197763632e-02 0.0 
4.577772965091e-04 4.893487680158e-05 0.0 
1.905250319954e-03 5.658959006729e-04 0.0 
2.393415461947e-03 9.892460494887e-04 0.0 
2.028955881312e-03 8.280958242744e-04 0.0 
2.665278763514e-03 1.418234919389e-03 0.0 
2.670157571639e-03 2.870500619835e-03 0.0 
1.953825730543e-03 1.101833585848e-02 0.0 
1.679106203479e-03 7.450197367152e-03 0.0 
2.093632957540e-04 9.566777730437e-03 0.0 
2.001556787629e-03 1.083583534451e-03 0.0 
3.318734372685e-03 3.468068022187e-03 0.0 
1.184508146140e-03 7.119719101314e-04 0.0 
1.966332202150e-04 6.003999623819e-06 0.0 
2.676694662834e-03 1.443847457552e-03 0.0 
3.079303796947e-04 6.346027658757e-05 0.0 
2.544384711573e-03 1.860803324929e-03 0.0 
1.443473875959e-03 9.615361038952e-04 0.0 
3.126801588646e-03 3.989893771157e-03 0.0 
2.799077702861e-03 3.055298360468e-03 0.0 
1.391773109790e-03 5.168594712061e-04 0.0 
1.395252781231e-03 -1.380159752643e-05 0.0 
2.756113559485e-03 4.575827949396e-03 0.0 
2.568591251767e-03 1.251103099358e-03 0.0 
2.810133876586e-03 5.025034715038e-03 0.0 
3.144501992364e-03 5.370873505165e-03 0.0 
2.675860534531e-03 2.584386880517e-03 0.0 
2.533684178896e-03 1.209112310902e-03 0.0 
1.102951149034e-03 4.608483706991e-06 0.0 
2.733047933480e-03 5.161700745490e-03 0.0 
6.495851227830e-05 5.009534047810e-03 0.0 
2.991453400478e-03 2.482685766433e-03 0.0 
8.056749051775e-04 7.126617909855e-03 0.0 
3.098101734732e-04 -6.540863552031e-04 0.0 
9.924170541174e-04 -7.482845064465e-05 0.0 
2.034994121078e-03 2.781136110865e-03 0.0 
1.629144741034e-03 5.973854492842e-03 0.0 
2.101514803977e-03 1.150036323356e-02 0.0 
6.948523353913e-05 2.448494658835e-04 0.0 
-2.602304006752e-04 5.676374309400e-03 0.0 
2.082894316631e-03 1.123794548083e-02 0.0 
2.306849416593e-03 8.919696957109e-04 0.0 
7.836283548973e-04 -1.801747479153e-04 0.0 
2.374409804930e-03 9.351673179471e-03 0.0 
2.234176815751e-03 1.064909453720e-03 0.0 
2.024992974939e-03 6.001086170232e-04 0.0 
2.978657533294e-03 3.961184464370e-03 0.0 
2.760520055319e-03 2.135126500961e-03 0.0 
1.513573994488e-03 2.624534107617e-03 0.0 
1.604460768749e-03 4.521922562412e-03 0.0 
1.016375962832e-03 -1.318820838515e-04 0.0 
7.287810495404e-04 -1.608692860306e-04 0.0 
9.215957026544e-04 -3.204716943503e-04 0.0 
1.755221172804e-03 8.852021806466e-03 0.0 
1.720471129599e-03 5.959671880639e-03 0.0 
7.154209017415e-05 -6.383586172794e-05 0.0 
1.265466052706e-04 -7.707150855081e-04 0.0 
-9.820979971740e-05 2.337277973612e-03 0.0 
6.501664753086e-04 -3.945159129375e-04 0.0 
6.426831716569e-04 -1.830430898388e-04 0.0 
2.669184465440e-03 1.773678793788e-03 0.0 
2.218822422821e-03 1.174801134009e-03 0.0 
2.352918183168e-03 1.934398840347e-03 0.0 
8.409132791386e-04 -9.301738175926e-05 0.0 
1.770562892868e-03 4.957031446269e-03 0.0 
5.868886633774e-04 -1.606361367410e-04 0.0 
2.773901832653e-03 2.017197531116e-03 0.0 
2.616411642118e-03 4.262468589325e-03 0.0 
1.004336722349e-03 7.970542706950e-03 0.0 
2.307809011388e-03 1.754000374610e-03 0.0 
5.034734419944e-04 -1.777817184073e-04 0.0 
7.552535351569e-04 -1.185430761464e-04 0.0 
2.046676253125e-03 1.186536237982e-02 0.0 
2.548142744684e-03 1.406542600754e-03 0.0 
4.463385275934e-04 -1.533383186816e-04 0.0 
3.581991930152e-05 5.817299877175e-03 0.0 
3.993608075061e-05 6.777931113560e-03 0.0 
2.088951598486e-03 1.171629613956e-02 0.0 
6.927255710685e-04 -1.007592588451e-04 0.0 
1.896028909084e-03 6.424042404135e-04 0.0 
1.581406396000e-03 7.674065425745e-03 0.0 
1.438933657735e-03 9.127487470956e-04 0.0 
7.051338740815e-04 -2.189214386709e-04 0.0 
1.910066649973e-03 5.731894312556e-04 0.0 
3.102265830112e-03 2.758064852513e-03 0.0 
2.022847021579e-03 1.164577068231e-02 0.0 
3.647420597217e-04 -1.662131677505e-04 0.0 
5.547731769782e-05 -6.719185602341e-04 0.0 
1.709275954793e-03 8.404852025525e-03 0.0 
6.104585771725e-04 -1.206785156315e-04 0.0 
2.265604276689e-03 8.145158946016e-04 0.0 
1.052976958327e-03 -8.435243699900e-05 0.0 
1.500865002427e-04 4.141756700418e-03 0.0 
4.351638712709e-05 2.994249172151e-03 0.0 
2.222012072944e-03 8.690422747452e-04 0.0 
1.560648142784e-03 7.281468189597e-04 0.0 
2.816825377751e-03 2.909528832141e-03 0.0 
5.491301330551e-04 -1.002994210856e-04 0.0 
4.684253048589e-04 -1.158136424694e-04 0.0 
2.561378785602e-03 1.698356245653e-03 0.0 
4.493547259651e-04 -9.153001418555e-05 0.0 
2.653781286977e-04 4.668528926410e-03 0.0 
4.077984075534e-04 -9.368096712992e-05 0.0 
1.441978579340e-03 5.681768970534e-04 0.0 
1.588355716369e-03 2.400864529933e-04 0.0 
2.528058005439e-03 3.832481674223e-03 0.0 
2.528013334343e-03 1.037296503067e-02 0.0 
2.391367163065e-03 4.030900565395e-03 0.0 
5.370553594909e-04 1.600680897147e-04 0.0 
-7.637748024795e-04 2.519920736539e-03 0.0 
6.223901119110e-06 2.620169694599e-04 0.0 
1.485871309309e-05 9.064010941692e-06 0.0 
2.535766920935e-05 8.301412440122e-03 0.0 
1.898144979383e-03 4.518552676096e-04 0.0 
2.915695626041e-03 3.413484465434e-03 0.0 
2.772861868950e-03 2.208310874433e-03 0.0 
2.773335834779e-04 -6.452617403471e-04 0.0 
-2.447425802624e-05 6.025845419234e-03 0.0 
1.819350833077e-04 2.164083528182e-03 0.0 
1.798759078551e-03 5.442037065512e-03 0.0 
1.696563498701e-03 9.340743326975e-03 0.0 
3.800576289712e-04 3.045832350489e-04 0.0 
4.799612353991e-05 -7.222589847031e-04 0.0 
3.699525139982e-04 2.709701940608e-04 0.0 
1.707954631323e-03 5.469352306432e-03 0.0 
1.584745399101e-03 1.355505641650e-04 0.0 
3.041218354472e-03 3.610797795060e-03 0.0 
1.804262255680e-03 3.837294957887e-04 0.0 
1.890897188608e-03 8.617378987688e-03 0.0 
1.598410593716e-03 2.006785774457e-04 0.0 
1.814187330138e-03 4.451803092958e-03 0.0 
1.957160135980e-04 2.176156336859e-05 0.0 
2.125586504682e-03 7.982860822907e-04 0.0 
2.294060554206e-03 3.601305342914e-03 0.0 
-5.812739806430e-04 2.190697838499e-03 0.0 
2.453467059231e-03 1.336775916259e-03 0.0 
1.417800449572e-03 4.029879006674e-03 0.0 
1.302790891520e-03 -7.559784863236e-05 0.0 
1.375795742227e-03 6.214948707758e-05 0.0 
3.057797827211e-03 3.426995078565e-03 0.0 
1.025262039774e-03 7.949363607288e-04 0.0 
1.834095018177e-03 1.199768688061e-02 0.0 
1.947421383113e-03 1.199981086209e-02 0.0 
1.193167102282e-03 -1.192480753916e-04 0.0 
2.211113775376e-03 7.736354924430e-04 0.0 
3.275417600332e-03 3.359319172745e-03 0.0 
2.359261358517e-03 3.513624184533e-03 0.0 
9.304718098764e-04 1.709112396499e-03 0.0 
1.975806873433e-03 1.208641623604e-02 0.0 
6.574656689172e-05 4.820986159206e-03 0.0 
1.151175851579e-03 1.400214467010e-03 0.0 
2.651150427708e-03 2.127239216382e-03 0.0 
7.890111153881e-04 8.039940807526e-03 0.0 
2.627088869345e-03 1.004032705341e-02 0.0 
2.094439607074e-03 6.232685339439e-04 0.0 
2.078060144582e-03 3.824393731429e-03 0.0 
2.195204420081e-03 7.360501091182e-04 0.0 
9.893985520785e-04 4.206478155742e-03 0.0 
2.105244146080e-03 7.224395820986e-04 0.0 
2.114278434473e-03 9.352428678429e-03 0.0 
3.241272697733e-03 3.115452409272e-03 0.0 
2.118642459686e-03 6.978339154114e-04 0.0 
2.950022773670e-03 3.083912220612e-03 0.0 
2.542192383584e-04 6.012220853071e-03 0.0 
1.105383211344e-03 -1.963273090699e-04 0.0 
1.189220061067e-03 6.622092115338e-03 0.0 
1.990960367815e-03 6.493095268903e-04 0.0 
2.266573433406e-03 9.886427196661e-03 0.0 
-9.324891742360e-05 2.639384075797e-03 0.0 
1.599256841668e-05 1.961996243158e-03 0.0 
2.183983213993e-05 2.922903312602e-03 0.0 
1.323293665880e-04 -1.614543187743e-04 0.0 
1.947635455981e-03 6.609276069952e-04 0.0 
7.935967889818e-04 -3.625182164682e-04 0.0 
8.242683326708e-04 -3.722366865590e-04 0.0 
1.975016529161e-03 2.846049496175e-03 0.0 
2.952750556121e-03 2.914954960655e-03 0.0 
2.235694532980e-03 3.104570757967e-03 0.0 
2.344065078508e-03 1.142120435900e-03 0.0 
4.805808900478e-04 9.641891790897e-03 0.0 
3.930149017054e-04 1.081125053934e-04 0.0 
6.943032683849e-04 -4.095643759651e-04 0.0 
1.773532047869e-03 8.643762033372e-04 0.0 
3.223663683080e-03 3.274978351294e-03 0.0 
1.512072128447e-04 -7.495525031678e-04 0.0 
2.076277834733e-03 4.330317909431e-03 0.0 
2.655278951692e-03 1.615563367188e-03 0.0 
3.503560402644e-04 1.405723227627e-04 0.0 
2.328041212748e-03 1.385710334488e-03 0.0 
3.812654707074e-05 -9.058571018100e-05 0.0 
1.901985641521e-03 4.417834034277e-03 0.0 
6.305257590173e-04 -1.826270919721e-04 0.0 
1.522787566826e-04 -2.726064823556e-04 0.0 
2.043645447881e-03 3.325275957046e-03 0.0 
2.117372297542e-03 1.598506356000e-03 0.0 
1.392531718030e-03 3.213487407437e-05 0.0 
1.130895830842e-04 -6.646356326401e-04 0.0 
3.132096120696e-03 2.963434807926e-03 0.0 
1.891402948114e-05 6.319350034978e-03 0.0 
3.474410389220e-04 4.050131571409e-04 0.0 
8.554136741638e-04 9.111158708698e-04 0.0 
4.953779011997e-04 1.024448249256e-03 0.0 
8.777460470204e-05 7.654690318081e-03 0.0 
3.132370953412e-04 1.486035729912e-03 0.0 
5.550509249342e-04 9.151700584885e-04 0.0 
2.331204149402e-03 1.034081421583e-03 0.0 
2.017230141585e-03 6.473638985221e-04 0.0 
8.308933827935e-04 3.944627981069e-04 0.0 
-6.311072407993e-04 2.871261708721e-03 0.0 
2.560896862410e-05 -6.995445515963e-04 0.0 
1.125049236659e-04 -2.462819355208e-04 0.0 
1.297942146733e-03 -5.678932235144e-05 0.0 
2.002496214397e-03 8.044068723379e-04 0.0 
1.455571880398e-03 1.177845722167e-02 0.0 
1.665740724778e-03 1.192904666510e-02 0.0 
8.531444592065e-04 7.889532684580e-03 0.0 
2.452797586401e-03 1.470474134558e-03 0.0 
3.049849997067e-04 -6.187722436557e-04 0.0 
2.336161797618e-03 2.092156951143e-03 0.0 
1.396040774876e-04 3.666610555155e-05 0.0 
1.791459934510e-04 4.823137852870e-05 0.0 
2.005383234440e-03 5.788526736351e-04 0.0 
1.119535568663e-03 8.518159914240e-03 0.0 
-3.033841930174e-04 2.143396184951e-03 0.0 
9.398182714494e-04 1.087525051453e-02 0.0 
9.174939389947e-04 9.213677730203e-04 0.0 
1.251921625688e-03 1.140317621559e-02 0.0 
3.048542087761e-03 2.861976241299e-03 0.0 
1.689492654854e-03 3.613817157986e-04 0.0 
2.124890318383e-03 8.861142469487e-04 0.0 
2.585739840009e-04 1.383740253751e-03 0.0 
4.966106725998e-05 2.646556600558e-03 0.0 
1.804337019126e-03 4.365524345477e-04 0.0 
1.575621577681e-04 2.113877042717e-03 0.0 
1.328496708919e-04 3.510792234922e-03 0.0 
1.869848245772e-05 5.787983833103e-04 0.0 
3.328038808921e-05 1.633571594340e-05 0.0 
4.637972047882e-05 7.762005219033e-03 0.0 
1.699472768756e-03 2.691509014920e-04 0.0 
1.762497912787e-03 1.232414979224e-02 0.0 
1.687935255726e-03 2.311508335312e-04 0.0 
5.410451816060e-05 1.420334633727e-05 0.0 
2.120940937986e-04 8.805315634503e-03 0.0 
5.835578064054e-04 1.000883341022e-02 0.0 
1.634615824645e-03 8.487221632810e-04 0.0 
8.241354037231e-04 8.770506255669e-03 0.0 
9.395321721489e-05 2.021637160948e-03 0.0 
2.110516136752e-03 3.257165301658e-03 0.0 
1.686200806918e-03 1.251197787285e-03 0.0 
1.640987854398e-03 3.052366924198e-03 0.0 
2.995925303740e-04 7.443232923303e-03 0.0 
1.170364353162e-03 -9.773473452005e-05 0.0 
1.258403421808e-03 -5.261368476730e-06 0.0 
8.263260885754e-05 5.301266086113e-03 0.0 
1.921879178179e-03 1.519436191831e-03 0.0 
1.473329272271e-03 9.264117560395e-03 0.0 
1.621024461925e-04 8.728288142984e-03 0.0 
1.924312146120e-04 7.881009573585e-03 0.0 
3.451652362236e-04 7.562696519820e-03 0.0 
8.131022378827e-04 1.572638263382e-03 0.0 
1.055697632023e-03 -1.600714270523e-04 0.0 
1.395459917301e-04 1.296337453858e-03 0.0 
3.293308679235e-04 6.534329184867e-03 0.0 
6.424194832536e-04 3.663615486457e-04 0.0 
1.023490844560e-03 1.789824930039e-03 0.0 
2.159309343333e-03 4.271299131218e-03 0.0 
4.673205625560e-04 2.056772421700e-03 0.0 
4.889460662673e-04 -4.290092320549e-04 0.0 
4.655585670923e-04 -4.951925553603e-04 0.0 
6.680105909734e-04 1.787946324751e-04 0.0 
-2.678719970024e-05 1.368742885675e-03 0.0 
1.357782394914e-04 -6.833720806848e-04 0.0 
1.853785155354e-04 1.416259263984e-04 0.0 
2.904454238164e-05 -7.963139356962e-04 0.0 
1.996405895814e-04 8.440750984175e-03 0.0 
1.134037630661e-03 4.844916021633e-04 0.0 
2.369805794311e-04 -4.640168801477e-04 0.0 
1.151312855002e-04 -6.735483501506e-04 0.0 
8.596897810904e-05 5.036186046412e-04 0.0 
7.186236928482e-04 9.401858211438e-03 0.0 
2.088734861220e-04 1.406213571581e-03 0.0 
1.089015287018e-03 5.216480497668e-04 0.0 
6.190320202321e-04 9.392531041810e-03 0.0 
-3.116048828530e-04 2.905502217162e-03 0.0 
3.262608938603e-05 1.083995850170e-03 0.0 
2.844503839386e-04 -6.806704698713e-04 0.0 
2.324592684806e-04 1.831188086965e-03 0.0 
4.313831359524e-05 1.187447239973e-05 0.0 
8.324683377219e-04 1.749393392570e-03 0.0 
1.224330698696e-03 1.544461591039e-03 0.0 
1.247627514866e-03 7.871285143447e-03 0.0 
2.965173040801e-04 -4.629155736927e-04 0.0 
2.331684378392e-03 1.980491567682e-03 0.0 
3.369442558729e-04 1.929371078128e-04 0.0 
7.806517384691e-05 4.332594723763e-03 0.0 
3.364185547518e-04 1.759342107656e-04 0.0 
3.349612912506e-04 1.645994557665e-03 0.0 
2.558985989653e-04 5.983910477142e-05 0.0 
1.301899455081e-03 1.117469223606e-03 0.0 
1.328387144789e-04 -7.724236104366e-04 0.0 
6.619827476532e-04 2.470628183939e-04 0.0 
3.838890967038e-04 1.235413225923e-03 0.0 
1.890244660306e-04 9.918493938199e-04 0.0 
4.553756424061e-04 8.643391168100e-03 0.0 
1.590815733290e-03 7.421688081717e-03 0.0 
1.903635159842e-03 7.867407665684e-03 0.0 
6.640529511996e-04 1.053805095776e-03 0.0 
2.350465739845e-04 -5.623783255760e-04 0.0 
7.958337566372e-04 5.025205748783e-03 0.0 
2.130543704741e-03 1.699846099446e-03 0.0 
3.784320407490e-04 9.635099352108e-03 0.0 
5.195628313310e-04 1.696616540181e-03 0.0 
2.619992352270e-06 5.495114253792e-04 0.0 
2.619992352270e-06 2.320080546804e-04 0.0 
9.580617609698e-06 -8.401375431471e-04 0.0 
5.092198766764e-06 -8.387662338648e-04 0.0 
2.003936305213e-05 9.257423981144e-03 0.0 
4.794928614240e-05 9.591919192869e-03 0.0 
5.771460517737e-06 6.946002336632e-06 0.0 
5.771460517737e-06 1.498153400213e-05 0.0 
2.616901746405e-05 -8.298249755483e-04 0.0 
-4.904525387182e-04 1.619503677993e-03 0.0 
2.603784507736e-04 5.278808490966e-05 0.0 
1.418307356132e-03 1.278861944597e-03 0.0 
2.705258865179e-04 -7.049265486356e-04 0.0 
4.204046682566e-04 9.368817984710e-05 0.0 
6.659574471528e-05 -1.880215154239e-04 0.0 
6.946969767989e-05 -3.278347186745e-04 0.0 
2.214953832793e-04 6.148543989137e-03 0.0 
7.849441611051e-04 5.147807731162e-04 0.0 
2.677095172366e-03 2.447392181022e-03 0.0 
2.366007750258e-04 -7.049563688483e-04 0.0 
4.124373217638e-04 -3.693775646191e-04 0.0 
8.913976443601e-04 1.453200180217e-03 0.0 
9.293788916393e-06 2.422464401413e-03 0.0 
1.340250979085e-04 -3.168276660449e-04 0.0 
1.443678818511e-04 7.121910050328e-03 0.0 
1.301865588893e-03 1.396657876961e-03 0.0 
1.579666654498e-03 2.614472805800e-03 0.0 
1.902576910662e-03 3.434422994845e-03 0.0 
5.250586009794e-04 9.338737438660e-03 0.0 
2.809662850282e-03 2.448007819975e-03 0.0 
6.572194780413e-04 1.744458075957e-03 0.0 
1.961397844753e-04 -6.688421807846e-04 0.0 
8.635180411005e-05 -2.440946039517e-04 0.0 
1.531308702981e-03 1.726783357406e-03 0.0 
1.809726840070e-03 9.323744959099e-04 0.0 
6.347102655742e-04 5.537005675529e-04 0.0 
1.146729122451e-04 5.406298616871e-03 0.0 
1.446355415713e-04 3.882577451700e-05 0.0 
1.609310143248e-03 1.617432446085e-03 0.0 
1.350705397630e-03 1.325480783701e-03 0.0 
7.994072457410e-05 -1.237585803659e-04 0.0 
-1.641109288443e-04 4.011171354857e-03 0.0 
1.381902043131e-03 1.220871203366e-02 0.0 
2.339469042290e-03 9.300958629998e-03 0.0 
1.311745399414e-03 7.555036955478e-03 0.0 
2.820787798037e-03 2.603576872688e-03 0.0 
1.800900931064e-04 1.770124292272e-03 0.0 
7.121154739082e-04 3.502123337500e-04 0.0 
2.602544599075e-04 2.672702607998e-04 0.0 
2.464916478136e-04 -1.583038229990e-04 0.0 
8.436328981043e-04 1.155805964935e-02 0.0 
1.880683790892e-04 4.966326983335e-03 0.0 
3.527748320167e-04 -5.802634580845e-04 0.0 
4.358839087997e-04 1.665605760421e-03 0.0 
1.590885334922e-04 -7.564967654541e-04 0.0 
1.212816593872e-03 6.314230918432e-04 0.0 
7.849747108299e-04 7.804054417191e-03 0.0 
7.468217981468e-04 5.187221014264e-04 0.0 
2.135229194031e-03 1.888456888972e-03 0.0 
1.449772587727e-03 7.520498109026e-03 0.0 
5.733296284964e-04 1.844668669235e-04 0.0 
3.352145636537e-04 1.216938389850e-03 0.0 
2.685028754771e-05 1.268346030461e-03 0.0 
6.409125956057e-05 9.877940415373e-03 0.0 
4.251295701867e-04 2.013974707616e-03 0.0 
6.898304034932e-04 7.557134888839e-04 0.0 
1.254435781405e-03 6.279103064978e-04 0.0 
1.922087248242e-03 1.596381597895e-03 0.0 
7.384576408993e-05 1.939039592994e-05 0.0 
1.828327089349e-03 3.474541569456e-03 0.0 
-6.480248749435e-04 4.286874364033e-03 0.0 
1.136946751735e-03 5.909550321371e-03 0.0 
1.310913551873e-03 2.230398848615e-03 0.0 
1.183727045426e-03 6.939710313208e-03 0.0 
1.376420716855e-04 3.502107994767e-05 0.0 
1.681219293870e-03 1.376306758587e-03 0.0 
2.624415403741e-04 6.583686509994e-05 0.0 
1.626983265788e-04 3.982871555619e-03 0.0 
7.207568409240e-04 4.583348497050e-04 0.0 
7.223069739439e-04 2.150213748955e-04 0.0 
7.535103896519e-04 2.354144632790e-04 0.0 
2.590371913344e-04 -5.828748227639e-04 0.0 
1.198628315583e-04 3.147905595888e-05 0.0 
1.063218250081e-03 8.857140418302e-03 0.0 
1.140034950811e-04 2.049018428614e-03 0.0 
3.303376640885e-04 -6.830705708657e-05 0.0 
7.447483205990e-05 2.838362207247e-03 0.0 
1.730583628939e-04 5.361018943275e-03 0.0 
1.998104669604e-05 -8.182021925477e-04 0.0 
1.057227869123e-03 1.708326014619e-03 0.0 
1.781330335723e-03 3.002187047770e-03 0.0 
1.513442547285e-04 1.061931468648e-03 0.0 
5.742000256432e-05 1.953938211689e-03 0.0 
9.357320107246e-04 5.901407116422e-04 0.0 
3.617900458803e-04 7.053432079415e-03 0.0 
1.176540839260e-04 -5.046066129678e-04 0.0 
1.822801382498e-04 3.204604491143e-03 0.0 
1.659605462375e-04 -5.443003889021e-04 0.0 
4.266386007570e-04 -1.914043303349e-04 0.0 
-6.542864190648e-04 4.753023096425e-03 0.0 
3.689303205733e-04 -4.020768038856e-04 0.0 
1.725827345018e-04 3.844814988918e-05 0.0 
8.087853261302e-04 1.810478064639e-03 0.0 
1.528214093059e-03 6.917902096557e-03 0.0 
5.199629216568e-04 -4.531286022383e-04 0.0 
6.542616792040e-04 1.661759657112e-04 0.0 
1.097485643410e-03 4.304502736732e-04 0.0 
8.859747627058e-04 6.479432859505e-04 0.0 
1.122033260414e-03 1.233832082061e-03 0.0 
1.427107235674e-03 2.213360385380e-03 0.0 
3.084839040786e-04 -2.264830396925e-04 0.0 
1.311008181271e-04 1.860118242278e-03 0.0 
2.397055225738e-04 4.795832203236e-05 0.0 
4.328756219059e-05 -8.117514473653e-04 0.0 
1.012390936124e-05 -8.092453026089e-04 0.0 
1.427315986787e-04 5.669629437886e-03 0.0 
2.342195547987e-04 -5.214086032656e-04 0.0 
4.379157139454e-04 1.369693203651e-04 0.0 
5.970666720256e-04 7.959780995466e-04 0.0 
1.609588311290e-04 1.765351266085e-03 0.0 
6.949117779108e-04 5.198780761749e-04 0.0 
1.307692395278e-03 5.269783293411e-04 0.0 
2.897240396399e-04 6.500689495298e-03 0.0 
3.928520359552e-05 2.106077228463e-04 0.0 
1.228381644997e-03 8.939229271607e-04 0.0 
6.717461154212e-04 9.716687678441e-03 0.0 
5.057743839654e-04 4.073716124243e-04 0.0 
1.349826975024e-04 -6.998818587447e-04 0.0 
8.371011079117e-05 2.347328091853e-05 0.0 
1.472760083587e-03 8.662985461311e-03 0.0 
1.435078950310e-04 -7.695113578844e-04 0.0 
2.592672667615e-04 -4.345348590679e-04 0.0 
6.809407770274e-04 9.703343215489e-04 0.0 
2.611312465165e-04 1.881654642069e-03 0.0 
3.262453485336e-04 9.624854209534e-04 0.0 
1.522973141874e-04 -6.312787698352e-04 0.0 
2.104996947314e-04 2.805647083122e-03 0.0 
3.472050433872e-04 8.513993779878e-05 0.0 
8.843893471380e-06 4.940250241403e-04 0.0 
2.063017361083e-05 1.601001327832e-05 0.0 
4.539703226148e-05 8.724706959219e-03 0.0 
9.782543563715e-04 3.971339371526e-04 0.0 
1.813207023347e-04 -7.509823679816e-04 0.0 
4.046683823559e-04 1.668693582951e-03 0.0 
1.396087358151e-04 -6.468391125031e-04 0.0 
5.038156619069e-04 1.814466189269e-04 0.0 
4.370611880808e-04 1.249044261880e-03 0.0 
-1.403835275368e-04 3.282249659507e-03 0.0 
1.655241609808e-03 1.583175037312e-03 0.0 
1.613881453502e-04 4.450973911164e-03 0.0 
9.896799969099e-05 1.003487758100e-03 0.0 
1.388884047107e-04 7.547913009407e-05 0.0 
6.816431178493e-05 5.800708317470e-03 0.0 
5.424495292062e-04 8.002703981195e-04 0.0 
5.596424295999e-04 1.702179141680e-03 0.0 
1.349274047633e-04 5.105562300859e-03 0.0 
8.953602259047e-04 1.319535461095e-03 0.0 
2.836881938593e-04 -5.264370849749e-04 0.0 
3.296217479446e-04 9.336719984364e-03 0.0 
1.181502627796e-03 9.541468770199e-04 0.0 
9.318771852555e-06 1.050643019521e-03 0.0 
2.080029897218e-05 -8.347408264482e-04 0.0 
8.902123286547e-05 9.310358133234e-03 0.0 
1.854808695386e-05 2.569578419641e-05 0.0 
3.090852325570e-04 -6.804292828609e-04 0.0 
1.193372878705e-03 5.517786108781e-04 0.0 
7.182843583676e-04 1.805289631766e-03 0.0 
1.161742035934e-04 1.301066886206e-03 0.0 
1.936020061754e-04 -7.428033419708e-04 0.0 
5.741597568441e-04 4.717619772436e-03 0.0 
2.839560031721e-05 -2.916211460418e-04 0.0 
6.344709498627e-05 3.459402093277e-03 0.0 
-6.868416157661e-04 1.895926384230e-03 0.0 
2.475061192820e-04 9.459083590268e-04 0.0 
1.231800392789e-04 5.989794858797e-03 0.0 
7.407925060719e-04 3.525821479340e-04 0.0 
2.346851685018e-04 6.703704180339e-03 0.0 
8.892790586139e-04 7.117669716096e-04 0.0 
5.317716752914e-05 -2.542895465774e-04 0.0 
-3.895267467514e-04 5.106085301634e-03 0.0 
3.279808375250e-04 -5.631930000974e-04 0.0 
3.714522011205e-04 -3.391676117573e-04 0.0 
2.478156721192e-05 -2.194547790367e-04 0.0 
1.220467827392e-03 8.085250004942e-04 0.0 
1.929418819791e-04 -3.720411437760e-04 0.0 
2.470654326895e-04 -3.205689588841e-04 0.0 
2.091819287986e-04 -6.074237989941e-04 0.0 
4.496348094461e-04 1.032084470699e-04 0.0 
1.499873538656e-03 1.783708303246e-03 0.0 
1.082149816209e-03 4.725581799157e-03 0.0 
1.554267297166e-05 9.951566182819e-04 0.0 
3.340680004696e-05 2.672426347260e-05 0.0 
8.646897898454e-05 8.776835867684e-03 0.0 
9.314787555216e-05 6.202653816965e-03 0.0 
2.658488905391e-04 -3.740953224667e-04 0.0 
2.964911383836e-04 -3.449751954835e-04 0.0 
1.812889999241e-04 -3.363148225746e-04 0.0 
1.454898578932e-03 7.252840228755e-04 0.0 
5.805330366909e-04 2.960408664754e-04 0.0 
1.256255345205e-03 1.472204079733e-03 0.0 
1.552160087232e-04 7.675658186802e-03 0.0 
2.989177348587e-04 1.234097458049e-03 0.0 
1.417125689271e-03 6.727069711270e-04 0.0 
2.766105117472e-04 6.900328793329e-03 0.0 
1.188587669162e-03 1.905731400800e-03 0.0 
1.196127858568e-03 8.267235771410e-04 0.0 
8.991424900922e-04 6.105680081602e-04 0.0 
-2.315436905029e-04 4.795461021392e-03 0.0 
1.238688692953e-03 1.898754239382e-03 0.0 
1.060855996000e-03 1.542924043716e-03 0.0 
1.906486258183e-04 -6.429109155820e-04 0.0 
2.973029520855e-04 -4.009869780071e-04 0.0 
-3.453215031705e-04 4.323870554432e-03 0.0 
9.842136712440e-04 1.548866622107e-03 0.0 
1.725911021292e-04 1.721175978237e-02 0.0 
2.302742307431e-04 1.755607135288e-02 0.0 
3.002538940112e-04 1.722593302314e-02 0.0 
3.612356176148e-04 1.757387017487e-02 0.0 
4.203772468800e-04 1.724702569790e-02 0.0 
4.836624520859e-04 1.759453706625e-02 0.0 
5.336675327291e-04 1.726773971880e-02 0.0 
5.981605353308e-04 1.761411693145e-02 0.0 
6.390748632222e-04 1.728822691596e-02 0.0 
7.041995482900e-04 1.763352527298e-02 0.0 
7.355047913520e-04 1.730927036504e-02 0.0 
8.003586756458e-04 1.765337081251e-02 0.0 
8.210948826493e-04 1.733085384890e-02 0.0 
8.840977927724e-04 1.767322537301e-02 0.0 
8.934557784101e-04 1.735215663135e-02 0.0 
9.525983238626e-04 1.769204610796e-02 0.0 
9.502365829389e-04 1.737188398939e-02 0.0 
1.002937308443e-03 1.770826935513e-02 0.0 
9.888314168410e-04 1.738806675153e-02 0.0 
1.031827263887e-03 1.771960122257e-02 0.0 
-4.161920337797e-04 1.241554009130e-02 0.0 
1.006542560467e-03 1.739802387702e-02 0.0 
1.035707090266e-03 1.772302514593e-02 0.0 
1.000714252338e-03 1.739808207400e-02 0.0 
-9.889838723953e-04 1.254088932947e-02 0.0 
1.011246550378e-03 1.771430671652e-02 0.0 
9.694090134947e-04 1.738305750548e-02 0.0 
-1.905453520622e-04 1.269902703913e-02 0.0 
9.560928168882e-04 1.768756598409e-02 0.0 
9.117848197438e-04 1.734613479670e-02 0.0 
8.694789702067e-04 1.763547249446e-02 0.0 
8.286024850595e-04 1.727926243470e-02 0.0 
7.524955668864e-04 1.754936439177e-02 0.0 
7.221718050277e-04 1.717297695554e-02 0.0 
6.084203465611e-04 1.741920737147e-02 0.0 
5.968494642831e-04 1.701691320749e-02 0.0 
4.428931927418e-04 1.723465155292e-02 0.0 
-5.872247656183e-05 1.157045799471e-02 0.0 
4.588476174668e-04 1.679989213160e-02 0.0 
2.636497483663e-04 1.698175884036e-02 0.0 
3.152823188935e-04 1.650815432966e-02 0.0 
8.031914379217e-05 1.664957347453e-02 0.0 
-9.497142460783e-05 1.623648629458e-02 0.0 
1.749615612806e-04 1.613570463353e-02 0.0 
-2.450982508749e-04 1.574040084991e-02 0.0 
4.863440057272e-05 1.568112299823e-02 0.0 
-3.789108729260e-04 1.515762929651e-02 0.0 
-5.016816949923e-05 1.514227102815e-02 0.0 
-5.136701310992e-04 1.446719977742e-02 0.0 
-6.322731165265e-04 1.359551397412e-02 0.0 
-1.347087293960e-04 1.450714790195e-02 0.0 
-1.962674189380e-04 1.373191171185e-02 0.0 
-6.315143151774e-04 1.169580723288e-02 0.0 
2.261825277275e-05 1.737060054906e-02 0.0 
1.137338467804e-04 1.737594884328e-02 0.0 
7.299077596959e-05 1.771394115619e-02 0.0 
6.336132358357e-05 1.703260823615e-02 0.0 
-6.348303636650e-04 1.089890127151e-02 0.0 
1.588849102940e-04 1.653279825740e-02 0.0 
1.914909849799e-04 1.619901299617e-02 0.0 
2.751768400833e-04 1.654783619141e-02 0.0 
3.030500073917e-04 1.621725358229e-02 0.0 
3.872686905849e-04 1.656850593705e-02 0.0 
4.109656362582e-04 1.623872482703e-02 0.0 
4.940792731965e-04 1.659044724043e-02 0.0 
5.133757272151e-04 1.626173457756e-02 0.0 
5.938783146391e-04 1.661313704044e-02 0.0 
6.087351903332e-04 1.628599986743e-02 0.0 
6.852369819783e-04 1.663683483502e-02 0.0 
6.956922540446e-04 1.631156196293e-02 0.0 
7.666962704218e-04 1.666148052935e-02 0.0 
7.728607374012e-04 1.633801042774e-02 0.0 
8.366173352665e-04 1.668631500563e-02 0.0 
8.387900451240e-04 1.636428331260e-02 0.0 
8.932667473439e-04 1.670996281975e-02 0.0 
8.920536952663e-04 1.638872523197e-02 0.0 
9.349176392590e-04 1.673044379801e-02 0.0 
6.205372570875e-04 1.302680562232e-02 0.0 
9.313324482637e-04 1.640895170055e-02 0.0 
9.599615224258e-04 1.674499730852e-02 0.0 
9.555925705529e-04 1.642165585163e-02 0.0 
7.464632685655e-04 1.316633942413e-02 0.0 
9.671807706660e-04 1.674973934821e-02 0.0 
9.643319595726e-04 1.642216902701e-02 0.0 
9.560279043618e-04 1.673926254176e-02 0.0 
9.577592288160e-04 1.640426224199e-02 0.0 
9.268323408044e-04 1.670662601831e-02 0.0 
3.212776475963e-04 1.320604538909e-02 0.0 
9.369306096222e-04 1.636023038522e-02 0.0 
8.810066034144e-04 1.664352910385e-02 0.0 
9.039226096557e-04 1.628107608295e-02 0.0 
8.211947294422e-04 1.654042197758e-02 0.0 
8.618380244915e-04 1.615663024331e-02 0.0 
7.512442177991e-04 1.638689105729e-02 0.0 
8.148258872918e-04 1.597605563051e-02 0.0 
6.763855585008e-04 1.617131835939e-02 0.0 
7.678085407981e-04 1.572752178831e-02 0.0 
6.019031702913e-04 1.588249104981e-02 0.0 
7.253775580895e-04 1.540138928183e-02 0.0 
8.275387438783e-04 1.246521898411e-02 0.0 
6.932592743406e-04 1.499086725546e-02 0.0 
5.333991241802e-04 1.551318372068e-02 0.0 
6.798434233506e-04 1.449137439041e-02 0.0 
4.784275366216e-04 1.505802487197e-02 0.0 
6.915574920156e-04 1.389641567789e-02 0.0 
4.449803686774e-04 1.451634269492e-02 0.0 
4.406110973689e-04 1.387186261656e-02 0.0 
5.282791343871e-04 1.264445875088e-02 0.0 
1.890931518509e-05 1.635448013169e-02 0.0 
9.631871735751e-05 1.635841447711e-02 0.0 
5.557564654669e-05 1.601885921385e-02 0.0 
5.965238599590e-05 1.669403539495e-02 0.0 
4.524618323170e-04 1.227383813864e-02 0.0 
1.351277696588e-04 1.518611563513e-02 0.0 
1.756347412085e-04 1.552573878664e-02 0.0 
2.370493399063e-04 1.520045839002e-02 0.0 
2.807787509861e-04 1.554314999043e-02 0.0 
3.373241334922e-04 1.522060748444e-02 0.0 
3.832923355710e-04 1.556492996629e-02 0.0 
4.345435865120e-04 1.524412494650e-02 0.0 
4.815133412177e-04 1.558920714438e-02 0.0 
5.272505908690e-04 1.526990133136e-02 0.0 
5.739698525604e-04 1.561529159154e-02 0.0 
6.142546181022e-04 1.529749548260e-02 0.0 
6.594752279412e-04 1.564293088641e-02 0.0 
6.946284465679e-04 1.532643380090e-02 0.0 
7.370099396506e-04 1.567159477581e-02 0.0 
7.676044477453e-04 1.535578152567e-02 0.0 
8.056279553534e-04 1.570016548457e-02 0.0 
8.325417386136e-04 1.538400590038e-02 0.0 
8.644907763066e-04 1.572688614064e-02 0.0 
1.243145293642e-03 1.318137211552e-02 0.0 
8.889957983169e-04 1.540890276993e-02 0.0 
9.129735262812e-04 1.574924976381e-02 0.0 
9.368161810109e-04 1.542740186762e-02 0.0 
1.043855189393e-03 1.340125403090e-02 0.0 
9.508061511205e-04 1.576376234748e-02 0.0 
1.316113222053e-03 1.323000693661e-02 0.0 
9.762709944452e-04 1.543533277332e-02 0.0 
9.782086027843e-04 1.576565595627e-02 0.0 
1.008107039183e-03 1.542719843700e-02 0.0 
9.959617204257e-04 1.574871120797e-02 0.0 
1.033580014537e-03 1.539614855762e-02 0.0 
1.005475791745e-03 1.570530395855e-02 0.0 
1.054480598137e-03 1.533408198887e-02 0.0 
1.008851422255e-03 1.562655539465e-02 0.0 
1.395674633865e-03 1.272714293987e-02 0.0 
1.073155344845e-03 1.523187793911e-02 0.0 
1.008869827296e-03 1.550260689313e-02 0.0 
1.092405508486e-03 1.507957914827e-02 0.0 
1.008955375174e-03 1.532276707166e-02 0.0 
1.012788057772e-03 1.507650829213e-02 0.0 
1.115494563357e-03 1.486701630436e-02 0.0 
1.023949171539e-03 1.475412658861e-02 0.0 
1.145454300715e-03 1.458421486042e-02 0.0 
1.047309814673e-03 1.434808884582e-02 0.0 
1.087176496168e-03 1.385120119295e-02 0.0 
1.186021277962e-03 1.422314261782e-02 0.0 
1.239811149771e-03 1.377507326486e-02 0.0 
1.196384529616e-03 1.294702485525e-02 0.0 
1.727192584715e-05 1.534613873575e-02 0.0 
8.678043115580e-05 1.534885224608e-02 0.0 
5.393825720876e-05 1.568270539555e-02 0.0 
5.011409979419e-05 1.501228558628e-02 0.0 
1.149939003435e-03 1.273666330981e-02 0.0 
1.299122370542e-04 1.451651796283e-02 0.0 
1.601265865141e-04 1.418570539915e-02 0.0 
2.267567178166e-04 1.453002267482e-02 0.0 
2.556373713093e-04 1.420152033562e-02 0.0 
3.224753759052e-04 1.454941354483e-02 0.0 
3.499356900098e-04 1.422244205044e-02 0.0 
4.160356985378e-04 1.457283097027e-02 0.0 
4.420381974768e-04 1.424717225898e-02 0.0 
5.062833351023e-04 1.459916042219e-02 0.0 
5.310095339990e-04 1.427474578538e-02 0.0 
5.922615553075e-04 1.462769058562e-02 0.0 
6.161432332250e-04 1.430436906517e-02 0.0 
6.732895146464e-04 1.465767687664e-02 0.0 
6.969871664358e-04 1.433507020274e-02 0.0 
7.489206064519e-04 1.468801387686e-02 0.0 
7.733156292737e-04 1.436543654544e-02 0.0 
8.189132538273e-04 1.471704461006e-02 0.0 
1.613229142377e-03 1.302462816245e-02 0.0 
8.451386385325e-04 1.439344459852e-02 0.0 
8.832721453291e-04 1.474242251814e-02 0.0 
1.643876872161e-03 1.300961610651e-02 0.0 
9.127575598132e-04 1.441629966134e-02 0.0 
9.423238675308e-04 1.476093201695e-02 0.0 
9.768162655747e-04 1.443024674775e-02 0.0 
9.967734223795e-04 1.476828702426e-02 0.0 
1.038318716702e-03 1.443040096823e-02 0.0 
1.484423120733e-03 1.327099350071e-02 0.0 
1.047714725166e-03 1.475898919802e-02 0.0 
1.098596215225e-03 1.441065094783e-02 0.0 
1.096606823354e-03 1.472629753645e-02 0.0 
1.159286200232e-03 1.436370784275e-02 0.0 
1.145264197807e-03 1.466233689424e-02 0.0 
1.222264432902e-03 1.428121798800e-02 0.0 
1.195784755822e-03 1.455828562709e-02 0.0 
1.289630656831e-03 1.415410170392e-02 0.0 
1.250536927044e-03 1.440466627107e-02 0.0 
1.363485970538e-03 1.397259084786e-02 0.0 
1.733832323371e-03 1.264886494681e-02 0.0 
1.446102575087e-03 1.372770711485e-02 0.0 
1.311893740163e-03 1.419175295776e-02 0.0 
1.538222976777e-03 1.341003987829e-02 0.0 
1.382369641224e-03 1.391067702974e-02 0.0 
1.463379742691e-03 1.355259373817e-02 0.0 
1.605026301727e-03 1.289523028508e-02 0.0 
1.581168261454e-05 1.434186587472e-02 0.0 
8.010465531850e-05 1.434458798465e-02 0.0 
4.726248137146e-05 1.400883486222e-02 0.0 
4.865385656158e-05 1.467761899714e-02 0.0 
1.589351056651e-03 1.277811579289e-02 0.0 
1.199877565531e-04 1.317925240355e-02 0.0 
1.535325431776e-04 1.351684677960e-02 0.0 
2.106488377515e-04 1.319152676899e-02 0.0 
2.461235345808e-04 1.353188304933e-02 0.0 
3.011256117748e-04 1.320956867215e-02 0.0 
3.380997626080e-04 1.355223446406e-02 0.0 
3.909885324994e-04 1.323215282720e-02 0.0 
4.288269588403e-04 1.357670170229e-02 0.0 
4.797440178564e-04 1.325815453020e-02 0.0 
5.176814553897e-04 1.360421045008e-02 0.0 
5.670014555987e-04 1.328657664060e-02 0.0 
6.042112121256e-04 1.363379045546e-02 0.0 
6.525696146926e-04 1.331634331181e-02 0.0 
6.881992875814e-04 1.366431524762e-02 0.0 
7.364943877740e-04 1.334607774602e-02 0.0 
7.696772894502e-04 1.369425536972e-02 0.0 
1.784080207274e-03 1.262972139914e-02 0.0 
8.190508060374e-04 1.337390120663e-02 0.0 
8.489145305661e-04 1.372148237081e-02 0.0 
1.706260739793e-03 1.291044247200e-02 0.0 
9.007537419867e-04 1.339727600477e-02 0.0 
9.264632644373e-04 1.374311537569e-02 0.0 
1.782545364021e-03 1.255624944289e-02 0.0 
9.823966806197e-04 1.341287855128e-02 0.0 
1.003183374040e-03 1.375537756774e-02 0.0 
1.065029064423e-03 1.341647988873e-02 0.0 
1.080207250280e-03 1.375346301273e-02 0.0 
1.149898516994e-03 1.340286642553e-02 0.0 
1.158891473475e-03 1.373146613084e-02 0.0 
1.889600277922e-03 1.230579005797e-02 0.0 
1.238368904325e-03 1.336576290444e-02 0.0 
1.240753022953e-03 1.368235802772e-02 0.0 
1.331915915341e-03 1.329802426311e-02 0.0 
1.327449327714e-03 1.359825517190e-02 0.0 
1.420614925161e-03 1.347041547820e-02 0.0 
1.431953918965e-03 1.319163658527e-02 0.0 
1.521933241322e-03 1.329001817534e-02 0.0 
1.539968466158e-03 1.303840737283e-02 0.0 
1.631910592946e-03 1.304814619293e-02 0.0 
1.656149028806e-03 1.282961936333e-02 0.0 
1.811780810440e-03 1.258651113083e-02 0.0 
1.507306926431e-05 1.333992489008e-02 0.0 
7.603560480367e-05 1.334221442310e-02 0.0 
4.652386802123e-05 1.367486824040e-02 0.0 
4.458480604674e-05 1.300727107278e-02 0.0 
1.824240176894e-03 1.254313090546e-02 0.0 
1.178398048161e-04 1.251164120460e-02 0.0 
1.471334810158e-04 1.218094908167e-02 0.0 
2.063977273267e-04 1.252324027001e-02 0.0 
2.358458024953e-04 1.219446811160e-02 0.0 
2.950989901141e-04 1.254044023341e-02 0.0 
3.248583940503e-04 1.221313072168e-02 0.0 
3.837737856024e-04 1.256217752357e-02 0.0 
4.140981079812e-04 1.223595273130e-02 0.0 
4.722299138944e-04 1.258738086283e-02 0.0 
5.035286683107e-04 1.226185684262e-02 0.0 
5.603627724816e-04 1.261499670050e-02 0.0 
5.931953211480e-04 1.228971041118e-02 0.0 
6.481924068320e-04 1.264384320764e-02 0.0 
6.833328734982e-04 1.231812916479e-02 0.0 
7.360051815513e-04 1.267239176737e-02 0.0 
1.811474790755e-03 1.202175920021e-02 0.0 
7.743973054536e-04 1.234536335290e-02 0.0 
1.785684960458e-03 1.190459246338e-02 0.0 
8.242600282634e-04 1.269869516846e-02 0.0 
8.669917653381e-04 1.236913183635e-02 0.0 
9.136217545326e-04 1.272013150848e-02 0.0 
9.619583430189e-04 1.238640540075e-02 0.0 
1.005023746655e-03 1.273331307263e-02 0.0 
1.060365775961e-03 1.239340967026e-02 0.0 
1.771973388011e-03 1.232388686534e-02 0.0 
1.099584400309e-03 1.273407746991e-02 0.0 
1.163393076649e-03 1.238556711075e-02 0.0 
1.198529007477e-03 1.271737294238e-02 0.0 
1.272258987610e-03 1.235745800451e-02 0.0 
1.303105927977e-03 1.267724826126e-02 0.0 
1.388065298037e-03 1.230263173195e-02 0.0 
1.414491166773e-03 1.260681261052e-02 0.0 
1.511882040249e-03 1.221418649221e-02 0.0 
1.643952716756e-03 1.208435985191e-02 0.0 
1.533811380068e-03 1.249877955817e-02 0.0 
1.903451144438e-03 1.174819751152e-02 0.0 
1.661448796650e-03 1.234520877364e-02 0.0 
1.863949741694e-03 1.205032517665e-02 0.0 
1.448018628618e-05 1.233864785506e-02 0.0 
7.329477008861e-05 1.234085000649e-02 0.0 
4.378303330617e-05 1.200598000644e-02 0.0 
4.399192306861e-05 1.267351785511e-02 0.0 
1.898760153564e-03 1.206416092460e-02 0.0 
1.131282243510e-04 1.117569461228e-02 0.0 
1.440088963309e-04 1.151269577756e-02 0.0 
1.988758141791e-04 1.118580392313e-02 0.0 
2.314484740327e-04 1.152528506884e-02 0.0 
2.854893871819e-04 1.120098216776e-02 0.0 
3.196461195807e-04 1.154285569881e-02 0.0 
3.731843269065e-04 1.122038045543e-02 0.0 
4.087209237549e-04 1.156443068603e-02 0.0 
4.621836196710e-04 1.124290899693e-02 0.0 
4.988595583136e-04 1.158890702198e-02 0.0 
5.528142325994e-04 1.126755919911e-02 0.0 
5.903158912629e-04 1.161522273043e-02 0.0 
6.454071693060e-04 1.129299090370e-02 0.0 
1.731679755040e-03 1.126175207946e-02 0.0 
6.834270658572e-04 1.164176454161e-02 0.0 
7.405420263489e-04 1.131754954931e-02 0.0 
1.718059328810e-03 1.158320324222e-02 0.0 
7.788399578921e-04 1.166688575803e-02 0.0 
8.389065981497e-04 1.133938367848e-02 0.0 
1.691575408630e-03 1.111261753179e-02 0.0 
8.771956827858e-04 1.168829794124e-02 0.0 
9.412358732497e-04 1.135579082177e-02 0.0 
9.793685442883e-04 1.170289860914e-02 0.0 
1.048493596771e-03 1.136344257745e-02 0.0 
1.086425424808e-03 1.170704596669e-02 0.0 
1.816275749726e-03 1.102073144463e-02 0.0 
1.161751090837e-03 1.135854293613e-02 0.0 
1.199500118331e-03 1.169639628054e-02 0.0 
1.319634722742e-03 1.166583757222e-02 0.0 
1.282011784292e-03 1.133658167987e-02 0.0 
1.447803963504e-03 1.160948889469e-02 0.0 
1.410220328576e-03 1.129248499170e-02 0.0 
1.584026338509e-03 1.152076406091e-02 0.0 
1.546374130500e-03 1.122024734196e-02 0.0 
1.802655323495e-03 1.134218260739e-02 0.0 
1.409766829389e-05 1.133746904959e-02 0.0 
7.132525631607e-05 1.133942925101e-02 0.0 
4.340051531389e-05 1.167225253917e-02 0.0 
4.202240929608e-05 1.100464576143e-02 0.0 
1.852784875248e-03 1.140272290681e-02 0.0 
1.117353004213e-04 1.050791724310e-02 0.0 
1.400017824640e-04 1.017646480847e-02 0.0 
1.962616242419e-04 1.051735032321e-02 0.0 
2.252401416125e-04 1.018733331738e-02 0.0 
2.818952446989e-04 1.053148401622e-02 0.0 
3.119187240580e-04 1.020259340732e-02 0.0 
3.690510738668e-04 1.054961631549e-02 0.0 
4.005441494769e-04 1.022131525309e-02 0.0 
4.581400984328e-04 1.057055770393e-02 0.0 
4.915309270214e-04 1.024231705281e-02 0.0 
5.495291225456e-04 1.059332052294e-02 0.0 
5.854971098322e-04 1.026474325934e-02 0.0 
1.586877515878e-03 1.039007635857e-02 0.0 
6.438734979292e-04 1.061675010878e-02 0.0 
1.535636885394e-03 1.021679880390e-02 0.0 
6.830671085258e-04 1.028674892305e-02 0.0 
7.417157403943e-04 1.063877472567e-02 0.0 
7.849658571266e-04 1.030670075601e-02 0.0 
8.438587833388e-04 1.065797350011e-02 0.0 
8.920973411622e-04 1.032260299603e-02 0.0 
9.511853464369e-04 1.067150605493e-02 0.0 
1.005277787356e-03 1.033121691555e-02 0.0 
1.594365998560e-03 1.072126411761e-02 0.0 
1.064453366652e-03 1.067604565070e-02 0.0 
1.125405148763e-03 1.032902658335e-02 0.0 
1.184771044912e-03 1.066792047954e-02 0.0 
1.253412563608e-03 1.031231168979e-02 0.0 
1.389917013053e-03 1.027657119770e-02 0.0 
1.312904275494e-03 1.064311954570e-02 0.0 
1.449610127685e-03 1.059668075135e-02 0.0 
1.658958670741e-03 1.017746626198e-02 0.0 
1.666447153422e-03 1.050865402102e-02 0.0 
1.372272894335e-05 1.033597519713e-02 0.0 
6.955739303580e-05 1.033776248172e-02 0.0 
4.163265203362e-05 1.000298131754e-02 0.0 
4.164746994553e-05 1.067075636131e-02 0.0 
1.726004355483e-03 1.059949071625e-02 0.0 

VECTORS element_materi_displacement float
0.0 0.0 0.0 
0.0 0.0 0.0 
0.0 0.0 0.0 
0.0 0.0 0.0 
0.0 0.0 0.0 
0.0 0.0 0.0 
0.0 0.0 0.0 
0.0 0.0 0.0 
0.0 0.0 0.0 
0.0 0.0 0.0 
0.0 0.0 0.0 
0.0 0.0 0.0 
0.0 0.0 0.0 
0.0 0.0 0.0 
0.0 0.0 0.0 
0.0 0.0 0.0 
0.0 0.0 0.0 
0.0 0.0 0.0 
0.0 0.0 0.0 
0.0 0.0 0.0 
0.0 0.0 0.0 
0.0 0.0 0.0 
0.0 0.0 0.0 
0.0 0.0 0.0 
0.0 0.0 0.0 
0.0 0.0 0.0 
0.0 0.0 0.0 
0.0 0.0 0.0 
0.0 0.0 0.0 
0.0 0.0 0.0 
0.0 0.0 0.0 
0.0 0.0 0.0 
0.0 0.0 0.0 
0.0 0.0 0.0 
0.0 0.0 0.0 
0.0 0.0 0.0 
0.0 0.0 0.0 
0.0 0.0 0.0 
0.0 0.0 0.0 
0.0 0.0 0.0 
0.0 0.0 0.0 
0.0 0.0 0.0 
0.0 0.0 0.0 
0.0 0.0 0.0 
0.0 0.0 0.0 
0.0 0.0 0.0 
0.0 0.0 0.0 
0.0 0.0 0.0 
0.0 0.0 0.0 
0.0 0.0 0.0 
0.0 0.0 0.0 
0.0 0.0 0.0 
0.0 0.0 0.0 
0.0 0.0 0.0 
0.0 0.0 0.0 
0.0 0.0 0.0 
0.0 0.0 0.0 
0.0 0.0 0.0 
0.0 0.0 0.0 
0.0 0.0 0.0 
0.0 0.0 0.0 
0.0 0.0 0.0 
0.0 0.0 0.0 
0.0 0.0 0.0 
0.0 0.0 0.0 
0.0 0.0 0.0 
0.0 0.0 0.0 
0.0 0.0 0.0 
0.0 0.0 0.0 
0.0 0.0 0.0 
0.0 0.0 0.0 
0.0 0.0 0.0 
0.0 0.0 0.0 
0.0 0.0 0.0 
0.0 0.0 0.0 
0.0 0.0 0.0 
0.0 0.0 0.0 
0.0 0.0 0.0 
0.0 0.0 0.0 
0.0 0.0 0.0 
0.0 0.0 0.0 
0.0 0.0 0.0 
0.0 0.0 0.0 
0.0 0.0 0.0 
0.0 0.0 0.0 
0.0 0.0 0.0 
0.0 0.0 0.0 
0.0 0.0 0.0 
0.0 0.0 0.0 
0.0 0.0 0.0 
0.0 0.0 0.0 
0.0 0.0 0.0 
0.0 0.0 0.0 
0.0 0.0 0.0 
0.0 0.0 0.0 
0.0 0.0 0.0 
0.0 0.0 0.0 
0.0 0.0 0.0 
0.0 0.0 0.0 
0.0 0.0 0.0 
0.0 0.0 0.0 
0.0 0.0 0.0 
0.0 0.0 0.0 
0.0 0.0 0.0 
0.0 0.0 0.0 
0.0 0.0 0.0 
0.0 0.0 0.0 
0.0 0.0 0.0 
0.0 0.0 0.0 
0.0 0.0 0.0 
0.0 0.0 0.0 
0.0 0.0 0.0 
0.0 0.0 0.0 
0.0 0.0 0.0 
0.0 0.0 0.0 
0.0 0.0 0.0 
0.0 0.0 0.0 
0.0 0.0 0.0 
0.0 0.0 0.0 
0.0 0.0 0.0 
0.0 0.0 0.0 
0.0 0.0 0.0 
0.0 0.0 0.0 
0.0 0.0 0.0 
0.0 0.0 0.0 
0.0 0.0 0.0 
0.0 0.0 0.0 
0.0 0.0 0.0 
0.0 0.0 0.0 
0.0 0.0 0.0 
0.0 0.0 0.0 
0.0 0.0 0.0 
0.0 0.0 0.0 
0.0 0.0 0.0 
0.0 0.0 0.0 
0.0 0.0 0.0 
0.0 0.0 0.0 
0.0 0.0 0.0 
0.0 0.0 0.0 
0.0 0.0 0.0 
0.0 0.0 0.0 
0.0 0.0 0.0 
0.0 0.0 0.0 
0.0 0.0 0.0 
0.0 0.0 0.0 
0.0 0.0 0.0 
0.0 0.0 0.0 
0.0 0.0 0.0 
0.0 0.0 0.0 
0.0 0.0 0.0 
0.0 0.0 0.0 
0.0 0.0 0.0 
0.0 0.0 0.0 
0.0 0.0 0.0 
0.0 0.0 0.0 
0.0 0.0 0.0 
0.0 0.0 0.0 
0.0 0.0 0.0 
0.0 0.0 0.0 
0.0 0.0 0.0 
0.0 0.0 0.0 
0.0 0.0 0.0 
0.0 0.0 0.0 
0.0 0.0 0.0 
0.0 0.0 0.0 
0.0 0.0 0.0 
0.0 0.0 0.0 
0.0 0.0 0.0 
0.0 0.0 0.0 
0.0 0.0 0.0 
0.0 0.0 0.0 
0.0 0.0 0.0 
0.0 0.0 0.0 
0.0 0.0 0.0 
0.0 0.0 0.0 
0.0 0.0 0.0 
0.0 0.0 0.0 
0.0 0.0 0.0 
0.0 0.0 0.0 
0.0 0.0 0.0 
0.0 0.0 0.0 
0.0 0.0 0.0 
0.0 0.0 0.0 
0.0 0.0 0.0 
0.0 0.0 0.0 
0.0 0.0 0.0 
0.0 0.0 0.0 
0.0 0.0 0.0 
0.0 0.0 0.0 
0.0 0.0 0.0 
0.0 0.0 0.0 
0.0 0.0 0.0 
0.0 0.0 0.0 
0.0 0.0 0.0 
0.0 0.0 0.0 
0.0 0.0 0.0 
0.0 0.0 0.0 
0.0 0.0 0.0 
0.0 0.0 0.0 
0.0 0.0 0.0 
0.0 0.0 0.0 
0.0 0.0 0.0 
0.0 0.0 0.0 
0.0 0.0 0.0 
0.0 0.0 0.0 
0.0 0.0 0.0 
0.0 0.0 0.0 
0.0 0.0 0.0 
0.0 0.0 0.0 
0.0 0.0 0.0 
0.0 0.0 0.0 
0.0 0.0 0.0 
0.0 0.0 0.0 
0.0 0.0 0.0 
0.0 0.0 0.0 
0.0 0.0 0.0 
0.0 0.0 0.0 
0.0 0.0 0.0 
0.0 0.0 0.0 
0.0 0.0 0.0 
0.0 0.0 0.0 
0.0 0.0 0.0 
0.0 0.0 0.0 
0.0 0.0 0.0 
0.0 0.0 0.0 
0.0 0.0 0.0 
0.0 0.0 0.0 
0.0 0.0 0.0 
0.0 0.0 0.0 
0.0 0.0 0.0 
0.0 0.0 0.0 
0.0 0.0 0.0 
0.0 0.0 0.0 
0.0 0.0 0.0 
0.0 0.0 0.0 
0.0 0.0 0.0 
0.0 0.0 0.0 
0.0 0.0 0.0 
0.0 0.0 0.0 
0.0 0.0 0.0 
0.0 0.0 0.0 
0.0 0.0 0.0 
0.0 0.0 0.0 
0.0 0.0 0.0 
0.0 0.0 0.0 
0.0 0.0 0.0 
0.0 0.0 0.0 
0.0 0.0 0.0 
0.0 0.0 0.0 
0.0 0.0 0.0 
0.0 0.0 0.0 
0.0 0.0 0.0 
0.0 0.0 0.0 
0.0 0.0 0.0 
0.0 0.0 0.0 
0.0 0.0 0.0 
0.0 0.0 0.0 
0.0 0.0 0.0 
0.0 0.0 0.0 
0.0 0.0 0.0 
0.0 0.0 0.0 
0.0 0.0 0.0 
0.0 0.0 0.0 
0.0 0.0 0.0 
0.0 0.0 0.0 
0.0 0.0 0.0 
0.0 0.0 0.0 
0.0 0.0 0.0 
0.0 0.0 0.0 
0.0 0.0 0.0 
0.0 0.0 0.0 
0.0 0.0 0.0 
0.0 0.0 0.0 
0.0 0.0 0.0 
0.0 0.0 0.0 
0.0 0.0 0.0 
0.0 0.0 0.0 
0.0 0.0 0.0 
0.0 0.0 0.0 
0.0 0.0 0.0 
0.0 0.0 0.0 
0.0 0.0 0.0 
0.0 0.0 0.0 
0.0 0.0 0.0 
0.0 0.0 0.0 
0.0 0.0 0.0 
0.0 0.0 0.0 
0.0 0.0 0.0 
0.0 0.0 0.0 
0.0 0.0 0.0 
0.0 0.0 0.0 
0.0 0.0 0.0 
0.0 0.0 0.0 
0.0 0.0 0.0 
0.0 0.0 0.0 
0.0 0.0 0.0 
0.0 0.0 0.0 
0.0 0.0 0.0 
0.0 0.0 0.0 
0.0 0.0 0.0 
0.0 0.0 0.0 
0.0 0.0 0.0 
0.0 0.0 0.0 
0.0 0.0 0.0 
0.0 0.0 0.0 
0.0 0.0 0.0 
0.0 0.0 0.0 
0.0 0.0 0.0 
0.0 0.0 0.0 
0.0 0.0 0.0 
0.0 0.0 0.0 
0.0 0.0 0.0 
0.0 0.0 0.0 
0.0 0.0 0.0 
0.0 0.0 0.0 
0.0 0.0 0.0 
0.0 0.0 0.0 
0.0 0.0 0.0 
0.0 0.0 0.0 
0.0 0.0 0.0 
0.0 0.0 0.0 
0.0 0.0 0.0 
0.0 0.0 0.0 
0.0 0.0 0.0 
0.0 0.0 0.0 
0.0 0.0 0.0 
0.0 0.0 0.0 
0.0 0.0 0.0 
0.0 0.0 0.0 
0.0 0.0 0.0 
0.0 0.0 0.0 
0.0 0.0 0.0 
0.0 0.0 0.0 
0.0 0.0 0.0 
0.0 0.0 0.0 
0.0 0.0 0.0 
0.0 0.0 0.0 
0.0 0.0 0.0 
0.0 0.0 0.0 
0.0 0.0 0.0 
0.0 0.0 0.0 
0.0 0.0 0.0 
0.0 0.0 0.0 
0.0 0.0 0.0 
0.0 0.0 0.0 
0.0 0.0 0.0 
0.0 0.0 0.0 
0.0 0.0 0.0 
0.0 0.0 0.0 
0.0 0.0 0.0 
0.0 0.0 0.0 
0.0 0.0 0.0 
0.0 0.0 0.0 
0.0 0.0 0.0 
0.0 0.0 0.0 
0.0 0.0 0.0 
0.0 0.0 0.0 
0.0 0.0 0.0 
0.0 0.0 0.0 
0.0 0.0 0.0 
0.0 0.0 0.0 
0.0 0.0 0.0 
0.0 0.0 0.0 
0.0 0.0 0.0 
0.0 0.0 0.0 
0.0 0.0 0.0 
0.0 0.0 0.0 
0.0 0.0 0.0 
0.0 0.0 0.0 
0.0 0.0 0.0 
0.0 0.0 0.0 
0.0 0.0 0.0 
0.0 0.0 0.0 
0.0 0.0 0.0 
0.0 0.0 0.0 
0.0 0.0 0.0 
0.0 0.0 0.0 
0.0 0.0 0.0 
0.0 0.0 0.0 
0.0 0.0 0.0 
0.0 0.0 0.0 
0.0 0.0 0.0 
0.0 0.0 0.0 
0.0 0.0 0.0 
0.0 0.0 0.0 
0.0 0.0 0.0 
0.0 0.0 0.0 
0.0 0.0 0.0 
0.0 0.0 0.0 
0.0 0.0 0.0 
0.0 0.0 0.0 
0.0 0.0 0.0 
0.0 0.0 0.0 
0.0 0.0 0.0 
0.0 0.0 0.0 
0.0 0.0 0.0 
0.0 0.0 0.0 
0.0 0.0 0.0 
0.0 0.0 0.0 
0.0 0.0 0.0 
0.0 0.0 0.0 
0.0 0.0 0.0 
0.0 0.0 0.0 
0.0 0.0 0.0 
0.0 0.0 0.0 
0.0 0.0 0.0 
0.0 0.0 0.0 
0.0 0.0 0.0 
0.0 0.0 0.0 
0.0 0.0 0.0 
0.0 0.0 0.0 
0.0 0.0 0.0 
0.0 0.0 0.0 
0.0 0.0 0.0 
0.0 0.0 0.0 
0.0 0.0 0.0 
0.0 0.0 0.0 
0.0 0.0 0.0 
0.0 0.0 0.0 
0.0 0.0 0.0 
0.0 0.0 0.0 
0.0 0.0 0.0 
0.0 0.0 0.0 
0.0 0.0 0.0 
0.0 0.0 0.0 
0.0 0.0 0.0 
0.0 0.0 0.0 
0.0 0.0 0.0 
0.0 0.0 0.0 
0.0 0.0 0.0 
0.0 0.0 0.0 
0.0 0.0 0.0 
0.0 0.0 0.0 
0.0 0.0 0.0 
0.0 0.0 0.0 
0.0 0.0 0.0 
0.0 0.0 0.0 
0.0 0.0 0.0 
0.0 0.0 0.0 
0.0 0.0 0.0 
0.0 0.0 0.0 
0.0 0.0 0.0 
0.0 0.0 0.0 
0.0 0.0 0.0 
0.0 0.0 0.0 
0.0 0.0 0.0 
0.0 0.0 0.0 
0.0 0.0 0.0 
0.0 0.0 0.0 
0.0 0.0 0.0 
0.0 0.0 0.0 
0.0 0.0 0.0 
0.0 0.0 0.0 
0.0 0.0 0.0 
0.0 0.0 0.0 
0.0 0.0 0.0 
0.0 0.0 0.0 
0.0 0.0 0.0 
0.0 0.0 0.0 
0.0 0.0 0.0 
0.0 0.0 0.0 
0.0 0.0 0.0 
0.0 0.0 0.0 
0.0 0.0 0.0 
0.0 0.0 0.0 
0.0 0.0 0.0 
0.0 0.0 0.0 
0.0 0.0 0.0 
0.0 0.0 0.0 
0.0 0.0 0.0 
0.0 0.0 0.0 
0.0 0.0 0.0 
0.0 0.0 0.0 
0.0 0.0 0.0 
0.0 0.0 0.0 
0.0 0.0 0.0 
0.0 0.0 0.0 
0.0 0.0 0.0 
0.0 0.0 0.0 
0.0 0.0 0.0 
0.0 0.0 0.0 
0.0 0.0 0.0 
0.0 0.0 0.0 
0.0 0.0 0.0 
0.0 0.0 0.0 
0.0 0.0 0.0 
0.0 0.0 0.0 
0.0 0.0 0.0 
0.0 0.0 0.0 
0.0 0.0 0.0 
0.0 0.0 0.0 
0.0 0.0 0.0 
0.0 0.0 0.0 
0.0 0.0 0.0 
0.0 0.0 0.0 
0.0 0.0 0.0 
0.0 0.0 0.0 
0.0 0.0 0.0 
0.0 0.0 0.0 
0.0 0.0 0.0 
0.0 0.0 0.0 
0.0 0.0 0.0 
0.0 0.0 0.0 
0.0 0.0 0.0 
0.0 0.0 0.0 
0.0 0.0 0.0 
0.0 0.0 0.0 
0.0 0.0 0.0 
0.0 0.0 0.0 
0.0 0.0 0.0 
0.0 0.0 0.0 
0.0 0.0 0.0 
0.0 0.0 0.0 
0.0 0.0 0.0 
0.0 0.0 0.0 
0.0 0.0 0.0 
0.0 0.0 0.0 
0.0 0.0 0.0 
0.0 0.0 0.0 
0.0 0.0 0.0 
0.0 0.0 0.0 
0.0 0.0 0.0 
0.0 0.0 0.0 
0.0 0.0 0.0 
0.0 0.0 0.0 
0.0 0.0 0.0 
0.0 0.0 0.0 
0.0 0.0 0.0 
0.0 0.0 0.0 
0.0 0.0 0.0 
0.0 0.0 0.0 
0.0 0.0 0.0 
0.0 0.0 0.0 
0.0 0.0 0.0 
0.0 0.0 0.0 
0.0 0.0 0.0 
0.0 0.0 0.0 
0.0 0.0 0.0 
0.0 0.0 0.0 
0.0 0.0 0.0 
0.0 0.0 0.0 
0.0 0.0 0.0 
0.0 0.0 0.0 
0.0 0.0 0.0 
0.0 0.0 0.0 
0.0 0.0 0.0 
0.0 0.0 0.0 
0.0 0.0 0.0 
0.0 0.0 0.0 
0.0 0.0 0.0 
0.0 0.0 0.0 
0.0 0.0 0.0 
0.0 0.0 0.0 
0.0 0.0 0.0 
0.0 0.0 0.0 
0.0 0.0 0.0 
0.0 0.0 0.0 
0.0 0.0 0.0 
0.0 0.0 0.0 
0.0 0.0 0.0 
0.0 0.0 0.0 
0.0 0.0 0.0 
0.0 0.0 0.0 
0.0 0.0 0.0 
0.0 0.0 0.0 
0.0 0.0 0.0 
0.0 0.0 0.0 
0.0 0.0 0.0 
0.0 0.0 0.0 
0.0 0.0 0.0 
0.0 0.0 0.0 
0.0 0.0 0.0 
0.0 0.0 0.0 
0.0 0.0 0.0 
0.0 0.0 0.0 
0.0 0.0 0.0 
0.0 0.0 0.0 
0.0 0.0 0.0 
0.0 0.0 0.0 
0.0 0.0 0.0 
0.0 0.0 0.0 
0.0 0.0 0.0 
0.0 0.0 0.0 
0.0 0.0 0.0 
0.0 0.0 0.0 
0.0 0.0 0.0 
0.0 0.0 0.0 
0.0 0.0 0.0 
0.0 0.0 0.0 
0.0 0.0 0.0 
0.0 0.0 0.0 
0.0 0.0 0.0 
0.0 0.0 0.0 
0.0 0.0 0.0 
0.0 0.0 0.0 
0.0 0.0 0.0 
0.0 0.0 0.0 
0.0 0.0 0.0 
0.0 0.0 0.0 
0.0 0.0 0.0 
0.0 0.0 0.0 
0.0 0.0 0.0 
0.0 0.0 0.0 
0.0 0.0 0.0 
0.0 0.0 0.0 
0.0 0.0 0.0 
0.0 0.0 0.0 
0.0 0.0 0.0 
0.0 0.0 0.0 
0.0 0.0 0.0 
0.0 0.0 0.0 
0.0 0.0 0.0 
0.0 0.0 0.0 
0.0 0.0 0.0 
0.0 0.0 0.0 
0.0 0.0 0.0 
0.0 0.0 0.0 
0.0 0.0 0.0 
0.0 0.0 0.0 
0.0 0.0 0.0 
0.0 0.0 0.0 
0.0 0.0 0.0 
0.0 0.0 0.0 
0.0 0.0 0.0 
0.0 0.0 0.0 
0.0 0.0 0.0 
0.0 0.0 0.0 
0.0 0.0 0.0 
0.0 0.0 0.0 
0.0 0.0 0.0 
0.0 0.0 0.0 
0.0 0.0 0.0 
0.0 0.0 0.0 
0.0 0.0 0.0 
0.0 0.0 0.0 
0.0 0.0 0.0 
0.0 0.0 0.0 
0.0 0.0 0.0 
0.0 0.0 0.0 
0.0 0.0 0.0 
0.0 0.0 0.0 
0.0 0.0 0.0 
0.0 0.0 0.0 
0.0 0.0 0.0 
0.0 0.0 0.0 
0.0 0.0 0.0 
0.0 0.0 0.0 
0.0 0.0 0.0 
0.0 0.0 0.0 
0.0 0.0 0.0 
0.0 0.0 0.0 
0.0 0.0 0.0 
0.0 0.0 0.0 
0.0 0.0 0.0 
0.0 0.0 0.0 
0.0 0.0 0.0 
0.0 0.0 0.0 
0.0 0.0 0.0 
0.0 0.0 0.0 
0.0 0.0 0.0 
0.0 0.0 0.0 
0.0 0.0 0.0 
0.0 0.0 0.0 
0.0 0.0 0.0 
0.0 0.0 0.0 
0.0 0.0 0.0 
0.0 0.0 0.0 
0.0 0.0 0.0 
0.0 0.0 0.0 
0.0 0.0 0.0 
0.0 0.0 0.0 
0.0 0.0 0.0 
0.0 0.0 0.0 
0.0 0.0 0.0 
0.0 0.0 0.0 
0.0 0.0 0.0 
0.0 0.0 0.0 
0.0 0.0 0.0 
0.0 0.0 0.0 
0.0 0.0 0.0 
0.0 0.0 0.0 
0.0 0.0 0.0 
0.0 0.0 0.0 
0.0 0.0 0.0 
0.0 0.0 0.0 
0.0 0.0 0.0 
0.0 0.0 0.0 
0.0 0.0 0.0 
0.0 0.0 0.0 
0.0 0.0 0.0 
0.0 0.0 0.0 
0.0 0.0 0.0 
0.0 0.0 0.0 
0.0 0.0 0.0 
0.0 0.0 0.0 
0.0 0.0 0.0 
0.0 0.0 0.0 
0.0 0.0 0.0 
0.0 0.0 0.0 
0.0 0.0 0.0 
0.0 0.0 0.0 
0.0 0.0 0.0 
0.0 0.0 0.0 
0.0 0.0 0.0 
0.0 0.0 0.0 
0.0 0.0 0.0 
0.0 0.0 0.0 
0.0 0.0 0.0 
0.0 0.0 0.0 
0.0 0.0 0.0 
0.0 0.0 0.0 
0.0 0.0 0.0 
0.0 0.0 0.0 
0.0 0.0 0.0 
0.0 0.0 0.0 
0.0 0.0 0.0 
0.0 0.0 0.0 
0.0 0.0 0.0 
0.0 0.0 0.0 
0.0 0.0 0.0 
0.0 0.0 0.0 
0.0 0.0 0.0 
0.0 0.0 0.0 
0.0 0.0 0.0 
0.0 0.0 0.0 
0.0 0.0 0.0 
0.0 0.0 0.0 
0.0 0.0 0.0 
0.0 0.0 0.0 
0.0 0.0 0.0 
0.0 0.0 0.0 
0.0 0.0 0.0 
0.0 0.0 0.0 
0.0 0.0 0.0 
0.0 0.0 0.0 
0.0 0.0 0.0 
0.0 0.0 0.0 
0.0 0.0 0.0 
0.0 0.0 0.0 
0.0 0.0 0.0 
0.0 0.0 0.0 
0.0 0.0 0.0 
0.0 0.0 0.0 
0.0 0.0 0.0 
0.0 0.0 0.0 
0.0 0.0 0.0 
0.0 0.0 0.0 
0.0 0.0 0.0 
0.0 0.0 0.0 
0.0 0.0 0.0 
0.0 0.0 0.0 
0.0 0.0 0.0 
0.0 0.0 0.0 
0.0 0.0 0.0 
0.0 0.0 0.0 
0.0 0.0 0.0 
0.0 0.0 0.0 
0.0 0.0 0.0 
0.0 0.0 0.0 
0.0 0.0 0.0 
0.0 0.0 0.0 
0.0 0.0 0.0 
0.0 0.0 0.0 
0.0 0.0 0.0 
0.0 0.0 0.0 
0.0 0.0 0.0 
0.0 0.0 0.0 
0.0 0.0 0.0 
0.0 0.0 0.0 
0.0 0.0 0.0 
0.0 0.0 0.0 
0.0 0.0 0.0 
0.0 0.0 0.0 
0.0 0.0 0.0 
0.0 0.0 0.0 
0.0 0.0 0.0 
0.0 0.0 0.0 
0.0 0.0 0.0 
0.0 0.0 0.0 
0.0 0.0 0.0 
0.0 0.0 0.0 
0.0 0.0 0.0 
0.0 0.0 0.0 
0.0 0.0 0.0 
0.0 0.0 0.0 
0.0 0.0 0.0 
0.0 0.0 0.0 
0.0 0.0 0.0 
0.0 0.0 0.0 
0.0 0.0 0.0 
0.0 0.0 0.0 
0.0 0.0 0.0 
0.0 0.0 0.0 
0.0 0.0 0.0 
0.0 0.0 0.0 
0.0 0.0 0.0 
0.0 0.0 0.0 
0.0 0.0 0.0 
0.0 0.0 0.0 
0.0 0.0 0.0 
0.0 0.0 0.0 
0.0 0.0 0.0 
0.0 0.0 0.0 
0.0 0.0 0.0 
0.0 0.0 0.0 
0.0 0.0 0.0 
0.0 0.0 0.0 
0.0 0.0 0.0 
0.0 0.0 0.0 
0.0 0.0 0.0 
0.0 0.0 0.0 
0.0 0.0 0.0 
0.0 0.0 0.0 
0.0 0.0 0.0 
0.0 0.0 0.0 
0.0 0.0 0.0 
0.0 0.0 0.0 
0.0 0.0 0.0 
0.0 0.0 0.0 
0.0 0.0 0.0 
0.0 0.0 0.0 
0.0 0.0 0.0 
0.0 0.0 0.0 
0.0 0.0 0.0 
0.0 0.0 0.0 
0.0 0.0 0.0 
0.0 0.0 0.0 
0.0 0.0 0.0 
0.0 0.0 0.0 
0.0 0.0 0.0 
0.0 0.0 0.0 
0.0 0.0 0.0 
0.0 0.0 0.0 
0.0 0.0 0.0 
0.0 0.0 0.0 
0.0 0.0 0.0 
0.0 0.0 0.0 
0.0 0.0 0.0 
0.0 0.0 0.0 
0.0 0.0 0.0 
0.0 0.0 0.0 
0.0 0.0 0.0 
0.0 0.0 0.0 
0.0 0.0 0.0 
0.0 0.0 0.0 
0.0 0.0 0.0 
0.0 0.0 0.0 
0.0 0.0 0.0 
0.0 0.0 0.0 
0.0 0.0 0.0 
0.0 0.0 0.0 
0.0 0.0 0.0 
0.0 0.0 0.0 
0.0 0.0 0.0 
0.0 0.0 0.0 
0.0 0.0 0.0 
0.0 0.0 0.0 
0.0 0.0 0.0 
0.0 0.0 0.0 
0.0 0.0 0.0 
0.0 0.0 0.0 
0.0 0.0 0.0 
0.0 0.0 0.0 
0.0 0.0 0.0 
0.0 0.0 0.0 
0.0 0.0 0.0 
0.0 0.0 0.0 
0.0 0.0 0.0 
0.0 0.0 0.0 
0.0 0.0 0.0 
0.0 0.0 0.0 
0.0 0.0 0.0 
0.0 0.0 0.0 
0.0 0.0 0.0 
0.0 0.0 0.0 
0.0 0.0 0.0 
0.0 0.0 0.0 
0.0 0.0 0.0 
0.0 0.0 0.0 
0.0 0.0 0.0 
0.0 0.0 0.0 
0.0 0.0 0.0 
0.0 0.0 0.0 
0.0 0.0 0.0 
0.0 0.0 0.0 
0.0 0.0 0.0 
0.0 0.0 0.0 
0.0 0.0 0.0 
0.0 0.0 0.0 
0.0 0.0 0.0 
0.0 0.0 0.0 
0.0 0.0 0.0 
0.0 0.0 0.0 
0.0 0.0 0.0 
0.0 0.0 0.0 
0.0 0.0 0.0 
0.0 0.0 0.0 
0.0 0.0 0.0 
0.0 0.0 0.0 
0.0 0.0 0.0 
0.0 0.0 0.0 
0.0 0.0 0.0 
0.0 0.0 0.0 
0.0 0.0 0.0 
0.0 0.0 0.0 
0.0 0.0 0.0 
0.0 0.0 0.0 
0.0 0.0 0.0 
0.0 0.0 0.0 
0.0 0.0 0.0 
0.0 0.0 0.0 
0.0 0.0 0.0 
0.0 0.0 0.0 
0.0 0.0 0.0 
0.0 0.0 0.0 
0.0 0.0 0.0 
0.0 0.0 0.0 
0.0 0.0 0.0 
0.0 0.0 0.0 
0.0 0.0 0.0 
0.0 0.0 0.0 
0.0 0.0 0.0 
0.0 0.0 0.0 
0.0 0.0 0.0 
0.0 0.0 0.0 
0.0 0.0 0.0 
0.0 0.0 0.0 
0.0 0.0 0.0 
0.0 0.0 0.0 
0.0 0.0 0.0 
0.0 0.0 0.0 
0.0 0.0 0.0 
0.0 0.0 0.0 
0.0 0.0 0.0 
0.0 0.0 0.0 
0.0 0.0 0.0 
0.0 0.0 0.0 
0.0 0.0 0.0 
0.0 0.0 0.0 
0.0 0.0 0.0 
0.0 0.0 0.0 
0.0 0.0 0.0 
0.0 0.0 0.0 
0.0 0.0 0.0 
0.0 0.0 0.0 
0.0 0.0 0.0 
0.0 0.0 0.0 
0.0 0.0 0.0 
0.0 0.0 0.0 
0.0 0.0 0.0 
0.0 0.0 0.0 
0.0 0.0 0.0 
0.0 0.0 0.0 
0.0 0.0 0.0 
0.0 0.0 0.0 
0.0 0.0 0.0 
0.0 0.0 0.0 
0.0 0.0 0.0 
0.0 0.0 0.0 
0.0 0.0 0.0 
0.0 0.0 0.0 
0.0 0.0 0.0 
0.0 0.0 0.0 
0.0 0.0 0.0 
0.0 0.0 0.0 
0.0 0.0 0.0 
0.0 0.0 0.0 
0.0 0.0 0.0 
0.0 0.0 0.0 
0.0 0.0 0.0 
0.0 0.0 0.0 
0.0 0.0 0.0 
0.0 0.0 0.0 
0.0 0.0 0.0 
0.0 0.0 0.0 
0.0 0.0 0.0 
0.0 0.0 0.0 
0.0 0.0 0.0 
0.0 0.0 0.0 
0.0 0.0 0.0 
0.0 0.0 0.0 
0.0 0.0 0.0 
0.0 0.0 0.0 
0.0 0.0 0.0 
0.0 0.0 0.0 
0.0 0.0 0.0 
0.0 0.0 0.0 
0.0 0.0 0.0 
0.0 0.0 0.0 
0.0 0.0 0.0 
0.0 0.0 0.0 
0.0 0.0 0.0 
0.0 0.0 0.0 
0.0 0.0 0.0 
0.0 0.0 0.0 
0.0 0.0 0.0 
0.0 0.0 0.0 
0.0 0.0 0.0 
0.0 0.0 0.0 
0.0 0.0 0.0 
0.0 0.0 0.0 
0.0 0.0 0.0 
0.0 0.0 0.0 
0.0 0.0 0.0 
0.0 0.0 0.0 
0.0 0.0 0.0 
0.0 0.0 0.0 
0.0 0.0 0.0 
0.0 0.0 0.0 
0.0 0.0 0.0 
0.0 0.0 0.0 
0.0 0.0 0.0 
0.0 0.0 0.0 
0.0 0.0 0.0 
0.0 0.0 0.0 
0.0 0.0 0.0 
0.0 0.0 0.0 
0.0 0.0 0.0 
0.0 0.0 0.0 
0.0 0.0 0.0 
0.0 0.0 0.0 
0.0 0.0 0.0 
0.0 0.0 0.0 
0.0 0.0 0.0 
0.0 0.0 0.0 
0.0 0.0 0.0 
0.0 0.0 0.0 
0.0 0.0 0.0 
0.0 0.0 0.0 
0.0 0.0 0.0 
0.0 0.0 0.0 
0.0 0.0 0.0 
0.0 0.0 0.0 
0.0 0.0 0.0 
0.0 0.0 0.0 
0.0 0.0 0.0 
0.0 0.0 0.0 
0.0 0.0 0.0 
0.0 0.0 0.0 
0.0 0.0 0.0 
0.0 0.0 0.0 
0.0 0.0 0.0 
0.0 0.0 0.0 
0.0 0.0 0.0 
0.0 0.0 0.0 
0.0 0.0 0.0 
0.0 0.0 0.0 
0.0 0.0 0.0 
0.0 0.0 0.0 
0.0 0.0 0.0 
0.0 0.0 0.0 
0.0 0.0 0.0 
0.0 0.0 0.0 
0.0 0.0 0.0 
0.0 0.0 0.0 
0.0 0.0 0.0 
0.0 0.0 0.0 
0.0 0.0 0.0 
0.0 0.0 0.0 
0.0 0.0 0.0 
0.0 0.0 0.0 
0.0 0.0 0.0 
0.0 0.0 0.0 
0.0 0.0 0.0 
0.0 0.0 0.0 
0.0 0.0 0.0 
0.0 0.0 0.0 
0.0 0.0 0.0 
0.0 0.0 0.0 
0.0 0.0 0.0 
0.0 0.0 0.0 
0.0 0.0 0.0 
0.0 0.0 0.0 
0.0 0.0 0.0 
0.0 0.0 0.0 
0.0 0.0 0.0 
0.0 0.0 0.0 
0.0 0.0 0.0 
0.0 0.0 0.0 
0.0 0.0 0.0 
0.0 0.0 0.0 
0.0 0.0 0.0 
0.0 0.0 0.0 
0.0 0.0 0.0 
0.0 0.0 0.0 
0.0 0.0 0.0 
0.0 0.0 0.0 
0.0 0.0 0.0 
0.0 0.0 0.0 
0.0 0.0 0.0 
0.0 0.0 0.0 
0.0 0.0 0.0 
0.0 0.0 0.0 
0.0 0.0 0.0 
0.0 0.0 0.0 
0.0 0.0 0.0 
0.0 0.0 0.0 
0.0 0.0 0.0 
0.0 0.0 0.0 
0.0 0.0 0.0 
0.0 0.0 0.0 
0.0 0.0 0.0 
0.0 0.0 0.0 
0.0 0.0 0.0 
0.0 0.0 0.0 
0.0 0.0 0.0 
0.0 0.0 0.0 
0.0 0.0 0.0 
0.0 0.0 0.0 
0.0 0.0 0.0 
0.0 0.0 0.0 
0.0 0.0 0.0 
0.0 0.0 0.0 
0.0 0.0 0.0 
0.0 0.0 0.0 
0.0 0.0 0.0 
0.0 0.0 0.0 
0.0 0.0 0.0 
0.0 0.0 0.0 
0.0 0.0 0.0 
0.0 0.0 0.0 
0.0 0.0 0.0 
0.0 0.0 0.0 
0.0 0.0 0.0 
0.0 0.0 0.0 
0.0 0.0 0.0 
0.0 0.0 0.0 
0.0 0.0 0.0 
0.0 0.0 0.0 
0.0 0.0 0.0 
0.0 0.0 0.0 
0.0 0.0 0.0 
0.0 0.0 0.0 
0.0 0.0 0.0 
0.0 0.0 0.0 
0.0 0.0 0.0 
0.0 0.0 0.0 
0.0 0.0 0.0 
0.0 0.0 0.0 
0.0 0.0 0.0 
0.0 0.0 0.0 
0.0 0.0 0.0 
0.0 0.0 0.0 
0.0 0.0 0.0 
0.0 0.0 0.0 
0.0 0.0 0.0 
0.0 0.0 0.0 
0.0 0.0 0.0 
0.0 0.0 0.0 
0.0 0.0 0.0 
0.0 0.0 0.0 
0.0 0.0 0.0 
0.0 0.0 0.0 
0.0 0.0 0.0 
0.0 0.0 0.0 
0.0 0.0 0.0 
0.0 0.0 0.0 
0.0 0.0 0.0 
0.0 0.0 0.0 
0.0 0.0 0.0 
0.0 0.0 0.0 
0.0 0.0 0.0 
0.0 0.0 0.0 
0.0 0.0 0.0 
0.0 0.0 0.0 
0.0 0.0 0.0 
0.0 0.0 0.0 
0.0 0.0 0.0 
0.0 0.0 0.0 
0.0 0.0 0.0 
0.0 0.0 0.0 
0.0 0.0 0.0 
0.0 0.0 0.0 
0.0 0.0 0.0 
0.0 0.0 0.0 
0.0 0.0 0.0 
0.0 0.0 0.0 
0.0 0.0 0.0 
0.0 0.0 0.0 
0.0 0.0 0.0 
0.0 0.0 0.0 
0.0 0.0 0.0 
0.0 0.0 0.0 
0.0 0.0 0.0 
0.0 0.0 0.0 
0.0 0.0 0.0 
0.0 0.0 0.0 
0.0 0.0 0.0 
0.0 0.0 0.0 
0.0 0.0 0.0 
0.0 0.0 0.0 
0.0 0.0 0.0 
0.0 0.0 0.0 
0.0 0.0 0.0 
0.0 0.0 0.0 
0.0 0.0 0.0 
0.0 0.0 0.0 
0.0 0.0 0.0 
0.0 0.0 0.0 
0.0 0.0 0.0 
0.0 0.0 0.0 
0.0 0.0 0.0 
0.0 0.0 0.0 
0.0 0.0 0.0 
0.0 0.0 0.0 
0.0 0.0 0.0 
0.0 0.0 0.0 
0.0 0.0 0.0 
0.0 0.0 0.0 
0.0 0.0 0.0 
0.0 0.0 0.0 
0.0 0.0 0.0 
0.0 0.0 0.0 
0.0 0.0 0.0 
0.0 0.0 0.0 
0.0 0.0 0.0 
0.0 0.0 0.0 
0.0 0.0 0.0 
0.0 0.0 0.0 
0.0 0.0 0.0 
0.0 0.0 0.0 
0.0 0.0 0.0 
0.0 0.0 0.0 
0.0 0.0 0.0 
0.0 0.0 0.0 
0.0 0.0 0.0 
0.0 0.0 0.0 
0.0 0.0 0.0 
0.0 0.0 0.0 
0.0 0.0 0.0 
0.0 0.0 0.0 
0.0 0.0 0.0 
0.0 0.0 0.0 
0.0 0.0 0.0 
0.0 0.0 0.0 
0.0 0.0 0.0 
0.0 0.0 0.0 
0.0 0.0 0.0 
0.0 0.0 0.0 
0.0 0.0 0.0 
0.0 0.0 0.0 
0.0 0.0 0.0 
0.0 0.0 0.0 
0.0 0.0 0.0 
0.0 0.0 0.0 
0.0 0.0 0.0 
0.0 0.0 0.0 
0.0 0.0 0.0 
0.0 0.0 0.0 
0.0 0.0 0.0 
0.0 0.0 0.0 
0.0 0.0 0.0 
0.0 0.0 0.0 
0.0 0.0 0.0 
0.0 0.0 0.0 
0.0 0.0 0.0 
0.0 0.0 0.0 
0.0 0.0 0.0 
0.0 0.0 0.0 
0.0 0.0 0.0 
0.0 0.0 0.0 
0.0 0.0 0.0 
0.0 0.0 0.0 
0.0 0.0 0.0 
0.0 0.0 0.0 
0.0 0.0 0.0 
0.0 0.0 0.0 
0.0 0.0 0.0 
0.0 0.0 0.0 
0.0 0.0 0.0 
0.0 0.0 0.0 
0.0 0.0 0.0 
0.0 0.0 0.0 
0.0 0.0 0.0 
0.0 0.0 0.0 
0.0 0.0 0.0 
0.0 0.0 0.0 
0.0 0.0 0.0 
0.0 0.0 0.0 
0.0 0.0 0.0 
0.0 0.0 0.0 
0.0 0.0 0.0 
0.0 0.0 0.0 
0.0 0.0 0.0 
0.0 0.0 0.0 
0.0 0.0 0.0 
0.0 0.0 0.0 
0.0 0.0 0.0 
0.0 0.0 0.0 
0.0 0.0 0.0 
0.0 0.0 0.0 
0.0 0.0 0.0 
0.0 0.0 0.0 
0.0 0.0 0.0 
0.0 0.0 0.0 
0.0 0.0 0.0 
0.0 0.0 0.0 
0.0 0.0 0.0 
0.0 0.0 0.0 
0.0 0.0 0.0 
0.0 0.0 0.0 
0.0 0.0 0.0 
0.0 0.0 0.0 
0.0 0.0 0.0 
0.0 0.0 0.0 
0.0 0.0 0.0 
0.0 0.0 0.0 
0.0 0.0 0.0 
0.0 0.0 0.0 
0.0 0.0 0.0 
0.0 0.0 0.0 
0.0 0.0 0.0 
0.0 0.0 0.0 
0.0 0.0 0.0 
0.0 0.0 0.0 
0.0 0.0 0.0 
0.0 0.0 0.0 
0.0 0.0 0.0 
0.0 0.0 0.0 
0.0 0.0 0.0 
0.0 0.0 0.0 
0.0 0.0 0.0 
0.0 0.0 0.0 
0.0 0.0 0.0 
0.0 0.0 0.0 
0.0 0.0 0.0 
0.0 0.0 0.0 
0.0 0.0 0.0 
0.0 0.0 0.0 
0.0 0.0 0.0 
0.0 0.0 0.0 
0.0 0.0 0.0 
0.0 0.0 0.0 
0.0 0.0 0.0 
0.0 0.0 0.0 
0.0 0.0 0.0 
0.0 0.0 0.0 
0.0 0.0 0.0 
0.0 0.0 0.0 
0.0 0.0 0.0 
0.0 0.0 0.0 
0.0 0.0 0.0 
0.0 0.0 0.0 
0.0 0.0 0.0 
0.0 0.0 0.0 
0.0 0.0 0.0 
0.0 0.0 0.0 
0.0 0.0 0.0 
0.0 0.0 0.0 
0.0 0.0 0.0 
0.0 0.0 0.0 
0.0 0.0 0.0 
0.0 0.0 0.0 
0.0 0.0 0.0 
0.0 0.0 0.0 
0.0 0.0 0.0 
0.0 0.0 0.0 
0.0 0.0 0.0 
0.0 0.0 0.0 
0.0 0.0 0.0 
0.0 0.0 0.0 
0.0 0.0 0.0 
0.0 0.0 0.0 
0.0 0.0 0.0 
0.0 0.0 0.0 
0.0 0.0 0.0 
0.0 0.0 0.0 
0.0 0.0 0.0 
0.0 0.0 0.0 
0.0 0.0 0.0 
0.0 0.0 0.0 
0.0 0.0 0.0 
0.0 0.0 0.0 
0.0 0.0 0.0 
0.0 0.0 0.0 
0.0 0.0 0.0 
0.0 0.0 0.0 
0.0 0.0 0.0 
0.0 0.0 0.0 
0.0 0.0 0.0 
0.0 0.0 0.0 
0.0 0.0 0.0 
0.0 0.0 0.0 
0.0 0.0 0.0 
0.0 0.0 0.0 
0.0 0.0 0.0 
0.0 0.0 0.0 
0.0 0.0 0.0 
0.0 0.0 0.0 
0.0 0.0 0.0 
0.0 0.0 0.0 
0.0 0.0 0.0 
0.0 0.0 0.0 
0.0 0.0 0.0 
0.0 0.0 0.0 
0.0 0.0 0.0 
0.0 0.0 0.0 
0.0 0.0 0.0 
0.0 0.0 0.0 
0.0 0.0 0.0 
0.0 0.0 0.0 
0.0 0.0 0.0 
0.0 0.0 0.0 
0.0 0.0 0.0 
0.0 0.0 0.0 
0.0 0.0 0.0 
0.0 0.0 0.0 
0.0 0.0 0.0 
0.0 0.0 0.0 
0.0 0.0 0.0 
0.0 0.0 0.0 
0.0 0.0 0.0 
0.0 0.0 0.0 
0.0 0.0 0.0 
0.0 0.0 0.0 
0.0 0.0 0.0 
0.0 0.0 0.0 
0.0 0.0 0.0 
0.0 0.0 0.0 
0.0 0.0 0.0 
0.0 0.0 0.0 
0.0 0.0 0.0 
0.0 0.0 0.0 
0.0 0.0 0.0 
0.0 0.0 0.0 
0.0 0.0 0.0 
0.0 0.0 0.0 
0.0 0.0 0.0 
0.0 0.0 0.0 
0.0 0.0 0.0 
0.0 0.0 0.0 
0.0 0.0 0.0 
0.0 0.0 0.0 
0.0 0.0 0.0 
0.0 0.0 0.0 
0.0 0.0 0.0 
0.0 0.0 0.0 
0.0 0.0 0.0 
0.0 0.0 0.0 
0.0 0.0 0.0 
0.0 0.0 0.0 
0.0 0.0 0.0 
0.0 0.0 0.0 
0.0 0.0 0.0 
0.0 0.0 0.0 
0.0 0.0 0.0 
0.0 0.0 0.0 
0.0 0.0 0.0 
0.0 0.0 0.0 
0.0 0.0 0.0 
0.0 0.0 0.0 
0.0 0.0 0.0 
0.0 0.0 0.0 
0.0 0.0 0.0 
0.0 0.0 0.0 
0.0 0.0 0.0 
0.0 0.0 0.0 
0.0 0.0 0.0 
0.0 0.0 0.0 
0.0 0.0 0.0 
0.0 0.0 0.0 
0.0 0.0 0.0 
0.0 0.0 0.0 
0.0 0.0 0.0 
0.0 0.0 0.0 
0.0 0.0 0.0 
0.0 0.0 0.0 
0.0 0.0 0.0 
0.0 0.0 0.0 
0.0 0.0 0.0 
0.0 0.0 0.0 
0.0 0.0 0.0 
0.0 0.0 0.0 
0.0 0.0 0.0 
0.0 0.0 0.0 
0.0 0.0 0.0 
0.0 0.0 0.0 
0.0 0.0 0.0 
0.0 0.0 0.0 
0.0 0.0 0.0 
0.0 0.0 0.0 
0.0 0.0 0.0 
0.0 0.0 0.0 
0.0 0.0 0.0 
0.0 0.0 0.0 
0.0 0.0 0.0 
0.0 0.0 0.0 
0.0 0.0 0.0 
0.0 0.0 0.0 
0.0 0.0 0.0 
0.0 0.0 0.0 
0.0 0.0 0.0 
0.0 0.0 0.0 
0.0 0.0 0.0 
0.0 0.0 0.0 
0.0 0.0 0.0 
0.0 0.0 0.0 
0.0 0.0 0.0 
0.0 0.0 0.0 
0.0 0.0 0.0 
0.0 0.0 0.0 
0.0 0.0 0.0 
0.0 0.0 0.0 
0.0 0.0 0.0 
0.0 0.0 0.0 
0.0 0.0 0.0 
0.0 0.0 0.0 
0.0 0.0 0.0 
0.0 0.0 0.0 
0.0 0.0 0.0 
0.0 0.0 0.0 
0.0 0.0 0.0 
0.0 0.0 0.0 
0.0 0.0 0.0 
0.0 0.0 0.0 
0.0 0.0 0.0 
0.0 0.0 0.0 
0.0 0.0 0.0 
0.0 0.0 0.0 
0.0 0.0 0.0 
0.0 0.0 0.0 
0.0 0.0 0.0 
0.0 0.0 0.0 
0.0 0.0 0.0 
0.0 0.0 0.0 
0.0 0.0 0.0 
0.0 0.0 0.0 
0.0 0.0 0.0 
0.0 0.0 0.0 
0.0 0.0 0.0 
0.0 0.0 0.0 
0.0 0.0 0.0 
0.0 0.0 0.0 
0.0 0.0 0.0 
0.0 0.0 0.0 
0.0 0.0 0.0 
0.0 0.0 0.0 
0.0 0.0 0.0 
0.0 0.0 0.0 
0.0 0.0 0.0 
0.0 0.0 0.0 
0.0 0.0 0.0 
0.0 0.0 0.0 
0.0 0.0 0.0 
0.0 0.0 0.0 
0.0 0.0 0.0 
0.0 0.0 0.0 
0.0 0.0 0.0 
0.0 0.0 0.0 
0.0 0.0 0.0 
0.0 0.0 0.0 
0.0 0.0 0.0 
0.0 0.0 0.0 
0.0 0.0 0.0 
0.0 0.0 0.0 
0.0 0.0 0.0 
0.0 0.0 0.0 
0.0 0.0 0.0 
0.0 0.0 0.0 
0.0 0.0 0.0 
0.0 0.0 0.0 
0.0 0.0 0.0 
0.0 0.0 0.0 
0.0 0.0 0.0 
0.0 0.0 0.0 
0.0 0.0 0.0 
0.0 0.0 0.0 
0.0 0.0 0.0 
0.0 0.0 0.0 
0.0 0.0 0.0 
0.0 0.0 0.0 
0.0 0.0 0.0 
0.0 0.0 0.0 
0.0 0.0 0.0 
0.0 0.0 0.0 
0.0 0.0 0.0 
0.0 0.0 0.0 
0.0 0.0 0.0 
0.0 0.0 0.0 
0.0 0.0 0.0 
0.0 0.0 0.0 
0.0 0.0 0.0 
0.0 0.0 0.0 
0.0 0.0 0.0 
0.0 0.0 0.0 
0.0 0.0 0.0 
0.0 0.0 0.0 
0.0 0.0 0.0 
0.0 0.0 0.0 
0.0 0.0 0.0 
0.0 0.0 0.0 
0.0 0.0 0.0 
0.0 0.0 0.0 
0.0 0.0 0.0 
0.0 0.0 0.0 
0.0 0.0 0.0 
0.0 0.0 0.0 
0.0 0.0 0.0 
0.0 0.0 0.0 
0.0 0.0 0.0 
0.0 0.0 0.0 
0.0 0.0 0.0 
0.0 0.0 0.0 
0.0 0.0 0.0 
0.0 0.0 0.0 
0.0 0.0 0.0 
0.0 0.0 0.0 
0.0 0.0 0.0 
0.0 0.0 0.0 
0.0 0.0 0.0 
0.0 0.0 0.0 
0.0 0.0 0.0 
0.0 0.0 0.0 
0.0 0.0 0.0 
0.0 0.0 0.0 
0.0 0.0 0.0 
0.0 0.0 0.0 
0.0 0.0 0.0 
0.0 0.0 0.0 
0.0 0.0 0.0 
0.0 0.0 0.0 
0.0 0.0 0.0 
0.0 0.0 0.0 
0.0 0.0 0.0 
0.0 0.0 0.0 
0.0 0.0 0.0 
0.0 0.0 0.0 
0.0 0.0 0.0 
0.0 0.0 0.0 
0.0 0.0 0.0 
0.0 0.0 0.0 
0.0 0.0 0.0 
0.0 0.0 0.0 
0.0 0.0 0.0 
0.0 0.0 0.0 
0.0 0.0 0.0 
0.0 0.0 0.0 
0.0 0.0 0.0 
0.0 0.0 0.0 
0.0 0.0 0.0 
0.0 0.0 0.0 
0.0 0.0 0.0 
0.0 0.0 0.0 
0.0 0.0 0.0 
0.0 0.0 0.0 
0.0 0.0 0.0 
0.0 0.0 0.0 
0.0 0.0 0.0 
0.0 0.0 0.0 
0.0 0.0 0.0 
0.0 0.0 0.0 
0.0 0.0 0.0 
0.0 0.0 0.0 
0.0 0.0 0.0 
0.0 0.0 0.0 
0.0 0.0 0.0 
0.0 0.0 0.0 
0.0 0.0 0.0 
0.0 0.0 0.0 
0.0 0.0 0.0 
0.0 0.0 0.0 
0.0 0.0 0.0 
0.0 0.0 0.0 
0.0 0.0 0.0 
0.0 0.0 0.0 
0.0 0.0 0.0 
0.0 0.0 0.0 
0.0 0.0 0.0 
0.0 0.0 0.0 
0.0 0.0 0.0 
0.0 0.0 0.0 
0.0 0.0 0.0 
0.0 0.0 0.0 
0.0 0.0 0.0 
0.0 0.0 0.0 
0.0 0.0 0.0 
0.0 0.0 0.0 
0.0 0.0 0.0 
0.0 0.0 0.0 
0.0 0.0 0.0 
0.0 0.0 0.0 
0.0 0.0 0.0 
0.0 0.0 0.0 
0.0 0.0 0.0 
0.0 0.0 0.0 
0.0 0.0 0.0 
0.0 0.0 0.0 
0.0 0.0 0.0 
0.0 0.0 0.0 
0.0 0.0 0.0 
0.0 0.0 0.0 
0.0 0.0 0.0 
0.0 0.0 0.0 
0.0 0.0 0.0 
0.0 0.0 0.0 
0.0 0.0 0.0 
0.0 0.0 0.0 
0.0 0.0 0.0 
0.0 0.0 0.0 
0.0 0.0 0.0 
0.0 0.0 0.0 
0.0 0.0 0.0 
0.0 0.0 0.0 
0.0 0.0 0.0 
0.0 0.0 0.0 
0.0 0.0 0.0 
0.0 0.0 0.0 
0.0 0.0 0.0 
0.0 0.0 0.0 
0.0 0.0 0.0 
0.0 0.0 0.0 
0.0 0.0 0.0 
0.0 0.0 0.0 
0.0 0.0 0.0 
0.0 0.0 0.0 
0.0 0.0 0.0 
0.0 0.0 0.0 
0.0 0.0 0.0 
0.0 0.0 0.0 
0.0 0.0 0.0 
0.0 0.0 0.0 
0.0 0.0 0.0 
0.0 0.0 0.0 
0.0 0.0 0.0 
0.0 0.0 0.0 
0.0 0.0 0.0 
0.0 0.0 0.0 
0.0 0.0 0.0 
0.0 0.0 0.0 
0.0 0.0 0.0 
0.0 0.0 0.0 
0.0 0.0 0.0 
0.0 0.0 0.0 
0.0 0.0 0.0 
0.0 0.0 0.0 
0.0 0.0 0.0 
0.0 0.0 0.0 
0.0 0.0 0.0 
0.0 0.0 0.0 
0.0 0.0 0.0 
0.0 0.0 0.0 
0.0 0.0 0.0 
0.0 0.0 0.0 
0.0 0.0 0.0 
0.0 0.0 0.0 
0.0 0.0 0.0 
0.0 0.0 0.0 
0.0 0.0 0.0 
0.0 0.0 0.0 
0.0 0.0 0.0 
0.0 0.0 0.0 
0.0 0.0 0.0 
0.0 0.0 0.0 
0.0 0.0 0.0 
0.0 0.0 0.0 
0.0 0.0 0.0 
0.0 0.0 0.0 
0.0 0.0 0.0 
0.0 0.0 0.0 
0.0 0.0 0.0 
0.0 0.0 0.0 
0.0 0.0 0.0 
0.0 0.0 0.0 
0.0 0.0 0.0 
0.0 0.0 0.0 
0.0 0.0 0.0 
0.0 0.0 0.0 
0.0 0.0 0.0 
0.0 0.0 0.0 
0.0 0.0 0.0 
0.0 0.0 0.0 
0.0 0.0 0.0 
0.0 0.0 0.0 
0.0 0.0 0.0 
0.0 0.0 0.0 
0.0 0.0 0.0 
0.0 0.0 0.0 
0.0 0.0 0.0 
0.0 0.0 0.0 
0.0 0.0 0.0 
0.0 0.0 0.0 
0.0 0.0 0.0 
0.0 0.0 0.0 
0.0 0.0 0.0 
0.0 0.0 0.0 
0.0 0.0 0.0 
0.0 0.0 0.0 
0.0 0.0 0.0 
0.0 0.0 0.0 
0.0 0.0 0.0 
0.0 0.0 0.0 
0.0 0.0 0.0 
0.0 0.0 0.0 
0.0 0.0 0.0 
0.0 0.0 0.0 
0.0 0.0 0.0 
0.0 0.0 0.0 
0.0 0.0 0.0 
0.0 0.0 0.0 
0.0 0.0 0.0 
0.0 0.0 0.0 
0.0 0.0 0.0 
0.0 0.0 0.0 
0.0 0.0 0.0 
0.0 0.0 0.0 
0.0 0.0 0.0 
0.0 0.0 0.0 
0.0 0.0 0.0 
0.0 0.0 0.0 
0.0 0.0 0.0 
0.0 0.0 0.0 
0.0 0.0 0.0 
0.0 0.0 0.0 
0.0 0.0 0.0 
0.0 0.0 0.0 
0.0 0.0 0.0 
0.0 0.0 0.0 
0.0 0.0 0.0 
0.0 0.0 0.0 
0.0 0.0 0.0 
0.0 0.0 0.0 
0.0 0.0 0.0 
0.0 0.0 0.0 
0.0 0.0 0.0 
0.0 0.0 0.0 
0.0 0.0 0.0 
0.0 0.0 0.0 
0.0 0.0 0.0 
0.0 0.0 0.0 
0.0 0.0 0.0 
0.0 0.0 0.0 
0.0 0.0 0.0 
0.0 0.0 0.0 
0.0 0.0 0.0 
0.0 0.0 0.0 
0.0 0.0 0.0 
0.0 0.0 0.0 
0.0 0.0 0.0 
0.0 0.0 0.0 
0.0 0.0 0.0 
0.0 0.0 0.0 
0.0 0.0 0.0 
0.0 0.0 0.0 
0.0 0.0 0.0 
0.0 0.0 0.0 
0.0 0.0 0.0 
0.0 0.0 0.0 
0.0 0.0 0.0 
0.0 0.0 0.0 
0.0 0.0 0.0 
0.0 0.0 0.0 
0.0 0.0 0.0 
0.0 0.0 0.0 
0.0 0.0 0.0 
0.0 0.0 0.0 
0.0 0.0 0.0 
0.0 0.0 0.0 
0.0 0.0 0.0 
0.0 0.0 0.0 
0.0 0.0 0.0 
0.0 0.0 0.0 
0.0 0.0 0.0 
0.0 0.0 0.0 
0.0 0.0 0.0 
0.0 0.0 0.0 
0.0 0.0 0.0 
0.0 0.0 0.0 
0.0 0.0 0.0 
0.0 0.0 0.0 
0.0 0.0 0.0 
0.0 0.0 0.0 
0.0 0.0 0.0 
0.0 0.0 0.0 
0.0 0.0 0.0 
0.0 0.0 0.0 
0.0 0.0 0.0 
0.0 0.0 0.0 
0.0 0.0 0.0 
0.0 0.0 0.0 
0.0 0.0 0.0 
0.0 0.0 0.0 
0.0 0.0 0.0 
0.0 0.0 0.0 
0.0 0.0 0.0 
0.0 0.0 0.0 
0.0 0.0 0.0 
0.0 0.0 0.0 
0.0 0.0 0.0 
0.0 0.0 0.0 
0.0 0.0 0.0 
0.0 0.0 0.0 
0.0 0.0 0.0 
0.0 0.0 0.0 
0.0 0.0 0.0 
0.0 0.0 0.0 
0.0 0.0 0.0 
0.0 0.0 0.0 
0.0 0.0 0.0 
0.0 0.0 0.0 
0.0 0.0 0.0 
0.0 0.0 0.0 
0.0 0.0 0.0 
0.0 0.0 0.0 
0.0 0.0 0.0 
0.0 0.0 0.0 
0.0 0.0 0.0 
0.0 0.0 0.0 
0.0 0.0 0.0 
0.0 0.0 0.0 
0.0 0.0 0.0 
0.0 0.0 0.0 
0.0 0.0 0.0 
0.0 0.0 0.0 
0.0 0.0 0.0 
0.0 0.0 0.0 
0.0 0.0 0.0 
0.0 0.0 0.0 
0.0 0.0 0.0 
0.0 0.0 0.0 
0.0 0.0 0.0 
0.0 0.0 0.0 
0.0 0.0 0.0 
0.0 0.0 0.0 
0.0 0.0 0.0 
0.0 0.0 0.0 
0.0 0.0 0.0 
0.0 0.0 0.0 
0.0 0.0 0.0 
0.0 0.0 0.0 
0.0 0.0 0.0 
0.0 0.0 0.0 
0.0 0.0 0.0 
0.0 0.0 0.0 
0.0 0.0 0.0 
0.0 0.0 0.0 
0.0 0.0 0.0 
0.0 0.0 0.0 
0.0 0.0 0.0 
0.0 0.0 0.0 
0.0 0.0 0.0 
0.0 0.0 0.0 
0.0 0.0 0.0 
0.0 0.0 0.0 
0.0 0.0 0.0 
0.0 0.0 0.0 
0.0 0.0 0.0 
0.0 0.0 0.0 
0.0 0.0 0.0 
0.0 0.0 0.0 
0.0 0.0 0.0 
0.0 0.0 0.0 
0.0 0.0 0.0 
0.0 0.0 0.0 
0.0 0.0 0.0 
0.0 0.0 0.0 
0.0 0.0 0.0 
0.0 0.0 0.0 
0.0 0.0 0.0 
0.0 0.0 0.0 
0.0 0.0 0.0 
0.0 0.0 0.0 
0.0 0.0 0.0 
0.0 0.0 0.0 
0.0 0.0 0.0 
0.0 0.0 0.0 
0.0 0.0 0.0 
0.0 0.0 0.0 
0.0 0.0 0.0 
0.0 0.0 0.0 
0.0 0.0 0.0 
0.0 0.0 0.0 
0.0 0.0 0.0 
0.0 0.0 0.0 
0.0 0.0 0.0 
0.0 0.0 0.0 
0.0 0.0 0.0 
0.0 0.0 0.0 
0.0 0.0 0.0 
0.0 0.0 0.0 
0.0 0.0 0.0 
0.0 0.0 0.0 
0.0 0.0 0.0 
0.0 0.0 0.0 
0.0 0.0 0.0 
0.0 0.0 0.0 
0.0 0.0 0.0 
0.0 0.0 0.0 
0.0 0.0 0.0 
0.0 0.0 0.0 
0.0 0.0 0.0 
0.0 0.0 0.0 
0.0 0.0 0.0 
0.0 0.0 0.0 
0.0 0.0 0.0 
0.0 0.0 0.0 
0.0 0.0 0.0 
0.0 0.0 0.0 
0.0 0.0 0.0 
0.0 0.0 0.0 
0.0 0.0 0.0 
0.0 0.0 0.0 
0.0 0.0 0.0 
0.0 0.0 0.0 
0.0 0.0 0.0 
0.0 0.0 0.0 
0.0 0.0 0.0 
0.0 0.0 0.0 
0.0 0.0 0.0 
0.0 0.0 0.0 
0.0 0.0 0.0 
0.0 0.0 0.0 
0.0 0.0 0.0 
0.0 0.0 0.0 
0.0 0.0 0.0 
0.0 0.0 0.0 
0.0 0.0 0.0 
0.0 0.0 0.0 
0.0 0.0 0.0 
0.0 0.0 0.0 
0.0 0.0 0.0 
0.0 0.0 0.0 
0.0 0.0 0.0 
0.0 0.0 0.0 
0.0 0.0 0.0 
0.0 0.0 0.0 
0.0 0.0 0.0 
0.0 0.0 0.0 
0.0 0.0 0.0 
0.0 0.0 0.0 
0.0 0.0 0.0 
0.0 0.0 0.0 
0.0 0.0 0.0 
0.0 0.0 0.0 
0.0 0.0 0.0 
0.0 0.0 0.0 
0.0 0.0 0.0 
0.0 0.0 0.0 
0.0 0.0 0.0 
0.0 0.0 0.0 
0.0 0.0 0.0 
0.0 0.0 0.0 
0.0 0.0 0.0 
0.0 0.0 0.0 
0.0 0.0 0.0 
0.0 0.0 0.0 
0.0 0.0 0.0 
0.0 0.0 0.0 
0.0 0.0 0.0 
0.0 0.0 0.0 
0.0 0.0 0.0 
0.0 0.0 0.0 
0.0 0.0 0.0 
0.0 0.0 0.0 
0.0 0.0 0.0 
0.0 0.0 0.0 
0.0 0.0 0.0 
0.0 0.0 0.0 
0.0 0.0 0.0 
0.0 0.0 0.0 
0.0 0.0 0.0 
0.0 0.0 0.0 
0.0 0.0 0.0 
0.0 0.0 0.0 
0.0 0.0 0.0 
0.0 0.0 0.0 
0.0 0.0 0.0 
0.0 0.0 0.0 
0.0 0.0 0.0 
0.0 0.0 0.0 
0.0 0.0 0.0 
0.0 0.0 0.0 
0.0 0.0 0.0 
0.0 0.0 0.0 
0.0 0.0 0.0 
0.0 0.0 0.0 
0.0 0.0 0.0 
0.0 0.0 0.0 
0.0 0.0 0.0 
0.0 0.0 0.0 
0.0 0.0 0.0 
0.0 0.0 0.0 
0.0 0.0 0.0 
0.0 0.0 0.0 
0.0 0.0 0.0 
0.0 0.0 0.0 
0.0 0.0 0.0 
0.0 0.0 0.0 
0.0 0.0 0.0 
0.0 0.0 0.0 
0.0 0.0 0.0 
0.0 0.0 0.0 
0.0 0.0 0.0 
0.0 0.0 0.0 
0.0 0.0 0.0 
0.0 0.0 0.0 
0.0 0.0 0.0 
0.0 0.0 0.0 
0.0 0.0 0.0 
0.0 0.0 0.0 
0.0 0.0 0.0 
0.0 0.0 0.0 
0.0 0.0 0.0 
0.0 0.0 0.0 
0.0 0.0 0.0 
0.0 0.0 0.0 
0.0 0.0 0.0 
0.0 0.0 0.0 
0.0 0.0 0.0 
0.0 0.0 0.0 
0.0 0.0 0.0 
0.0 0.0 0.0 
0.0 0.0 0.0 
0.0 0.0 0.0 
0.0 0.0 0.0 
0.0 0.0 0.0 
0.0 0.0 0.0 
0.0 0.0 0.0 
0.0 0.0 0.0 
0.0 0.0 0.0 
0.0 0.0 0.0 
0.0 0.0 0.0 
0.0 0.0 0.0 
0.0 0.0 0.0 
0.0 0.0 0.0 
0.0 0.0 0.0 
0.0 0.0 0.0 
0.0 0.0 0.0 
0.0 0.0 0.0 
0.0 0.0 0.0 
0.0 0.0 0.0 
0.0 0.0 0.0 
0.0 0.0 0.0 
0.0 0.0 0.0 
0.0 0.0 0.0 
0.0 0.0 0.0 
0.0 0.0 0.0 
0.0 0.0 0.0 
0.0 0.0 0.0 
0.0 0.0 0.0 
0.0 0.0 0.0 
0.0 0.0 0.0 
0.0 0.0 0.0 
0.0 0.0 0.0 
0.0 0.0 0.0 
0.0 0.0 0.0 
0.0 0.0 0.0 
0.0 0.0 0.0 
0.0 0.0 0.0 
0.0 0.0 0.0 
0.0 0.0 0.0 
0.0 0.0 0.0 
0.0 0.0 0.0 
0.0 0.0 0.0 
0.0 0.0 0.0 
0.0 0.0 0.0 
0.0 0.0 0.0 
0.0 0.0 0.0 
0.0 0.0 0.0 
0.0 0.0 0.0 
0.0 0.0 0.0 
0.0 0.0 0.0 
0.0 0.0 0.0 
0.0 0.0 0.0 
0.0 0.0 0.0 
0.0 0.0 0.0 
0.0 0.0 0.0 
0.0 0.0 0.0 
0.0 0.0 0.0 
0.0 0.0 0.0 
0.0 0.0 0.0 
0.0 0.0 0.0 
0.0 0.0 0.0 
0.0 0.0 0.0 
0.0 0.0 0.0 
0.0 0.0 0.0 
0.0 0.0 0.0 
0.0 0.0 0.0 
0.0 0.0 0.0 
0.0 0.0 0.0 
0.0 0.0 0.0 
0.0 0.0 0.0 
0.0 0.0 0.0 
0.0 0.0 0.0 
0.0 0.0 0.0 
0.0 0.0 0.0 
0.0 0.0 0.0 
0.0 0.0 0.0 
0.0 0.0 0.0 
0.0 0.0 0.0 
0.0 0.0 0.0 
0.0 0.0 0.0 
0.0 0.0 0.0 
0.0 0.0 0.0 
0.0 0.0 0.0 
0.0 0.0 0.0 
0.0 0.0 0.0 
0.0 0.0 0.0 
0.0 0.0 0.0 
0.0 0.0 0.0 
0.0 0.0 0.0 
0.0 0.0 0.0 
0.0 0.0 0.0 
0.0 0.0 0.0 
0.0 0.0 0.0 
0.0 0.0 0.0 
0.0 0.0 0.0 
0.0 0.0 0.0 
0.0 0.0 0.0 
0.0 0.0 0.0 
0.0 0.0 0.0 
0.0 0.0 0.0 
0.0 0.0 0.0 
0.0 0.0 0.0 
0.0 0.0 0.0 
0.0 0.0 0.0 
0.0 0.0 0.0 
0.0 0.0 0.0 
0.0 0.0 0.0 
0.0 0.0 0.0 
0.0 0.0 0.0 
0.0 0.0 0.0 
0.0 0.0 0.0 
0.0 0.0 0.0 
0.0 0.0 0.0 
0.0 0.0 0.0 
0.0 0.0 0.0 
0.0 0.0 0.0 
0.0 0.0 0.0 
0.0 0.0 0.0 
0.0 0.0 0.0 
0.0 0.0 0.0 
0.0 0.0 0.0 
0.0 0.0 0.0 
0.0 0.0 0.0 
0.0 0.0 0.0 
0.0 0.0 0.0 
0.0 0.0 0.0 
0.0 0.0 0.0 
0.0 0.0 0.0 
0.0 0.0 0.0 
0.0 0.0 0.0 
0.0 0.0 0.0 
0.0 0.0 0.0 
0.0 0.0 0.0 
0.0 0.0 0.0 
0.0 0.0 0.0 
0.0 0.0 0.0 
0.0 0.0 0.0 
0.0 0.0 0.0 
0.0 0.0 0.0 
0.0 0.0 0.0 
0.0 0.0 0.0 
0.0 0.0 0.0 
0.0 0.0 0.0 
0.0 0.0 0.0 
0.0 0.0 0.0 
0.0 0.0 0.0 
0.0 0.0 0.0 
0.0 0.0 0.0 
0.0 0.0 0.0 
0.0 0.0 0.0 
0.0 0.0 0.0 
0.0 0.0 0.0 
0.0 0.0 0.0 
0.0 0.0 0.0 
0.0 0.0 0.0 
0.0 0.0 0.0 
0.0 0.0 0.0 
0.0 0.0 0.0 
0.0 0.0 0.0 
0.0 0.0 0.0 
0.0 0.0 0.0 
0.0 0.0 0.0 
0.0 0.0 0.0 
0.0 0.0 0.0 
0.0 0.0 0.0 
0.0 0.0 0.0 
0.0 0.0 0.0 
0.0 0.0 0.0 
0.0 0.0 0.0 
0.0 0.0 0.0 
0.0 0.0 0.0 
0.0 0.0 0.0 
0.0 0.0 0.0 
0.0 0.0 0.0 
0.0 0.0 0.0 
0.0 0.0 0.0 
0.0 0.0 0.0 
0.0 0.0 0.0 
0.0 0.0 0.0 
0.0 0.0 0.0 
0.0 0.0 0.0 
0.0 0.0 0.0 
0.0 0.0 0.0 
0.0 0.0 0.0 
0.0 0.0 0.0 
0.0 0.0 0.0 
0.0 0.0 0.0 
0.0 0.0 0.0 

TENSORS element_materi_stress float
-5.332238794444e+01 1.060929532496e+01 0.0 
1.060929532496e+01 -8.754983412755e+01 0.0 
0.0 0.0 -3.792170668646e+01 
-5.570797139093e+01 1.388258204711e+01 0.0 
1.388258204711e+01 -8.566473463339e+01 0.0 
0.0 0.0 -3.946786218272e+01 
-1.469052874903e+02 1.044026444755e+01 0.0 
1.044026444755e+01 -3.400272702739e+02 0.0 
0.0 0.0 -1.456797673293e+02 
-1.411355253066e+02 2.022556010389e+00 0.0 
2.022556010389e+00 -3.251540108926e+02 0.0 
0.0 0.0 -1.394868608598e+02 
-8.914497568216e+01 7.370478202961e-01 0.0 
7.370478202961e-01 -1.877049762577e+02 0.0 
0.0 0.0 -8.265498558197e+01 
-3.608208583076e+01 2.898207361987e+01 0.0 
2.898207361987e+01 -9.504784093485e+01 0.0 
0.0 0.0 -4.012327050374e+01 
-8.868421292875e+01 4.619694481120e-02 0.0 
4.619694481120e-02 -1.876699286862e+02 0.0 
0.0 0.0 -8.250624248448e+01 
-5.484706659517e+01 1.470314520735e+01 0.0 
1.470314520735e+01 -8.467336522183e+01 0.0 
0.0 0.0 -3.802825478284e+01 
-8.938440343198e+01 2.472753938131e+00 0.0 
2.472753938131e+00 -1.883386496139e+02 0.0 
0.0 0.0 -8.291691591378e+01 
-1.405197456078e+02 1.187713433746e+00 0.0 
1.187713433746e+00 -3.236360676407e+02 0.0 
0.0 0.0 -1.388467439745e+02 
-1.179676760345e+02 -1.323316369287e+00 0.0 
-1.323316369287e+00 -2.587419290673e+02 0.0 
0.0 0.0 -1.098329667084e+02 
-4.656515027216e+01 1.263283092178e+01 0.0 
1.263283092178e+01 -6.824638157438e+01 0.0 
0.0 0.0 -3.160425190800e+01 
-1.583095280898e+02 -7.088637801328e-01 0.0 
-7.088637801328e-01 -3.721939056240e+02 0.0 
0.0 0.0 -1.587510301141e+02 
-9.771930239959e+01 2.924960459382e+00 0.0 
2.924960459382e+00 -2.061011227134e+02 0.0 
0.0 0.0 -9.074612753389e+01 
-1.620558290837e+02 1.056898669626e+00 0.0 
1.056898669626e+00 -3.804248254833e+02 0.0 
0.0 0.0 -1.623441963701e+02 
-1.435269923711e+02 8.702016936629e-01 0.0 
8.702016936629e-01 -3.332959447333e+02 0.0 
0.0 0.0 -1.426468811313e+02 
-8.859091752200e+01 2.324962627991e+00 0.0 
2.324962627991e+00 -1.840522085038e+02 0.0 
0.0 0.0 -8.139293780774e+01 
-2.814346835787e+01 1.914375417835e+01 0.0 
1.914375417835e+01 -1.114690819977e+02 0.0 
0.0 0.0 -4.422312189293e+01 
-2.381420082655e+01 -1.807116291896e-01 0.0 
-1.807116291896e-01 -7.687930576242e+01 0.0 
0.0 0.0 -2.980805197669e+01 
-3.423229350898e+01 -1.701865682507e+00 0.0 
-1.701865682507e+00 -7.963378974217e+01 0.0 
0.0 0.0 -3.157971501074e+01 
-1.414496860308e+02 3.176661158289e+00 0.0 
3.176661158289e+00 -3.245088264584e+02 0.0 
0.0 0.0 -1.393875537468e+02 
-5.985939587298e+01 8.448138722071e+00 0.0 
8.448138722071e+00 -1.004527986721e+02 0.0 
0.0 0.0 -4.334983725929e+01 
-6.626355734975e+01 1.017196554293e+01 0.0 
1.017196554293e+01 -1.123433600314e+02 0.0 
0.0 0.0 -4.839384840477e+01 
-1.472847525465e+02 6.818564038277e+00 0.0 
6.818564038277e+00 -3.562374940103e+02 0.0 
0.0 0.0 -1.506566739670e+02 
-1.053836626215e+02 4.249227263804e+00 0.0 
4.249227263804e+00 -2.250351708572e+02 0.0 
0.0 0.0 -9.872565004361e+01 
-1.226659139776e+02 -1.952392007926e-01 0.0 
-1.952392007926e-01 -2.726400956983e+02 0.0 
0.0 0.0 -1.157605176071e+02 
-8.399990863437e+01 4.311618099889e+00 0.0 
4.311618099889e+00 -1.691365554371e+02 0.0 
0.0 0.0 -7.554093922143e+01 
-1.514117359718e+02 1.248136897751e+01 0.0 
1.248136897751e+01 -3.568128463371e+02 0.0 
0.0 0.0 -1.520673746927e+02 
-1.063696828297e+02 6.600759615670e+00 0.0 
6.600759615670e+00 -2.257453724843e+02 0.0 
0.0 0.0 -9.923451659421e+01 
-1.512087714623e+02 5.304946553905e+00 0.0 
5.304946553905e+00 -3.646156937927e+02 0.0 
0.0 0.0 -1.543473395765e+02 
-4.064010168203e+01 -2.166903368627e+01 0.0 
-2.166903368627e+01 -9.928563273141e+01 0.0 
0.0 0.0 -3.840136974632e+01 
-1.495435999735e+01 6.662633987897e-01 0.0 
6.662633987897e-01 -2.483742765583e+01 0.0 
0.0 0.0 -1.153753629595e+01 
-1.475967825975e+02 1.024253394415e+01 0.0 
1.024253394415e+01 -3.404827735305e+02 0.0 
0.0 0.0 -1.460238668384e+02 
-1.361613413269e+02 7.319500234409e-01 0.0 
7.319500234409e-01 -3.220743712607e+02 0.0 
0.0 0.0 -1.370707137763e+02 
-1.568658711530e+02 3.307506748126e+00 0.0 
3.307506748126e+00 -3.725471636160e+02 0.0 
0.0 0.0 -1.584239104307e+02 
-1.654064932681e+02 -2.879193134242e-01 0.0 
-2.879193134242e-01 -3.896528682333e+02 0.0 
0.0 0.0 -1.661178084504e+02 
-1.656210363980e+02 2.730050624076e+00 0.0 
2.730050624076e+00 -3.894786661711e+02 0.0 
0.0 0.0 -1.661299107707e+02 
-1.528473755605e+02 9.055110885415e+00 0.0 
9.055110885415e+00 -3.641999749116e+02 0.0 
0.0 0.0 -1.547142051416e+02 
-8.085289533707e+01 1.897008262345e+00 0.0 
1.897008262345e+00 -1.686555357258e+02 0.0 
0.0 0.0 -7.445252931887e+01 
-8.064313784304e+01 -9.005382463294e-01 0.0 
-9.005382463294e-01 -1.692235532132e+02 0.0 
0.0 0.0 -7.456000731686e+01 
-7.418758218911e+01 8.077896017433e+00 0.0 
8.077896017433e+00 -1.319493624560e+02 0.0 
0.0 0.0 -5.697122082520e+01 
-1.593187921404e+02 3.691802344449e+00 0.0 
3.691802344449e+00 -3.771684003141e+02 0.0 
0.0 0.0 -1.605461577364e+02 
-4.299916509348e+01 1.551087425343e+01 0.0 
1.551087425343e+01 -5.867691722801e+01 0.0 
0.0 0.0 -2.730736060957e+01 
-8.547327394827e+01 4.045663571128e+00 0.0 
4.045663571128e+00 -1.700279785286e+02 0.0 
0.0 0.0 -7.593980593648e+01 
-1.370985623836e+02 8.794712374258e-01 0.0 
8.794712374258e-01 -3.137772863498e+02 0.0 
0.0 0.0 -1.348627546200e+02 
-4.780770110518e+01 1.922328787623e+01 0.0 
1.922328787623e+01 -6.051031823720e+01 0.0 
0.0 0.0 -2.901324857149e+01 
-3.722796563481e+01 -2.399674862493e+01 0.0 
-2.399674862493e+01 -9.545191427722e+01 0.0 
0.0 0.0 -3.897251627569e+01 
-1.370173235928e+02 4.766486820311e-01 0.0 
4.766486820311e-01 -3.152762058796e+02 0.0 
0.0 0.0 -1.352880588417e+02 
-3.441164333134e+01 -2.610498080216e+01 0.0 
-2.610498080216e+01 -5.772777645346e+01 0.0 
0.0 0.0 -2.798060668593e+01 
-9.502842624082e+01 4.039363048371e+00 0.0 
4.039363048371e+00 -1.972227614230e+02 0.0 
0.0 0.0 -8.727535629916e+01 
-7.039059881756e+01 8.997611714301e+00 0.0 
8.997611714301e+00 -1.225549808225e+02 0.0 
0.0 0.0 -5.170017130380e+01 
-3.808473036259e+01 -4.030800305987e-01 0.0 
-4.030800305987e-01 -9.690653381905e+01 0.0 
0.0 0.0 -3.903671811102e+01 
-4.599758339581e+01 -1.534425446889e+01 0.0 
-1.534425446889e+01 -1.266239775594e+02 0.0 
0.0 0.0 -4.726830573482e+01 
-6.861256867288e+01 6.160119247229e+00 0.0 
6.160119247229e+00 -1.207932407305e+02 0.0 
0.0 0.0 -5.167143103549e+01 
-1.458188003217e+02 8.458659246615e+00 0.0 
8.458659246615e+00 -3.370593592815e+02 0.0 
0.0 0.0 -1.444634478810e+02 
-6.291622833786e+01 -1.589419527805e+00 0.0 
-1.589419527805e+00 -1.296900815948e+02 0.0 
0.0 0.0 -5.345717709805e+01 
-4.873885768064e+01 -1.972951701140e+00 0.0 
-1.972951701140e+00 -1.002715435055e+02 0.0 
0.0 0.0 -4.091780249402e+01 
-1.358123688351e+02 -8.387746764244e-01 0.0 
-8.387746764244e-01 -3.219866404507e+02 0.0 
0.0 0.0 -1.369397027857e+02 
-2.016714258206e+01 -3.451194087458e-01 0.0 
-3.451194087458e-01 -5.911685752215e+01 0.0 
0.0 0.0 -2.198664217128e+01 
-1.439506979805e+02 2.657086042605e+00 0.0 
2.657086042605e+00 -3.335138581365e+02 0.0 
0.0 0.0 -1.428393668351e+02 
-5.825947542012e+01 -2.451461086029e+01 0.0 
-2.451461086029e+01 -9.408574733186e+01 0.0 
0.0 0.0 -4.673346710878e+01 
-1.436451523485e+02 1.032648365958e+01 0.0 
1.032648365958e+01 -3.425924591638e+02 0.0 
0.0 0.0 -1.454712834537e+02 
-7.158920736945e+01 1.758709430000e+01 0.0 
1.758709430000e+01 -1.342083120892e+02 0.0 
0.0 0.0 -5.943252459211e+01 
-4.028586082355e+01 -1.636708789150e+01 0.0 
-1.636708789150e+01 -1.127205046588e+02 0.0 
0.0 0.0 -3.891824051337e+01 
-1.580972913902e+02 1.172365514254e+00 0.0 
1.172365514254e+00 -3.720717219357e+02 0.0 
0.0 0.0 -1.586507039978e+02 
-6.434545414741e+01 7.096741047666e+00 0.0 
7.096741047666e+00 -1.103793850617e+02 0.0 
0.0 0.0 -4.684329861788e+01 
-4.390476741720e+01 -8.120657546321e+00 0.0 
-8.120657546321e+00 -1.196138498769e+02 0.0 
0.0 0.0 -5.029047207089e+01 
-1.484161760721e+02 1.126162296540e+01 0.0 
1.126162296540e+01 -3.416115814346e+02 0.0 
0.0 0.0 -1.466083272520e+02 
-4.267791190150e+01 -1.011185372384e+01 0.0 
-1.011185372384e+01 -7.132375093107e+01 0.0 
0.0 0.0 -2.859782066961e+01 
-1.496463305107e+02 1.194035267937e+01 0.0 
1.194035267937e+01 -3.488936610959e+02 0.0 
0.0 0.0 -1.491619974820e+02 
-1.253430042378e+02 -1.860073685056e-01 0.0 
-1.860073685056e-01 -2.836680164611e+02 0.0 
0.0 0.0 -1.204369440291e+02 
-1.492283643508e+02 5.945682939252e+00 0.0 
5.945682939252e+00 -3.495328501518e+02 0.0 
0.0 0.0 -1.492283643508e+02 
-1.453676832614e+02 1.178401221051e+01 0.0 
1.178401221051e+01 -3.422450948748e+02 0.0 
0.0 0.0 -1.458838334409e+02 
-1.210987687887e+01 -6.193612833743e-01 0.0 
-6.193612833743e-01 -2.981876336056e+01 0.0 
0.0 0.0 -9.803403873636e+00 
-6.944536642918e+01 -3.029754198421e+00 0.0 
-3.029754198421e+00 -1.346880260950e+02 0.0 
0.0 0.0 -5.583104414596e+01 
-1.431623967553e+02 5.327131949549e+00 0.0 
5.327131949549e+00 -3.286496767460e+02 0.0 
0.0 0.0 -1.411436220504e+02 
-1.472832278649e+02 9.038334155847e+00 0.0 
9.038334155847e+00 -3.384029446420e+02 0.0 
0.0 0.0 -1.453058517521e+02 
-4.460222145889e+01 2.565443967234e+01 0.0 
2.565443967234e+01 -5.117743807858e+01 0.0 
0.0 0.0 -2.467428813430e+01 
-2.156578019608e+01 -2.337475998492e+00 0.0 
-2.337475998492e+00 -5.868307962093e+01 0.0 
0.0 0.0 -2.216254040971e+01 
-4.117734470072e+01 2.114177562435e+01 0.0 
2.114177562435e+01 -5.010953337646e+01 0.0 
0.0 0.0 -2.307931836574e+01 
-4.412372215319e+01 -1.333572544418e+01 0.0 
-1.333572544418e+01 -7.219487807759e+01 0.0 
0.0 0.0 -2.933503109217e+01 
-8.806920736246e+01 1.958287572629e+00 0.0 
1.958287572629e+00 -1.833206669222e+02 0.0 
0.0 0.0 -8.101696228539e+01 
-6.247206730181e+01 1.158187513353e+01 0.0 
1.158187513353e+01 -1.030619856798e+02 0.0 
0.0 0.0 -4.518091440088e+01 
-5.472398740422e+01 1.011427196893e+01 0.0 
1.011427196893e+01 -8.810942816147e+01 0.0 
0.0 0.0 -3.956879360442e+01 
-9.380605084988e+01 2.755275169032e+00 0.0 
2.755275169032e+00 -1.988297556964e+02 0.0 
0.0 0.0 -8.739074196387e+01 
-9.306274180588e+01 6.794780686431e-01 0.0 
6.794780686431e-01 -1.984810517785e+02 0.0 
0.0 0.0 -8.706313807532e+01 
-1.275570844659e+02 3.188277122545e-01 0.0 
3.188277122545e-01 -2.919794293255e+02 0.0 
0.0 0.0 -1.240536103611e+02 
-1.325018442010e+02 -8.354512888026e-01 0.0 
-8.354512888026e-01 -3.135468154276e+02 0.0 
0.0 0.0 -1.333961315291e+02 
-1.279269793878e+02 1.101860442241e+01 0.0 
1.101860442241e+01 -2.870464069619e+02 0.0 
0.0 0.0 -1.240920159049e+02 
-8.957381621636e+01 3.055056365480e+00 0.0 
3.055056365480e+00 -1.871436840575e+02 0.0 
0.0 0.0 -8.261525008215e+01 
-1.808139701540e+01 -2.620631235222e+00 0.0 
-2.620631235222e+00 -2.662662462407e+01 0.0 
0.0 0.0 -1.239027820799e+01 
-9.125700708481e+01 4.750953546407e+00 0.0 
4.750953546407e+00 -1.873545919464e+02 0.0 
0.0 0.0 -8.318347970935e+01 
-1.188741814356e+02 1.085748052311e+00 0.0 
1.085748052311e+00 -2.666973424432e+02 0.0 
0.0 0.0 -1.152714571636e+02 
-1.182352886595e+02 4.068470464258e-01 0.0 
4.068470464258e-01 -2.632914493520e+02 0.0 
0.0 0.0 -1.140580214034e+02 
-1.514098142178e+02 6.529453081841e+00 0.0 
6.529453081841e+00 -3.508990255398e+02 0.0 
0.0 0.0 -1.502926519273e+02 
-1.576336343571e+02 1.105438249565e+01 0.0 
1.105438249565e+01 -3.721746466104e+02 0.0 
0.0 0.0 -1.585424842902e+02 
-8.866696559986e+01 2.931533953368e+00 0.0 
2.931533953368e+00 -1.832055264108e+02 0.0 
0.0 0.0 -8.116174760319e+01 
-1.573512701191e+02 3.458911748086e+00 0.0 
3.458911748086e+00 -3.765826377888e+02 0.0 
0.0 0.0 -1.597801723724e+02 
-1.000984540594e+02 8.533857735668e-01 0.0 
8.533857735668e-01 -2.177687830072e+02 0.0 
0.0 0.0 -9.496017111999e+01 
-6.878701156383e+01 1.625241179150e+01 0.0 
1.625241179150e+01 -1.226639328776e+02 0.0 
0.0 0.0 -5.351946871624e+01 
-8.586420655014e+01 2.139162351075e+00 0.0 
2.139162351075e+00 -1.783901683943e+02 0.0 
0.0 0.0 -7.887631248332e+01 
-1.616880205327e+02 -4.259782356138e-01 0.0 
-4.259782356138e-01 -3.801349850159e+02 0.0 
0.0 0.0 -1.621469016646e+02 
-1.203926569601e+02 1.153777325369e+01 0.0 
1.153777325369e+01 -2.966917981489e+02 0.0 
0.0 0.0 -1.247253365327e+02 
-1.441402919623e+02 1.203256552755e+01 0.0 
1.203256552755e+01 -3.431907861618e+02 0.0 
0.0 0.0 -1.457993234372e+02 
-6.108629138780e+01 2.335552615156e+01 0.0 
2.335552615156e+01 -1.210312504339e+02 0.0 
0.0 0.0 -5.181154881931e+01 
-4.955139874317e+01 -2.884009394541e+01 0.0 
-2.884009394541e+01 -7.820330812470e+01 0.0 
0.0 0.0 -3.607897118211e+01 
-1.492314400375e+02 9.357664096316e-01 0.0 
9.357664096316e-01 -3.518054166799e+02 0.0 
0.0 0.0 -1.499110570152e+02 
-1.254577528737e+02 6.708660613202e-01 0.0 
6.708660613202e-01 -2.824582777781e+02 0.0 
0.0 0.0 -1.219748091955e+02 
-5.129223806382e+01 -3.674855054601e+01 0.0 
-3.674855054601e+01 -7.197855582951e+01 0.0 
0.0 0.0 -3.813843553998e+01 
-1.612281129649e+02 1.207856428607e+00 0.0 
1.207856428607e+00 -3.783822601923e+02 0.0 
0.0 0.0 -1.614831119471e+02 
-1.228762563761e+02 9.361592411229e+00 0.0 
9.361592411229e+00 -2.759053094427e+02 0.0 
0.0 0.0 -1.192344697457e+02 
-1.224163044573e+01 1.201653567934e-01 0.0 
1.201653567934e-01 -2.150595306478e+01 0.0 
0.0 0.0 -7.958790216297e+00 
-7.914563828639e+01 2.035177019494e+01 0.0 
2.035177019494e+01 -1.750745422964e+02 0.0 
0.0 0.0 -7.675007981180e+01 
-8.721960299185e+01 6.612760736954e+00 0.0 
6.612760736954e+00 -1.695089676714e+02 0.0 
0.0 0.0 -7.547824518693e+01 
-8.488220056851e+01 -3.125941707972e+00 0.0 
-3.125941707972e+00 -1.656986225195e+02 0.0 
0.0 0.0 -6.905082258671e+01 
-6.335459526748e+01 1.753394828206e+01 0.0 
1.753394828206e+01 -1.111687592581e+02 0.0 
0.0 0.0 -5.035863265887e+01 
-7.095372694204e+01 1.849978103138e+01 0.0 
1.849978103138e+01 -1.341985543813e+02 0.0 
0.0 0.0 -5.867824817947e+01 
-1.600628779931e+02 1.768937402092e+00 0.0 
1.768937402092e+00 -3.789957086752e+02 0.0 
0.0 0.0 -1.613175760005e+02 
-9.768962529939e+01 -4.225372896109e-01 0.0 
-4.225372896109e-01 -2.111735012327e+02 0.0 
0.0 0.0 -9.225893795962e+01 
-6.709514144989e+01 2.028707954475e+01 0.0 
2.028707954475e+01 -1.270336836962e+02 0.0 
0.0 0.0 -5.633808047814e+01 
-3.420106461965e+01 -4.697784131919e+00 0.0 
-4.697784131919e+00 -6.290298600313e+01 0.0 
0.0 0.0 -2.414701467092e+01 
-9.159777278068e+01 4.731306086947e+00 0.0 
4.731306086947e+00 -1.871732638131e+02 0.0 
0.0 0.0 -8.323131097813e+01 
-1.257199294358e+02 1.126227304481e+00 0.0 
1.126227304481e+00 -2.839232407121e+02 0.0 
0.0 0.0 -1.224929510444e+02 
-6.603380573425e+01 2.082792215695e+01 0.0 
2.082792215695e+01 -1.266032761621e+02 0.0 
0.0 0.0 -5.541651784257e+01 
-4.408726833619e+01 3.268785675716e+01 0.0 
3.268785675716e+01 -5.471027267719e+01 0.0 
0.0 0.0 -2.688284183735e+01 
-8.130284341971e+01 7.091860514912e+00 0.0 
7.091860514912e+00 -1.509595313085e+02 0.0 
0.0 0.0 -6.663478165100e+01 
-8.140063630202e+01 -3.486643218135e+00 0.0 
-3.486643218135e+00 -1.634053179469e+02 0.0 
0.0 0.0 -6.793772554870e+01 
-7.600167610953e+01 5.028504054848e+00 0.0 
5.028504054848e+00 -1.403031005557e+02 0.0 
0.0 0.0 -6.157250536149e+01 
-1.453125404891e+02 4.442455086042e+00 0.0 
4.442455086042e+00 -3.368441276010e+02 0.0 
0.0 0.0 -1.442470004270e+02 
-4.403404733713e+01 3.148288791122e+01 0.0 
3.148288791122e+01 -7.772697356301e+01 0.0 
0.0 0.0 -3.156194156878e+01 
-1.207307576725e+02 -1.571858412810e+00 0.0 
-1.571858412810e+00 -2.713118788646e+02 0.0 
0.0 0.0 -1.151320170334e+02 
-1.407699256752e+02 2.659481135630e-01 0.0 
2.659481135630e-01 -3.250720645158e+02 0.0 
0.0 0.0 -1.393525970573e+02 
-8.495684862351e+01 1.139397652453e+01 0.0 
1.139397652453e+01 -1.615319236301e+02 0.0 
0.0 0.0 -6.897667973435e+01 
-7.801842719227e+01 7.510694700679e+00 0.0 
7.510694700679e+00 -1.417721156540e+02 0.0 
0.0 0.0 -6.206026911248e+01 
-1.560356709213e+02 1.665433578950e+00 0.0 
1.665433578950e+00 -3.722385764855e+02 0.0 
0.0 0.0 -1.580822742220e+02 
-1.586569484135e+02 1.227908009403e+00 0.0 
1.227908009403e+00 -3.728702835994e+02 0.0 
0.0 0.0 -1.590581696039e+02 
-1.262248891550e+02 -1.203522246020e+00 0.0 
-1.203522246020e+00 -2.918951894047e+02 0.0 
0.0 0.0 -1.239306014749e+02 
-8.781165409405e+01 1.193079907629e+01 0.0 
1.193079907629e+01 -1.712542349593e+02 0.0 
0.0 0.0 -7.353123414841e+01 
-1.569061462564e+02 5.471335556240e+00 0.0 
5.471335556240e+00 -3.763335470467e+02 0.0 
0.0 0.0 -1.595719079909e+02 
-8.125391006026e+01 9.385416113894e+00 0.0 
9.385416113894e+00 -1.508279314531e+02 0.0 
0.0 0.0 -6.413429183275e+01 
-1.433436268210e+02 3.602820147190e+00 0.0 
3.602820147190e+00 -3.313671144450e+02 0.0 
0.0 0.0 -1.420132223798e+02 
-1.499364469043e+02 1.200422991639e+01 0.0 
1.200422991639e+01 -3.488398788229e+02 0.0 
0.0 0.0 -1.492328977182e+02 
-9.803448661147e+01 5.077331414860e+00 0.0 
5.077331414860e+00 -2.056195298730e+02 0.0 
0.0 0.0 -9.069620494535e+01 
-1.101479115426e+02 4.567375440553e-01 0.0 
4.567375440553e-01 -2.423826605289e+02 0.0 
0.0 0.0 -1.053591716215e+02 
-8.106549940073e+01 1.158768919099e+01 0.0 
1.158768919099e+01 -1.509932118529e+02 0.0 
0.0 0.0 -6.418915945604e+01 
-7.273517582062e+01 5.450984604009e+00 0.0 
5.450984604009e+00 -1.310508949338e+02 0.0 
0.0 0.0 -5.688366525888e+01 
-9.163329699180e+01 1.178365331088e+01 0.0 
1.178365331088e+01 -1.816474958993e+02 0.0 
0.0 0.0 -7.725563705323e+01 
-6.690212067847e+01 2.201936458427e+01 0.0 
2.201936458427e+01 -1.417626663104e+02 0.0 
0.0 0.0 -6.016285330693e+01 
-8.620669282424e+01 1.760500033507e+00 0.0 
1.760500033507e+00 -1.810131493512e+02 0.0 
0.0 0.0 -7.976595265263e+01 
-7.413160790662e+01 1.944714117861e+01 0.0 
1.944714117861e+01 -1.717353153887e+02 0.0 
0.0 0.0 -7.268516571051e+01 
-1.340220924675e+01 -1.622713335981e-01 0.0 
-1.622713335981e-01 -2.571420044138e+01 0.0 
0.0 0.0 -1.052023270344e+01 
-9.128604272916e+01 3.269949206798e-01 0.0 
3.269949206798e-01 -1.958242777825e+02 0.0 
0.0 0.0 -8.573309615351e+01 
-1.856410680378e+01 -8.261228417720e-01 0.0 
-8.261228417720e-01 -5.967417595400e+01 0.0 
0.0 0.0 -2.242697897140e+01 
-8.429143787323e+01 6.856090218224e+00 0.0 
6.856090218224e+00 -1.603774490617e+02 0.0 
0.0 0.0 -7.113530393391e+01 
-1.591671179706e+02 5.188141010926e+00 0.0 
5.188141010926e+00 -3.771679212664e+02 0.0 
0.0 0.0 -1.605005117711e+02 
-6.349049614172e+01 2.264205027022e+01 0.0 
2.264205027022e+01 -1.218207586899e+02 0.0 
0.0 0.0 -5.378985540307e+01 
-1.293490250844e+02 -1.022916328914e+00 0.0 
-1.022916328914e+00 -3.021730332569e+02 0.0 
0.0 0.0 -1.284367552525e+02 
-4.999828731792e+01 1.684106479094e+01 0.0 
1.684106479094e+01 -6.778086438893e+01 0.0 
0.0 0.0 -3.208973856656e+01 
-1.208947101062e+02 9.861902903626e+00 0.0 
9.861902903626e+00 -2.966894851862e+02 0.0 
0.0 0.0 -1.248752585877e+02 
-8.558595563189e+01 4.429495144077e-01 0.0 
4.429495144077e-01 -1.822678548930e+02 0.0 
0.0 0.0 -7.995614315746e+01 
-7.444093496886e+01 2.134392797913e+01 0.0 
2.134392797913e+01 -1.693949122033e+02 0.0 
0.0 0.0 -7.257683385125e+01 
-1.402527024051e+02 9.204895117136e-01 0.0 
9.204895117136e-01 -3.317844816772e+02 0.0 
0.0 0.0 -1.412111552247e+02 
-3.915712259817e+01 -9.097524529818e+00 0.0 
-9.097524529818e+00 -6.398686495416e+01 0.0 
0.0 0.0 -2.741841063033e+01 
-1.490099412218e+02 -7.600854736062e-01 0.0 
-7.600854736062e-01 -3.514546761202e+02 0.0 
0.0 0.0 -1.497393852026e+02 
-9.307054605362e+01 6.900135073677e+00 0.0 
6.900135073677e+00 -1.879809848084e+02 0.0 
0.0 0.0 -8.273815628469e+01 
-1.597089609522e+02 6.470458610090e-01 0.0 
6.470458610090e-01 -3.771059474237e+02 0.0 
0.0 0.0 -1.606444725128e+02 
-8.499396079803e+01 9.055078570575e-02 0.0 
9.055078570575e-02 -1.811570494204e+02 0.0 
0.0 0.0 -7.944530306554e+01 
-6.635188487992e+01 2.320359413886e+01 0.0 
2.320359413886e+01 -1.363505658413e+02 0.0 
0.0 0.0 -5.979633343946e+01 
-8.242014664481e+01 4.619819406267e+00 0.0 
4.619819406267e+00 -1.590120127889e+02 0.0 
0.0 0.0 -7.058807523806e+01 
-1.186634888129e+02 -1.104474505943e-01 0.0 
-1.104474505943e-01 -2.599823955830e+02 0.0 
0.0 0.0 -1.102474619099e+02 
-4.660293943388e+01 1.367868639543e+01 0.0 
1.367868639543e+01 -6.711664674367e+01 0.0 
0.0 0.0 -3.086998225906e+01 
-6.917363985089e+01 1.957533179448e+01 0.0 
1.957533179448e+01 -1.656675670380e+02 0.0 
0.0 0.0 -6.840665113317e+01 
-1.143418946569e+02 2.093102006196e+00 0.0 
2.093102006196e+00 -2.531368070771e+02 0.0 
0.0 0.0 -1.098436105202e+02 
-8.533642717147e+01 -9.627338334548e-02 0.0 
-9.627338334548e-02 -1.811298264584e+02 0.0 
0.0 0.0 -7.953987608895e+01 
-7.262548748788e+01 2.178405989715e+01 0.0 
2.178405989715e+01 -1.554005896682e+02 0.0 
0.0 0.0 -6.828727993305e+01 
-7.940038270321e+01 4.837847360456e+00 0.0 
4.837847360456e+00 -1.495448674034e+02 0.0 
0.0 0.0 -6.605470548887e+01 
-1.334203418393e+02 1.066174158407e+01 0.0 
1.066174158407e+01 -3.076198464653e+02 0.0 
0.0 0.0 -1.319120564914e+02 
-9.054737689317e+01 -3.116465427516e+00 0.0 
-3.116465427516e+00 -1.831686898625e+02 0.0 
0.0 0.0 -7.654610369544e+01 
-1.525946582461e+02 1.173820442801e+01 0.0 
1.173820442801e+01 -3.585030151497e+02 0.0 
0.0 0.0 -1.529293020188e+02 
-1.503536591745e+02 1.267984015806e+01 0.0 
1.267984015806e+01 -3.503097346579e+02 0.0 
0.0 0.0 -1.497990181497e+02 
-6.155771139008e+01 1.568949869861e+01 0.0 
1.568949869861e+01 -1.021879233704e+02 0.0 
0.0 0.0 -4.514457464049e+01 
-9.312891616644e+01 -3.040534491262e+00 0.0 
-3.040534491262e+00 -1.839726627299e+02 0.0 
0.0 0.0 -7.740833647610e+01 
-1.378387066423e+02 7.995915622902e+00 0.0 
7.995915622902e+00 -3.378050663929e+02 0.0 
0.0 0.0 -1.422931319106e+02 
-7.762193160915e+01 9.853828001193e+00 0.0 
9.853828001193e+00 -1.409987904766e+02 0.0 
0.0 0.0 -6.037353918222e+01 
-5.499650494180e+01 1.629700329181e+01 0.0 
1.629700329181e+01 -8.867762952150e+01 0.0 
0.0 0.0 -4.122267982702e+01 
-8.939972027101e+01 5.691234289153e+00 0.0 
5.691234289153e+00 -1.783583641300e+02 0.0 
0.0 0.0 -7.888594041291e+01 
-7.315789881093e+01 2.034374594770e+01 0.0 
2.034374594770e+01 -1.614481808663e+02 0.0 
0.0 0.0 -6.820703340487e+01 
-1.422088575558e+02 2.101368646288e+00 0.0 
2.101368646288e+00 -3.300086131057e+02 0.0 
0.0 0.0 -1.412652411985e+02 
-1.235217683599e+02 8.266162287578e+00 0.0 
8.266162287578e+00 -2.756061308871e+02 0.0 
0.0 0.0 -1.193383697741e+02 
-1.447462046549e+02 -8.982247210281e-01 0.0 
-8.982247210281e-01 -3.418251260665e+02 0.0 
0.0 0.0 -1.455713992164e+02 
-4.633055624986e+01 2.240392785752e+01 0.0 
2.240392785752e+01 -5.507294849262e+01 0.0 
0.0 0.0 -2.653689893269e+01 
-6.455382855916e+01 1.896955596369e+01 0.0 
1.896955596369e+01 -1.612430911608e+02 0.0 
0.0 0.0 -6.452641697346e+01 
-1.270223772088e+02 8.953260703467e+00 0.0 
8.953260703467e+00 -2.859092197540e+02 0.0 
0.0 0.0 -1.234794790888e+02 
-8.543450995481e+01 2.742775182866e+01 0.0 
2.742775182866e+01 -7.848178180835e+01 0.0 
0.0 0.0 -4.944284588145e+01 
-7.729359962009e+01 7.504338397070e+00 0.0 
7.504338397070e+00 -1.409778534918e+02 0.0 
0.0 0.0 -6.051578521778e+01 
-1.284816338068e+02 5.883517992643e+00 0.0 
5.883517992643e+00 -3.203895668537e+02 0.0 
0.0 0.0 -1.342613601981e+02 
-1.812019335285e+01 1.707602377839e-01 0.0 
1.707602377839e-01 -4.217115276217e+01 0.0 
0.0 0.0 -1.558955002276e+01 
-1.454263419588e+02 8.436063088452e+00 0.0 
8.436063088452e+00 -3.344149406867e+02 0.0 
0.0 0.0 -1.435523847936e+02 
-1.131363517782e+02 6.012120460339e+00 0.0 
6.012120460339e+00 -2.457917033427e+02 0.0 
0.0 0.0 -1.072784165363e+02 
-7.880701656608e+01 -1.029403137235e+01 0.0 
-1.029403137235e+01 -1.800412032440e+02 0.0 
0.0 0.0 -7.539534339076e+01 
-1.273129306623e+02 4.501266107902e+00 0.0 
4.501266107902e+00 -3.197554659117e+02 0.0 
0.0 0.0 -1.337205189722e+02 
-9.809029667408e+01 5.585687218522e+00 0.0 
5.585687218522e+00 -2.031309240289e+02 0.0 
0.0 0.0 -8.996636621088e+01 
-1.037059610669e+02 5.473076248959e+00 0.0 
5.473076248959e+00 -2.178855335273e+02 0.0 
0.0 0.0 -9.607744837826e+01 
-1.520082043223e+02 6.181133903321e+00 0.0 
6.181133903321e+00 -3.646176215201e+02 0.0 
0.0 0.0 -1.545877477527e+02 
-6.401428718323e+01 -1.201064099709e+01 0.0 
-1.201064099709e+01 -1.336308850080e+02 0.0 
0.0 0.0 -5.567962514302e+01 
-9.459042260578e+01 1.329901197641e+01 0.0 
1.329901197641e+01 -1.930794036300e+02 0.0 
0.0 0.0 -8.204593725199e+01 
-9.659313591213e+01 8.113437098333e+00 0.0 
8.113437098333e+00 -1.979984100698e+02 0.0 
0.0 0.0 -8.673478191401e+01 
-1.179213739660e+02 7.630422189764e+00 0.0 
7.630422189764e+00 -2.567273787228e+02 0.0 
0.0 0.0 -1.119946258066e+02 
-9.675391108576e+01 8.781976407679e+00 0.0 
8.781976407679e+00 -1.980684671219e+02 0.0 
0.0 0.0 -8.753102355765e+01 
-9.060864312663e+01 7.825861073608e+00 0.0 
7.825861073608e+00 -1.786062341043e+02 0.0 
0.0 0.0 -7.913773108769e+01 
-1.040860606064e+02 1.178337073793e+01 0.0 
1.178337073793e+01 -2.687687758346e+02 0.0 
0.0 0.0 -1.122123976023e+02 
-1.298838118823e+02 1.223038835625e+01 0.0 
1.223038835625e+01 -2.969738486968e+02 0.0 
0.0 0.0 -1.276572981737e+02 
-5.796073686546e+01 2.590129853935e+01 0.0 
2.590129853935e+01 -9.175150627131e+01 0.0 
0.0 0.0 -4.603748004619e+01 
-6.065895257130e+01 1.478485430924e+01 0.0 
1.478485430924e+01 -1.014845270537e+02 0.0 
0.0 0.0 -4.595819919329e+01 
-6.829746151550e+01 1.494681647261e+01 0.0 
1.494681647261e+01 -1.216617491350e+02 0.0 
0.0 0.0 -5.405827286483e+01 
-9.029610256470e+01 1.309815222843e+01 0.0 
1.309815222843e+01 -1.820570239527e+02 0.0 
0.0 0.0 -7.771491053147e+01 
-1.284867789978e+02 9.944164912774e+00 0.0 
9.944164912774e+00 -2.867510367317e+02 0.0 
0.0 0.0 -1.241713447188e+02 
-3.852505368289e+01 2.194688600137e+01 0.0 
2.194688600137e+01 -1.170890696188e+02 0.0 
0.0 0.0 -4.472769085213e+01 
-1.238994523414e+02 4.550019762944e+00 0.0 
4.550019762944e+00 -3.110026628213e+02 0.0 
0.0 0.0 -1.300706345488e+02 
-8.524415541204e+01 1.544919392202e+00 0.0 
1.544919392202e+00 -1.798305851921e+02 0.0 
0.0 0.0 -7.912242218124e+01 
-6.949343821440e+01 2.120578871497e+01 0.0 
2.120578871497e+01 -1.652869715023e+02 0.0 
0.0 0.0 -6.883273838751e+01 
-1.196481434438e+02 3.184803146438e+00 0.0 
3.184803146438e+00 -3.013576066018e+02 0.0 
0.0 0.0 -1.259017250137e+02 
-1.436621839280e+01 6.159171683579e-01 0.0 
6.159171683579e-01 -2.825049080734e+01 0.0 
0.0 0.0 -1.091919164586e+01 
-1.204211580618e+02 6.432625723057e+00 0.0 
6.432625723057e+00 -2.656923024678e+02 0.0 
0.0 0.0 -1.154340381589e+02 
-1.431085096513e+01 1.259931346970e-01 0.0 
1.259931346970e-01 -2.399887181339e+01 0.0 
0.0 0.0 -9.863019090694e+00 
-1.485018368708e+01 -8.554435992674e-01 0.0 
-8.554435992674e-01 -4.271148665753e+01 0.0 
0.0 0.0 -1.526262489026e+01 
-4.157897031565e+01 1.793099175902e+01 0.0 
1.793099175902e+01 -5.333987066377e+01 0.0 
0.0 0.0 -2.472398790265e+01 
-5.605907189453e+01 -1.185972958893e+01 0.0 
-1.185972958893e+01 -1.129668793825e+02 0.0 
0.0 0.0 -4.711301137881e+01 
-1.251439341680e+02 8.022395196079e+00 0.0 
8.022395196079e+00 -2.765561747371e+02 0.0 
0.0 0.0 -1.201100326715e+02 
-5.317235385096e+01 -1.200218719690e+01 0.0 
-1.200218719690e+01 -1.056270759298e+02 0.0 
0.0 0.0 -4.411156126417e+01 
-5.169176731975e+01 2.638608521050e+01 0.0 
2.638608521050e+01 -9.468771950479e+01 0.0 
0.0 0.0 -4.001829429435e+01 
-5.232557328953e+01 -2.008443070154e+01 0.0 
-2.008443070154e+01 -1.110441741181e+02 0.0 
0.0 0.0 -4.317921609235e+01 
-4.014576586247e+01 -9.011670435088e+00 0.0 
-9.011670435088e+00 -7.121026015133e+01 0.0 
0.0 0.0 -3.008181318209e+01 
-1.322315342501e+02 5.658999686688e+00 0.0 
5.658999686688e+00 -3.284574589798e+02 0.0 
0.0 0.0 -1.378066979690e+02 
-9.400288599004e+01 9.074358960284e+00 0.0 
9.074358960284e+00 -1.884188817022e+02 0.0 
0.0 0.0 -8.309675856752e+01 
-1.578983266810e+02 -5.215143108401e-01 0.0 
-5.215143108401e-01 -3.721199856146e+02 0.0 
0.0 0.0 -1.586054936887e+02 
-6.384347477982e+01 1.187172414137e+01 0.0 
1.187172414137e+01 -1.092690158031e+02 0.0 
0.0 0.0 -5.247544669973e+01 
-5.691944622446e+01 2.560114354369e+01 0.0 
2.560114354369e+01 -1.142024785741e+02 0.0 
0.0 0.0 -4.786981314481e+01 
-7.591711523647e+01 1.972046657269e+01 0.0 
1.972046657269e+01 -1.830167283000e+02 0.0 
0.0 0.0 -7.723399491662e+01 
-7.302344013563e+01 8.397680123875e+00 0.0 
8.397680123875e+00 -1.304872384315e+02 0.0 
0.0 0.0 -5.559688350119e+01 
-1.224136353814e+02 3.323890377918e+00 0.0 
3.323890377918e+00 -3.102470868909e+02 0.0 
0.0 0.0 -1.293982166817e+02 
-1.604712638435e+02 1.037629764725e-01 0.0 
1.037629764725e-01 -3.789699882873e+02 0.0 
0.0 0.0 -1.614323756393e+02 
-1.211151039129e+02 9.589872117298e+00 0.0 
9.589872117298e+00 -2.666058424658e+02 0.0 
0.0 0.0 -1.159162839136e+02 
-5.401815744690e+01 1.892418267744e+01 0.0 
1.892418267744e+01 -1.416039641788e+02 0.0 
0.0 0.0 -5.315945583896e+01 
-1.329220153755e+02 6.904616253481e+00 0.0 
6.904616253481e+00 -3.287656160359e+02 0.0 
0.0 0.0 -1.381062894234e+02 
-1.239901104398e+02 -1.444061779829e+00 0.0 
-1.444061779829e+00 -2.810926632179e+02 0.0 
0.0 0.0 -1.193611484548e+02 
-9.375829410621e+01 1.226319450664e+01 0.0 
1.226319450664e+01 -1.911027059907e+02 0.0 
0.0 0.0 -8.250996531283e+01 
-1.165745527287e+02 6.736648718935e+00 0.0 
6.736648718935e+00 -2.554078227531e+02 0.0 
0.0 0.0 -1.111947126445e+02 
-1.478650442335e+02 1.217326187164e+01 0.0 
1.217326187164e+01 -3.493873117225e+02 0.0 
0.0 0.0 -1.487757067868e+02 
-7.120096400296e+01 1.728970010887e+01 0.0 
1.728970010887e+01 -1.785221929917e+02 0.0 
0.0 0.0 -7.289247119376e+01 
-5.162706071445e+01 2.564884126530e+01 0.0 
2.564884126530e+01 -9.516140685168e+01 0.0 
0.0 0.0 -3.995714388737e+01 
-1.027630835729e+02 9.496523584862e+00 0.0 
9.496523584862e+00 -2.173560968499e+02 0.0 
0.0 0.0 -9.563575412682e+01 
-1.510079740492e+02 5.438134716537e+00 0.0 
5.438134716537e+00 -3.506904221871e+02 0.0 
0.0 0.0 -1.501095188709e+02 
-9.245700826781e+01 1.391938403858e+01 0.0 
1.391938403858e+01 -1.931906593075e+02 0.0 
0.0 0.0 -8.206756717519e+01 
-8.574385132091e+01 1.207389285405e+01 0.0 
1.207389285405e+01 -2.234074905001e+02 0.0 
0.0 0.0 -9.561094740805e+01 
-9.308156806003e+01 8.608104038957e-01 0.0 
8.608104038957e-01 -1.996991939907e+02 0.0 
0.0 0.0 -8.743422861522e+01 
-4.538915470832e+01 -1.430028827342e+01 0.0 
-1.430028827342e+01 -6.950516889295e+01 0.0 
0.0 0.0 -2.804969753211e+01 
-9.535462543417e+01 6.611350618030e+00 0.0 
6.611350618030e+00 -1.970971366674e+02 0.0 
0.0 0.0 -8.689684848227e+01 
-5.864150149201e+01 2.205408322046e+01 0.0 
2.205408322046e+01 -1.458170705548e+02 0.0 
0.0 0.0 -5.808071808525e+01 
-4.363444416920e+01 1.938079948801e+01 0.0 
1.938079948801e+01 -1.302963152362e+02 0.0 
0.0 0.0 -4.958901564314e+01 
-4.201432667484e+01 -1.895305201313e+01 0.0 
-1.895305201313e+01 -1.182003164101e+02 0.0 
0.0 0.0 -4.480630773531e+01 
-1.241010255226e+02 6.164669479926e+00 0.0 
6.164669479926e+00 -2.757703401749e+02 0.0 
0.0 0.0 -1.195614097093e+02 
-9.976927776998e+01 9.830220382164e+00 0.0 
9.830220382164e+00 -2.080414484815e+02 0.0 
0.0 0.0 -9.153354878344e+01 
-7.024512623435e+01 2.216942127063e+01 0.0 
2.216942127063e+01 -1.430436710893e+02 0.0 
0.0 0.0 -6.310098497340e+01 
-1.287878739679e+02 7.725056042598e+00 0.0 
7.725056042598e+00 -2.866084174167e+02 0.0 
0.0 0.0 -1.242188874154e+02 
-1.245000563038e+02 1.030861306292e+01 0.0 
1.030861306292e+01 -2.766135742773e+02 0.0 
0.0 0.0 -1.199340891743e+02 
-9.683733047384e+01 1.163929114449e+01 0.0 
1.163929114449e+01 -2.000636827999e+02 0.0 
0.0 0.0 -8.698707328446e+01 
-1.613313131326e+02 1.202951840993e+00 0.0 
1.202951840993e+00 -3.794026533562e+02 0.0 
0.0 0.0 -1.618201899466e+02 
-9.066466825060e+01 1.143185921860e+01 0.0 
1.143185921860e+01 -2.392087419088e+02 0.0 
0.0 0.0 -1.034117097915e+02 
-9.968962734480e+01 1.116536441439e+01 0.0 
1.116536441439e+01 -2.090488005812e+02 0.0 
0.0 0.0 -9.130826796980e+01 
-7.952853809915e+01 1.808542627228e+01 0.0 
1.808542627228e+01 -1.806701498693e+02 0.0 
0.0 0.0 -7.643711306782e+01 
-9.237841054622e+01 1.080906184001e+01 0.0 
1.080906184001e+01 -2.409504190458e+02 0.0 
0.0 0.0 -1.038679721850e+02 
-4.894721681035e+01 1.697595275626e+01 0.0 
1.697595275626e+01 -1.427095959013e+02 0.0 
0.0 0.0 -5.409009410606e+01 
-8.967888046303e+01 3.911985859635e+00 0.0 
3.911985859635e+00 -1.851156113466e+02 0.0 
0.0 0.0 -8.203834754288e+01 
-7.319459040907e+01 1.445075308848e+01 0.0 
1.445075308848e+01 -1.903100246727e+02 0.0 
0.0 0.0 -7.738231809268e+01 
-5.815840953032e+01 -5.291060535968e+00 0.0 
-5.291060535968e+00 -1.645174392772e+02 0.0 
0.0 0.0 -6.388445685310e+01 
-1.201255537226e+02 7.551747079010e+00 0.0 
7.551747079010e+00 -2.656352542342e+02 0.0 
0.0 0.0 -1.153282423870e+02 
-1.196229568596e+02 4.972731484089e+00 0.0 
4.972731484089e+00 -1.014584215289e+02 0.0 
0.0 0.0 -6.659815468891e+01 
-9.953383248241e+01 8.552676246412e+00 0.0 
8.552676246412e+00 -2.075405730491e+02 0.0 
0.0 0.0 -9.172232165945e+01 
-5.967523464849e+01 1.823034745060e+01 0.0 
1.823034745060e+01 -1.588994193960e+02 0.0 
0.0 0.0 -6.243169026116e+01 
-5.184913758057e+01 2.484722880692e+01 0.0 
2.484722880692e+01 -1.112543019211e+02 0.0 
0.0 0.0 -4.406980400078e+01 
-4.541783951203e+01 1.133106642560e+01 0.0 
1.133106642560e+01 -1.393550872405e+02 0.0 
0.0 0.0 -5.126559004371e+01 
-1.054098506181e+02 8.292461366154e+00 0.0 
8.292461366154e+00 -2.267429326362e+02 0.0 
0.0 0.0 -9.924583497632e+01 
-2.404934431145e+01 -1.825877738108e+00 0.0 
-1.825877738108e+00 -4.196194415472e+01 0.0 
0.0 0.0 -1.596671017374e+01 
-7.294369435217e+01 1.257220044764e+01 0.0 
1.257220044764e+01 -1.313368306664e+02 0.0 
0.0 0.0 -5.737154765684e+01 
-9.702727610860e+01 9.969357863557e+00 0.0 
9.969357863557e+00 -2.555575171617e+02 0.0 
0.0 0.0 -1.108977258729e+02 
-9.890731441977e+01 7.749680607615e+00 0.0 
7.749680607615e+00 -2.070777956646e+02 0.0 
0.0 0.0 -9.092386308638e+01 
-9.747303490821e+01 4.942545370776e+00 0.0 
4.942545370776e+00 -2.031686876622e+02 0.0 
0.0 0.0 -8.979251677111e+01 
-3.467530575531e+01 1.993068602195e+01 0.0 
1.993068602195e+01 -1.218512111650e+02 0.0 
0.0 0.0 -4.946871628587e+01 
-5.568249737623e+01 -3.631333874904e-01 0.0 
-3.631333874904e-01 -1.641751243604e+02 0.0 
0.0 0.0 -6.230412901781e+01 
-5.731599497716e+01 -1.043717154768e+01 0.0 
-1.043717154768e+01 -1.549460313310e+02 0.0 
0.0 0.0 -6.024872600909e+01 
-6.529588262616e+01 1.411762016653e+01 0.0 
1.411762016653e+01 -1.112538845548e+02 0.0 
0.0 0.0 -4.848233441473e+01 
-1.175924580404e+02 8.855815048341e+00 0.0 
8.855815048341e+00 -2.564062243231e+02 0.0 
0.0 0.0 -1.117996047090e+02 
-7.309451999400e+01 1.453027122449e+01 0.0 
1.453027122449e+01 -1.320954751048e+02 0.0 
0.0 0.0 -5.699696368106e+01 
-7.235600034628e+01 1.542150058031e+01 0.0 
1.542150058031e+01 -1.894989546353e+02 0.0 
0.0 0.0 -7.739111706375e+01 
-7.091484422515e+01 1.856920985297e+01 0.0 
1.856920985297e+01 -1.780591324288e+02 0.0 
0.0 0.0 -7.323786233376e+01 
-3.313590131314e+01 1.559021921524e+01 0.0 
1.559021921524e+01 -1.145418931461e+02 0.0 
0.0 0.0 -4.432967700036e+01 
-8.578869499263e+01 1.885138882197e+01 0.0 
1.885138882197e+01 -1.948077509851e+02 0.0 
0.0 0.0 -8.507396727399e+01 
-4.451469566679e+01 2.793232499381e+01 0.0 
2.793232499381e+01 -7.323627082702e+01 0.0 
0.0 0.0 -3.049480891630e+01 
-1.535060311761e+02 9.301049329879e+00 0.0 
9.301049329879e+00 -3.551975458131e+02 0.0 
0.0 0.0 -1.522110730967e+02 
-1.536140377776e+02 1.066022844356e+01 0.0 
1.066022844356e+01 -3.566763319111e+02 0.0 
0.0 0.0 -1.526871109066e+02 
-9.708449833406e+01 1.448315181220e+01 0.0 
1.448315181220e+01 -2.048854936911e+02 0.0 
0.0 0.0 -8.738344492352e+01 
-5.381193260747e+01 1.998788596930e+01 0.0 
1.998788596930e+01 -1.439566606652e+02 0.0 
0.0 0.0 -5.548129526946e+01 
-4.738281494535e+01 2.467118132644e+01 0.0 
2.467118132644e+01 -1.094451020277e+02 0.0 
0.0 0.0 -4.108349279228e+01 
-1.029305836557e+02 1.037155465369e+01 0.0 
1.037155465369e+01 -2.189223116962e+02 0.0 
0.0 0.0 -9.496421365572e+01 
-4.804417626513e+01 2.096898927443e+01 0.0 
2.096898927443e+01 -1.257757626224e+02 0.0 
0.0 0.0 -4.627843033393e+01 
-5.297357877547e+01 -6.111831534471e+00 0.0 
-6.111831534471e+00 -1.539446662520e+02 0.0 
0.0 0.0 -5.799370573431e+01 
-9.462216687181e+01 1.069324585047e+01 0.0 
1.069324585047e+01 -1.903925821415e+02 0.0 
0.0 0.0 -8.197082031158e+01 
-1.443918880254e+02 4.083883300331e+00 0.0 
4.083883300331e+00 -3.324263179526e+02 0.0 
0.0 0.0 -1.426454617934e+02 
-6.451309491731e+01 2.022639016748e+01 0.0 
2.022639016748e+01 -1.617592895011e+02 0.0 
0.0 0.0 -6.548554683280e+01 
-1.062944202209e+02 1.040348685152e+01 0.0 
1.040348685152e+01 -2.694713819772e+02 0.0 
0.0 0.0 -1.152805611038e+02 
-4.830909461647e+01 2.774157674605e+01 0.0 
2.774157674605e+01 -9.445089909655e+01 0.0 
0.0 0.0 -3.859097228240e+01 
-1.643930543523e+02 7.575928483374e+00 0.0 
7.575928483374e+00 -3.895630497081e+02 0.0 
0.0 0.0 -1.657868312181e+02 
-5.321206475516e+01 2.394624720145e+01 0.0 
2.394624720145e+01 -1.297997638933e+02 0.0 
0.0 0.0 -5.094499922197e+01 
-9.765085401139e+01 1.204255841260e+01 0.0 
1.204255841260e+01 -2.015192273515e+02 0.0 
0.0 0.0 -8.622467632911e+01 
-3.927872852741e+01 1.533410196525e+01 0.0 
1.533410196525e+01 -1.311618920172e+02 0.0 
0.0 0.0 -5.069159923049e+01 
-1.025696616278e+02 3.604393336133e+00 0.0 
3.604393336133e+00 -2.731697041087e+02 0.0 
0.0 0.0 -1.166889743421e+02 
-7.723298313238e+01 1.725539186949e+01 0.0 
1.725539186949e+01 -1.952208618179e+02 0.0 
0.0 0.0 -8.166643953240e+01 
-5.739454598829e+01 -9.190182068169e+00 0.0 
-9.190182068169e+00 -1.564742223002e+02 0.0 
0.0 0.0 -5.965104857178e+01 
-9.704077834475e+01 1.017868632468e+01 0.0 
1.017868632468e+01 -1.987210515809e+02 0.0 
0.0 0.0 -8.720867505400e+01 
-1.559761098918e+02 1.228978069938e+01 0.0 
1.228978069938e+01 -3.630022383925e+02 0.0 
0.0 0.0 -1.552935044853e+02 
-6.594943027748e+01 1.669082164827e+01 0.0 
1.669082164827e+01 -1.738711543388e+02 0.0 
0.0 0.0 -6.969145639107e+01 
-9.520252326278e+01 9.601645391606e+00 0.0 
9.601645391606e+00 -2.528808459163e+02 0.0 
0.0 0.0 -1.087252058781e+02 
-4.450976929698e+01 2.726931771546e+01 0.0 
2.726931771546e+01 -9.204234212906e+01 0.0 
0.0 0.0 -3.552298575760e+01 
-1.091438194561e+02 3.127152220590e+00 0.0 
3.127152220590e+00 -2.366506589620e+02 0.0 
0.0 0.0 -1.033383435254e+02 
-1.178387477510e+02 2.058457647394e+00 0.0 
2.058457647394e+00 -3.003844779483e+02 0.0 
0.0 0.0 -1.250669677098e+02 
-5.637507778538e+01 2.339361899688e+01 0.0 
2.339361899688e+01 -9.994653702633e+01 0.0 
0.0 0.0 -4.329230194440e+01 
-1.063663144429e+02 4.337541216349e+00 0.0 
4.337541216349e+00 -2.280246847541e+02 0.0 
0.0 0.0 -9.991729975909e+01 
-1.575331534250e+02 1.307274392887e+01 0.0 
1.307274392887e+01 -3.683053446111e+02 0.0 
0.0 0.0 -1.573515494109e+02 
-1.275086808438e+02 2.918022743817e+00 0.0 
2.918022743817e+00 -3.193139403459e+02 0.0 
0.0 0.0 -1.336467863569e+02 
-1.554140783123e+02 1.178929569183e+01 0.0 
1.178929569183e+01 -3.609803429326e+02 0.0 
0.0 0.0 -1.545183263735e+02 
-1.066407137710e+02 5.363616819854e+00 0.0 
5.363616819854e+00 -2.270394664232e+02 0.0 
0.0 0.0 -9.970405405825e+01 
-1.234570515443e+02 1.129371727511e+01 0.0 
1.129371727511e+01 -2.767093945551e+02 0.0 
0.0 0.0 -1.196499338298e+02 
-5.104821403979e+01 2.318928604239e+01 0.0 
2.318928604239e+01 -7.803361531752e+01 0.0 
0.0 0.0 -3.486463896277e+01 
-9.126178395468e+01 9.414842285869e+00 0.0 
9.414842285869e+00 -1.793574472380e+02 0.0 
0.0 0.0 -7.877879365135e+01 
-9.989897549016e+01 9.274098172955e+00 0.0 
9.274098172955e+00 -2.083149223777e+02 0.0 
0.0 0.0 -9.080586403062e+01 
-1.024643963301e+02 1.080132499462e+01 0.0 
1.080132499462e+01 -2.181754615176e+02 0.0 
0.0 0.0 -9.557733151115e+01 
-8.861253802939e+01 1.493335233848e+01 0.0 
1.493335233848e+01 -1.847382502536e+02 0.0 
0.0 0.0 -7.815085280260e+01 
-1.586916860193e+02 1.317329919982e+01 0.0 
1.317329919982e+01 -3.722816249513e+02 0.0 
0.0 0.0 -1.588919932912e+02 
-1.030311381193e+02 5.057999763111e+00 0.0 
5.057999763111e+00 -2.175992748525e+02 0.0 
0.0 0.0 -9.578912389156e+01 
-9.352032981664e+01 7.669638266080e+00 0.0 
7.669638266080e+00 -1.885128266490e+02 0.0 
0.0 0.0 -8.366954801728e+01 
-6.663027740733e+01 1.602865948300e+01 0.0 
1.602865948300e+01 -1.741861421336e+02 0.0 
0.0 0.0 -6.927262855331e+01 
-4.836918955062e+01 -1.101844386492e+01 0.0 
-1.101844386492e+01 -9.228686305905e+01 0.0 
0.0 0.0 -3.872829767336e+01 
-8.792069017652e+01 8.168709275744e+00 0.0 
8.168709275744e+00 -1.693095428741e+02 0.0 
0.0 0.0 -7.474991307916e+01 
-6.036025184956e+01 2.411011325380e+01 0.0 
2.411011325380e+01 -1.167136740901e+02 0.0 
0.0 0.0 -5.094498802747e+01 
-8.576521129748e+01 5.668709946994e-01 0.0 
5.668709946994e-01 -1.820435094853e+02 0.0 
0.0 0.0 -7.994261623482e+01 
-6.180256168801e+01 -1.250131252351e+01 0.0 
-1.250131252351e+01 -1.586244091659e+02 0.0 
0.0 0.0 -6.368133230029e+01 
-6.019902069501e+01 1.737279039394e+01 0.0 
1.737279039394e+01 -1.578102938055e+02 0.0 
0.0 0.0 -6.107361206050e+01 
-1.239496974090e+02 7.160466959450e+00 0.0 
7.160466959450e+00 -2.756888010751e+02 0.0 
0.0 0.0 -1.194915495452e+02 
-5.626499019829e+01 2.412300399828e+01 0.0 
2.412300399828e+01 -1.150098523536e+02 0.0 
0.0 0.0 -4.757032671234e+01 
-9.390205388567e+01 8.560753987715e+00 0.0 
8.560753987715e+00 -1.887992736386e+02 0.0 
0.0 0.0 -8.232534296291e+01 
-9.944758806895e+01 7.515780752210e+00 0.0 
7.515780752210e+00 -2.634621802887e+02 0.0 
0.0 0.0 -1.144971695871e+02 
-9.781823461951e+01 -2.667424399639e+00 0.0 
-2.667424399639e+00 -2.419186707204e+02 0.0 
0.0 0.0 -1.027338220802e+02 
-1.608837191581e+02 1.229826511449e+01 0.0 
1.229826511449e+01 -3.784970042698e+02 0.0 
0.0 0.0 -1.614142170284e+02 
-8.147957898621e+01 9.098775341307e+00 0.0 
9.098775341307e+00 -1.509600598083e+02 0.0 
0.0 0.0 -6.559514696484e+01 
-5.255827316480e+01 4.904561013482e+00 0.0 
4.904561013482e+00 -1.593945287911e+02 0.0 
0.0 0.0 -6.021868708754e+01 
-7.776837945326e+01 -1.400323946991e+01 0.0 
-1.400323946991e+01 -1.748481178792e+02 0.0 
0.0 0.0 -7.464695355845e+01 
-5.692500600791e+01 1.777433282191e+01 0.0 
1.777433282191e+01 -9.080258528108e+01 0.0 
0.0 0.0 -4.073434133464e+01 
-5.648363390819e+01 2.254812395347e+01 0.0 
2.254812395347e+01 -9.969701505765e+01 0.0 
0.0 0.0 -4.451059645225e+01 
-1.318508546950e+02 1.057478913414e+01 0.0 
1.057478913414e+01 -2.968210113729e+02 0.0 
0.0 0.0 -1.282015598204e+02 
-9.905090514416e+01 1.249889455781e+01 0.0 
1.249889455781e+01 -2.106871809001e+02 0.0 
0.0 0.0 -9.118082096317e+01 
-7.379154900751e+01 1.110838945065e+01 0.0 
1.110838945065e+01 -1.307673573265e+02 0.0 
0.0 0.0 -5.563540841283e+01 
-8.744918925083e+01 7.671599311361e+00 0.0 
7.671599311361e+00 -1.694091484100e+02 0.0 
0.0 0.0 -7.381785462946e+01 
-1.624886492748e+02 9.999135335722e+00 0.0 
9.999135335722e+00 -3.846272321064e+02 0.0 
0.0 0.0 -1.637347644144e+02 
-1.527518249543e+02 1.038673528374e+01 0.0 
1.038673528374e+01 -3.648537106115e+02 0.0 
0.0 0.0 -1.548816606698e+02 
-1.309458762854e+02 8.588441191673e+00 0.0 
8.588441191673e+00 -2.958213579835e+02 0.0 
0.0 0.0 -1.276301702807e+02 
-1.215204714823e+02 8.411917640330e+00 0.0 
8.411917640330e+00 -2.666502323185e+02 0.0 
0.0 0.0 -1.160512111402e+02 
-9.669511791177e+01 -6.191477115077e+00 0.0 
-6.191477115077e+00 -2.371563415650e+02 0.0 
0.0 0.0 -1.020520536939e+02 
-7.597207360602e+01 1.607738040875e+01 0.0 
1.607738040875e+01 -1.437639504905e+02 0.0 
0.0 0.0 -6.201132125256e+01 
-4.942252276653e+01 1.617850372827e+01 0.0 
1.617850372827e+01 -1.401625159068e+02 0.0 
0.0 0.0 -5.157913006797e+01 
-5.602806342801e+01 1.456939263503e+01 0.0 
1.456939263503e+01 -1.551448918411e+02 0.0 
0.0 0.0 -5.824487559822e+01 
-9.591976156844e+01 1.311195163719e+01 0.0 
1.311195163719e+01 -2.019424178579e+02 0.0 
0.0 0.0 -8.676664950241e+01 
-9.897473117018e+01 5.232023725377e+00 0.0 
5.232023725377e+00 -2.654529610489e+02 0.0 
0.0 0.0 -1.143045715702e+02 
-9.716266221251e+01 -6.350131017490e+00 0.0 
-6.350131017490e+00 -2.040602568660e+02 0.0 
0.0 0.0 -8.580432320412e+01 
-1.311901792925e+02 7.608186520613e+00 0.0 
7.608186520613e+00 -2.958008964672e+02 0.0 
0.0 0.0 -1.276973227279e+02 
-5.350644194646e+01 -9.465441982996e-01 0.0 
-9.465441982996e-01 -1.582944814583e+02 0.0 
0.0 0.0 -6.009392387432e+01 
-8.438117698427e+01 1.618160723218e+01 0.0 
1.618160723218e+01 -1.764595346347e+02 0.0 
0.0 0.0 -7.527959795082e+01 
-9.726661041549e+01 9.868064228773e+00 0.0 
9.868064228773e+00 -1.992011631671e+02 0.0 
0.0 0.0 -8.641313190209e+01 
-7.815758143974e+01 1.715809098016e+01 0.0 
1.715809098016e+01 -1.560947304448e+02 0.0 
0.0 0.0 -6.712723814965e+01 
-1.551016339921e+02 1.127647277836e+01 0.0 
1.127647277836e+01 -3.591225998708e+02 0.0 
0.0 0.0 -1.538672701589e+02 
-1.530738858331e+02 9.704370728583e+00 0.0 
9.704370728583e+00 -3.554779551348e+02 0.0 
0.0 0.0 -1.521655522904e+02 
-1.464074963486e+02 1.056687051657e+01 0.0 
1.056687051657e+01 -3.352825799810e+02 0.0 
0.0 0.0 -1.441070228989e+02 
-1.036701862028e+02 -3.354253069413e+00 0.0 
-3.354253069413e+00 -2.553977221756e+02 0.0 
0.0 0.0 -1.097169470606e+02 
-1.277226907330e+02 5.887137354042e+00 0.0 
5.887137354042e+00 -2.858191949302e+02 0.0 
0.0 0.0 -1.236625656989e+02 
-5.408620054736e+01 2.455606830772e+01 0.0 
2.455606830772e+01 -9.596121281167e+01 0.0 
0.0 0.0 -4.205205928515e+01 
-6.251655850675e+01 1.348637067331e+01 0.0 
1.348637067331e+01 -1.704147114519e+02 0.0 
0.0 0.0 -6.593817887075e+01 
-3.927210975740e+01 1.251786382502e+01 0.0 
1.251786382502e+01 -1.269277036545e+02 0.0 
0.0 0.0 -4.696175184848e+01 
-7.721009324673e+01 1.290623487946e+01 0.0 
1.290623487946e+01 -1.415359108029e+02 0.0 
0.0 0.0 -6.038470166972e+01 
-8.984785722358e+01 3.566719607400e+00 0.0 
3.566719607400e+00 -1.847904547288e+02 0.0 
0.0 0.0 -8.199149358573e+01 
-1.053595098722e+02 3.292633043493e+00 0.0 
3.292633043493e+00 -2.262131849456e+02 0.0 
0.0 0.0 -9.907180844534e+01 
-1.552711558365e+02 7.553519928459e+00 0.0 
7.553519928459e+00 -3.727480601153e+02 0.0 
0.0 0.0 -1.580057647855e+02 
-1.301846855359e+02 9.451032638081e+00 0.0 
9.451032638081e+00 -2.957828668931e+02 0.0 
0.0 0.0 -1.273902657287e+02 
-1.020414278991e+02 7.386781190035e+00 0.0 
7.386781190035e+00 -2.165891959326e+02 0.0 
0.0 0.0 -9.518918714950e+01 
-1.053970947607e+02 9.812522416522e+00 0.0 
9.812522416522e+00 -2.278518466526e+02 0.0 
0.0 0.0 -9.920071435946e+01 
-4.425600839067e+01 1.229890652968e+01 0.0 
1.229890652968e+01 -1.407058610334e+02 0.0 
0.0 0.0 -5.327223909110e+01 
-3.479690027796e+01 -8.733513074699e+00 0.0 
-8.733513074699e+00 -4.702474343218e+01 0.0 
0.0 0.0 -1.978246054493e+01 
-8.103728067852e+01 1.968966745886e+01 0.0 
1.968966745886e+01 -1.882819580279e+02 0.0 
0.0 0.0 -8.186379804784e+01 
-9.029780969826e+01 1.518772739461e+01 0.0 
1.518772739461e+01 -1.963527538139e+02 0.0 
0.0 0.0 -8.313338748422e+01 
-8.049532933425e+01 1.758818655005e+01 0.0 
1.758818655005e+01 -1.913485939059e+02 0.0 
0.0 0.0 -8.111130302032e+01 
-4.457680803092e+01 3.017279725447e+01 0.0 
3.017279725447e+01 -5.586872356775e+01 0.0 
0.0 0.0 -2.645959858595e+01 
-9.215492232684e+01 2.132181312644e-01 0.0 
2.132181312644e-01 -1.986152788544e+02 0.0 
0.0 0.0 -8.683106035436e+01 
-4.445993070609e+01 -8.984016734167e+00 0.0 
-8.984016734167e+00 -8.445531157967e+01 0.0 
0.0 0.0 -3.435613343248e+01 
-5.779957309317e+01 2.455337977813e+01 0.0 
2.455337977813e+01 -1.306382025114e+02 0.0 
0.0 0.0 -5.305562000425e+01 
-1.665772980329e+02 7.698426718491e+00 0.0 
7.698426718491e+00 -3.900136954102e+02 0.0 
0.0 0.0 -1.665772980329e+02 
-1.087694175414e+02 1.067654274851e+01 0.0 
1.067654274851e+01 -2.795841084273e+02 0.0 
0.0 0.0 -1.165484303763e+02 
-9.174679313133e+01 5.537957919917e+00 0.0 
5.537957919917e+00 -1.875910312079e+02 0.0 
0.0 0.0 -8.300465544006e+01 
-1.880567282854e+01 -6.405612617368e-01 0.0 
-6.405612617368e-01 -5.868055706903e+01 0.0 
0.0 0.0 -2.145603002966e+01 
-9.096086695111e+01 1.496797118641e+01 0.0 
1.496797118641e+01 -1.848936959510e+02 0.0 
0.0 0.0 -7.970630092278e+01 
-7.570625701898e+01 1.772778144619e+01 0.0 
1.772778144619e+01 -1.843200729051e+02 0.0 
0.0 0.0 -7.734879477261e+01 
-1.058520225813e+02 1.040865346857e+01 0.0 
1.040865346857e+01 -2.273155516731e+02 0.0 
0.0 0.0 -9.955027227631e+01 
-1.563727681766e+02 1.245339540515e+01 0.0 
1.245339540515e+01 -3.646919686393e+02 0.0 
0.0 0.0 -1.559194210448e+02 
-9.023191242693e+01 7.205603645355e+00 0.0 
7.205603645355e+00 -1.786457063043e+02 0.0 
0.0 0.0 -7.830836949509e+01 
-1.019194057814e+02 1.200374545979e+01 0.0 
1.200374545979e+01 -2.195022466934e+02 0.0 
0.0 0.0 -9.542102580067e+01 
-9.338437595486e+01 -6.604357865192e+00 0.0 
-6.604357865192e+00 -2.033236964282e+02 0.0 
0.0 0.0 -8.414005861040e+01 
-1.277014422642e+02 6.906458882109e+00 0.0 
6.906458882109e+00 -2.857558215661e+02 0.0 
0.0 0.0 -1.236371791491e+02 
-1.029420986753e+02 -5.369074932414e-01 0.0 
-5.369074932414e-01 -2.606447556144e+02 0.0 
0.0 0.0 -1.098617213862e+02 
-1.572201675876e+02 1.298027688613e+01 0.0 
1.298027688613e+01 -3.664874969622e+02 0.0 
0.0 0.0 -1.567122993649e+02 
-1.534337555524e+02 1.104370290208e+01 0.0 
1.104370290208e+01 -3.593454296222e+02 0.0 
0.0 0.0 -1.534337555524e+02 
-1.509937057556e+02 8.634971147961e+00 0.0 
8.634971147961e+00 -3.536519800965e+02 0.0 
0.0 0.0 -1.509937057556e+02 
-1.515326343353e+02 9.846671476047e+00 0.0 
9.846671476047e+00 -3.549094801156e+02 0.0 
0.0 0.0 -1.515326343353e+02 
-1.087127937948e+02 9.103783776035e+00 0.0 
9.103783776035e+00 -2.370806464790e+02 0.0 
0.0 0.0 -1.033380320821e+02 
-1.286803112353e+02 8.757919244096e+00 0.0 
8.757919244096e+00 -2.865174399272e+02 0.0 
0.0 0.0 -1.241593253487e+02 
-1.345144494468e+02 9.252713494403e+00 0.0 
9.252713494403e+00 -3.064040453111e+02 0.0 
0.0 0.0 -1.318755484273e+02 
-7.958387043629e+01 1.769159568114e+01 0.0 
1.769159568114e+01 -1.561668952363e+02 0.0 
0.0 0.0 -6.862101409564e+01 
-7.652531550623e+01 1.529025810610e+01 0.0 
1.529025810610e+01 -1.432256137870e+02 0.0 
0.0 0.0 -6.286196304958e+01 
-9.326055565248e+01 -5.919128441567e+00 0.0 
-5.919128441567e+00 -1.917619676017e+02 0.0 
0.0 0.0 -8.007366224018e+01 
-1.322273007911e+02 9.573208895487e+00 0.0 
9.573208895487e+00 -2.966571117194e+02 0.0 
0.0 0.0 -1.282653237532e+02 
-1.580563125602e+02 1.320882708422e+01 0.0 
1.320882708422e+01 -3.701862446682e+02 0.0 
0.0 0.0 -1.580727671685e+02 
-1.312844222415e+02 6.608258688483e+00 0.0 
6.608258688483e+00 -2.956221222265e+02 0.0 
0.0 0.0 -1.276719633404e+02 
-9.947609258602e+01 1.098296583691e+01 0.0 
1.098296583691e+01 -2.609332456279e+02 0.0 
0.0 0.0 -1.103914216633e+02 
-1.322803247635e+02 8.429831696447e+00 0.0 
8.429831696447e+00 -2.964010007200e+02 0.0 
0.0 0.0 -1.282043976450e+02 
-1.143748449759e+02 1.329984050122e+01 0.0 
1.329984050122e+01 -2.731922747837e+02 0.0 
0.0 0.0 -1.158701359279e+02 
-8.866718120761e+01 1.820205395139e+01 0.0 
1.820205395139e+01 -1.897577094424e+02 0.0 
0.0 0.0 -8.262186945520e+01 
-7.718334041789e+01 1.078288092650e+01 0.0 
1.078288092650e+01 -1.410768601035e+02 0.0 
0.0 0.0 -6.069311008860e+01 
-4.873976868590e+01 2.655612321460e+01 0.0 
2.655612321460e+01 -1.139797703782e+02 0.0 
0.0 0.0 -4.476983005487e+01 
-1.439994134278e+02 5.732063695099e+00 0.0 
5.732063695099e+00 -3.337677142896e+02 0.0 
0.0 0.0 -1.429301383152e+02 
-7.485243318415e+01 2.011482844163e+01 0.0 
2.011482844163e+01 -1.491524549316e+02 0.0 
0.0 0.0 -6.570787178254e+01 
-1.450032503862e+02 1.192535927207e+01 0.0 
1.192535927207e+01 -3.395579176241e+02 0.0 
0.0 0.0 -1.449683504031e+02 
-9.032391422741e+01 -6.872284158055e+00 0.0 
-6.872284158055e+00 -1.910680037984e+02 0.0 
0.0 0.0 -7.880049628877e+01 
-6.105927443402e+01 -1.565800090857e+01 0.0 
-1.565800090857e+01 -1.458075090706e+02 0.0 
0.0 0.0 -5.873414895741e+01 
-1.580305116397e+02 6.635979729873e+00 0.0 
6.635979729873e+00 -3.748564057549e+02 0.0 
0.0 0.0 -1.594660752184e+02 
-6.217060352810e+01 2.438979932855e+01 0.0 
2.438979932855e+01 -1.329142495602e+02 0.0 
0.0 0.0 -5.597461016850e+01 
-1.543052058322e+02 1.156594978277e+01 0.0 
1.156594978277e+01 -3.613788136085e+02 0.0 
0.0 0.0 -1.543052058322e+02 
-1.459779484643e+02 8.997306440404e+00 0.0 
8.997306440404e+00 -3.381279024123e+02 0.0 
0.0 0.0 -1.448317552630e+02 
-1.030541074571e+02 1.213439342383e+01 0.0 
1.213439342383e+01 -2.211860778407e+02 0.0 
0.0 0.0 -9.494475141294e+01 
-2.310909750835e+01 -4.668688239239e+00 0.0 
-4.668688239239e+00 -2.786215312961e+01 0.0 
0.0 0.0 -1.294907448614e+01 
-1.558500680294e+02 1.227934455460e+01 0.0 
1.227934455460e+01 -3.649834920686e+02 0.0 
0.0 0.0 -1.558500680294e+02 
-1.569623640623e+02 8.502768972365e+00 0.0 
8.502768972365e+00 -3.717748926348e+02 0.0 
0.0 0.0 -1.582211770091e+02 
-5.568068668795e+01 -1.294161636374e+01 0.0 
-1.294161636374e+01 -1.434355529804e+02 0.0 
0.0 0.0 -5.493850330266e+01 
-1.027861344081e+02 9.769474263307e+00 0.0 
9.769474263307e+00 -2.712721870896e+02 0.0 
0.0 0.0 -1.141382877469e+02 
-1.610632685191e+02 1.180324307365e+01 0.0 
1.180324307365e+01 -3.799864551272e+02 0.0 
0.0 0.0 -1.619149170939e+02 
-1.114173011727e+01 -6.584902995128e-01 0.0 
-6.584902995128e-01 -9.135137423672e+00 0.0 
0.0 0.0 -6.652973405069e+00 
-8.193394079612e+01 1.946864919986e+01 0.0 
1.946864919986e+01 -1.697424644119e+02 0.0 
0.0 0.0 -7.441799260394e+01 
-1.055837337887e+02 1.133807209103e+01 0.0 
1.133807209103e+01 -2.297084025560e+02 0.0 
0.0 0.0 -9.915118610104e+01 
-1.002825321213e+02 1.315730495499e+01 0.0 
1.315730495499e+01 -2.129111869561e+02 0.0 
0.0 0.0 -9.058109040974e+01 
-1.003526597975e+02 1.109583248593e+01 0.0 
1.109583248593e+01 -2.101156349973e+02 0.0 
0.0 0.0 -9.064588496322e+01 
-5.275208087296e+01 2.639571600728e+01 0.0 
2.639571600728e+01 -1.131037680981e+02 0.0 
0.0 0.0 -4.575086968467e+01 
-1.576102617299e+02 1.268399490758e+01 0.0 
1.268399490758e+01 -3.690906107030e+02 0.0 
0.0 0.0 -1.576102617299e+02 
-6.907533856913e+01 1.254035601451e+01 0.0 
1.254035601451e+01 -1.858105901338e+02 0.0 
0.0 0.0 -7.390138504586e+01 
-2.842303013943e+01 5.731360315952e+00 0.0 
5.731360315952e+00 -1.191807085764e+02 0.0 
0.0 0.0 -4.714106703238e+01 
-1.597617017540e+02 1.394351706266e+00 0.0 
1.394351706266e+00 -3.788965318495e+02 0.0 
0.0 0.0 -1.611974700811e+02 
-1.917921654745e+01 -2.161338064785e+00 0.0 
-2.161338064785e+00 -2.607766024825e+01 0.0 
0.0 0.0 -1.076046559591e+01 
-8.436338622814e+01 8.322343565244e+00 0.0 
8.322343565244e+00 -1.601342687785e+02 0.0 
0.0 0.0 -6.911475301328e+01 
-4.078892771388e+01 -2.042637778542e+01 0.0 
-2.042637778542e+01 -9.982162812218e+01 0.0 
0.0 0.0 -3.888534256969e+01 
-8.642391054274e+01 5.850882871750e+00 0.0 
5.850882871750e+00 -1.685935323111e+02 0.0 
0.0 0.0 -7.432557141994e+01 
-1.631594054934e+02 9.291611955365e+00 0.0 
9.291611955365e+00 -3.863016241877e+02 0.0 
0.0 0.0 -1.644383089043e+02 
-1.595805114420e+02 1.255163712293e+01 0.0 
1.255163712293e+01 -3.736878600312e+02 0.0 
0.0 0.0 -1.595805114420e+02 
-1.022469611939e+02 8.828242346535e+00 0.0 
8.828242346535e+00 -2.173727703445e+02 0.0 
0.0 0.0 -9.503182861297e+01 
-3.903419639487e+01 -2.204436364874e+01 0.0 
-2.204436364874e+01 -7.117298748396e+01 0.0 
0.0 0.0 -2.671603843509e+01 
-2.792675570314e+01 9.242269737418e+00 0.0 
9.242269737418e+00 -1.235692239089e+02 0.0 
0.0 0.0 -4.780584889335e+01 
-4.892876334226e+01 -2.345375700364e+01 0.0 
-2.345375700364e+01 -8.872700248309e+01 0.0 
0.0 0.0 -3.539395221422e+01 
-1.381278245697e+02 2.280267606295e+00 0.0 
2.280267606295e+00 -3.347321650816e+02 0.0 
0.0 0.0 -1.414579968954e+02 
-9.061021880855e+01 3.833272538331e+00 0.0 
3.833272538331e+00 -1.853928571883e+02 0.0 
0.0 0.0 -8.240092279907e+01 
-9.599842043389e+01 7.572094345585e+00 0.0 
7.572094345585e+00 -1.975840121921e+02 0.0 
0.0 0.0 -8.767472978779e+01 
-1.614099794034e+02 1.204154177685e+01 0.0 
1.204154177685e+01 -3.779566186078e+02 0.0 
0.0 0.0 -1.614099794034e+02 
-8.976612061093e+01 3.532412814833e+00 0.0 
3.532412814833e+00 -1.848537419611e+02 0.0 
0.0 0.0 -8.198595877161e+01 
-1.525754328826e+02 8.491077025582e+00 0.0 
8.491077025582e+00 -3.541389826710e+02 0.0 
0.0 0.0 -1.516143246661e+02 
-1.186073296875e+02 1.134507485511e+01 0.0 
1.134507485511e+01 -2.838179166227e+02 0.0 
0.0 0.0 -1.203275738930e+02 
-1.013152418730e+02 2.637321346183e+00 0.0 
2.637321346183e+00 -2.165139763492e+02 0.0 
0.0 0.0 -9.494876546668e+01 
-5.949945135117e+01 2.035560677699e+01 0.0 
2.035560677699e+01 -1.043116033546e+02 0.0 
0.0 0.0 -4.714414163594e+01 
-1.040681074272e+02 8.683113690224e+00 0.0 
8.683113690224e+00 -2.720244837144e+02 0.0 
0.0 0.0 -1.167336888747e+02 
-3.805562048041e+01 2.086616866794e+01 0.0 
2.086616866794e+01 -1.104296797928e+02 0.0 
0.0 0.0 -3.900911309473e+01 
-1.628728775169e+02 1.118878519135e+01 0.0 
1.118878519135e+01 -3.813700475394e+02 0.0 
0.0 0.0 -1.628728775169e+02 
-1.524836426787e+02 1.037112293908e+01 0.0 
1.037112293908e+01 -3.571284995836e+02 0.0 
0.0 0.0 -1.524836426787e+02 
-1.514113391495e+02 9.315903443346e+00 0.0 
9.315903443346e+00 -3.546264580155e+02 0.0 
0.0 0.0 -1.514113391495e+02 
-1.085240351256e+02 -2.746201763372e+00 0.0 
-2.746201763372e+00 -2.630446764449e+02 0.0 
0.0 0.0 -1.120974060622e+02 
-8.876565432721e+01 -5.262461916081e+00 0.0 
-5.262461916081e+00 -1.794722101572e+02 0.0 
0.0 0.0 -7.430481055291e+01 
-8.602952563972e+01 1.613801563735e+01 0.0 
1.613801563735e+01 -1.884255766241e+02 0.0 
0.0 0.0 -8.026238209977e+01 
-1.066295476551e+02 -8.324540125788e-01 0.0 
-8.324540125788e-01 -2.688244165704e+02 0.0 
0.0 0.0 -1.122361892676e+02 
-1.642566524702e+02 1.003443252265e+01 0.0 
1.003443252265e+01 -3.845988557637e+02 0.0 
0.0 0.0 -1.642566524702e+02 
-5.265500601510e+01 2.252676115659e+01 0.0 
2.252676115659e+01 -1.267648387342e+02 0.0 
0.0 0.0 -4.840408204197e+01 
-5.950889281436e+01 -4.441570102129e+00 0.0 
-4.441570102129e+00 -1.683005817109e+02 0.0 
0.0 0.0 -6.491470052338e+01 
-6.337943467980e+01 -7.508697367976e+00 0.0 
-7.508697367976e+00 -1.721096178004e+02 0.0 
0.0 0.0 -6.795840048415e+01 
-1.053273763008e+02 2.524694094513e+00 0.0 
2.524694094513e+00 -2.272876683604e+02 0.0 
0.0 0.0 -9.938451339836e+01 
-1.648381556881e+02 6.730043230477e+00 0.0 
6.730043230477e+00 -3.907849391616e+02 0.0 
0.0 0.0 -1.662869284549e+02 
-4.923518934597e+01 -2.386714691572e+01 0.0 
-2.386714691572e+01 -6.371383914729e+01 0.0 
0.0 0.0 -2.815768341654e+01 
-1.657689996353e+02 8.493321926905e+00 0.0 
8.493321926905e+00 -3.881276658156e+02 0.0 
0.0 0.0 -1.657689996353e+02 
-6.138740721296e+01 -1.107994222900e+01 0.0 
-1.107994222900e+01 -1.600708728029e+02 0.0 
0.0 0.0 -6.325432609189e+01 
-1.552807231454e+02 1.199927044895e+01 0.0 
1.199927044895e+01 -3.636550206726e+02 0.0 
0.0 0.0 -1.552807231454e+02 
-1.353533961137e+02 1.118701330322e+01 0.0 
1.118701330322e+01 -3.072316668236e+02 0.0 
0.0 0.0 -1.323755188812e+02 
-1.034502049647e+01 6.216371111824e-01 0.0 
6.216371111824e-01 -9.243649205186e+00 0.0 
0.0 0.0 -4.594593622483e+00 
-8.341302345526e+01 2.020307966725e+01 0.0 
2.020307966725e+01 -1.831568613080e+02 0.0 
0.0 0.0 -7.990108521110e+01 
-1.324403495235e+02 7.452879530067e+00 0.0 
7.452879530067e+00 -2.968255275243e+02 0.0 
0.0 0.0 -1.283797631143e+02 
-1.568206070557e+02 1.257602854143e+01 0.0 
1.257602854143e+01 -3.672480831300e+02 0.0 
0.0 0.0 -1.568206070557e+02 
-1.088743429158e+02 1.119726368386e+01 0.0 
1.119726368386e+01 -2.375435284828e+02 0.0 
0.0 0.0 -1.035253614196e+02 
-1.218700839062e+02 1.082007376198e+01 0.0 
1.082007376198e+01 -2.940301020035e+02 0.0 
0.0 0.0 -1.243700557729e+02 
-4.489027916877e+01 2.835186781076e+01 0.0 
2.835186781076e+01 -9.667650382189e+01 0.0 
0.0 0.0 -3.878013974598e+01 
-1.489585210205e+02 7.636743647916e+00 0.0 
7.636743647916e+00 -3.572427634695e+02 0.0 
0.0 0.0 -1.514603853470e+02 
-6.466884060613e+01 -1.209609495958e+01 0.0 
-1.209609495958e+01 -1.628284923943e+02 0.0 
0.0 0.0 -6.635994176021e+01 
-6.709632883529e+01 -1.076544704349e+01 0.0 
-1.076544704349e+01 -1.741057198439e+02 0.0 
0.0 0.0 -7.153153238029e+01 
-4.832955596322e+01 -2.656945790038e+01 0.0 
-2.656945790038e+01 -4.836865772591e+01 0.0 
0.0 0.0 -2.643354541444e+01 
-1.585579285419e+02 1.267418302946e+01 0.0 
1.267418302946e+01 -3.713018332645e+02 0.0 
0.0 0.0 -1.585579285419e+02 
-4.327872711110e+01 1.808430473358e+01 0.0 
1.808430473358e+01 -1.253025254280e+02 0.0 
0.0 0.0 -4.531892969465e+01 
-1.334276953083e+02 5.275166540630e+00 0.0 
5.275166540630e+00 -3.299202768000e+02 0.0 
0.0 0.0 -1.386043916325e+02 
-9.814696303203e+01 3.999412633233e+00 0.0 
3.999412633233e+00 -2.066999641393e+02 0.0 
0.0 0.0 -9.105407815139e+01 
-6.390586663771e+01 -1.685487900522e+01 0.0 
-1.685487900522e+01 -1.364702131829e+02 0.0 
0.0 0.0 -5.782140235293e+01 
-6.279414156326e+01 -8.370081623457e+00 0.0 
-8.370081623457e+00 -1.696061503104e+02 0.0 
0.0 0.0 -6.759721202122e+01 
-1.049530017878e+02 1.165509865864e+01 0.0 
1.165509865864e+01 -2.285059761462e+02 0.0 
0.0 0.0 -9.963769338019e+01 
-1.621850183362e+02 1.171853866709e+01 0.0 
1.171853866709e+01 -3.797650427844e+02 0.0 
0.0 0.0 -1.621850183362e+02 
-9.111549470256e+01 -5.741340564042e+00 0.0 
-5.741340564042e+00 -1.870052562161e+02 0.0 
0.0 0.0 -7.720638226611e+01 
-1.156722347685e+02 1.869620962522e+00 0.0 
1.869620962522e+00 -2.913187970606e+02 0.0 
0.0 0.0 -1.222778992789e+02 
-9.910075345962e+01 1.522017342344e+01 0.0 
1.522017342344e+01 -2.167186807979e+02 0.0 
0.0 0.0 -9.264828533967e+01 
-1.009469710632e+02 2.465140604217e+00 0.0 
2.465140604217e+00 -2.655973151247e+02 0.0 
0.0 0.0 -1.148244895523e+02 
-6.431827105953e+01 -3.763272945150e+00 0.0 
-3.763272945150e+00 -1.784740848573e+02 0.0 
0.0 0.0 -7.076397848173e+01 
-1.092746135789e+02 -5.097446718037e-01 0.0 
-5.097446718037e-01 -2.733347111283e+02 0.0 
0.0 0.0 -1.164464148177e+02 
-9.422427529293e+01 1.429904674139e+01 0.0 
1.429904674139e+01 -2.045983666326e+02 0.0 
0.0 0.0 -8.655309800776e+01 
-1.163095546289e+02 1.328212965433e+01 0.0 
1.328212965433e+01 -2.708826246988e+02 0.0 
0.0 0.0 -1.157576537983e+02 
-1.141333877705e+02 8.283002505565e+00 0.0 
8.283002505565e+00 -2.896863682242e+02 0.0 
0.0 0.0 -1.226328968566e+02 
-9.498316284364e+01 1.682507282890e+01 0.0 
1.682507282890e+01 -2.093254268476e+02 0.0 
0.0 0.0 -9.044211351797e+01 
-8.873427936308e+01 -7.576051313734e+00 0.0 
-7.576051313734e+00 -1.954122683351e+02 0.0 
0.0 0.0 -8.130564142886e+01 
-5.708447290742e+01 2.286804494953e+01 0.0 
2.286804494953e+01 -1.295360420210e+02 0.0 
0.0 0.0 -5.167711282629e+01 
-8.675376396005e+01 -6.805814889395e+00 0.0 
-6.805814889395e+00 -1.787058256234e+02 0.0 
0.0 0.0 -7.344726350275e+01 
-1.175972171614e+02 1.280614896772e+01 0.0 
1.280614896772e+01 -2.837593071166e+02 0.0 
0.0 0.0 -1.200069572834e+02 
-9.244572620086e+01 8.646171771708e+00 0.0 
8.646171771708e+00 -2.481090455645e+02 0.0 
0.0 0.0 -1.074891533866e+02 
-1.637906104822e+02 8.560075925914e+00 0.0 
8.560075925914e+00 -3.880430016944e+02 0.0 
0.0 0.0 -1.651500836530e+02 
-1.359523596312e+02 8.145905312837e+00 0.0 
8.145905312837e+00 -3.063499031341e+02 0.0 
0.0 0.0 -1.322906788296e+02 
-5.803911483839e+01 -1.403342474464e+01 0.0 
-1.403342474464e+01 -1.210296793859e+02 0.0 
0.0 0.0 -5.007666859621e+01 
-1.650030764210e+02 9.252994837040e+00 0.0 
9.252994837040e+00 -3.863405116490e+02 0.0 
0.0 0.0 -1.650030764210e+02 
-1.550585894233e+02 8.460508022701e+00 0.0 
8.460508022701e+00 -3.714860921130e+02 0.0 
0.0 0.0 -1.575634044609e+02 
-8.732431248467e+01 1.795846815692e+01 0.0 
1.795846815692e+01 -2.069323512591e+02 0.0 
0.0 0.0 -9.015641212968e+01 
-3.222797998116e+01 -1.356884077154e+01 0.0 
-1.356884077154e+01 -3.516648594156e+01 0.0 
0.0 0.0 -1.396699878098e+01 
-1.654665448951e+02 5.748255350073e+00 0.0 
5.748255350073e+00 -3.918997839139e+02 0.0 
0.0 0.0 -1.668098986427e+02 
-1.356796916938e+02 9.090534338769e+00 0.0 
9.090534338769e+00 -3.061109895095e+02 0.0 
0.0 0.0 -1.321372043610e+02 
-5.950882172900e+01 -1.377461082458e+01 0.0 
-1.377461082458e+01 -1.460473205602e+02 0.0 
0.0 0.0 -5.763323354913e+01 
-1.670943613421e+02 6.865083851375e+00 0.0 
6.865083851375e+00 -3.912201764649e+02 0.0 
0.0 0.0 -1.670943613421e+02 
-1.135319718922e+02 -6.576992794555e-02 0.0 
-6.576992794555e-02 -2.812911704478e+02 0.0 
0.0 0.0 -1.184304858216e+02 
-8.090214441368e+01 1.312933660062e+01 0.0 
1.312933660062e+01 -1.522570889379e+02 0.0 
0.0 0.0 -6.600871519361e+01 
-9.864006317695e+01 6.452627422131e+00 0.0 
6.452627422131e+00 -2.067412765886e+02 0.0 
0.0 0.0 -9.121440192965e+01 
-8.820348765534e+01 9.939345036322e+00 0.0 
9.939345036322e+00 -2.343625410899e+02 0.0 
0.0 0.0 -1.007475877179e+02 
-1.024064394062e+02 -5.263011754467e+00 0.0 
-5.263011754467e+00 -2.445450056643e+02 0.0 
0.0 0.0 -1.049613151921e+02 
-1.046676156593e+02 4.504026546845e+00 0.0 
4.504026546845e+00 -2.742671968437e+02 0.0 
0.0 0.0 -1.175665268650e+02 
-1.142061253474e+02 8.019348370961e+00 0.0 
8.019348370961e+00 -2.466558551329e+02 0.0 
0.0 0.0 -1.078585941441e+02 
-8.823392315655e+01 1.006757714701e+01 0.0 
1.006757714701e+01 -1.706749330999e+02 0.0 
0.0 0.0 -7.313657525761e+01 
-1.197480007121e+02 8.883856614126e+00 0.0 
8.883856614126e+00 -2.982689746835e+02 0.0 
0.0 0.0 -1.251347191939e+02 
-9.937014697083e+01 7.112587158553e-01 0.0 
7.112587158553e-01 -2.155186398503e+02 0.0 
0.0 0.0 -9.406663604633e+01 
-9.279778611022e+01 -8.008379651508e+00 0.0 
-8.008379651508e+00 -1.961954626177e+02 0.0 
0.0 0.0 -8.324186009342e+01 
-1.081209598925e+02 7.325342935970e+00 0.0 
7.325342935970e+00 -2.811328396599e+02 0.0 
0.0 0.0 -1.198220123288e+02 
-7.017105857684e+01 -1.499450122942e+01 0.0 
-1.499450122942e+01 -1.670701545971e+02 0.0 
0.0 0.0 -7.046953038464e+01 
-1.150831807297e+02 -2.635760221975e+00 0.0 
-2.635760221975e+00 -2.699500701714e+02 0.0 
0.0 0.0 -1.136985056791e+02 
-1.206500793277e+01 -1.237026525666e+00 0.0 
-1.237026525666e+00 -8.929454463933e+00 0.0 
0.0 0.0 -5.126359126463e+00 
-6.149512287891e+01 2.256654567414e+01 0.0 
2.256654567414e+01 -1.339990142323e+02 0.0 
0.0 0.0 -5.556905205482e+01 
-6.595263215744e+01 -1.398630895483e+01 0.0 
-1.398630895483e+01 -1.624886872078e+02 0.0 
0.0 0.0 -6.716112630139e+01 
-9.768014106387e+01 -5.758147918118e+00 0.0 
-5.758147918118e+00 -2.112877393876e+02 0.0 
0.0 0.0 -8.736173483733e+01 
-9.154631984292e+01 1.771783012841e+01 0.0 
1.771783012841e+01 -2.143130555622e+02 0.0 
0.0 0.0 -9.297993111994e+01 
-1.099171406871e+02 -2.997901485271e-01 0.0 
-2.997901485271e-01 -2.798607009394e+02 0.0 
0.0 0.0 -1.165333524880e+02 
-1.027126187005e+02 3.661368836718e+00 0.0 
3.661368836718e+00 -2.188049684578e+02 0.0 
0.0 0.0 -9.605527614748e+01 
-6.461168272604e+01 -1.595616072219e+01 0.0 
-1.595616072219e+01 -1.487365217795e+02 0.0 
0.0 0.0 -6.178644094009e+01 
-1.676550108778e+02 5.979687995173e+00 0.0 
5.979687995173e+00 -3.925283587149e+02 0.0 
0.0 0.0 -1.676550108778e+02 
-1.038494818311e+02 1.264370233374e+01 0.0 
1.264370233374e+01 -2.302110611731e+02 0.0 
0.0 0.0 -9.962020193838e+01 
-1.016312013713e+02 -5.012075642426e+00 0.0 
-5.012075642426e+00 -2.192010344220e+02 0.0 
0.0 0.0 -9.148175034469e+01 
-1.008384164818e+02 1.306025309694e+01 0.0 
1.306025309694e+01 -2.215187534767e+02 0.0 
0.0 0.0 -9.542326849285e+01 
-1.010918505051e+02 -5.034468919404e+00 0.0 
-5.034468919404e+00 -2.119676343195e+02 0.0 
0.0 0.0 -8.819819008709e+01 
-1.579235852642e+01 -1.156387416531e+00 0.0 
-1.156387416531e+00 -9.417722163808e+00 0.0 
0.0 0.0 -8.137270186316e+00 
-1.031690257569e+02 7.953108782121e+00 0.0 
7.953108782121e+00 -2.172298902496e+02 0.0 
0.0 0.0 -9.571967480193e+01 
-8.763770867451e+01 -3.094302705476e+00 0.0 
-3.094302705476e+00 -1.722354310590e+02 0.0 
0.0 0.0 -7.234027257258e+01 
-8.078074124255e+00 -2.801129996638e-01 0.0 
-2.801129996638e-01 -8.850596378326e+00 0.0 
0.0 0.0 -3.355091599728e+00 
-9.865466787863e+01 -5.075353850323e+00 0.0 
-5.075353850323e+00 -2.071286058480e+02 0.0 
0.0 0.0 -8.643039603740e+01 
-1.185201522451e+02 5.777643555928e-01 0.0 
5.777643555928e-01 -2.986597682083e+02 0.0 
0.0 0.0 -1.247539761360e+02 
-1.286733686825e+02 1.382645288792e+00 0.0 
1.382645288792e+00 -2.914230596337e+02 0.0 
0.0 0.0 -1.256289284949e+02 
-9.538490352625e+01 2.784782903668e+00 0.0 
2.784782903668e+00 -2.574367355153e+02 0.0 
0.0 0.0 -1.110995468786e+02 
-9.889291045126e+01 2.213223903117e+00 0.0 
2.213223903117e+00 -2.639096869516e+02 0.0 
0.0 0.0 -1.135402901698e+02 
-9.019653761850e+01 6.469119462253e+00 0.0 
6.469119462253e+00 -1.791617704112e+02 0.0 
0.0 0.0 -7.989997790693e+01 
-8.170294288099e+01 2.697670361605e+00 0.0 
2.697670361605e+00 -1.661522100051e+02 0.0 
0.0 0.0 -7.395654586584e+01 
-1.454881399619e+02 7.383979471286e+00 0.0 
7.383979471286e+00 -3.361130732615e+02 0.0 
0.0 0.0 -1.440803639670e+02 
-9.771066447009e+01 1.362368158011e+01 0.0 
1.362368158011e+01 -2.129889257998e+02 0.0 
0.0 0.0 -9.111736072957e+01 
-1.258618561967e+01 2.515851318528e-01 0.0 
2.515851318528e-01 -7.137226639574e+00 0.0 
0.0 0.0 -4.839746299984e+00 
-3.565186205087e+01 -5.390817545456e+00 0.0 
-5.390817545456e+00 -7.045806164535e+01 0.0 
0.0 0.0 -2.747221946324e+01 
-2.814461957641e+01 -7.745935968253e+00 0.0 
-7.745935968253e+00 -2.976387216668e+01 0.0 
0.0 0.0 -1.376363093816e+01 
-6.213292683732e+01 -1.324622056921e+01 0.0 
-1.324622056921e+01 -1.266847746324e+02 0.0 
0.0 0.0 -5.357368973085e+01 
-1.334195013289e+02 1.253261963344e+01 0.0 
1.253261963344e+01 -3.077367369318e+02 0.0 
0.0 0.0 -1.319468714782e+02 
-1.293709193046e+02 3.103418151998e+00 0.0 
3.103418151998e+00 -2.920146609217e+02 0.0 
0.0 0.0 -1.260156740679e+02 
-1.323708010253e+02 1.987583022656e-01 0.0 
1.987583022656e-01 -3.229771950933e+02 0.0 
0.0 0.0 -1.362043988356e+02 
-6.947778346022e+01 -9.101389674965e+00 0.0 
-9.101389674965e+00 -1.420242029122e+02 0.0 
0.0 0.0 -5.926162281554e+01 
-1.194987563083e+02 -1.833594570678e+00 0.0 
-1.833594570678e+00 -2.708426221263e+02 0.0 
0.0 0.0 -1.141738538358e+02 
-1.372538938449e+02 3.547439418435e+00 0.0 
3.547439418435e+00 -3.379998485419e+02 0.0 
0.0 0.0 -1.421761227161e+02 
-3.558891744816e+01 4.804387297447e+00 0.0 
4.804387297447e+00 -1.280513326634e+02 0.0 
0.0 0.0 -4.910132632816e+01 
-8.741469262917e+01 -6.453881659519e-01 0.0 
-6.453881659519e-01 -1.725769066013e+02 0.0 
0.0 0.0 -7.265900131523e+01 
-7.290347381479e+01 -2.174928309397e+00 0.0 
-2.174928309397e+00 -1.410349057255e+02 0.0 
0.0 0.0 -5.898750577476e+01 
-1.655657708152e+02 4.785037008000e+00 0.0 
4.785037008000e+00 -3.923293281514e+02 0.0 
0.0 0.0 -1.669685296900e+02 
-1.679795166509e+02 5.162115684364e+00 0.0 
5.162115684364e+00 -3.932855388521e+02 0.0 
0.0 0.0 -1.679795166509e+02 
-9.607537873260e+01 -7.825157169948e-01 0.0 
-7.825157169948e-01 -1.919899914825e+02 0.0 
0.0 0.0 -8.108632065395e+01 
-1.047478564473e+02 -3.922491377196e+00 0.0 
-3.922491377196e+00 -2.199212617951e+02 0.0 
0.0 0.0 -9.183477186208e+01 
-1.020220692343e+02 -2.423288199522e+00 0.0 
-2.423288199522e+00 -2.499590133690e+02 0.0 
0.0 0.0 -1.051349793001e+02 
-1.421775337011e+02 4.700153771451e+00 0.0 
4.700153771451e+00 -3.476395956183e+02 0.0 
0.0 0.0 -1.465451387958e+02 
-4.145851148671e+01 -8.831176650130e+00 0.0 
-8.831176650130e+00 -7.890458305186e+01 0.0 
0.0 0.0 -3.292434801782e+01 
-1.323376912771e+02 2.447944381108e+00 0.0 
2.447944381108e+00 -3.279169195932e+02 0.0 
0.0 0.0 -1.376763832611e+02 
-1.776676850330e+01 -3.252880895892e-01 0.0 
-3.252880895892e-01 -4.293212385110e+01 0.0 
0.0 0.0 -1.541834088818e+01 
-9.716478201426e+01 -4.661185725650e+00 0.0 
-4.661185725650e+00 -1.998156692619e+02 0.0 
0.0 0.0 -8.262101005499e+01 
-1.044128607368e+02 -5.143276424321e+00 0.0 
-5.143276424321e+00 -2.240470859638e+02 0.0 
0.0 0.0 -9.366899600280e+01 
-1.062633117705e+01 -1.679760381111e-01 0.0 
-1.679760381111e-01 -2.544179495901e+01 0.0 
0.0 0.0 -8.236339811634e+00 
-9.184426512036e+01 -2.058194003421e+00 0.0 
-2.058194003421e+00 -1.817773474114e+02 0.0 
0.0 0.0 -7.678320802563e+01 
-1.346567999148e+02 6.444988292975e+00 0.0 
6.444988292975e+00 -3.053785291878e+02 0.0 
0.0 0.0 -1.316105987308e+02 
-1.243308818172e+01 1.646508546873e-01 0.0 
1.646508546873e-01 -7.469022527601e+00 0.0 
0.0 0.0 -4.885182426154e+00 
-8.267092734988e+01 3.145748495210e+00 0.0 
3.145748495210e+00 -1.669534374239e+02 0.0 
0.0 0.0 -7.448730943213e+01 
-8.348550528080e+01 3.652982446953e+00 0.0 
3.652982446953e+00 -1.679528146431e+02 0.0 
0.0 0.0 -7.503149597718e+01 
-1.087617499082e+02 6.280468351770e+00 0.0 
6.280468351770e+00 -2.828312795050e+02 0.0 
0.0 0.0 -1.199099611999e+02 
-7.143809352591e+01 3.231809804350e-01 0.0 
3.231809804350e-01 -1.409343182452e+02 0.0 
0.0 0.0 -5.898267566751e+01 
-6.243104992756e+01 -1.379143709818e+01 0.0 
-1.379143709818e+01 -1.488511826955e+02 0.0 
0.0 0.0 -6.087777325861e+01 
-4.804962191022e+01 2.689961272217e+01 0.0 
2.689961272217e+01 -9.273987182541e+01 0.0 
0.0 0.0 -3.747692953972e+01 
-1.458162181008e+02 6.272490345689e-01 0.0 
6.272490345689e-01 -3.497171660417e+02 0.0 
0.0 0.0 -1.482600152428e+02 
-1.512634181904e+02 1.222838603932e+01 0.0 
1.222838603932e+01 -3.542493454764e+02 0.0 
0.0 0.0 -1.512538291000e+02 
-1.253722572052e+02 4.157667295739e+00 0.0 
4.157667295739e+00 -2.797202195220e+02 0.0 
0.0 0.0 -1.211277430182e+02 
-5.986443873893e+01 2.063568297154e+01 0.0 
2.063568297154e+01 -1.052032434903e+02 0.0 
0.0 0.0 -4.633367117595e+01 
-2.972840881779e+01 -6.293973877764e+00 0.0 
-6.293973877764e+00 -4.904008550103e+01 0.0 
0.0 0.0 -2.086824571093e+01 
-8.824460442529e+01 9.896348270349e+00 0.0 
9.896348270349e+00 -1.701228584279e+02 0.0 
0.0 0.0 -7.425098186913e+01 
-8.090639072141e+01 1.417635857269e+00 0.0 
1.417635857269e+00 -1.661574503438e+02 0.0 
0.0 0.0 -7.371915231958e+01 
-8.059106831501e+01 1.438313282102e+00 0.0 
1.438313282102e+00 -1.660863333796e+02 0.0 
0.0 0.0 -7.360322050837e+01 
-7.807273013469e+00 -2.495997293562e-01 0.0 
-2.495997293562e-01 -9.184156202419e+00 0.0 
0.0 0.0 -3.289253672011e+00 
-1.076785810863e+01 -2.504753881304e-01 0.0 
-2.504753881304e-01 -2.531838554072e+01 0.0 
0.0 0.0 -8.188383397515e+00 
-1.328852154816e+01 -6.048601030953e-02 0.0 
-6.048601030953e-02 -4.166626620184e+01 0.0 
0.0 0.0 -1.429151683113e+01 
-5.402885473937e+01 -9.555137735547e+00 0.0 
-9.555137735547e+00 -1.081164520931e+02 0.0 
0.0 0.0 -4.455985227475e+01 
-1.410002696973e+01 1.760348431524e-01 0.0 
1.760348431524e-01 -2.587240460503e+01 0.0 
0.0 0.0 -9.386726980676e+00 
-9.971316674299e+01 -1.876233403264e+00 0.0 
-1.876233403264e+00 -2.023104398887e+02 0.0 
0.0 0.0 -8.552084578822e+01 
-4.835105815178e+01 -1.386219171428e+01 0.0 
-1.386219171428e+01 -5.989920434281e+01 0.0 
0.0 0.0 -3.304341411353e+01 
-6.366840021584e+01 -9.709688818275e+00 0.0 
-9.709688818275e+00 -1.289418251398e+02 0.0 
0.0 0.0 -5.323213105451e+01 
-1.059402314060e+02 4.957701677723e-01 0.0 
4.957701677723e-01 -2.325434690719e+02 0.0 
0.0 0.0 -1.011451101434e+02 
-8.237297219839e+01 2.468468199595e+00 0.0 
2.468468199595e+00 -1.666702836415e+02 0.0 
0.0 0.0 -7.431297675196e+01 
-1.376959239938e+02 1.230837326103e+01 0.0 
1.230837326103e+01 -3.163445256470e+02 0.0 
0.0 0.0 -1.358121348922e+02 
-1.144715741136e+02 -4.497862161876e-01 0.0 
-4.497862161876e-01 -2.878802412964e+02 0.0 
0.0 0.0 -1.203055446230e+02 
-9.865160628977e+01 2.053505779518e-01 0.0 
2.053505779518e-01 -2.147489310126e+02 0.0 
0.0 0.0 -9.362016119070e+01 
-7.728000859504e+01 -1.254396142894e+00 0.0 
-1.254396142894e+00 -1.507226923902e+02 0.0 
0.0 0.0 -6.329769710106e+01 
-1.673851683591e+01 4.289410305923e-02 0.0 
4.289410305923e-02 -4.264482404337e+01 0.0 
0.0 0.0 -1.458512919789e+01 
-1.486610992646e+02 4.186832592530e+00 0.0 
4.186832592530e+00 -3.482092316174e+02 0.0 
0.0 0.0 -1.486610992646e+02 
-1.503610292325e+02 4.529938365285e+00 0.0 
4.529938365285e+00 -3.490486068905e+02 0.0 
0.0 0.0 -1.494228908369e+02 
-9.710707250414e+01 1.808326517051e+00 0.0 
1.808326517051e+00 -2.060213070102e+02 0.0 
0.0 0.0 -9.053851385432e+01 
-8.085542944970e+01 1.772522579114e+00 0.0 
1.772522579114e+00 -1.658237511918e+02 0.0 
0.0 0.0 -7.360375419245e+01 
-7.747639590907e+01 -9.011865839661e-01 0.0 
-9.011865839661e-01 -1.532566826630e+02 0.0 
0.0 0.0 -6.423911732323e+01 
-1.500695113711e+02 3.360993869849e+00 0.0 
3.360993869849e+00 -3.483804057150e+02 0.0 
0.0 0.0 -1.491349751258e+02 
-5.884285243751e+01 -9.139084846705e+00 0.0 
-9.139084846705e+00 -1.206322163426e+02 0.0 
0.0 0.0 -4.980764154721e+01 
-8.296049606954e+01 3.101900294030e+00 0.0 
3.101900294030e+00 -1.670686151468e+02 0.0 
0.0 0.0 -7.460873336489e+01 
-8.178507065722e+01 2.142735207808e+00 0.0 
2.142735207808e+00 -1.659663216019e+02 0.0 
0.0 0.0 -7.392541767775e+01 
-8.344771177062e+01 6.203611680576e+00 0.0 
6.203611680576e+00 -1.593771695394e+02 0.0 
0.0 0.0 -6.989111917350e+01 
-1.507791495909e+02 8.067535682215e+00 0.0 
8.067535682215e+00 -3.531513490455e+02 0.0 
0.0 0.0 -1.507791495909e+02 
-1.509430904729e+02 3.821110980816e+00 0.0 
3.821110980816e+00 -3.491679063208e+02 0.0 
0.0 0.0 -1.496332990381e+02 
-1.416115577216e+01 1.140505054061e-01 0.0 
1.140505054061e-01 -2.564512606059e+01 0.0 
0.0 0.0 -9.310315144260e+00 
-8.049347987433e+00 -9.708980422137e-02 0.0 
-9.708980422137e-02 -9.316356275278e+00 0.0 
0.0 0.0 -3.441206785258e+00 
-3.217484514256e+01 -6.446316688201e+00 0.0 
-6.446316688201e+00 -5.845704222300e+01 0.0 
0.0 0.0 -2.456324620684e+01 
-1.003128191307e+02 -5.345407115887e+00 0.0 
-5.345407115887e+00 -2.232848782624e+02 0.0 
0.0 0.0 -9.248951491821e+01 
-1.537680182314e+02 -8.651701614675e-01 0.0 
-8.651701614675e-01 -3.620686994023e+02 0.0 
0.0 0.0 -1.543510152901e+02 
-9.973812408755e+01 -2.325806713965e+01 0.0 
-2.325806713965e+01 -7.607644847951e+01 0.0 
0.0 0.0 -5.302041360452e+01 
-1.224705067366e+02 1.250698412796e+00 0.0 
1.250698412796e+00 -2.752476879492e+02 0.0 
0.0 0.0 -1.189154584058e+02 
-3.080454203652e+01 -1.218355523635e+01 0.0 
-1.218355523635e+01 -1.193448090369e+01 0.0 
0.0 0.0 -1.281603109336e+01 
-1.077582739121e+02 3.079004016953e+00 0.0 
3.079004016953e+00 -2.823100664291e+02 0.0 
0.0 0.0 -1.192343574718e+02 
-2.069053704468e+01 -6.110754410371e+00 0.0 
-6.110754410371e+00 -1.350070868033e+01 0.0 
0.0 0.0 -9.148333153896e+00 
-5.263889987731e+01 -2.632650245932e+01 0.0 
-2.632650245932e+01 -3.408635873698e+01 0.0 
0.0 0.0 -2.630987111504e+01 
-1.037433904411e+02 1.571401851765e+00 0.0 
1.571401851765e+00 -2.729037244876e+02 0.0 
0.0 0.0 -1.157088325319e+02 
-1.490646594742e+02 -4.576151119317e-01 0.0 
-4.576151119317e-01 -3.525833137060e+02 0.0 
0.0 0.0 -1.500943919541e+02 
-1.058744791633e+02 1.004041546855e+00 0.0 
1.004041546855e+00 -2.314142355948e+02 0.0 
0.0 0.0 -1.007866144274e+02 
-9.118119130201e+01 1.113239500392e+01 0.0 
1.113239500392e+01 -1.804480826786e+02 0.0 
0.0 0.0 -7.833155808905e+01 
-1.044165446374e+01 1.504690976122e-02 0.0 
1.504690976122e-02 -2.535128571774e+01 0.0 
0.0 0.0 -8.240499160847e+00 
-1.224234457637e+02 -1.115117221941e+00 0.0 
-1.115117221941e+00 -2.787601143239e+02 0.0 
0.0 0.0 -1.178393121656e+02 
-1.477715205176e+02 1.437474672394e+00 0.0 
1.437474672394e+00 -3.461335478744e+02 0.0 
0.0 0.0 -1.477715205176e+02 
-1.496147820785e+02 2.162473537222e+00 0.0 
2.162473537222e+00 -3.475833179380e+02 0.0 
0.0 0.0 -1.487594300049e+02 
-8.169702852850e+01 1.967819548525e+00 0.0 
1.967819548525e+00 -1.662930631209e+02 0.0 
0.0 0.0 -7.399702749483e+01 
-1.125055008736e+02 4.577241714643e+00 0.0 
4.577241714643e+00 -2.914708459689e+02 0.0 
0.0 0.0 -1.227633892949e+02 
-1.486401303409e+02 3.406570827312e+00 0.0 
3.406570827312e+00 -3.481603041287e+02 0.0 
0.0 0.0 -1.486401303409e+02 
-1.211437903741e+02 1.234634705969e+01 0.0 
1.234634705969e+01 -2.940393366576e+02 0.0 
0.0 0.0 -1.241549381095e+02 
-1.585659022696e+01 -9.917995818355e-02 0.0 
-9.917995818355e-02 -4.138572567366e+01 0.0 
0.0 0.0 -1.385984104045e+01 
-1.392648066210e+01 1.563810550385e-01 0.0 
1.563810550385e-01 -2.565192013798e+01 0.0 
0.0 0.0 -9.305267630412e+00 
-1.018353820329e+01 1.047022225030e-01 0.0 
1.047022225030e-01 -2.467626518940e+01 0.0 
0.0 0.0 -8.135176966256e+00 
-8.735888252551e+01 -1.172441343857e+00 0.0 
-1.172441343857e+00 -1.713919977937e+02 0.0 
0.0 0.0 -7.234516259173e+01 
-1.673984227656e+02 9.230159468974e-01 0.0 
9.230159468974e-01 -3.931762545579e+02 0.0 
0.0 0.0 -1.677724031970e+02 
-1.413766008876e+02 1.026808833326e+00 0.0 
1.026808833326e+00 -3.257283313706e+02 0.0 
0.0 0.0 -1.397314796775e+02 
-7.935289410291e+00 1.461636192543e-01 0.0 
1.461636192543e-01 -9.261059133822e+00 0.0 
0.0 0.0 -3.346981943756e+00 
-1.004142131697e+02 1.678315551852e-01 0.0 
1.678315551852e-01 -2.025616379273e+02 0.0 
0.0 0.0 -8.577432340508e+01 
-1.685087488797e+02 3.541124697201e-01 0.0 
3.541124697201e-01 -3.945204140527e+02 0.0 
0.0 0.0 -1.685087488797e+02 
-1.670230527105e+02 4.668740912842e-01 0.0 
4.668740912842e-01 -3.928355416347e+02 0.0 
0.0 0.0 -1.675575783036e+02 
-1.659365518347e+02 4.032517155136e+00 0.0 
4.032517155136e+00 -3.926559046021e+02 0.0 
0.0 0.0 -1.671777369310e+02 
-1.148069559533e+02 -6.356060082354e-01 0.0 
-6.356060082354e-01 -2.555698730020e+02 0.0 
0.0 0.0 -1.107130486866e+02 
-1.264971990156e+02 9.325598976468e-01 0.0 
9.325598976468e-01 -2.855671912036e+02 0.0 
0.0 0.0 -1.232193170658e+02 
-1.677508558420e+02 5.690106241881e-01 0.0 
5.690106241881e-01 -3.927519969646e+02 0.0 
0.0 0.0 -1.677508558420e+02 
-1.681750360258e+02 8.712443605879e-01 0.0 
8.712443605879e-01 -3.937417507270e+02 0.0 
0.0 0.0 -1.681750360258e+02 
-1.225968380469e+02 -4.220483051087e-01 0.0 
-4.220483051087e-01 -2.753860953353e+02 0.0 
0.0 0.0 -1.189948800147e+02 
-1.288481832717e+01 -2.388263577997e-01 0.0 
-2.388263577997e-01 -6.438466730252e+00 0.0 
0.0 0.0 -4.764910488786e+00 
-7.948015989304e+01 7.982493559578e-01 0.0 
7.982493559578e-01 -1.649786849491e+02 0.0 
0.0 0.0 -7.293765345264e+01 
-8.116215842541e+01 1.500266592255e+00 0.0 
1.500266592255e+00 -1.663449229607e+02 0.0 
0.0 0.0 -7.385212441583e+01 
-7.973665690260e+00 1.822883506122e-03 0.0 
1.822883506122e-03 -9.269199450604e+00 0.0 
0.0 0.0 -3.383997723202e+00 
-1.686536868120e+02 1.794758372573e+00 0.0 
1.794758372573e+00 -3.948586025613e+02 0.0 
0.0 0.0 -1.686536868120e+02 
-1.657549633651e+02 3.156932767378e+00 0.0 
3.156932767378e+00 -3.925065035471e+02 0.0 
0.0 0.0 -1.670784400737e+02 
-1.679958510802e+02 2.884053912122e+00 0.0 
2.884053912122e+00 -3.933236525205e+02 0.0 
0.0 0.0 -1.679958510802e+02 
-1.266416838093e+01 1.726191102440e-01 0.0 
1.726191102440e-01 -7.648587425480e+00 0.0 
0.0 0.0 -4.950128416599e+00 
-1.247719917540e+01 1.099621057833e-01 0.0 
1.099621057833e-01 -7.779966484468e+00 0.0 
0.0 0.0 -4.903744389402e+00 
-1.680599699580e+02 4.334633556869e+00 0.0 
4.334633556869e+00 -3.934732632354e+02 0.0 
0.0 0.0 -1.680599699580e+02 
-1.681533918223e+02 3.646678791812e+00 0.0 
3.646678791812e+00 -3.936912475853e+02 0.0 
0.0 0.0 -1.681533918223e+02 
-1.107302220109e+02 9.823268956055e-01 0.0 
9.823268956055e-01 -2.455602086066e+02 0.0 
0.0 0.0 -1.064871291853e+02 
-7.845148710304e+01 1.885898266242e-01 0.0 
1.885898266242e-01 -1.644319590256e+02 0.0 
0.0 0.0 -7.246503383859e+01 
-1.188726739673e+02 9.735638893439e-01 0.0 
9.735638893439e-01 -2.655526619272e+02 0.0 
0.0 0.0 -1.149276007684e+02 
-9.491686271158e+01 9.373403814868e-01 0.0 
9.373403814868e-01 -2.058824521604e+02 0.0 
0.0 0.0 -8.983979446159e+01 
-7.842026509838e+01 6.471075879137e-02 0.0 
6.471075879137e-02 -1.645017727866e+02 0.0 
0.0 0.0 -7.247661136551e+01 
-1.276727807310e+01 1.435332080834e-01 0.0 
1.435332080834e-01 -7.545476173296e+00 0.0 
0.0 0.0 -4.951813661061e+00 
-1.261306230708e+01 5.704712667761e-01 0.0 
5.704712667761e-01 -7.622756879689e+00 0.0 
0.0 0.0 -5.670745756030e+00 
-1.183782916975e+01 9.797815386251e-01 0.0 
9.797815386251e-01 -6.819349269979e+00 0.0 
0.0 0.0 -5.197153531919e+00 
-1.070444873660e+01 1.321283579471e+00 0.0 
1.321283579471e+00 -7.205281984747e+00 0.0 
0.0 0.0 -4.972919216405e+00 
-1.040381220921e+02 -1.158220636830e+00 0.0 
-1.158220636830e+00 -2.129514802361e+02 0.0 
0.0 0.0 -9.022553389485e+01 
-9.616887630708e+01 -1.131752971595e+00 0.0 
-1.131752971595e+00 -1.921148668520e+02 0.0 
0.0 0.0 -8.130914517186e+01 
-7.530231816697e+00 -1.055236400758e-01 0.0 
-1.055236400758e-01 -9.390516128859e+00 0.0 
0.0 0.0 -3.914163665748e+00 
-1.224598992122e+02 -9.916028667915e-01 0.0 
-9.916028667915e-01 -2.731252695576e+02 0.0 
0.0 0.0 -1.160262669023e+02 
-9.100235646783e+00 -1.399300105975e-01 0.0 
-1.399300105975e-01 -9.559665374125e+00 0.0 
0.0 0.0 -5.101087564614e+00 
-1.497025207804e+02 6.619154770773e+00 0.0 
6.619154770773e+00 -3.506392151543e+02 0.0 
0.0 0.0 -1.497025207804e+02 
-1.482344606896e+02 2.860905193718e+00 0.0 
2.860905193718e+00 -3.472137416091e+02 0.0 
0.0 0.0 -1.482344606896e+02 
-1.487816619169e+02 4.761894320512e+00 0.0 
4.761894320512e+00 -3.484905444727e+02 0.0 
0.0 0.0 -1.487816619169e+02 
-2.087513361068e+01 -1.479384281301e+00 0.0 
-1.479384281301e+00 -6.859473651120e+01 0.0 
0.0 0.0 -2.644096103657e+01 
-6.567138956096e+01 -1.296398496283e+00 0.0 
-1.296398496283e+00 -1.300695561366e+02 0.0 
0.0 0.0 -5.422204604354e+01 
-1.478952035061e+02 2.347389946058e+00 0.0 
2.347389946058e+00 -3.464221415142e+02 0.0 
0.0 0.0 -1.478952035061e+02 
-1.409662821067e+02 -7.793516286375e-01 0.0 
-7.793516286375e-01 -3.331714609331e+02 0.0 
0.0 0.0 -1.418413229120e+02 
-1.487155839460e+02 1.933024869767e+00 0.0 
1.933024869767e+00 -3.483363625407e+02 0.0 
0.0 0.0 -1.487155839460e+02 
-1.496630330940e+02 -8.142519732761e-01 0.0 
-8.142519732761e-01 -3.528992099067e+02 0.0 
0.0 0.0 -1.503686729002e+02 
-1.584911086298e+02 -9.148479293382e-01 0.0 
-9.148479293382e-01 -3.726191952599e+02 0.0 
0.0 0.0 -1.589330911669e+02 
-9.195944198889e+01 2.115430520845e-01 0.0 
2.115430520845e-01 -1.818506543011e+02 0.0 
0.0 0.0 -7.686262841967e+01 
-1.496407831405e+02 2.791853153100e+00 0.0 
2.791853153100e+00 -3.474787855138e+02 0.0 
0.0 0.0 -1.487358705963e+02 
-1.494832577329e+02 1.708757459890e+00 0.0 
1.708757459890e+00 -3.476944412247e+02 0.0 
0.0 0.0 -1.487533096873e+02 
-1.449022603322e+02 8.927857947896e-01 0.0 
8.927857947896e-01 -3.420474690385e+02 0.0 
0.0 0.0 -1.456849188112e+02 
-1.538646172295e+02 9.129886563981e-01 0.0 
9.129886563981e-01 -3.622538714012e+02 0.0 
0.0 0.0 -1.544355465892e+02 
-1.278659771141e+02 -3.037518586712e-02 0.0 
-3.037518586712e-02 -2.948965211742e+02 0.0 
0.0 0.0 -1.251619673086e+02 
-2.243097092687e+01 -3.776258751280e+00 0.0 
-3.776258751280e+00 -9.958470182371e+00 0.0 
0.0 0.0 -1.029330851565e+01 
-9.271880389666e+01 -4.102766633963e+00 0.0 
-4.102766633963e+00 -1.876502638817e+02 0.0 
0.0 0.0 -7.764652138591e+01 
-1.430428586226e+01 2.234819066740e-01 0.0 
2.234819066740e-01 -2.517027958547e+01 0.0 
0.0 0.0 -9.323550245243e+00 
-1.465710008506e+02 1.938627144728e+00 0.0 
1.938627144728e+00 -3.502288249920e+02 0.0 
0.0 0.0 -1.486399477528e+02 
-9.465479097950e+01 -5.892185205273e+00 0.0 
-5.892185205273e+00 -1.991632273088e+02 0.0 
0.0 0.0 -8.226112816238e+01 
-1.361597478969e+02 -6.759603362152e-01 0.0 
-6.759603362152e-01 -3.249511858643e+02 0.0 
0.0 0.0 -1.379332801284e+02 
-4.759528007025e+01 -8.159015581914e+00 0.0 
-8.159015581914e+00 -9.922842811557e+01 0.0 
0.0 0.0 -4.017371200551e+01 
-1.587917679240e+01 -1.227470174171e+00 0.0 
-1.227470174171e+00 -4.153992698070e+01 0.0 
0.0 0.0 -1.532884734849e+01 
-1.454409955688e+02 1.108294475863e+00 0.0 
1.108294475863e+00 -3.446752788379e+02 0.0 
0.0 0.0 -1.466348823220e+02 
-1.009314501511e+02 -3.545709882242e+00 0.0 
-3.545709882242e+00 -2.079265293955e+02 0.0 
0.0 0.0 -8.692221303595e+01 
-8.264630642923e+01 -2.189641599683e+00 0.0 
-2.189641599683e+00 -1.611762452542e+02 0.0 
0.0 0.0 -6.769580041492e+01 
-1.368424229871e+02 8.608350949125e-01 0.0 
8.608350949125e-01 -3.255896945637e+02 0.0 
0.0 0.0 -1.383296352652e+02 
-1.330084793155e+02 2.643917044748e-01 0.0 
2.643917044748e-01 -3.034769126993e+02 0.0 
0.0 0.0 -1.305456176044e+02 
-8.246340924575e+01 2.624801493220e-01 0.0 
2.624801493220e-01 -1.613819151537e+02 0.0 
0.0 0.0 -6.795442885989e+01 
-1.244524388467e+02 2.853953842437e+00 0.0 
2.853953842437e+00 -3.100189539763e+02 0.0 
0.0 0.0 -1.299414178469e+02 
-1.128893848505e+02 -2.074172632158e+00 0.0 
-2.074172632158e+00 -2.735206410731e+02 0.0 
0.0 0.0 -1.148575380616e+02 
-1.252077020634e+02 -1.477959442697e+00 0.0 
-1.477959442697e+00 -2.941591352085e+02 0.0 
0.0 0.0 -1.246959670370e+02 
-1.283351944314e+02 -1.148254062315e+00 0.0 
-1.148254062315e+00 -3.027758143630e+02 0.0 
0.0 0.0 -1.285436788375e+02 
-6.771433836216e+01 1.271351942686e+01 0.0 
1.271351942686e+01 -1.842218161092e+02 0.0 
0.0 0.0 -7.361452821699e+01 
-8.487961857878e+01 1.054354619573e+01 0.0 
1.054354619573e+01 -1.608139394525e+02 0.0 
0.0 0.0 -6.947485063855e+01 
-8.609724015262e+01 1.613213665852e+01 0.0 
1.613213665852e+01 -1.995664336933e+02 0.0 
0.0 0.0 -8.468577930379e+01 
-1.185769645587e+02 -2.232409325503e+00 0.0 
-2.232409325503e+00 -2.779247560834e+02 0.0 
0.0 0.0 -1.173411029291e+02 
-1.408496603297e+02 9.623670447316e-01 0.0 
9.623670447316e-01 -3.339325045371e+02 0.0 
0.0 0.0 -1.420346494600e+02 
-1.311763899301e+02 -1.003547375655e+00 0.0 
-1.003547375655e+00 -3.116063164478e+02 0.0 
0.0 0.0 -1.324348119134e+02 
-5.428763241111e+01 -1.282035944876e+01 0.0 
-1.282035944876e+01 -1.067294773150e+02 0.0 
0.0 0.0 -4.467255256309e+01 
-1.329600954788e+02 9.832749286888e-01 0.0 
9.832749286888e-01 -3.025242789296e+02 0.0 
0.0 0.0 -1.302453123225e+02 
-1.251457285424e+02 8.242310339505e-01 0.0 
8.242310339505e-01 -2.822848834548e+02 0.0 
0.0 0.0 -1.218291835992e+02 
-8.965096288470e+01 -1.213803242505e-01 0.0 
-1.213803242505e-01 -1.913349682563e+02 0.0 
0.0 0.0 -8.389577934231e+01 
-1.203211805519e+02 -1.547462876609e+00 0.0 
-1.547462876609e+00 -2.893480618140e+02 0.0 
0.0 0.0 -1.221153435141e+02 
-1.219815757216e+02 -1.831033054431e+00 0.0 
-1.831033054431e+00 -2.860197371733e+02 0.0 
0.0 0.0 -1.210172402028e+02 
-1.335537370597e+02 2.048791084316e+00 0.0 
2.048791084316e+00 -3.044263556637e+02 0.0 
0.0 0.0 -1.309940278170e+02 
-1.292431607627e+02 6.657590235927e-01 0.0 
6.657590235927e-01 -2.930787905011e+02 0.0 
0.0 0.0 -1.262965853791e+02 
-1.150022586521e+02 -2.671362229531e+00 0.0 
-2.671362229531e+00 -2.669284891928e+02 0.0 
0.0 0.0 -1.115979514632e+02 
-1.494877800911e+02 1.090078282859e+00 0.0 
1.090078282859e+00 -3.529629062519e+02 0.0 
0.0 0.0 -1.503352059029e+02 
-1.244339412321e+02 2.417440515880e+00 0.0 
2.417440515880e+00 -2.790274813560e+02 0.0 
0.0 0.0 -1.206384267764e+02 
-1.321666909394e+02 5.757904171914e-01 0.0 
5.757904171914e-01 -3.116932985015e+02 0.0 
0.0 0.0 -1.325217710468e+02 
-1.512157095712e+02 1.987814836517e+00 0.0 
1.987814836517e+00 -3.592542506656e+02 0.0 
0.0 0.0 -1.527409880710e+02 
-1.333524042688e+02 2.859743753827e+00 0.0 
2.859743753827e+00 -3.031354619811e+02 0.0 
0.0 0.0 -1.305463598750e+02 
-1.143039078146e+02 2.612075394137e+00 0.0 
2.612075394137e+00 -2.520218859521e+02 0.0 
0.0 0.0 -1.094977381300e+02 
-1.203547354411e+02 1.711621736494e+00 0.0 
1.711621736494e+00 -2.996830758860e+02 0.0 
0.0 0.0 -1.256113433981e+02 
-4.861956511897e+01 -4.732517469971e+00 0.0 
-4.732517469971e+00 -1.005109598422e+02 0.0 
0.0 0.0 -3.982119106723e+01 
-5.283175193395e+01 -1.377357223418e+01 0.0 
-1.377357223418e+01 -1.007466050723e+02 0.0 
0.0 0.0 -4.201369262337e+01 
-2.481404215912e+01 -1.697733695462e+00 0.0 
-1.697733695462e+00 -4.863201582316e+01 0.0 
0.0 0.0 -1.822398410997e+01 
-3.410758259202e+01 -1.376246132517e+01 0.0 
-1.376246132517e+01 -3.457474704641e+01 0.0 
0.0 0.0 -1.714907683571e+01 
-1.297454172166e+02 2.346865912514e+00 0.0 
2.346865912514e+00 -2.935269201586e+02 0.0 
0.0 0.0 -1.265817012126e+02 
-1.443668188315e+02 -6.374839748564e-01 0.0 
-6.374839748564e-01 -3.416426814874e+02 0.0 
0.0 0.0 -1.454028500957e+02 
-2.455563215955e+01 -5.802677475611e+00 0.0 
-5.802677475611e+00 -2.839786815390e+01 0.0 
0.0 0.0 -1.264041056869e+01 
-1.357038469561e+02 1.021075964188e+01 0.0 
1.021075964188e+01 -3.063713781359e+02 0.0 
0.0 0.0 -1.322225675276e+02 
-9.381399238371e+01 2.703909728744e-01 0.0 
2.703909728744e-01 -2.005163134124e+02 0.0 
0.0 0.0 -8.789909173884e+01 
-1.330786324253e+02 7.300832509300e-01 0.0 
7.300832509300e-01 -3.176500341527e+02 0.0 
0.0 0.0 -1.348185999734e+02 
-1.354727736295e+02 -8.689931490550e-01 0.0 
-8.689931490550e-01 -3.221012530934e+02 0.0 
0.0 0.0 -1.368722080169e+02 
-6.612665515478e+01 -1.355442512793e+01 0.0 
-1.355442512793e+01 -1.541323052844e+02 0.0 
0.0 0.0 -6.392126088318e+01 
-1.361778804497e+02 7.449473890384e-01 0.0 
7.449473890384e-01 -3.227327358928e+02 0.0 
0.0 0.0 -1.372731849027e+02 
-9.022964142582e+01 2.028611872685e+00 0.0 
2.028611872685e+00 -1.915147181481e+02 0.0 
0.0 0.0 -8.412330787218e+01 
-1.136274412803e+02 9.694794032201e+00 0.0 
9.694794032201e+00 -2.897691977812e+02 0.0 
0.0 0.0 -1.207525190768e+02 
-1.552526249456e+02 1.515684405653e-01 0.0 
1.515684405653e-01 -3.674518185825e+02 0.0 
0.0 0.0 -1.564113330584e+02 
-4.525300596806e+01 -2.718993540860e+00 0.0 
-2.718993540860e+00 -9.657727928543e+01 0.0 
0.0 0.0 -3.897437757730e+01 
-1.512743618313e+02 2.454273383721e+00 0.0 
2.454273383721e+00 -3.612682760206e+02 0.0 
0.0 0.0 -1.533627913556e+02 
-1.183208203596e+02 2.329349797990e+00 0.0 
2.329349797990e+00 -2.629110778035e+02 0.0 
0.0 0.0 -1.139695694489e+02 
-5.373506909208e+01 -3.999986752207e+00 0.0 
-3.999986752207e+00 -1.089858274203e+02 0.0 
0.0 0.0 -4.408381913055e+01 
-5.951898123522e+01 -1.504521683262e+01 0.0 
-1.504521683262e+01 -1.207374766824e+02 0.0 
0.0 0.0 -5.115235105235e+01 
-1.094762810081e+02 -2.605232307680e+00 0.0 
-2.605232307680e+00 -2.322229223234e+02 0.0 
0.0 0.0 -9.830146360415e+01 
-1.054311616328e+02 1.103921034703e+00 0.0 
1.103921034703e+00 -2.299126225956e+02 0.0 
0.0 0.0 -1.002031352685e+02 
-7.803283341645e+01 -7.708950526403e+00 0.0 
-7.708950526403e+00 -1.580338628331e+02 0.0 
0.0 0.0 -6.504394178873e+01 
-1.222764980381e+02 2.167105953799e+00 0.0 
2.167105953799e+00 -2.736982422094e+02 0.0 
0.0 0.0 -1.183924220743e+02 
-1.104443324924e+02 2.252423871998e+00 0.0 
2.252423871998e+00 -2.424162713299e+02 0.0 
0.0 0.0 -1.054581811467e+02 
-1.053428772394e+02 -4.258646548269e+00 0.0 
-4.258646548269e+00 -2.272702820554e+02 0.0 
0.0 0.0 -9.544768372040e+01 
-1.300970218524e+02 3.395448597873e-01 0.0 
3.395448597873e-01 -3.031070973025e+02 0.0 
0.0 0.0 -1.287538356037e+02 
-1.325852314163e+02 5.894765699501e-01 0.0 
5.894765699501e-01 -3.145094307448e+02 0.0 
0.0 0.0 -1.336129734913e+02 
-1.174650003205e+02 5.647446273897e-01 0.0 
5.647446273897e-01 -2.621887413557e+02 0.0 
0.0 0.0 -1.134961225029e+02 
-3.529365779283e+01 -3.337844684283e+00 0.0 
-3.337844684283e+00 -8.434231168747e+01 0.0 
0.0 0.0 -3.256541442311e+01 
-1.024524815694e+02 -4.189995686465e+00 0.0 
-4.189995686465e+00 -2.154237810831e+02 0.0 
0.0 0.0 -9.050954864446e+01 
-1.343688799845e+02 9.414366561856e+00 0.0 
9.414366561856e+00 -3.256856811030e+02 0.0 
0.0 0.0 -1.376163683263e+02 
-1.219505619558e+02 2.845772848815e+00 0.0 
2.845772848815e+00 -2.720511559861e+02 0.0 
0.0 0.0 -1.178005153826e+02 
-9.517128391147e+01 -4.903513275330e+00 0.0 
-4.903513275330e+00 -1.948394768117e+02 0.0 
0.0 0.0 -8.133948271579e+01 
-1.184074338143e+02 -1.895058425238e+00 0.0 
-1.895058425238e+00 -2.746409473584e+02 0.0 
0.0 0.0 -1.153692886494e+02 
-1.472009038979e+02 2.819033489407e+00 0.0 
2.819033489407e+00 -3.534735238012e+02 0.0 
0.0 0.0 -1.498023283097e+02 
-1.136970232774e+02 8.776988449421e-01 0.0 
8.776988449421e-01 -2.514741339854e+02 0.0 
0.0 0.0 -1.091513471788e+02 
-2.823733204185e+01 -7.982335254907e+00 0.0 
-7.982335254907e+00 -1.212802120369e+02 0.0 
0.0 0.0 -4.716535653180e+01 
-1.912649210475e+01 4.393742167859e-01 0.0 
4.393742167859e-01 -4.640655611040e+01 0.0 
0.0 0.0 -1.763790980714e+01 
-4.246537664986e+01 4.381884171369e+00 0.0 
4.381884171369e+00 -1.386071495250e+02 0.0 
0.0 0.0 -5.244151214639e+01 
-1.402713858804e+02 -6.807809575904e-01 0.0 
-6.807809575904e-01 -3.333320529306e+02 0.0 
0.0 0.0 -1.416810316433e+02 
-1.094987474796e+02 1.020555017328e+00 0.0 
1.020555017328e+00 -2.406765431170e+02 0.0 
0.0 0.0 -1.046525871790e+02 
-1.169183535850e+02 -3.206879086940e-01 0.0 
-3.206879086940e-01 -2.528349526747e+02 0.0 
0.0 0.0 -1.073156647825e+02 
-9.768228075343e+01 7.907477971784e-01 0.0 
7.907477971784e-01 -2.101073448368e+02 0.0 
0.0 0.0 -9.193688767707e+01 
-1.381702101154e+02 4.735052890018e+00 0.0 
4.735052890018e+00 -3.386349516858e+02 0.0 
0.0 0.0 -1.426415485404e+02 
-1.088639103652e+02 -3.534045438284e+00 0.0 
-3.534045438284e+00 -2.354198629458e+02 0.0 
0.0 0.0 -9.928891785098e+01 
-1.314178379636e+02 -1.002641785022e+00 0.0 
-1.002641785022e+00 -3.138174853448e+02 0.0 
0.0 0.0 -1.331705969925e+02 
-4.500039118923e+01 -1.923165640745e+00 0.0 
-1.923165640745e+00 -1.015475658567e+02 0.0 
0.0 0.0 -4.067670150964e+01 
-1.506543677304e+02 2.552950975873e-01 0.0 
2.552950975873e-01 -3.591167062292e+02 0.0 
0.0 0.0 -1.525313221879e+02 
-1.081399000066e+02 -2.936160954743e+00 0.0 
-2.936160954743e+00 -2.279867661527e+02 0.0 
0.0 0.0 -9.583545660707e+01 
-5.038410304988e+01 -1.155031361896e+00 0.0 
-1.155031361896e+00 -1.098844691442e+02 0.0 
0.0 0.0 -4.469948287897e+01 
-1.045893374678e+02 -2.537823768112e+00 0.0 
-2.537823768112e+00 -2.161786795544e+02 0.0 
0.0 0.0 -9.094566588994e+01 
-8.266137272415e+01 -6.489222925570e+00 0.0 
-6.489222925570e+00 -1.663292847406e+02 0.0 
0.0 0.0 -6.812674265511e+01 
-6.324317028157e+01 -7.564404206800e+00 0.0 
-7.564404206800e+00 -1.293945489598e+02 0.0 
0.0 0.0 -5.306667752109e+01 
-1.154051239233e+02 -2.123929706072e+00 0.0 
-2.123929706072e+00 -2.519369085273e+02 0.0 
0.0 0.0 -1.067844643167e+02 
-8.941899658504e+00 -2.516567346648e-01 0.0 
-2.516567346648e-01 -9.447425854276e+00 0.0 
0.0 0.0 -3.885254464694e+00 
-8.586964487704e+00 -1.949054880420e-01 0.0 
-1.949054880420e-01 -9.957384097460e+00 0.0 
0.0 0.0 -4.567497222422e+00 
-1.251940726555e+02 -5.082226311769e-01 0.0 
-5.082226311769e-01 -2.867965355592e+02 0.0 
0.0 0.0 -1.214984323333e+02 
-3.926167196023e+01 -2.542921017764e+00 0.0 
-2.542921017764e+00 -9.321516362536e+01 0.0 
0.0 0.0 -3.665651082832e+01 
-1.246721775074e+02 -5.869386610933e-01 0.0 
-5.869386610933e-01 -2.902604256063e+02 0.0 
0.0 0.0 -1.226817088086e+02 
-1.216301731251e+02 -1.205323527789e+00 0.0 
-1.205323527789e+00 -2.824192647676e+02 0.0 
0.0 0.0 -1.190493838633e+02 
-8.570980574095e+01 -7.944018087414e+00 0.0 
-7.944018087414e+00 -1.830762317984e+02 0.0 
0.0 0.0 -7.587198338840e+01 
-5.755958496835e+01 -1.508328559377e+01 0.0 
-1.508328559377e+01 -1.311230091393e+02 0.0 
0.0 0.0 -5.204568523860e+01 
-1.291790190186e+02 3.948155059331e+00 0.0 
3.948155059331e+00 -2.905012302199e+02 0.0 
0.0 0.0 -1.255040747716e+02 
-3.494889168556e+01 2.678725448394e+01 0.0 
2.678725448394e+01 -9.637767320614e+01 0.0 
0.0 0.0 -3.906988260056e+01 
-8.715698210714e+01 -5.374385184598e+00 0.0 
-5.374385184598e+00 -1.748527070559e+02 0.0 
0.0 0.0 -7.222106436359e+01 
-1.427862571108e+02 5.773005397956e+00 0.0 
5.773005397956e+00 -3.477587638296e+02 0.0 
0.0 0.0 -1.467635062821e+02 
-3.454822439867e+01 -3.829668864599e+00 0.0 
-3.829668864599e+00 -7.952483784895e+01 0.0 
0.0 0.0 -3.092606528978e+01 
-1.024905664224e+02 2.394130636889e+00 0.0 
2.394130636889e+00 -2.214145232269e+02 0.0 
0.0 0.0 -9.677152689479e+01 
-9.455615434651e+01 2.163513750703e+00 0.0 
2.163513750703e+00 -2.011940200505e+02 0.0 
0.0 0.0 -8.832505231910e+01 
-3.677276201933e+01 -6.012618376219e+00 0.0 
-6.012618376219e+00 -7.820726954805e+01 0.0 
0.0 0.0 -3.066901615987e+01 
-1.426782033173e+02 3.009358957251e+00 0.0 
3.009358957251e+00 -3.452152912210e+02 0.0 
0.0 0.0 -1.459680483615e+02 
-1.178832752363e+02 3.806632567001e+00 0.0 
3.806632567001e+00 -2.597558470983e+02 0.0 
0.0 0.0 -1.128917367004e+02 
-4.402723761854e+01 -5.341014634906e+00 0.0 
-5.341014634906e+00 -9.222035398126e+01 0.0 
0.0 0.0 -3.638946590632e+01 
-1.326381912574e+02 4.452894417765e+00 0.0 
4.452894417765e+00 -2.994887840717e+02 0.0 
0.0 0.0 -1.292380925987e+02 
-1.315752680941e+02 2.881197189000e+00 0.0 
2.881197189000e+00 -2.986872128950e+02 0.0 
0.0 0.0 -1.286787442967e+02 
-4.823923890839e+01 -4.262523384915e+00 0.0 
-4.262523384915e+00 -1.049455710534e+02 0.0 
0.0 0.0 -4.093189054787e+01 
-6.372763049400e+01 1.874856152960e+01 0.0 
1.874856152960e+01 -1.120384799600e+02 0.0 
0.0 0.0 -4.949875848885e+01 
-5.162819425510e+01 -7.160958629602e+00 0.0 
-7.160958629602e+00 -1.081425990296e+02 0.0 
0.0 0.0 -4.354713953440e+01 
-1.300779846940e+02 2.659962461057e-01 0.0 
2.659962461057e-01 -3.062531378769e+02 0.0 
0.0 0.0 -1.299216147300e+02 
-1.122255465516e+02 -2.813208408361e+00 0.0 
-2.813208408361e+00 -2.437283147653e+02 0.0 
0.0 0.0 -1.030865809262e+02 
-1.345582128382e+02 7.425925594954e+00 0.0 
7.425925594954e+00 -3.052255153052e+02 0.0 
0.0 0.0 -1.315351184430e+02 
-1.282797255518e+02 2.178700720419e+00 0.0 
2.178700720419e+00 -2.898211679534e+02 0.0 
0.0 0.0 -1.250302680516e+02 
-1.275021079307e+02 -9.196340547002e-02 0.0 
-9.196340547002e-02 -2.982244018673e+02 0.0 
0.0 0.0 -1.263117376648e+02 
-1.239817708179e+02 -1.308649108669e+00 0.0 
-1.308649108669e+00 -2.974432879240e+02 0.0 
0.0 0.0 -1.258278817642e+02 
-4.406139063669e+01 -8.371945418257e+00 0.0 
-8.371945418257e+00 -8.754903591490e+01 0.0 
0.0 0.0 -3.595131957328e+01 
-1.275722171365e+02 -1.150246774535e+00 0.0 
-1.150246774535e+00 -3.056174017892e+02 0.0 
0.0 0.0 -1.295568856777e+02 
-1.169234302731e+02 2.025321627435e+00 0.0 
2.025321627435e+00 -2.590495787759e+02 0.0 
0.0 0.0 -1.123919027147e+02 
-1.141734263739e+02 -1.191504531324e+00 0.0 
-1.191504531324e+00 -2.444467547527e+02 0.0 
0.0 0.0 -1.035210542497e+02 
-1.103357233515e+02 2.752136039443e+00 0.0 
2.752136039443e+00 -2.413211930110e+02 0.0 
0.0 0.0 -1.050970749088e+02 
-1.217365366667e+02 3.609536722921e+00 0.0 
3.609536722921e+00 -2.704783373972e+02 0.0 
0.0 0.0 -1.172644622192e+02 
-8.460591849881e+01 1.280229638490e+01 0.0 
1.280229638490e+01 -2.221099736556e+02 0.0 
0.0 0.0 -9.480277903268e+01 
-1.247245420742e+02 1.623985193875e+00 0.0 
1.623985193875e+00 -2.805925036897e+02 0.0 
0.0 0.0 -1.211951137292e+02 
-9.921508258989e+01 -3.967645004861e+00 0.0 
-3.967645004861e+00 -2.044219277519e+02 0.0 
0.0 0.0 -8.591438832570e+01 
-1.112734616042e+02 -2.005260250125e+00 0.0 
-2.005260250125e+00 -2.361293781034e+02 0.0 
0.0 0.0 -9.968997921523e+01 
-7.788912441437e+01 -5.982174760818e+00 0.0 
-5.982174760818e+00 -1.542701909541e+02 0.0 
0.0 0.0 -6.284821436201e+01 
-7.941662608267e+01 -1.147146179630e+01 0.0 
-1.147146179630e+01 -1.681885433401e+02 0.0 
0.0 0.0 -7.153834128808e+01 
-1.132135485452e+02 1.487444379629e+00 0.0 
1.487444379629e+00 -2.498280396384e+02 0.0 
0.0 0.0 -1.085124764551e+02 
-1.007287465761e+02 -6.734741710262e+00 0.0 
-6.734741710262e+00 -2.329916962056e+02 0.0 
0.0 0.0 -9.988778191649e+01 
-5.615070461872e+01 -5.951095162149e+00 0.0 
-5.951095162149e+00 -1.170314334399e+02 0.0 
0.0 0.0 -4.686276834399e+01 
-2.648801889305e+01 -2.419803285175e+00 0.0 
-2.419803285175e+00 -5.823943324679e+01 0.0 
0.0 0.0 -2.199489993739e+01 
-1.141503331507e+02 3.245242576335e+00 0.0 
3.245242576335e+00 -2.505204103322e+02 0.0 
0.0 0.0 -1.090012230449e+02 
-5.812088958622e+01 -8.539709743777e+00 0.0 
-8.539709743777e+00 -1.164262983131e+02 0.0 
0.0 0.0 -4.769876654151e+01 
-1.510282088578e+02 1.134985844101e+00 0.0 
1.134985844101e+00 -3.609742415745e+02 0.0 
0.0 0.0 -1.532007351297e+02 
-1.172315989940e+02 1.323376265003e+00 0.0 
1.323376265003e+00 -2.606043121923e+02 0.0 
0.0 0.0 -1.129507733559e+02 
-1.318891793286e+02 -8.130271086783e-01 0.0 
-8.130271086783e-01 -3.168104979255e+02 0.0 
0.0 0.0 -1.342099031762e+02 
-1.573991381853e+02 7.702374831650e+00 0.0 
7.702374831650e+00 -3.732185616379e+02 0.0 
0.0 0.0 -1.587853099470e+02 
-9.655544564282e+01 -2.950494899301e+00 0.0 
-2.950494899301e+00 -1.958171988316e+02 0.0 
0.0 0.0 -8.191819360096e+01 
-5.161514859496e+01 -7.153484200194e+00 0.0 
-7.153484200194e+00 -1.038944724749e+02 0.0 
0.0 0.0 -4.212309541884e+01 
-3.380142057512e+01 -6.604589273088e+00 0.0 
-6.604589273088e+00 -6.619778886165e+01 0.0 
0.0 0.0 -2.729065801402e+01 
-1.265230513378e+02 9.215595150001e-02 0.0 
9.215595150001e-02 -3.016437210633e+02 0.0 
0.0 0.0 -1.274297661481e+02 
-1.058468468905e+02 5.718646980886e-01 0.0 
5.718646980886e-01 -2.316412895231e+02 0.0 
0.0 0.0 -1.008464409241e+02 
-2.289424532787e+01 -3.664479618610e+00 0.0 
-3.664479618610e+00 -4.704698101515e+01 0.0 
0.0 0.0 -1.856660398468e+01 
-7.897221187749e+01 -5.706180625572e+00 0.0 
-5.706180625572e+00 -1.589329644658e+02 0.0 
0.0 0.0 -6.544399955271e+01 
-3.561612409797e+01 -5.998158269584e-01 0.0 
-5.998158269584e-01 -8.980278647660e+01 0.0 
0.0 0.0 -3.580069221048e+01 
-1.064240397903e+02 2.839948221629e+00 0.0 
2.839948221629e+00 -2.306229092506e+02 0.0 
0.0 0.0 -1.007140847123e+02 
-8.354480386605e+01 -4.419289607214e+00 0.0 
-4.419289607214e+00 -1.673266847326e+02 0.0 
0.0 0.0 -6.852944392529e+01 
-1.166220390055e+02 -1.817128742825e+00 0.0 
-1.817128742825e+00 -2.814106001275e+02 0.0 
0.0 0.0 -1.184818753054e+02 
-7.809870422565e+01 -3.513983609407e+00 0.0 
-3.513983609407e+00 -1.552415297412e+02 0.0 
0.0 0.0 -6.375167653072e+01 
-1.258487208172e+02 2.644394028411e+00 0.0 
2.644394028411e+00 -2.829234775238e+02 0.0 
0.0 0.0 -1.222316595023e+02 
-6.837458269335e+01 -8.395457325225e+00 0.0 
-8.395457325225e+00 -1.371969934849e+02 0.0 
0.0 0.0 -5.641474871313e+01 
-1.251408327936e+02 8.729179040223e-01 0.0 
8.729179040223e-01 -3.048246175935e+02 0.0 
0.0 0.0 -1.285477067516e+02 
-5.223631943554e+01 -1.292692214723e+01 0.0 
-1.292692214723e+01 -9.991518967568e+01 0.0 
0.0 0.0 -4.170784764243e+01 
-1.233118733587e+02 -3.508141632211e-01 0.0 
-3.508141632211e-01 -2.937509463484e+02 0.0 
0.0 0.0 -1.237899130128e+02 
-1.079743921302e+02 -1.744250728428e+00 0.0 
-1.744250728428e+00 -2.249318655890e+02 0.0 
0.0 0.0 -9.505828038989e+01 
-1.276011996438e+02 -9.252052649779e-01 0.0 
-9.252052649779e-01 -3.087639610336e+02 0.0 
0.0 0.0 -1.305095482032e+02 
-6.236588890661e+01 3.998375465280e-01 0.0 
3.998375465280e-01 -1.778367809283e+02 0.0 
0.0 0.0 -6.908184441659e+01 
-3.997874054860e+01 -3.459266649618e+00 0.0 
-3.459266649618e+00 -8.866523578905e+01 0.0 
0.0 0.0 -3.518047023476e+01 
-9.876872907817e+01 1.991634819167e+00 0.0 
1.991634819167e+00 -2.122419834397e+02 0.0 
0.0 0.0 -9.290321375536e+01 
-1.096515393544e+02 3.952500243454e+00 0.0 
3.952500243454e+00 -2.832988369262e+02 0.0 
0.0 0.0 -1.205427669817e+02 
-8.671305874810e+01 1.705636806247e+01 0.0 
1.705636806247e+01 -1.769951767951e+02 0.0 
0.0 0.0 -7.713832478171e+01 
-1.064843875126e+02 2.345230102986e+00 0.0 
2.345230102986e+00 -2.319972312599e+02 0.0 
0.0 0.0 -1.011444856318e+02 
-5.806079963856e+01 -1.578228509624e+01 0.0 
-1.578228509624e+01 -1.163412495063e+02 0.0 
0.0 0.0 -4.897705628350e+01 
-1.091791067587e+02 2.372877449259e+00 0.0 
2.372877449259e+00 -2.378395773972e+02 0.0 
0.0 0.0 -1.037056052468e+02 
-3.019901529298e+01 -1.172292574096e+00 0.0 
-1.172292574096e+00 -8.086778013637e+01 0.0 
0.0 0.0 -3.161614882207e+01 
-1.424893014615e+02 2.151560568292e+00 0.0 
2.151560568292e+00 -3.427854031055e+02 0.0 
0.0 0.0 -1.451824113701e+02 
-1.137625800463e+02 5.592708342442e+00 0.0 
5.592708342442e+00 -2.922218518339e+02 0.0 
0.0 0.0 -1.232391786980e+02 
-1.192343347960e+02 1.038460474604e+01 0.0 
1.038460474604e+01 -2.983491163467e+02 0.0 
0.0 0.0 -1.248750353428e+02 
-1.365285181905e+02 4.277009311226e+00 0.0 
4.277009311226e+00 -3.108608434069e+02 0.0 
0.0 0.0 -1.338168084792e+02 
-1.072542177966e+02 -4.369846676601e+00 0.0 
-4.369846676601e+00 -2.518945917056e+02 0.0 
0.0 0.0 -1.073105543355e+02 
-3.995158394200e+01 -6.044220750218e+00 0.0 
-6.044220750218e+00 -8.355276703818e+01 0.0 
0.0 0.0 -3.336437393439e+01 
-1.164190490811e+02 -1.452759650784e+00 0.0 
-1.452759650784e+00 -2.782421658044e+02 0.0 
0.0 0.0 -1.164495830151e+02 
-1.463298164651e+02 1.397386256573e+00 0.0 
1.397386256573e+00 -3.527891388744e+02 0.0 
0.0 0.0 -1.493356866018e+02 
-6.740203010349e+01 -1.649263115554e+01 0.0 
-1.649263115554e+01 -1.523676027635e+02 0.0 
0.0 0.0 -6.438763342206e+01 
-1.296542518878e+02 4.669842166595e-01 0.0 
4.669842166595e-01 -3.096179218157e+02 0.0 
0.0 0.0 -1.311131490473e+02 
-1.180318425316e+02 3.078661570128e+00 0.0 
3.078661570128e+00 -2.612385810257e+02 0.0 
0.0 0.0 -1.133811270672e+02 
-5.409601345621e+01 -1.550250275891e+01 0.0 
-1.550250275891e+01 -1.277325602514e+02 0.0 
0.0 0.0 -4.886312114356e+01 
-1.199595266433e+02 -8.585590450565e-01 0.0 
-8.585590450565e-01 -2.859562899945e+02 0.0 
0.0 0.0 -1.201507373531e+02 
-9.854441004814e+01 3.114955643789e+00 0.0 
3.114955643789e+00 -2.091992887783e+02 0.0 
0.0 0.0 -9.192310964792e+01 
-5.889529314862e+01 -2.412831354273e+00 0.0 
-2.412831354273e+00 -1.222669614419e+02 0.0 
0.0 0.0 -4.978393910993e+01 
-7.424050738007e+01 -7.253043162957e+00 0.0 
-7.253043162957e+00 -1.505384941933e+02 0.0 
0.0 0.0 -6.235801758775e+01 
-9.563284077820e+01 1.424418609372e+01 0.0 
1.424418609372e+01 -2.158947218062e+02 0.0 
0.0 0.0 -9.102636892906e+01 
-1.234057690064e+02 -1.035767369800e+00 0.0 
-1.035767369800e+00 -3.007622933665e+02 0.0 
0.0 0.0 -1.268504187119e+02 
-8.008054823131e+01 1.444533319429e+01 0.0 
1.444533319429e+01 -1.527583529773e+02 0.0 
0.0 0.0 -6.523898745653e+01 
-9.172832042915e+01 1.484481581152e+01 0.0 
1.484481581152e+01 -2.078019208542e+02 0.0 
0.0 0.0 -8.805679725241e+01 
-1.130475156874e+02 2.196971775608e+00 0.0 
2.196971775608e+00 -2.484062572066e+02 0.0 
0.0 0.0 -1.080361318682e+02 
-1.016582917334e+02 6.301981716579e-01 0.0 
6.301981716579e-01 -2.207672980224e+02 0.0 
0.0 0.0 -9.632767692674e+01 
-1.014445638820e+02 1.892219276758e+00 0.0 
1.892219276758e+00 -2.179322290396e+02 0.0 
0.0 0.0 -9.541303787650e+01 
-1.060411254392e+02 -3.303198642432e+00 0.0 
-3.303198642432e+00 -2.240933994557e+02 0.0 
0.0 0.0 -9.456506869200e+01 
-1.381730116101e+02 3.298735484342e+00 0.0 
3.298735484342e+00 -3.370331013884e+02 0.0 
0.0 0.0 -1.421618338996e+02 
-1.126605541801e+02 -2.099983331184e+00 0.0 
-2.099983331184e+00 -2.706080307443e+02 0.0 
0.0 0.0 -1.140231037342e+02 
-9.842212226813e+01 2.448617626663e+00 0.0 
2.448617626663e+00 -2.106936653096e+02 0.0 
0.0 0.0 -9.233473627332e+01 
-1.399235236538e+02 1.120331640705e+01 0.0 
1.120331640705e+01 -3.180592513229e+02 0.0 
0.0 0.0 -1.369948324930e+02 
-1.247412686462e+02 1.091739813552e+01 0.0 
1.091739813552e+01 -3.070303117975e+02 0.0 
0.0 0.0 -1.291314741331e+02 
-1.192518648629e+02 -1.137974150778e+00 0.0 
-1.137974150778e+00 -2.927809206572e+02 0.0 
0.0 0.0 -1.232098356560e+02 
-1.208336529851e+02 1.844733497089e+00 0.0 
1.844733497089e+00 -2.697986141766e+02 0.0 
0.0 0.0 -1.167896801485e+02 
-8.422499512957e+01 -9.404886697273e+00 0.0 
-9.404886697273e+00 -1.756184660465e+02 0.0 
0.0 0.0 -7.446262584877e+01 
-7.965122893106e+01 -8.402421308736e+00 0.0 
-8.402421308736e+00 -1.630530396317e+02 0.0 
0.0 0.0 -6.842219002852e+01 
-3.922499507634e+01 -5.876128758576e+00 0.0 
-5.876128758576e+00 -8.698808048913e+01 0.0 
0.0 0.0 -3.389866931549e+01 
-1.174513123660e+02 3.052911058999e-01 0.0 
3.052911058999e-01 -2.890626965765e+02 0.0 
0.0 0.0 -1.211309198910e+02 
-8.434670199764e+01 -6.705614930378e+00 0.0 
-6.705614930378e+00 -1.712198196055e+02 0.0 
0.0 0.0 -7.142948518346e+01 
-1.102631194486e+02 3.419799073626e+00 0.0 
3.419799073626e+00 -2.397908907904e+02 0.0 
0.0 0.0 -1.046162030717e+02 
-1.063898779096e+02 3.594849101517e+00 0.0 
3.594849101517e+00 -2.291505075583e+02 0.0 
0.0 0.0 -1.002621156404e+02 
-8.427846091149e+01 8.349900441407e+00 0.0 
8.349900441407e+00 -2.280912801815e+02 0.0 
0.0 0.0 -9.707994226013e+01 
-6.836523690205e+01 -1.056437343685e+01 0.0 
-1.056437343685e+01 -1.415831890881e+02 0.0 
0.0 0.0 -5.879289087775e+01 
-6.119419531602e+01 1.376687571029e+01 0.0 
1.376687571029e+01 -1.697884185772e+02 0.0 
0.0 0.0 -6.621116748695e+01 
-7.319088385620e+01 -9.097583069340e+00 0.0 
-9.097583069340e+00 -1.497787545202e+02 0.0 
0.0 0.0 -6.190656156960e+01 
-7.731479874712e+01 -9.442844868779e+00 0.0 
-9.442844868779e+00 -1.623436349759e+02 0.0 
0.0 0.0 -6.737273838026e+01 
-4.743255147899e+01 -7.944754663407e+00 0.0 
-7.944754663407e+00 -9.572535878434e+01 0.0 
0.0 0.0 -3.894258608363e+01 
-1.335449243615e+02 3.660725837177e+00 0.0 
3.660725837177e+00 -3.286812133774e+02 0.0 
0.0 0.0 -1.382678413217e+02 
-8.656258499606e+01 -7.792374052674e+00 0.0 
-7.792374052674e+00 -2.000059383868e+02 0.0 
0.0 0.0 -8.383824258267e+01 
-1.255695856348e+02 3.377835674041e+00 0.0 
3.377835674041e+00 -2.812472051147e+02 0.0 
0.0 0.0 -1.216450372249e+02 
-8.887489070032e+01 -6.644237077985e+00 0.0 
-6.644237077985e+00 -2.117397181640e+02 0.0 
0.0 0.0 -8.930371608133e+01 
-1.107265328788e+02 -1.094450459032e+00 0.0 
-1.094450459032e+00 -2.768300307789e+02 0.0 
0.0 0.0 -1.158669690973e+02 
-1.004308071623e+02 -3.941955620205e+00 0.0 
-3.941955620205e+00 -2.387635726910e+02 0.0 
0.0 0.0 -1.000402072694e+02 
-8.713864502578e+01 1.536713735269e+01 0.0 
1.536713735269e+01 -2.095000803015e+02 0.0 
0.0 0.0 -8.915384214447e+01 
-4.357109343981e+01 -5.259598761192e+00 0.0 
-5.259598761192e+00 -9.603611876783e+01 0.0 
0.0 0.0 -3.732966967322e+01 
-1.415949381930e+02 1.751311632640e+00 0.0 
1.751311632640e+00 -3.444253579046e+02 0.0 
0.0 0.0 -1.454060888293e+02 
-1.477904561137e+02 3.992091712219e+00 0.0 
3.992091712219e+00 -3.566674832009e+02 0.0 
0.0 0.0 -1.509373817944e+02 
-1.125535341399e+02 1.197541433045e+01 0.0 
1.197541433045e+01 -2.626889968212e+02 0.0 
0.0 0.0 -1.121727592883e+02 
-8.085335932616e+01 -9.298202030120e+00 0.0 
-9.298202030120e+00 -1.750124979329e+02 0.0 
0.0 0.0 -7.279445931647e+01 
-1.056636859264e+02 -2.338099745611e+00 0.0 
-2.338099745611e+00 -2.578503763738e+02 0.0 
0.0 0.0 -1.075360773581e+02 
-1.092436279171e+02 1.602815411007e+00 0.0 
1.602815411007e+00 -2.390553940842e+02 0.0 
0.0 0.0 -1.040897066004e+02 
-8.893416538334e+01 -7.513676950039e+00 0.0 
-7.513676950039e+00 -1.836963783878e+02 0.0 
0.0 0.0 -7.737388031842e+01 
-7.978541789510e+01 1.750149915644e+01 0.0 
1.750149915644e+01 -1.687780781298e+02 0.0 
0.0 0.0 -7.207818612612e+01 
-6.809319219331e+01 -5.971811014827e+00 0.0 
-5.971811014827e+00 -1.381536901222e+02 0.0 
0.0 0.0 -5.627604123359e+01 
-6.236033902075e+01 -1.643701779272e+01 0.0 
-1.643701779272e+01 -1.330985559773e+02 0.0 
0.0 0.0 -5.579381749061e+01 
-8.796490693789e+01 -1.004082377055e+01 0.0 
-1.004082377055e+01 -1.884610576977e+02 0.0 
0.0 0.0 -8.045822073638e+01 
-6.278001676618e+01 -7.423136451732e+00 0.0 
-7.423136451732e+00 -1.247191090224e+02 0.0 
0.0 0.0 -5.090436152198e+01 
-5.340232184861e+01 -3.251166042467e+00 0.0 
-3.251166042467e+00 -1.138633897123e+02 0.0 
0.0 0.0 -4.548841424885e+01 
-1.054720275307e+02 -5.511559063925e+00 0.0 
-5.511559063925e+00 -2.402870456785e+02 0.0 
0.0 0.0 -1.022136912408e+02 
-1.149508195337e+02 -1.160243779511e+00 0.0 
-1.160243779511e+00 -2.847856015967e+02 0.0 
0.0 0.0 -1.195209263391e+02 
-1.324417084160e+02 1.116509889530e+01 0.0 
1.116509889530e+01 -3.089688595369e+02 0.0 
0.0 0.0 -1.320231703859e+02 
-1.232975176885e+01 1.277491845349e-01 0.0 
1.277491845349e-01 -8.526319444019e+00 0.0 
0.0 0.0 -5.067246740127e+00 
-7.926162977467e+01 -6.353048377752e+00 0.0 
-6.353048377752e+00 -2.076886929393e+02 0.0 
0.0 0.0 -8.746978047504e+01 
-8.384137060077e+01 -7.487358662778e+00 0.0 
-7.487358662778e+00 -2.044525519729e+02 0.0 
0.0 0.0 -8.621948140678e+01 
-8.391719389532e+01 -8.680091161905e+00 0.0 
-8.680091161905e+00 -1.876819099920e+02 0.0 
0.0 0.0 -7.829071063848e+01 
-1.053301613017e+02 1.749711354853e+00 0.0 
1.749711354853e+00 -2.283965239857e+02 0.0 
0.0 0.0 -9.971800558623e+01 
-9.386992548819e+01 -5.791551932798e+00 0.0 
-5.791551932798e+00 -2.194373019851e+02 0.0 
0.0 0.0 -9.221136844963e+01 
-7.318194946980e+01 -7.088221036576e+00 0.0 
-7.088221036576e+00 -1.456453260146e+02 0.0 
0.0 0.0 -5.959894985377e+01 
-9.092725469387e+01 -1.001385286889e+01 0.0 
-1.001385286889e+01 -2.013067322748e+02 0.0 
0.0 0.0 -8.626599116809e+01 
-1.210982505009e+02 1.115047121145e+00 0.0 
1.115047121145e+00 -2.714010331532e+02 0.0 
0.0 0.0 -1.173497850962e+02 
-7.290427345135e+01 -4.672971798667e+00 0.0 
-4.672971798667e+00 -1.467203692739e+02 0.0 
0.0 0.0 -5.945908718000e+01 
-2.424601261200e+01 -4.136121935598e+00 0.0 
-4.136121935598e+00 -5.457882121845e+01 0.0 
0.0 0.0 -2.113564994602e+01 
-3.631837596245e+01 -6.173434820035e+00 0.0 
-6.173434820035e+00 -7.537685475352e+01 0.0 
0.0 0.0 -3.021996880520e+01 
-6.016026025273e+01 -1.471208032764e+01 0.0 
-1.471208032764e+01 -1.349000388282e+02 0.0 
0.0 0.0 -5.531990907468e+01 
-7.229527848721e+01 -1.100083782967e+01 0.0 
-1.100083782967e+01 -1.544616095212e+02 0.0 
0.0 0.0 -6.428555097750e+01 
-8.577981063002e+01 -5.737888385319e+00 0.0 
-5.737888385319e+00 -2.157152634140e+02 0.0 
0.0 0.0 -9.148789148237e+01 
-9.325757073022e+01 -9.347331701209e+00 0.0 
-9.347331701209e+00 -2.137392012044e+02 0.0 
0.0 0.0 -9.179690172647e+01 
-5.156114587555e+01 -1.352669624714e+01 0.0 
-1.352669624714e+01 -9.494035467189e+01 0.0 
0.0 0.0 -3.913942426756e+01 
-3.003887152293e+01 -3.544448400604e+00 0.0 
-3.544448400604e+00 -7.510306889839e+01 0.0 
0.0 0.0 -2.842095958460e+01 
-1.022231667078e+02 4.683290478663e+00 0.0 
4.683290478663e+00 -2.168828231586e+02 0.0 
0.0 0.0 -9.533179695991e+01 
-6.117488676928e+01 -4.625937046707e+00 0.0 
-4.625937046707e+00 -1.260197407648e+02 0.0 
0.0 0.0 -5.018789315732e+01 
-1.276491864311e+02 1.398844230046e+00 0.0 
1.398844230046e+00 -3.174836802228e+02 0.0 
0.0 0.0 -1.331398599962e+02 
-1.280921019441e+02 1.122798195968e+01 0.0 
1.122798195968e+01 -3.006297361797e+02 0.0 
0.0 0.0 -1.282165514371e+02 
-1.065493910464e+02 8.873268184232e+00 0.0 
8.873268184232e+00 -2.269717986980e+02 0.0 
0.0 0.0 -9.965635692332e+01 
-1.278603828549e+02 3.932608317637e+00 0.0 
3.932608317637e+00 -2.872590268182e+02 0.0 
0.0 0.0 -1.241358229019e+02 
-1.367259911491e+02 1.103132100821e+01 0.0 
1.103132100821e+01 -3.174394070789e+02 0.0 
0.0 0.0 -1.358496194684e+02 
-8.156538016756e+01 1.088929968556e+01 0.0 
1.088929968556e+01 -2.178879352023e+02 0.0 
0.0 0.0 -9.181046644468e+01 
-1.202218916047e+02 1.149345080209e+01 0.0 
1.149345080209e+01 -2.816336260609e+02 0.0 
0.0 0.0 -1.201566552997e+02 
-5.751349246935e+01 -1.688885361975e+01 0.0 
-1.688885361975e+01 -1.137098543569e+02 0.0 
0.0 0.0 -4.675135877131e+01 
-9.597152977672e+01 -8.064150151004e+00 0.0 
-8.064150151004e+00 -2.086652705483e+02 0.0 
0.0 0.0 -8.896686642079e+01 
-8.239650040426e+01 1.808939632807e+01 0.0 
1.808939632807e+01 -2.007291875003e+02 0.0 
0.0 0.0 -8.634479678664e+01 
-5.097683360658e+01 -1.139909392790e+01 0.0 
-1.139909392790e+01 -1.405820330258e+02 0.0 
0.0 0.0 -5.206508119942e+01 
-5.149162187249e+01 -1.628894935421e+01 0.0 
-1.628894935421e+01 -9.200697897372e+01 0.0 
0.0 0.0 -3.737476642079e+01 
-8.216854329840e+01 -7.979529839869e+00 0.0 
-7.979529839869e+00 -1.705724305567e+02 0.0 
0.0 0.0 -7.044539686744e+01 
-8.731041897145e+01 -1.102228321229e+01 0.0 
-1.102228321229e+01 -2.066019247957e+02 0.0 
0.0 0.0 -8.866241952200e+01 
-8.895503712378e+01 -9.270856075519e+00 0.0 
-9.270856075519e+00 -2.184787526216e+02 0.0 
0.0 0.0 -9.375006469058e+01 
-6.761608869299e+01 -6.202767816616e+00 0.0 
-6.202767816616e+00 -1.332796879265e+02 0.0 
0.0 0.0 -5.415438392597e+01 
-9.597938025933e+01 -4.394614183226e+00 0.0 
-4.394614183226e+00 -2.308992870235e+02 0.0 
0.0 0.0 -9.755424489986e+01 
-8.314319529884e+01 -9.552055288626e+00 0.0 
-9.552055288626e+00 -2.128959278657e+02 0.0 
0.0 0.0 -9.072717427464e+01 
-8.153985069985e+01 -3.563526671494e+00 0.0 
-3.563526671494e+00 -2.177176487120e+02 0.0 
0.0 0.0 -9.236623711647e+01 
-7.490204407457e+01 -1.045453317202e+01 0.0 
-1.045453317202e+01 -1.550481526849e+02 0.0 
0.0 0.0 -6.546648531649e+01 
-1.134117711081e+02 7.771096081370e+00 0.0 
7.771096081370e+00 -2.912809027111e+02 0.0 
0.0 0.0 -1.223323215405e+02 
-1.140454667608e+02 4.015482503266e+00 0.0 
4.015482503266e+00 -2.491316670913e+02 0.0 
0.0 0.0 -1.085531401556e+02 
-7.818291939293e+01 -1.695990514591e+00 0.0 
-1.695990514591e+00 -2.125066050635e+02 0.0 
0.0 0.0 -8.904402715164e+01 
-1.370524054997e+02 2.076407102032e+00 0.0 
2.076407102032e+00 -3.362929816046e+02 0.0 
0.0 0.0 -1.416036161313e+02 
-5.980481708772e+01 -1.713404180522e+01 0.0 
-1.713404180522e+01 -1.305999066843e+02 0.0 
0.0 0.0 -5.291870224703e+01 
-1.471898316238e+02 4.100058325006e+00 0.0 
4.100058325006e+00 -3.572341938957e+02 0.0 
0.0 0.0 -1.509272076559e+02 
-9.093609977537e+01 -5.103516091860e+00 0.0 
-5.103516091860e+00 -2.230872807526e+02 0.0 
0.0 0.0 -9.464199563763e+01 
-1.414975668849e+02 1.080461872760e+01 0.0 
1.080461872760e+01 -3.277329982863e+02 0.0 
0.0 0.0 -1.403691695513e+02 
-1.077794524817e+02 1.248218586211e+01 0.0 
1.248218586211e+01 -2.389807566840e+02 0.0 
0.0 0.0 -1.036280627497e+02 
-5.556452743522e+01 -1.537070589018e+01 0.0 
-1.537070589018e+01 -1.159922766059e+02 0.0 
0.0 0.0 -4.683328894872e+01 
-1.097844160309e+02 9.739481967698e+00 0.0 
9.739481967698e+00 -2.368170085787e+02 0.0 
0.0 0.0 -1.035804273829e+02 
-1.313490362659e+02 5.603644148617e+00 0.0 
5.603644148617e+00 -2.960271053663e+02 0.0 
0.0 0.0 -1.278128424897e+02 
-9.272763981175e+01 -3.180354393037e+00 0.0 
-3.180354393037e+00 -2.339053344073e+02 0.0 
0.0 0.0 -9.976832744461e+01 
-6.744388803743e+01 2.108779981715e+01 0.0 
2.108779981715e+01 -1.526062928285e+02 0.0 
0.0 0.0 -6.392990045547e+01 
-1.129663643110e+02 1.052251186410e+01 0.0 
1.052251186410e+01 -2.468489205616e+02 0.0 
0.0 0.0 -1.075445854618e+02 
-9.323011425198e+01 1.615997264449e+01 0.0 
1.615997264449e+01 -1.971003713761e+02 0.0 
0.0 0.0 -8.514098028404e+01 
-5.140440570809e+01 -1.493378688680e+01 0.0 
-1.493378688680e+01 -9.511413721022e+01 0.0 
0.0 0.0 -3.881288328299e+01 
-1.425275313206e+02 4.689614042069e+00 0.0 
4.689614042069e+00 -3.277371454995e+02 0.0 
0.0 0.0 -1.406794030460e+02 
-4.616846194456e+01 -1.243826138918e+01 0.0 
-1.243826138918e+01 -7.934308740212e+01 0.0 
0.0 0.0 -3.340295668332e+01 
-1.433497099487e+02 1.019468706957e+01 0.0 
1.019468706957e+01 -3.457473671701e+02 0.0 
0.0 0.0 -1.463291231357e+02 
-1.320056479017e+02 1.927004547728e+00 0.0 
1.927004547728e+00 -3.004275608887e+02 0.0 
0.0 0.0 -1.293299626371e+02 
-1.183382108350e+02 7.042193770102e+00 0.0 
7.042193770102e+00 -3.009402564100e+02 0.0 
0.0 0.0 -1.258980720547e+02 
-1.013729606239e+02 1.127486300590e+00 0.0 
1.127486300590e+00 -2.189678715405e+02 0.0 
0.0 0.0 -9.570224964932e+01 
-1.252858025386e+02 5.076929454730e+00 0.0 
5.076929454730e+00 -2.785654530746e+02 0.0 
0.0 0.0 -1.207553766840e+02 
-8.586278118375e+01 -5.906788751730e+00 0.0 
-5.906788751730e+00 -2.232180587841e+02 0.0 
0.0 0.0 -9.550823184575e+01 
-9.093949623382e+01 8.029183054775e+00 0.0 
8.029183054775e+00 -2.447944302412e+02 0.0 
0.0 0.0 -1.056813465893e+02 
-1.352387567152e+02 4.322852670320e+00 0.0 
4.322852670320e+00 -3.072026823268e+02 0.0 
0.0 0.0 -1.323324317126e+02 
-1.234556000225e+02 -4.790678692773e-01 0.0 
-4.790678692773e-01 -3.038500203856e+02 0.0 
0.0 0.0 -1.277916861225e+02 
-1.178476292917e+02 4.639148734118e+00 0.0 
4.639148734118e+00 -2.585621315395e+02 0.0 
0.0 0.0 -1.125229282494e+02 
-1.127672881165e+02 2.526911581656e+00 0.0 
2.526911581656e+00 -2.913113284512e+02 0.0 
0.0 0.0 -1.215868996409e+02 
-5.254694159627e+01 -1.625929100562e+01 0.0 
-1.625929100562e+01 -1.116773800753e+02 0.0 
0.0 0.0 -4.320868806139e+01 
-1.216078812487e+02 5.323017524677e+00 0.0 
5.323017524677e+00 -2.680191423844e+02 0.0 
0.0 0.0 -1.164881070899e+02 
-1.516768264267e+02 1.267408823944e+01 0.0 
1.267408823944e+01 -3.552551022734e+02 0.0 
0.0 0.0 -1.516795786100e+02 
-1.470840623163e+02 2.546533291626e+00 0.0 
2.546533291626e+00 -3.559110719254e+02 0.0 
0.0 0.0 -1.504985402725e+02 
-9.143569846043e+01 -6.868614644865e+00 0.0 
-6.868614644865e+00 -2.075458334632e+02 0.0 
0.0 0.0 -8.676783329150e+01 
-1.023908525883e+02 3.036902221673e+00 0.0 
3.036902221673e+00 -2.196563695077e+02 0.0 
0.0 0.0 -9.621416662881e+01 
-9.737218995682e+01 1.227298511463e+00 0.0 
1.227298511463e+00 -2.083906096034e+02 0.0 
0.0 0.0 -9.132883986806e+01 
-9.511246124404e+01 -8.052762450613e+00 0.0 
-8.052762450613e+00 -2.257168275773e+02 0.0 
0.0 0.0 -9.704831804210e+01 
-1.189814840587e+02 -4.957189545148e-01 0.0 
-4.957189545148e-01 -2.958707328005e+02 0.0 
0.0 0.0 -1.240556650578e+02 
-1.232419139286e+02 3.904385589847e-01 0.0 
3.904385589847e-01 -3.067900651449e+02 0.0 
0.0 0.0 -1.286095937220e+02 
-2.820548862217e+01 -2.961438400772e+00 0.0 
-2.961438400772e+00 -6.633316443511e+01 0.0 
0.0 0.0 -2.502118579701e+01 
-5.490379273589e+01 1.528310124181e+01 0.0 
1.528310124181e+01 -1.559779004725e+02 0.0 
0.0 0.0 -5.975145485497e+01 
-8.106653897656e+01 1.425496616833e+00 0.0 
1.425496616833e+00 -2.219053411502e+02 0.0 
0.0 0.0 -9.367539140368e+01 
-8.087227866069e+01 -4.045285921801e+00 0.0 
-4.045285921801e+00 -2.148984750840e+02 0.0 
0.0 0.0 -9.143886145540e+01 
-9.002200071012e+01 1.856155672824e+01 0.0 
1.856155672824e+01 -2.022962073804e+02 0.0 
0.0 0.0 -8.785073028095e+01 
-1.398185336618e+02 5.762663145402e+00 0.0 
5.762663145402e+00 -3.181683826593e+02 0.0 
0.0 0.0 -1.369960748963e+02 
-1.346144594913e+02 8.477690689315e+00 0.0 
8.477690689315e+00 -3.056202758864e+02 0.0 
0.0 0.0 -1.316704206133e+02 
-1.327985739296e+02 3.613199845848e+00 0.0 
3.613199845848e+00 -3.009550006233e+02 0.0 
0.0 0.0 -1.297260723659e+02 
-8.400496082892e+01 1.305806692712e+01 0.0 
1.305806692712e+01 -1.618032122110e+02 0.0 
0.0 0.0 -6.829249856135e+01 
-1.241278151162e+02 5.153165528022e+00 0.0 
5.153165528022e+00 -2.760530767168e+02 0.0 
0.0 0.0 -1.196542675499e+02 
-1.213354938468e+02 6.022111125316e-01 0.0 
6.022111125316e-01 -2.969148224660e+02 0.0 
0.0 0.0 -1.248390421764e+02 
-1.352915737010e+02 3.344882587315e+00 0.0 
3.344882587315e+00 -3.084548750755e+02 0.0 
0.0 0.0 -1.327239346329e+02 
-1.178969908459e+02 5.569712613792e+00 0.0 
5.569712613792e+00 -2.575143644448e+02 0.0 
0.0 0.0 -1.122234065872e+02 
-9.858296009588e+01 -7.651512776845e+00 0.0 
-7.651512776845e+00 -2.209848559045e+02 0.0 
0.0 0.0 -9.452604480784e+01 
-7.846443799440e+01 4.511674201108e+00 0.0 
4.511674201108e+00 -2.154541811275e+02 0.0 
0.0 0.0 -8.925975675913e+01 
-1.204747826626e+02 3.483689266179e+00 0.0 
3.483689266179e+00 -2.672299713676e+02 0.0 
0.0 0.0 -1.159114262091e+02 
-1.326309406251e+02 5.493253514246e+00 0.0 
5.493253514246e+00 -2.986096732608e+02 0.0 
0.0 0.0 -1.289721841658e+02 
-1.206104781045e+02 2.602907830891e+00 0.0 
2.602907830891e+00 -2.683950480510e+02 0.0 
0.0 0.0 -1.163016578467e+02 
-1.167771264148e+02 2.816055251506e+00 0.0 
2.816055251506e+00 -2.578028217173e+02 0.0 
0.0 0.0 -1.119739844396e+02 
-1.369569056075e+02 8.921669264283e-01 0.0 
8.921669264283e-01 -3.339128513952e+02 0.0 
0.0 0.0 -1.408609271008e+02 
-1.390084756708e+02 1.059224919650e+01 0.0 
1.059224919650e+01 -3.360198333318e+02 0.0 
0.0 0.0 -1.421084927008e+02 
-1.323587840311e+02 1.110531753325e+00 0.0 
1.110531753325e+00 -3.257221063160e+02 0.0 
0.0 0.0 -1.370242671041e+02 
-1.092256507315e+02 -2.253378839319e+00 0.0 
-2.253378839319e+00 -2.656726380584e+02 0.0 
0.0 0.0 -1.112293435102e+02 
-8.036083118710e+01 6.684450860459e+00 0.0 
6.684450860459e+00 -1.500734042201e+02 0.0 
0.0 0.0 -6.530014351497e+01 
-1.232013542744e+02 8.204425086428e+00 0.0 
8.204425086428e+00 -3.094802788294e+02 0.0 
0.0 0.0 -1.294044899312e+02 
-1.168365117329e+02 5.715697897738e+00 0.0 
5.715697897738e+00 -2.558734938038e+02 0.0 
0.0 0.0 -1.114130016610e+02 
-5.627142099838e+01 -6.154516913122e+00 0.0 
-6.154516913122e+00 -1.124892626171e+02 0.0 
0.0 0.0 -4.531224216843e+01 
-8.270181394976e+01 -4.777725236918e-01 0.0 
-4.777725236918e-01 -2.230481234424e+02 0.0 
0.0 0.0 -9.499510515732e+01 
-9.141702773587e+01 7.373430108495e-01 0.0 
7.373430108495e-01 -2.439307071518e+02 0.0 
0.0 0.0 -1.054640686178e+02 
-9.845307309748e+01 8.185929430920e+00 0.0 
8.185929430920e+00 -2.636863379374e+02 0.0 
0.0 0.0 -1.125280806957e+02 
-4.909145522359e+01 -1.204306025121e+00 0.0 
-1.204306025121e+00 -1.515224424593e+02 0.0 
0.0 0.0 -5.692706288517e+01 
-7.869367236443e+01 2.282485188541e+00 0.0 
2.282485188541e+00 -2.149190339549e+02 0.0 
0.0 0.0 -8.945172445535e+01 
-1.082572168499e+02 8.595041647998e+00 0.0 
8.595041647998e+00 -2.814602096580e+02 0.0 
0.0 0.0 -1.184210672091e+02 
-9.117232080581e+01 9.187966298977e+00 0.0 
9.187966298977e+00 -1.797300246245e+02 0.0 
0.0 0.0 -7.784289928731e+01 
-9.842481406384e+01 -5.153107642255e+00 0.0 
-5.153107642255e+00 -2.271837331033e+02 0.0 
0.0 0.0 -9.479581493338e+01 
-1.103629472630e+02 5.095754957787e+00 0.0 
5.095754957787e+00 -2.374197757233e+02 0.0 
0.0 0.0 -1.039348168959e+02 
-8.499904694750e+01 5.250942796730e-01 0.0 
5.250942796730e-01 -1.780772173840e+02 0.0 
0.0 0.0 -7.852287929945e+01 
-4.661732452104e+01 2.490558475655e+01 0.0 
2.490558475655e+01 -3.050289431391e+01 0.0 
0.0 0.0 -1.908717129764e+01 
-1.113559176585e+02 -3.505447337228e+00 0.0 
-3.505447337228e+00 -2.593378198293e+02 0.0 
0.0 0.0 -1.092574214296e+02 
-1.223877576479e+02 5.207190844993e+00 0.0 
5.207190844993e+00 -3.098453064507e+02 0.0 
0.0 0.0 -1.292699192296e+02 
-1.382751117182e+02 8.020907768559e+00 0.0 
8.020907768559e+00 -3.151908512297e+02 0.0 
0.0 0.0 -1.356397888844e+02 
-8.809254633085e+01 6.784808534824e+00 0.0 
6.784808534824e+00 -2.390882347505e+02 0.0 
0.0 0.0 -1.032112389898e+02 
-1.043413132109e+02 -3.655169830741e+00 0.0 
-3.655169830741e+00 -2.465519114282e+02 0.0 
0.0 0.0 -1.026027495584e+02 
-1.102252015247e+02 4.186842225192e+00 0.0 
4.186842225192e+00 -2.385782192535e+02 0.0 
0.0 0.0 -1.042410262334e+02 
-3.173257520223e+01 1.240515052801e+01 0.0 
1.240515052801e+01 -2.768194413582e+01 0.0 
0.0 0.0 -1.391806664732e+01 
-1.176411918104e+02 5.864415682640e+00 0.0 
5.864415682640e+00 -3.003906917856e+02 0.0 
0.0 0.0 -1.261478267567e+02 
-9.433002557367e+01 6.573193227979e+00 0.0 
6.573193227979e+00 -2.548090249292e+02 0.0 
0.0 0.0 -1.104793421147e+02 
-9.427707099542e+01 1.061023948796e+01 0.0 
1.061023948796e+01 -1.896123148299e+02 0.0 
0.0 0.0 -8.286973176840e+01 
-1.248365811050e+02 1.638179881480e+00 0.0 
1.638179881480e+00 -3.077357890295e+02 0.0 
0.0 0.0 -1.293717110404e+02 
-5.683801860833e+01 -1.459014488438e+01 0.0 
-1.459014488438e+01 -1.431359307823e+02 0.0 
0.0 0.0 -5.624251669854e+01 
-1.291203421329e+02 2.582492405694e+00 0.0 
2.582492405694e+00 -3.183649577458e+02 0.0 
0.0 0.0 -1.338455899636e+02 
-1.419530965357e+02 3.029483166713e+00 0.0 
3.029483166713e+00 -3.467143678036e+02 0.0 
0.0 0.0 -1.462002393018e+02 
-1.128610054536e+02 6.533558132970e+00 0.0 
6.533558132970e+00 -2.907816113791e+02 0.0 
0.0 0.0 -1.230615927648e+02 
-1.215909423291e+02 4.414984656373e+00 0.0 
4.414984656373e+00 -2.691221723641e+02 0.0 
0.0 0.0 -1.168139344079e+02 
-1.263204572729e+02 1.251723999968e+01 0.0 
1.251723999968e+01 -3.026507044845e+02 0.0 
0.0 0.0 -1.282913485272e+02 
-1.429882173018e+02 4.375209920436e+00 0.0 
4.375209920436e+00 -3.473987549037e+02 0.0 
0.0 0.0 -1.467160916617e+02 
-3.506886755600e+01 9.885775275687e+00 0.0 
9.885775275687e+00 -4.345063138656e+01 0.0 
0.0 0.0 -2.050241170478e+01 
-1.141202151732e+02 4.841675327689e+00 0.0 
4.841675327689e+00 -2.480210774293e+02 0.0 
0.0 0.0 -1.082423877807e+02 
-1.393564540069e+02 1.145992790946e+01 0.0 
1.145992790946e+01 -3.344433589003e+02 0.0 
0.0 0.0 -1.417399438721e+02 
-1.242367927513e+02 3.246899542243e+00 0.0 
3.246899542243e+00 -2.778094222292e+02 0.0 
0.0 0.0 -1.202138644941e+02 
-1.024208259171e+02 6.029821270371e+00 0.0 
6.029821270371e+00 -2.726823546406e+02 0.0 
0.0 0.0 -1.169397624853e+02 
-8.116709135812e+01 5.667310402280e+00 0.0 
5.667310402280e+00 -2.215453623589e+02 0.0 
0.0 0.0 -9.309238979263e+01 
-1.077796673176e+02 -4.093080143259e+00 0.0 
-4.093080143259e+00 -2.389866601288e+02 0.0 
0.0 0.0 -1.003513294291e+02 
-3.354517214599e+01 7.166701240195e+00 0.0 
7.166701240195e+00 -1.303450059006e+02 0.0 
0.0 0.0 -5.113524120521e+01 
-1.280176414370e+02 2.980952407822e+00 0.0 
2.980952407822e+00 -2.883993721985e+02 0.0 
0.0 0.0 -1.245251040906e+02 
-6.127049514610e+01 -5.165551983346e+00 0.0 
-5.165551983346e+00 -1.211470224255e+02 0.0 
0.0 0.0 -4.877018191975e+01 
-4.215798180541e+01 9.013196011882e+00 0.0 
9.013196011882e+00 -6.241700021340e+01 0.0 
0.0 0.0 -2.852332675703e+01 
-1.227348049143e+02 1.285161731983e+01 0.0 
1.285161731983e+01 -2.921779172204e+02 0.0 
0.0 0.0 -1.240738166404e+02 
-1.357922589615e+02 2.485911409770e+00 0.0 
2.485911409770e+00 -3.102197142291e+02 0.0 
0.0 0.0 -1.334035919572e+02 
-5.637119065845e+01 -1.768182057932e+01 0.0 
-1.768182057932e+01 -1.290425579554e+02 0.0 
0.0 0.0 -5.102009937095e+01 
-9.912294135450e+01 1.372250838317e+01 0.0 
1.372250838317e+01 -2.241130829147e+02 0.0 
0.0 0.0 -9.549927558978e+01 
-1.167416686979e+02 3.690146822779e+00 0.0 
3.690146822779e+00 -2.567139107709e+02 0.0 
0.0 0.0 -1.116366738406e+02 
-1.072135341043e+02 -4.968216621216e+00 0.0 
-4.968216621216e+00 -2.359438817229e+02 0.0 
0.0 0.0 -9.902830174904e+01 
-5.230298219153e+01 -7.080535444049e+00 0.0 
-7.080535444049e+00 -1.510465651322e+02 0.0 
0.0 0.0 -5.757665371957e+01 
-6.797321269150e+01 2.300460574885e+01 0.0 
2.300460574885e+01 -1.511312914047e+02 0.0 
0.0 0.0 -6.419423700359e+01 
-4.943305345920e+01 -1.685623710096e+01 0.0 
-1.685623710096e+01 -9.119550574984e+01 0.0 
0.0 0.0 -3.618483787388e+01 
-5.017137363544e+01 -1.501190584512e+01 0.0 
-1.501190584512e+01 -1.266815084527e+02 0.0 
0.0 0.0 -4.730240324481e+01 
-4.908734208283e+01 -1.720191451301e+01 0.0 
-1.720191451301e+01 -1.089997652953e+02 0.0 
0.0 0.0 -3.998762466493e+01 
-9.494736837900e+01 5.919593706712e+00 0.0 
5.919593706712e+00 -2.559583275135e+02 0.0 
0.0 0.0 -1.113623043303e+02 
-1.530130491452e+02 7.862955190211e+00 0.0 
7.862955190211e+00 -3.537611224793e+02 0.0 
0.0 0.0 -1.516322514873e+02 
-5.063102570710e+01 7.008107312500e+00 0.0 
7.008107312500e+00 -8.255772839395e+01 0.0 
0.0 0.0 -3.575683363313e+01 
-1.415329203031e+02 7.423520624020e-01 0.0 
7.423520624020e-01 -3.420534250235e+02 0.0 
0.0 0.0 -1.446759035980e+02 
-7.402293497902e+01 1.183898135591e+01 0.0 
1.183898135591e+01 -1.997486804200e+02 0.0 
0.0 0.0 -8.129444151762e+01 
-1.142022717521e+02 5.850004444689e+00 0.0 
5.850004444689e+00 -2.471908018553e+02 0.0 
0.0 0.0 -1.080179220822e+02 
-3.952651708057e+01 5.726563982859e+00 0.0 
5.726563982859e+00 -1.376058182749e+02 0.0 
0.0 0.0 -5.259213654252e+01 
-1.478046765091e+02 5.342266917215e+00 0.0 
5.342266917215e+00 -3.573959316065e+02 0.0 
0.0 0.0 -1.511601824347e+02 
-5.606304036397e+01 -1.891250432892e+01 0.0 
-1.891250432892e+01 -1.123260474001e+02 0.0 
0.0 0.0 -4.508845850022e+01 
-7.279008590781e+01 -5.084455779343e+00 0.0 
-5.084455779343e+00 -1.424727650571e+02 0.0 
0.0 0.0 -5.828392237600e+01 
-1.184411545798e+02 7.542811400208e+00 0.0 
7.542811400208e+00 -2.994266975230e+02 0.0 
0.0 0.0 -1.260821137827e+02 
-9.038957977971e+01 -6.882966042422e+00 0.0 
-6.882966042422e+00 -2.295693099362e+02 0.0 
0.0 0.0 -9.853218673981e+01 
-1.344934114198e+02 1.095436552179e+01 0.0 
1.095436552179e+01 -3.260254667757e+02 0.0 
0.0 0.0 -1.377556634587e+02 
-7.293570450676e+01 1.932175828072e+01 0.0 
1.932175828072e+01 -1.484145221841e+02 0.0 
0.0 0.0 -6.386854243853e+01 
-1.215258038429e+02 7.292574033432e+00 0.0 
7.292574033432e+00 -2.666956233157e+02 0.0 
0.0 0.0 -1.160664281476e+02 
-1.432690227947e+02 8.672650945914e+00 0.0 
8.672650945914e+00 -3.453797768684e+02 0.0 
0.0 0.0 -1.461946398989e+02 
-1.129585165722e+02 2.988480087749e+00 0.0 
2.988480087749e+00 -2.472333191591e+02 0.0 
0.0 0.0 -1.076575507194e+02 
-1.390148474574e+02 9.898543670928e+00 0.0 
9.898543670928e+00 -3.159079161042e+02 0.0 
0.0 0.0 -1.360768290685e+02 
-1.252559293240e+02 6.018606271631e+00 0.0 
6.018606271631e+00 -2.774736673557e+02 0.0 
0.0 0.0 -1.204188790039e+02 
-1.288585263110e+02 6.726320845563e+00 0.0 
6.726320845563e+00 -2.870968980962e+02 0.0 
0.0 0.0 -1.243866273222e+02 
-4.833817467696e+01 2.219959552117e+01 0.0 
2.219959552117e+01 -1.294103366349e+02 0.0 
0.0 0.0 -4.960781427264e+01 
-1.368090395976e+02 1.448020392100e-01 0.0 
1.448020392100e-01 -3.309519529197e+02 0.0 
0.0 0.0 -1.399282977552e+02 
-1.204898994239e+02 4.427768910040e+00 0.0 
4.427768910040e+00 -2.663682465438e+02 0.0 
0.0 0.0 -1.156574437903e+02 
-8.927154210460e+01 1.414211871206e+01 0.0 
1.414211871206e+01 -2.293182639251e+02 0.0 
0.0 0.0 -9.920658921004e+01 
-5.971190524219e+01 4.814052576673e+00 0.0 
4.814052576673e+00 -1.029221155439e+02 0.0 
0.0 0.0 -4.343903915390e+01 
-1.486613267125e+02 1.088151431876e+01 0.0 
1.088151431876e+01 -3.546315103491e+02 0.0 
0.0 0.0 -1.505878511185e+02 
-5.041244582870e+01 1.096728240077e+01 0.0 
1.096728240077e+01 -1.525898139009e+02 0.0 
0.0 0.0 -5.761125490889e+01 
-6.645944088972e+01 -3.457531985334e+00 0.0 
-3.457531985334e+00 -1.346750914847e+02 0.0 
0.0 0.0 -5.462143686476e+01 
-1.292842911801e+02 8.849171649496e+00 0.0 
8.849171649496e+00 -3.168904046743e+02 0.0 
0.0 0.0 -1.334524087563e+02 
-2.803425298297e+01 7.369075300837e-01 0.0 
7.369075300837e-01 -7.988619770835e+01 0.0 
0.0 0.0 -3.153922692138e+01 
-9.257887196773e+01 1.426921303613e+01 0.0 
1.426921303613e+01 -2.186197312494e+02 0.0 
0.0 0.0 -9.271959072528e+01 
-1.229168756297e+02 6.918637312223e+00 0.0 
6.918637312223e+00 -3.091136443028e+02 0.0 
0.0 0.0 -1.294078148629e+02 
-1.357189759843e+02 7.024236460441e+00 0.0 
7.024236460441e+00 -3.064745672654e+02 0.0 
0.0 0.0 -1.322580629749e+02 
-1.393691567989e+02 7.797757399414e+00 0.0 
7.797757399414e+00 -3.166078757216e+02 0.0 
0.0 0.0 -1.363931097562e+02 
-1.184506159785e+02 8.914252308111e+00 0.0 
8.914252308111e+00 -2.997165768446e+02 0.0 
0.0 0.0 -1.250501578469e+02 
-1.289172881503e+02 5.766972219185e+00 0.0 
5.766972219185e+00 -2.880217141625e+02 0.0 
0.0 0.0 -1.246817006938e+02 
-7.870821652945e+01 1.412667900616e+01 0.0 
1.412667900616e+01 -2.059250653483e+02 0.0 
0.0 0.0 -8.574527656068e+01 
-1.243016819893e+02 1.296331121973e+01 0.0 
1.296331121973e+01 -2.901707730631e+02 0.0 
0.0 0.0 -1.239417365157e+02 
-6.795793785321e+01 3.776715014698e+00 0.0 
3.776715014698e+00 -1.220856051741e+02 0.0 
0.0 0.0 -5.332328471666e+01 
-1.373809233196e+02 9.902424033994e+00 0.0 
9.902424033994e+00 -3.154765154757e+02 0.0 
0.0 0.0 -1.354572316386e+02 
-7.501862239425e+01 3.423003514684e+00 0.0 
3.423003514684e+00 -1.408089226145e+02 0.0 
0.0 0.0 -6.240672823546e+01 
-7.840411440224e+01 3.511295984392e+00 0.0 
3.511295984392e+00 -1.503408697092e+02 0.0 
0.0 0.0 -6.709114003147e+01 
-8.604650914048e+01 9.728637378789e+00 0.0 
9.728637378789e+00 -2.313402582605e+02 0.0 
0.0 0.0 -9.916102612478e+01 
-8.128594713063e+01 3.320136166234e+00 0.0 
3.320136166234e+00 -1.598006375253e+02 0.0 
0.0 0.0 -7.125197853964e+01 
-9.929983689443e+01 1.268082960675e+01 0.0 
1.268082960675e+01 -2.480582770601e+02 0.0 
0.0 0.0 -1.042768561724e+02 
-8.195834294427e+01 1.610884344678e+01 0.0 
1.610884344678e+01 -2.021460919039e+02 0.0 
0.0 0.0 -8.583273588464e+01 
-8.452226807452e+01 2.912541188759e+00 0.0 
2.912541188759e+00 -2.309379411702e+02 0.0 
0.0 0.0 -9.866037945354e+01 
-4.637363263767e+01 -7.786743741583e+00 0.0 
-7.786743741583e+00 -1.403126840151e+02 0.0 
0.0 0.0 -5.202912699063e+01 
-8.209009321849e+01 7.442310948277e+00 0.0 
7.442310948277e+00 -2.234832933139e+02 0.0 
0.0 0.0 -9.410474110559e+01 
-1.315793370720e+02 3.670879123809e+00 0.0 
3.670879123809e+00 -2.978517396736e+02 0.0 
0.0 0.0 -1.284293230237e+02 
-1.389068939668e+02 8.906222151283e+00 0.0 
8.906222151283e+00 -3.174587916676e+02 0.0 
0.0 0.0 -1.365097056903e+02 
-1.279116932091e+02 -4.214739931550e-01 0.0 
-4.214739931550e-01 -3.118512771017e+02 0.0 
0.0 0.0 -1.315288910933e+02 
-1.387446923107e+02 9.043785606603e+00 0.0 
9.043785606603e+00 -3.355778990996e+02 0.0 
0.0 0.0 -1.418967774231e+02 
-8.671594251867e+01 -3.994939001099e+00 0.0 
-3.994939001099e+00 -2.260598610202e+02 0.0 
0.0 0.0 -9.621745772056e+01 
-1.278073585126e+02 4.879566257083e+00 0.0 
4.879566257083e+00 -2.863309254886e+02 0.0 
0.0 0.0 -1.238414852004e+02 
-8.433808177052e+01 4.318903805998e+00 0.0 
4.318903805998e+00 -2.306659225148e+02 0.0 
0.0 0.0 -9.840750340282e+01 
-1.412421361448e+02 6.015246866157e-02 0.0 
6.015246866157e-02 -3.390158010535e+02 0.0 
0.0 0.0 -1.436773811595e+02 
-1.241376800499e+02 4.200653398125e+00 0.0 
4.200653398125e+00 -2.766915777396e+02 0.0 
0.0 0.0 -1.198487773369e+02 
-1.251988599783e+02 7.007574905277e+00 0.0 
7.007574905277e+00 -2.768386376820e+02 0.0 
0.0 0.0 -1.202112492981e+02 
-1.074507222728e+02 5.189842843891e+00 0.0 
5.189842843891e+00 -2.820376304938e+02 0.0 
0.0 0.0 -1.198835007315e+02 
-8.031034237178e+01 1.074708862437e+01 0.0 
1.074708862437e+01 -2.152602251126e+02 0.0 
0.0 0.0 -8.985143246293e+01 
-1.322002441305e+02 1.273471396716e+01 0.0 
1.273471396716e+01 -3.090164413929e+02 0.0 
0.0 0.0 -1.319650056570e+02 
-1.083612004111e+02 1.059744847953e+01 0.0 
1.059744847953e+01 -2.385710619846e+02 0.0 
0.0 0.0 -1.034479155226e+02 
-5.163243599280e+01 -1.288715240715e+01 0.0 
-1.288715240715e+01 -1.408779805206e+02 0.0 
0.0 0.0 -5.382164359946e+01 
-4.916262688370e+01 4.695685448011e+00 0.0 
4.695685448011e+00 -1.503110219904e+02 0.0 
0.0 0.0 -5.616668512466e+01 
-7.688154947011e+01 2.128588682789e+01 0.0 
2.128588682789e+01 -1.630838350726e+02 0.0 
0.0 0.0 -7.158073951829e+01 
-1.024654844997e+02 1.393045689219e+01 0.0 
1.393045689219e+01 -2.244079014272e+02 0.0 
0.0 0.0 -9.499999286889e+01 
-1.456103553541e+02 -3.647071125259e-02 0.0 
-3.647071125259e-02 -3.473098967069e+02 0.0 
0.0 0.0 -1.474760756183e+02 
-1.215668048337e+02 6.298483995124e+00 0.0 
6.298483995124e+00 -2.671446034127e+02 0.0 
0.0 0.0 -1.162134224739e+02 
-7.812398310387e+01 8.585046600613e+00 0.0 
8.585046600613e+00 -2.119356095055e+02 0.0 
0.0 0.0 -8.772239316933e+01 
-1.088071291759e+02 1.366661791882e+01 0.0 
1.366661791882e+01 -2.517569324472e+02 0.0 
0.0 0.0 -1.077692184870e+02 
-1.275557997600e+02 6.296087714025e+00 0.0 
6.296087714025e+00 -3.188788353607e+02 0.0 
0.0 0.0 -1.335303905362e+02 
-1.289928203542e+02 4.808491778575e+00 0.0 
4.808491778575e+00 -2.891345887905e+02 0.0 
0.0 0.0 -1.250382227434e+02 
-1.365132937883e+02 1.255176315661e+01 0.0 
1.255176315661e+01 -3.175827770046e+02 0.0 
0.0 0.0 -1.358288212379e+02 
-1.093675542554e+02 4.169000579327e+00 0.0 
4.169000579327e+00 -2.362427750466e+02 0.0 
0.0 0.0 -1.032830987906e+02 
-1.324503847132e+02 4.060242128624e+00 0.0 
4.060242128624e+00 -3.292406843430e+02 0.0 
0.0 0.0 -1.381073207168e+02 
-8.725605665322e+01 5.818555712878e+00 0.0 
5.818555712878e+00 -2.380105424885e+02 0.0 
0.0 0.0 -1.021401389876e+02 
-1.279866764598e+02 7.531309796303e+00 0.0 
7.531309796303e+00 -3.192257596456e+02 0.0 
0.0 0.0 -1.337637308316e+02 
-9.625342481117e+01 1.679732373333e+01 0.0 
1.679732373333e+01 -2.210855124838e+02 0.0 
0.0 0.0 -9.546289177398e+01 
-1.360214391130e+02 6.083860464509e+00 0.0 
6.083860464509e+00 -3.077944428113e+02 0.0 
0.0 0.0 -1.327447645773e+02 
-1.419059647761e+02 1.278271161759e+01 0.0 
1.278271161759e+01 -3.280807510695e+02 0.0 
0.0 0.0 -1.405960147537e+02 
-9.811566100653e+01 4.423129657032e+00 0.0 
4.423129657032e+00 -2.635681019580e+02 0.0 
0.0 0.0 -1.141113818541e+02 
-4.625988269946e+01 5.269092806830e+00 0.0 
5.269092806830e+00 -1.477807943194e+02 0.0 
0.0 0.0 -5.577128382995e+01 
-1.303635166936e+02 1.063111699184e+01 0.0 
1.063111699184e+01 -3.126361169459e+02 0.0 
0.0 0.0 -1.324998900918e+02 
-9.794623563456e+01 1.284251759265e+01 0.0 
1.284251759265e+01 -2.375984553095e+02 0.0 
0.0 0.0 -1.001434918981e+02 
-7.548214239267e+01 1.151535244251e+01 0.0 
1.151535244251e+01 -2.015359415472e+02 0.0 
0.0 0.0 -8.247566036575e+01 
-1.031540654882e+02 7.119555800556e+00 0.0 
7.119555800556e+00 -2.732265555934e+02 0.0 
0.0 0.0 -1.161808247641e+02 
-1.288046740630e+02 4.048453232797e+00 0.0 
4.048453232797e+00 -3.200748385081e+02 0.0 
0.0 0.0 -1.342638537713e+02 
-4.728532631465e+01 -2.147244564834e+00 0.0 
-2.147244564834e+00 -1.459842082567e+02 0.0 
0.0 0.0 -5.509452293638e+01 
-9.097029515045e+01 4.088607364120e+00 0.0 
4.088607364120e+00 -2.466551242752e+02 0.0 
0.0 0.0 -1.068819920650e+02 
-1.125022192218e+02 8.507976266717e+00 0.0 
8.507976266717e+00 -2.462647732824e+02 0.0 
0.0 0.0 -1.072300977513e+02 
-1.463319789838e+02 1.525686330748e+00 0.0 
1.525686330748e+00 -3.479292487080e+02 0.0 
0.0 0.0 -1.478783683075e+02 
-1.158009925829e+02 9.240544498982e+00 0.0 
9.240544498982e+00 -2.564770649212e+02 0.0 
0.0 0.0 -1.112834172512e+02 
-1.268145167947e+02 1.099471470535e+01 0.0 
1.099471470535e+01 -3.025431981846e+02 0.0 
0.0 0.0 -1.284073144938e+02 
-1.091072849875e+02 7.713919229320e+00 0.0 
7.713919229320e+00 -2.361472570849e+02 0.0 
0.0 0.0 -1.031763626217e+02 
-1.017700907741e+02 5.886665889756e+00 0.0 
5.886665889756e+00 -2.161727144596e+02 0.0 
0.0 0.0 -9.498284157011e+01 
-1.109735451597e+02 1.101766945985e+01 0.0 
1.101766945985e+01 -2.493174412412e+02 0.0 
0.0 0.0 -1.076786016971e+02 
-1.336017942144e+02 8.378275412514e+00 0.0 
8.378275412514e+00 -3.267467647250e+02 0.0 
0.0 0.0 -1.377045676818e+02 
-1.336215722048e+02 1.594551569000e+00 0.0 
1.594551569000e+00 -3.238245637866e+02 0.0 
0.0 0.0 -1.368338407974e+02 
-1.168202322698e+02 4.701443309159e+00 0.0 
4.701443309159e+00 -2.561724344324e+02 0.0 
0.0 0.0 -1.114978000106e+02 
-1.385352960308e+02 6.132734762211e+00 0.0 
6.132734762211e+00 -3.159544408278e+02 0.0 
0.0 0.0 -1.359469210576e+02 
-1.056203336742e+02 6.846001881027e+00 0.0 
6.846001881027e+00 -2.261811241074e+02 0.0 
0.0 0.0 -9.914043733449e+01 
-6.545320860429e+01 9.312559939956e+00 0.0 
9.312559939956e+00 -1.815471715352e+02 0.0 
0.0 0.0 -7.106565526031e+01 
-1.350398149656e+02 1.243300416607e+01 0.0 
1.243300416607e+01 -3.214680383038e+02 0.0 
0.0 0.0 -1.365523559808e+02 
-1.363762992685e+02 5.269044243564e+00 0.0 
5.269044243564e+00 -3.092345983288e+02 0.0 
0.0 0.0 -1.332832692792e+02 
-9.301787542941e+01 1.644407366609e+01 0.0 
1.644407366609e+01 -2.255761767969e+02 0.0 
0.0 0.0 -9.782432475699e+01 
-9.717842882004e+01 1.613768148561e+01 0.0 
1.613768148561e+01 -2.324052400854e+02 0.0 
0.0 0.0 -1.002310558327e+02 
-7.198313917600e+01 8.921434479277e+00 0.0 
8.921434479277e+00 -1.961976965685e+02 0.0 
0.0 0.0 -7.862008342872e+01 
-1.204660699931e+02 5.417928237838e+00 0.0 
5.417928237838e+00 -2.658896302212e+02 0.0 
0.0 0.0 -1.155067100643e+02 
-8.410410842585e+01 1.531322985860e+01 0.0 
1.531322985860e+01 -1.644229922701e+02 0.0 
0.0 0.0 -7.154128530206e+01 
-1.040336051982e+02 1.218099001363e+01 0.0 
1.218099001363e+01 -2.597572532363e+02 0.0 
0.0 0.0 -1.114171955739e+02 
-8.247056841293e+01 1.554746491257e+01 0.0 
1.554746491257e+01 -1.645467232319e+02 0.0 
0.0 0.0 -7.024723931881e+01 
-1.239471468812e+02 8.270298770490e+00 0.0 
8.270298770490e+00 -3.081200020289e+02 0.0 
0.0 0.0 -1.292201446730e+02 
-1.436171075962e+02 1.236268141157e+01 0.0 
1.236268141157e+01 -3.396453936029e+02 0.0 
0.0 0.0 -1.445787503597e+02 
-7.510095612110e+01 5.459356646423e+00 0.0 
5.459356646423e+00 -2.059007142569e+02 0.0 
0.0 0.0 -8.394108438172e+01 
-3.381923292538e+01 -5.002484069899e+00 0.0 
-5.002484069899e+00 -1.253581149938e+02 0.0 
0.0 0.0 -4.918609654666e+01 
-1.384676604819e+02 7.108504829509e+00 0.0 
7.108504829509e+00 -3.157284375724e+02 0.0 
0.0 0.0 -1.358588294163e+02 
-8.820679515496e+01 1.333667932464e+01 0.0 
1.333667932464e+01 -1.728910340645e+02 0.0 
0.0 0.0 -7.429573134100e+01 
-8.888594010088e+01 -1.574019625181e+00 0.0 
-1.574019625181e+00 -2.349029609033e+02 0.0 
0.0 0.0 -1.007964383200e+02 
-1.392408652115e+02 1.060773765763e+01 0.0 
1.060773765763e+01 -3.315238386256e+02 0.0 
0.0 0.0 -1.408294111511e+02 
-1.178945487806e+02 6.564500142212e+00 0.0 
6.564500142212e+00 -2.569465926933e+02 0.0 
0.0 0.0 -1.120523424422e+02 
-1.292610825737e+02 1.610379255568e+00 0.0 
1.610379255568e+00 -3.157885941846e+02 0.0 
0.0 0.0 -1.331149030275e+02 
-7.734482881746e+01 1.567634010075e+01 0.0 
1.567634010075e+01 -1.960233027042e+02 0.0 
0.0 0.0 -8.187367867961e+01 
-2.945999343675e+01 -3.558939877110e+00 0.0 
-3.558939877110e+00 -1.250733454331e+02 0.0 
0.0 0.0 -4.912709730649e+01 
-1.506577786420e+02 1.527086379262e+00 0.0 
1.527086379262e+00 -3.572729890035e+02 0.0 
0.0 0.0 -1.519792302937e+02 
-1.041848012657e+02 1.426643866032e+01 0.0 
1.426643866032e+01 -2.358574518966e+02 0.0 
0.0 0.0 -9.958967284111e+01 
-1.146392023468e+02 1.114446577908e+01 0.0 
1.114446577908e+01 -2.877672579830e+02 0.0 
0.0 0.0 -1.203219380990e+02 
-1.361700764762e+02 1.120562944952e+01 0.0 
1.120562944952e+01 -3.198817370288e+02 0.0 
0.0 0.0 -1.364155440515e+02 
-3.581717697978e+01 -3.190399698803e-01 0.0 
-3.190399698803e-01 -1.239337417096e+02 0.0 
0.0 0.0 -4.977874983150e+01 
-1.278498592326e+02 2.636959148341e-01 0.0 
2.636959148341e-01 -3.148923203989e+02 0.0 
0.0 0.0 -1.324226538895e+02 
-5.840625077037e+01 2.062443519255e+01 0.0 
2.062443519255e+01 -1.440145425979e+02 0.0 
0.0 0.0 -5.624770481386e+01 
-1.106175453159e+02 6.066156940678e+00 0.0 
6.066156940678e+00 -2.370818630725e+02 0.0 
0.0 0.0 -1.039098225165e+02 
-1.131135464872e+02 -3.483600722768e+00 0.0 
-3.483600722768e+00 -2.553756287572e+02 0.0 
0.0 0.0 -1.066633677576e+02 
-7.602277729612e+01 7.989968451302e+00 0.0 
7.989968451302e+00 -2.080967423480e+02 0.0 
0.0 0.0 -8.508093105763e+01 
-1.421002731155e+02 1.531893005024e+00 0.0 
1.531893005024e+00 -3.397044377452e+02 0.0 
0.0 0.0 -1.441414132582e+02 
-1.030369694944e+02 1.415450242563e+01 0.0 
1.415450242563e+01 -2.501838490721e+02 0.0 
0.0 0.0 -1.072183794545e+02 
-6.984215499726e+01 8.705640400331e+00 0.0 
8.705640400331e+00 -1.928485229603e+02 0.0 
0.0 0.0 -7.726673429777e+01 
-1.041919306930e+02 1.355026285763e+01 0.0 
1.355026285763e+01 -2.434587710888e+02 0.0 
0.0 0.0 -1.038952105345e+02 
-3.600167742395e+01 -1.709821559080e+01 0.0 
-1.709821559080e+01 -1.177286533922e+02 0.0 
0.0 0.0 -4.792846467139e+01 
-1.194450590490e+02 1.313036810431e+01 0.0 
1.313036810431e+01 -2.816237041969e+02 0.0 
0.0 0.0 -1.199206289738e+02 
-1.237641731086e+02 9.750323874204e+00 0.0 
9.750323874204e+00 -3.083597090566e+02 0.0 
0.0 0.0 -1.292371646496e+02 
-1.444522000928e+02 1.218258697007e+01 0.0 
1.218258697007e+01 -3.341582216573e+02 0.0 
0.0 0.0 -1.431831265250e+02 
-1.276830187124e+02 1.285995585877e+01 0.0 
1.285995585877e+01 -3.007788260929e+02 0.0 
0.0 0.0 -1.281385534416e+02 
-5.558547455465e+01 4.887256291041e+00 0.0 
4.887256291041e+00 -1.630849685921e+02 0.0 
0.0 0.0 -6.159202162872e+01 
-1.291748971610e+02 1.028051596531e+00 0.0 
1.028051596531e+00 -3.127129700081e+02 0.0 
0.0 0.0 -1.321663601507e+02 
-1.389772006579e+02 4.110863943690e+00 0.0 
4.110863943690e+00 -3.177152933747e+02 0.0 
0.0 0.0 -1.366077482098e+02 
-1.531233449886e+02 1.148116715999e+01 0.0 
1.148116715999e+01 -3.626910825888e+02 0.0 
0.0 0.0 -1.543443282732e+02 
-1.291527135967e+02 1.038603639728e+01 0.0 
1.038603639728e+01 -3.171631771382e+02 0.0 
0.0 0.0 -1.334947672205e+02 
-7.923792662783e+01 1.337845659013e+01 0.0 
1.337845659013e+01 -2.070620444890e+02 0.0 
0.0 0.0 -8.664116483334e+01 
-1.113661588902e+02 1.361948940920e+01 0.0 
1.361948940920e+01 -2.624984900562e+02 0.0 
0.0 0.0 -1.117593946839e+02 
-1.447361797382e+02 -3.473484303130e-01 0.0 
-3.473484303130e-01 -3.440171005019e+02 0.0 
0.0 0.0 -1.462259840720e+02 
-1.106326026237e+02 -7.881481716862e-01 0.0 
-7.881481716862e-01 -2.329503266484e+02 0.0 
0.0 0.0 -9.868487093958e+01 
-1.234421428568e+02 1.130986315438e+01 0.0 
1.130986315438e+01 -2.921619105117e+02 0.0 
0.0 0.0 -1.242812160106e+02 
-1.130597783769e+02 3.919280891075e+00 0.0 
3.919280891075e+00 -2.463905157414e+02 0.0 
0.0 0.0 -1.074350882355e+02 
-1.378807711041e+02 1.564964700478e+00 0.0 
1.564964700478e+00 -3.317182683658e+02 0.0 
0.0 0.0 -1.404797118410e+02 
-1.336569779333e+02 2.392260494375e+00 0.0 
2.392260494375e+00 -3.265562193904e+02 0.0 
0.0 0.0 -1.376639591971e+02 
-7.828399497600e+01 3.089658591395e-01 0.0 
3.089658591395e-01 -1.646043628786e+02 0.0 
0.0 0.0 -7.246650735638e+01 
-7.819133946267e+01 2.574703670861e-02 0.0 
2.574703670861e-02 -1.645550043695e+02 0.0 
0.0 0.0 -7.242390314965e+01 
-1.170529098720e+02 1.003623322602e+01 0.0 
1.003623322602e+01 -2.565762706525e+02 0.0 
0.0 0.0 -1.116887541574e+02 
-1.155018684137e+02 1.173101614797e+01 0.0 
1.173101614797e+01 -2.733274289744e+02 0.0 
0.0 0.0 -1.162487892165e+02 
-1.164224577081e+02 -2.625169974793e+00 0.0 
-2.625169974793e+00 -2.631172204298e+02 0.0 
0.0 0.0 -1.104991351238e+02 
-1.148992983403e+02 1.233463761126e+01 0.0 
1.233463761126e+01 -2.583009652427e+02 0.0 
0.0 0.0 -1.115600790749e+02 
-9.852214166063e+01 1.481855435899e+01 0.0 
1.481855435899e+01 -2.431973383496e+02 0.0 
0.0 0.0 -1.049647997688e+02 
-1.415831283464e+02 6.291056089170e+00 0.0 
6.291056089170e+00 -3.456435315368e+02 0.0 
0.0 0.0 -1.457679979650e+02 
-8.344400890507e+01 1.565718517094e+01 0.0 
1.565718517094e+01 -2.118128941505e+02 0.0 
0.0 0.0 -9.050031388886e+01 
-1.518019514481e+02 7.296756516918e+00 0.0 
7.296756516918e+00 -3.521739110413e+02 0.0 
0.0 0.0 -1.507927587468e+02 
-9.517202371541e+01 5.586164108783e+00 0.0 
5.586164108783e+00 -1.971072501510e+02 0.0 
0.0 0.0 -8.728378215993e+01 
-9.335424746043e+01 1.354821007526e+01 0.0 
1.354821007526e+01 -2.283822722149e+02 0.0 
0.0 0.0 -9.711710469221e+01 
-1.079794042983e+02 -3.365762005978e+00 0.0 
-3.365762005978e+00 -2.543520727215e+02 0.0 
0.0 0.0 -1.064183538187e+02 
-5.207799978938e+01 1.050562639434e+01 0.0 
1.050562639434e+01 -1.527163512662e+02 0.0 
0.0 0.0 -5.669487291912e+01 
-1.032044116947e+02 -6.191453852503e+00 0.0 
-6.191453852503e+00 -2.283570636475e+02 0.0 
0.0 0.0 -9.689727026376e+01 
-1.091505224675e+02 1.300270915486e+01 0.0 
1.300270915486e+01 -2.547346578796e+02 0.0 
0.0 0.0 -1.080682873348e+02 
-1.053015997819e+02 1.289505986951e+01 0.0 
1.289505986951e+01 -2.323926335310e+02 0.0 
0.0 0.0 -9.926569744306e+01 
-1.131588029002e+02 4.963437246022e+00 0.0 
4.963437246022e+00 -2.460661818673e+02 0.0 
0.0 0.0 -1.073674954302e+02 
-1.182396686011e+02 1.079974789769e+01 0.0 
1.079974789769e+01 -2.686637969286e+02 0.0 
0.0 0.0 -1.156710396589e+02 
-1.222749087573e+02 1.220597949437e+01 0.0 
1.220597949437e+01 -2.776121879573e+02 0.0 
0.0 0.0 -1.195661290144e+02 
-1.938351055048e+01 3.405391637334e-01 0.0 
3.405391637334e-01 -5.902515570737e+01 0.0 
0.0 0.0 -2.179496031024e+01 
-9.607821175757e+01 -6.034721320246e+00 0.0 
-6.034721320246e+00 -2.153619571449e+02 0.0 
0.0 0.0 -8.948313645334e+01 
-8.650612089196e+01 1.420877514505e+01 0.0 
1.420877514505e+01 -1.730648189240e+02 0.0 
0.0 0.0 -7.313069596346e+01 
-1.118481743496e+02 9.823105852707e+00 0.0 
9.823105852707e+00 -2.474095253023e+02 0.0 
0.0 0.0 -1.073773098956e+02 
-1.161426036079e+02 1.122155072782e+01 0.0 
1.122155072782e+01 -2.571854184549e+02 0.0 
0.0 0.0 -1.115984066188e+02 
-1.377709349225e+02 7.975679809561e+00 0.0 
7.975679809561e+00 -3.358560201045e+02 0.0 
0.0 0.0 -1.416880865081e+02 
-3.757714600618e+01 -1.381223631526e+00 0.0 
-1.381223631526e+00 -8.905426265154e+01 0.0 
0.0 0.0 -3.576628892434e+01 
-4.619120897375e+01 -9.070486740065e+00 0.0 
-9.070486740065e+00 -1.381497639019e+02 0.0 
0.0 0.0 -5.216344411044e+01 
-1.006391685641e+02 1.545072599323e+01 0.0 
1.545072599323e+01 -2.283669336553e+02 0.0 
0.0 0.0 -9.772861298189e+01 
-1.004566305541e+02 -6.453189885855e+00 0.0 
-6.453189885855e+00 -2.162606749882e+02 0.0 
0.0 0.0 -9.142085073816e+01 
-8.049276591937e+01 5.816418070021e+00 0.0 
5.816418070021e+00 -1.511228463668e+02 0.0 
0.0 0.0 -6.741810782027e+01 
-8.354320833925e+01 5.587647143664e+00 0.0 
5.587647143664e+00 -1.607951116919e+02 0.0 
0.0 0.0 -7.194009782373e+01 
-1.142416689192e+02 6.841484137732e+00 0.0 
6.841484137732e+00 -2.468423227499e+02 0.0 
0.0 0.0 -1.079251975007e+02 
-4.314159773170e+01 2.322069448067e+01 0.0 
2.322069448067e+01 -1.098750190740e+02 0.0 
0.0 0.0 -3.953835824048e+01 
-1.062859814823e+02 -4.172800346551e+00 0.0 
-4.172800346551e+00 -2.428575451380e+02 0.0 
0.0 0.0 -1.015115219137e+02 
-1.232236602760e+02 6.357434207578e+00 0.0 
6.357434207578e+00 -3.104495946138e+02 0.0 
0.0 0.0 -1.297019764669e+02 
-4.254971096735e+01 -1.797866440167e+00 0.0 
-1.797866440167e+00 -1.405528970831e+02 0.0 
0.0 0.0 -5.330342237511e+01 
-1.518037191768e+02 1.222777867640e+01 0.0 
1.222777867640e+01 -3.562560189144e+02 0.0 
0.0 0.0 -1.520179214274e+02 
-1.322872137188e+02 6.329832448577e+00 0.0 
6.329832448577e+00 -2.970831940858e+02 0.0 
0.0 0.0 -1.284111223414e+02 
-1.080055841833e+02 -4.065869738552e+00 0.0 
-4.065869738552e+00 -2.318300476384e+02 0.0 
0.0 0.0 -9.675889404727e+01 
-1.323023958539e+02 -3.881257842219e-01 0.0 
-3.881257842219e-01 -3.198998896248e+02 0.0 
0.0 0.0 -1.352606856436e+02 
-1.389295544531e+01 -6.733195070918e-01 0.0 
-6.733195070918e-01 -4.214406238363e+01 0.0 
0.0 0.0 -1.468375349307e+01 
-1.187388113186e+02 4.988119047920e+00 0.0 
4.988119047920e+00 -3.015017180736e+02 0.0 
0.0 0.0 -1.263589511523e+02 
-1.002509182422e+02 1.344714049026e+01 0.0 
1.344714049026e+01 -2.351514937603e+02 0.0 
0.0 0.0 -9.987161374462e+01 
-1.421729592266e+01 -3.863855726114e-01 0.0 
-3.863855726114e-01 -4.200737753318e+01 0.0 
0.0 0.0 -1.454864665214e+01 
-1.313475777184e+02 4.672110119923e+00 0.0 
4.672110119923e+00 -2.964709770106e+02 0.0 
0.0 0.0 -1.279455664187e+02 
-4.031714316513e+01 -3.520537692840e+00 0.0 
-3.520537692840e+00 -1.346642591957e+02 0.0 
0.0 0.0 -5.159701475468e+01 
-1.118273220550e+02 1.182986943084e+01 0.0 
1.182986943084e+01 -2.478397708271e+02 0.0 
0.0 0.0 -1.075001278646e+02 
-1.023169865594e+02 1.333552239840e+01 0.0 
1.333552239840e+01 -2.324698402850e+02 0.0 
0.0 0.0 -9.971873675151e+01 
-8.735718564741e+01 -2.570064949403e+00 0.0 
-2.570064949403e+00 -2.327362554257e+02 0.0 
0.0 0.0 -9.964001160324e+01 
-1.054261955238e+02 1.057330545777e-01 0.0 
1.057330545777e-01 -2.715211868833e+02 0.0 
0.0 0.0 -1.139868053074e+02 
-1.347986251471e+02 5.376266277963e+00 0.0 
5.376266277963e+00 -3.059359264200e+02 0.0 
0.0 0.0 -1.318203654701e+02 
-1.136148902013e+02 7.912966419277e-01 0.0 
7.912966419277e-01 -2.902175329574e+02 0.0 
0.0 0.0 -1.207497269476e+02 
-1.018060961408e+02 1.509234556324e+01 0.0 
1.509234556324e+01 -2.395821047448e+02 0.0 
0.0 0.0 -1.025849383366e+02 
-9.682523539435e+01 1.369170556776e+01 0.0 
1.369170556776e+01 -2.269319008652e+02 0.0 
0.0 0.0 -9.547945900206e+01 
-4.175643928912e+01 2.813164689040e+01 0.0 
2.813164689040e+01 -3.242539277597e+01 0.0 
0.0 0.0 -1.898755874735e+01 
-3.571110810500e+01 -3.018526602830e+00 0.0 
-3.018526602830e+00 -1.307912674260e+02 0.0 
0.0 0.0 -5.030984118980e+01 
-1.311148774687e+02 1.260711368113e+01 0.0 
1.260711368113e+01 -3.109956322793e+02 0.0 
0.0 0.0 -1.322331529244e+02 
-1.067931965276e+02 7.682301272473e+00 0.0 
7.682301272473e+00 -2.268916315190e+02 0.0 
0.0 0.0 -9.970544841397e+01 
-1.349333640943e+02 1.096449919234e+01 0.0 
1.096449919234e+01 -3.210410481316e+02 0.0 
0.0 0.0 -1.363923236678e+02 
-6.330929579876e+01 2.289959471406e+01 0.0 
2.289959471406e+01 -1.480150294143e+02 0.0 
0.0 0.0 -6.089350004438e+01 
-1.273990458659e+02 7.936039067270e+00 0.0 
7.936039067270e+00 -2.857266000282e+02 0.0 
0.0 0.0 -1.235376937682e+02 
-1.360119508047e+02 1.277441429426e+01 0.0 
1.277441429426e+01 -3.199774887535e+02 0.0 
0.0 0.0 -1.363968318675e+02 
-8.553842218005e+01 4.490815998617e+00 0.0 
4.490815998617e+00 -1.688571357763e+02 0.0 
0.0 0.0 -7.514234296674e+01 
-1.314303673423e+02 1.114853207157e+01 0.0 
1.114853207157e+01 -3.107645765821e+02 0.0 
0.0 0.0 -1.322584831773e+02 
-1.333085777998e+02 1.110416143854e+00 0.0 
1.110416143854e+00 -3.206654909358e+02 0.0 
0.0 0.0 -1.357922206207e+02 
-1.107589236079e+02 1.204246835370e+01 0.0 
1.204246835370e+01 -2.652891738871e+02 0.0 
0.0 0.0 -1.123610684292e+02 
-1.025243891205e+02 -4.647544784510e+00 0.0 
-4.647544784510e+00 -2.350080469463e+02 0.0 
0.0 0.0 -9.756115484103e+01 
-1.095162296394e+02 -4.439749381836e+00 0.0 
-4.439749381836e+00 -2.477242565327e+02 0.0 
0.0 0.0 -1.042235161909e+02 
-1.397716861808e+02 9.039892933758e+00 0.0 
9.039892933758e+00 -3.171086834299e+02 0.0 
0.0 0.0 -1.366641108832e+02 
-9.927632449112e+01 -5.922218459527e-01 0.0 
-5.922218459527e-01 -2.522472299558e+02 0.0 
0.0 0.0 -1.076001523528e+02 
-1.073849313244e+02 1.327061122128e+01 0.0 
1.327061122128e+01 -2.436952355524e+02 0.0 
0.0 0.0 -1.036971679818e+02 
-9.525410631511e+01 1.260115279352e+01 0.0 
1.260115279352e+01 -2.463039589156e+02 0.0 
0.0 0.0 -1.065959773827e+02 
-1.228468278629e+02 1.706266801697e+00 0.0 
1.706266801697e+00 -3.090972310845e+02 0.0 
0.0 0.0 -1.291832176842e+02 
-8.855644992811e+01 1.407183068695e+01 0.0 
1.407183068695e+01 -2.197259117018e+02 0.0 
0.0 0.0 -9.384469725473e+01 
-5.915277240205e+01 4.829395756896e+00 0.0 
4.829395756896e+00 -1.722177762184e+02 0.0 
0.0 0.0 -6.608067088379e+01 
-9.447410487618e+01 2.551559212576e+00 0.0 
2.551559212576e+00 -2.540342138226e+02 0.0 
0.0 0.0 -1.104717643886e+02 
-6.333020444466e+01 9.232132678003e+00 0.0 
9.232132678003e+00 -1.786807577873e+02 0.0 
0.0 0.0 -6.971863974333e+01 
-1.150220365583e+02 1.036637109427e+01 0.0 
1.036637109427e+01 -2.579512457521e+02 0.0 
0.0 0.0 -1.114919846931e+02 
-6.230508293017e+01 5.100424097860e+00 0.0 
5.100424097860e+00 -1.768587369007e+02 0.0 
0.0 0.0 -6.840659834401e+01 
-1.104411068254e+02 1.300439480086e+01 0.0 
1.300439480086e+01 -2.494880014587e+02 0.0 
0.0 0.0 -1.075787324852e+02 
-1.335887046273e+02 9.894659742000e+00 0.0 
9.894659742000e+00 -3.270753591258e+02 0.0 
0.0 0.0 -1.377992191259e+02 
-1.282590601616e+02 7.725885178383e+00 0.0 
7.725885178383e+00 -3.178511750739e+02 0.0 
0.0 0.0 -1.334330705706e+02 
-8.825517247857e+01 1.640810656621e+01 0.0 
1.640810656621e+01 -2.185151536780e+02 0.0 
0.0 0.0 -9.480146601621e+01 
-1.095382975554e+02 5.235036977426e+00 0.0 
5.235036977426e+00 -2.361057875366e+02 0.0 
0.0 0.0 -1.032932255276e+02 
-1.366202133699e+02 -3.762112987779e-01 0.0 
-3.762112987779e-01 -3.279989807832e+02 0.0 
0.0 0.0 -1.389857582459e+02 
-1.374801213324e+02 1.145648296359e+00 0.0 
1.145648296359e+00 -3.287131445689e+02 0.0 
0.0 0.0 -1.394579797704e+02 
-4.082315448701e+01 2.664910183318e+01 0.0 
2.664910183318e+01 -9.405374916065e+01 0.0 
0.0 0.0 -3.654678933143e+01 
-1.139426123881e+02 1.135258804180e+01 0.0 
1.135258804180e+01 -2.600451877565e+02 0.0 
0.0 0.0 -1.117963400434e+02 
-1.503502978522e+02 -3.056801575581e-01 0.0 
-3.056801575581e-01 -3.565459064047e+02 0.0 
0.0 0.0 -1.516688612771e+02 
-6.875058229163e+01 9.873864338330e+00 0.0 
9.873864338330e+00 -1.207047359492e+02 0.0 
0.0 0.0 -5.213220850331e+01 
-1.140496510682e+02 -3.012183043290e+00 0.0 
-3.012183043290e+00 -2.514113455404e+02 0.0 
0.0 0.0 -1.055773975316e+02 
-4.409312596900e+01 2.964885199913e+01 0.0 
2.964885199913e+01 -2.742015229889e+01 0.0 
0.0 0.0 -1.901375103326e+01 
-1.408616128496e+02 -3.670077656253e-01 0.0 
-3.670077656253e-01 -3.361445194820e+02 0.0 
0.0 0.0 -1.427018396995e+02 
-5.656456446409e+01 9.965085130637e+00 0.0 
9.965085130637e+00 -1.652437131332e+02 0.0 
0.0 0.0 -6.321864017057e+01 
-1.122354913653e+02 -1.673798746326e+00 0.0 
-1.673798746326e+00 -2.389251360550e+02 0.0 
0.0 0.0 -1.013358991477e+02 
-1.155435919799e+02 9.561233984419e+00 0.0 
9.561233984419e+00 -2.878817312591e+02 0.0 
0.0 0.0 -1.211749261366e+02 
-1.106592884336e+02 7.156359384933e+00 0.0 
7.156359384933e+00 -2.369394168407e+02 0.0 
0.0 0.0 -1.038796115823e+02 
-1.060917420842e+02 5.639817262679e+00 0.0 
5.639817262679e+00 -2.262127809476e+02 0.0 
0.0 0.0 -9.929135690956e+01 
-1.057489958116e+02 1.406909248413e+01 0.0 
1.406909248413e+01 -2.470939430951e+02 0.0 
0.0 0.0 -1.045436849345e+02 
-7.385929394872e+01 6.114622237058e+00 0.0 
6.114622237058e+00 -1.321419964314e+02 0.0 
0.0 0.0 -5.828236476477e+01 
-7.723643518704e+01 5.713613219275e+00 0.0 
5.713613219275e+00 -1.417384402596e+02 0.0 
0.0 0.0 -6.298368384664e+01 
-1.415181369392e+02 1.109828482198e+00 0.0 
1.109828482198e+00 -3.367695772825e+02 0.0 
0.0 0.0 -1.430863142665e+02 
-1.107894017694e+02 2.099212186338e+00 0.0 
2.099212186338e+00 -2.826413807432e+02 0.0 
0.0 0.0 -1.200610858198e+02 
-9.299512784121e+01 -5.924805096151e-01 0.0 
-5.924805096151e-01 -2.496215249000e+02 0.0 
0.0 0.0 -1.071595281509e+02 
-1.174058712334e+02 3.934228304766e+00 0.0 
3.934228304766e+00 -3.007467725892e+02 0.0 
0.0 0.0 -1.253665472770e+02 
-8.732432001668e+01 2.023570850689e+00 0.0 
2.023570850689e+00 -2.363651936185e+02 0.0 
0.0 0.0 -1.018919485054e+02 
-5.871467550133e+01 9.768528543227e+00 0.0 
9.768528543227e+00 -1.668834435095e+02 0.0 
0.0 0.0 -6.350965430212e+01 
-7.174361770262e+01 3.636087698677e+00 0.0 
3.636087698677e+00 -1.314571041327e+02 0.0 
0.0 0.0 -5.814162898729e+01 
-9.951852481814e+01 6.995015002055e+00 0.0 
6.995015002055e+00 -2.074474523766e+02 0.0 
0.0 0.0 -9.168979315841e+01 
-7.847479576091e+01 1.806390633570e-01 0.0 
1.806390633570e-01 -1.648823837684e+02 0.0 
0.0 0.0 -7.260715385879e+01 
-1.282792543280e+02 9.137298122261e+00 0.0 
9.137298122261e+00 -3.181459635287e+02 0.0 
0.0 0.0 -1.335275653570e+02 
-8.364961470227e+01 1.419236572329e+01 0.0 
1.419236572329e+01 -2.127464440915e+02 0.0 
0.0 0.0 -9.064165745456e+01 
-1.480821469415e+02 9.405951560619e+00 0.0 
9.405951560619e+00 -3.539699517375e+02 0.0 
0.0 0.0 -1.502156296037e+02 
-1.399126205092e+02 -8.948833011367e-01 0.0 
-8.948833011367e-01 -3.312973929307e+02 0.0 
0.0 0.0 -1.409630040320e+02 
-9.109667359947e+01 4.006955248647e+00 0.0 
4.006955248647e+00 -2.479939150569e+02 0.0 
0.0 0.0 -1.068318541138e+02 
-1.555816750507e+02 1.803283370376e+00 0.0 
1.803283370376e+00 -3.678440654225e+02 0.0 
0.0 0.0 -1.566277221419e+02 
-6.645414338178e+01 9.508530487642e-01 0.0 
9.508530487642e-01 -1.854381054196e+02 0.0 
0.0 0.0 -7.336250310404e+01 
-1.432634261283e+02 9.694234998993e+00 0.0 
9.694234998993e+00 -3.438102498676e+02 0.0 
0.0 0.0 -1.457221027988e+02 
-1.019984288338e+02 1.326759964967e+01 0.0 
1.326759964967e+01 -2.461134277356e+02 0.0 
0.0 0.0 -1.040335569708e+02 
-1.135537268491e+02 1.135497326368e+01 0.0 
1.135497326368e+01 -2.754396386075e+02 0.0 
0.0 0.0 -1.162980096370e+02 
-1.379897726046e+02 6.328694725290e+00 0.0 
6.328694725290e+00 -3.387435111496e+02 0.0 
0.0 0.0 -1.426199851263e+02 
-8.289711476156e+01 -1.209050781367e+01 0.0 
-1.209050781367e+01 -1.812070593186e+02 0.0 
0.0 0.0 -7.748210121173e+01 
-1.104072522693e+02 1.225438485949e+01 0.0 
1.225438485949e+01 -2.517801655099e+02 0.0 
0.0 0.0 -1.078366605986e+02 
-8.878504523514e+01 8.625060799502e-01 0.0 
8.625060799502e-01 -2.409216416642e+02 0.0 
0.0 0.0 -1.032998608767e+02 
-1.060980755392e+02 1.322797752841e+01 0.0 
1.322797752841e+01 -2.409244142431e+02 0.0 
0.0 0.0 -1.037067469347e+02 
-6.277562387746e+01 2.116898509807e+01 0.0 
2.116898509807e+01 -1.475155244155e+02 0.0 
0.0 0.0 -5.982465751277e+01 
-1.168205058231e+02 1.063587436080e+01 0.0 
1.063587436080e+01 -2.856717747911e+02 0.0 
0.0 0.0 -1.203476841842e+02 
-8.425065005512e+01 -7.017371337560e-01 0.0 
-7.017371337560e-01 -2.269681711926e+02 0.0 
0.0 0.0 -9.715063337694e+01 
-1.115407709781e+02 -3.017078004949e+00 0.0 
-3.017078004949e+00 -2.621623726987e+02 0.0 
0.0 0.0 -1.100964959309e+02 
-1.081118670011e+02 1.204615512623e+01 0.0 
1.204615512623e+01 -2.406857207899e+02 0.0 
0.0 0.0 -1.034571477180e+02 
-4.375226713699e+01 3.640917754968e+01 0.0 
3.640917754968e+01 -5.836403815702e+01 0.0 
0.0 0.0 -2.959129462705e+01 
-1.014522092151e+02 1.015467582493e+01 0.0 
1.015467582493e+01 -2.620434825234e+02 0.0 
0.0 0.0 -1.134310478863e+02 
-4.556052656664e+01 2.852582847921e+01 0.0 
2.852582847921e+01 -5.307106796280e+01 0.0 
0.0 0.0 -2.576464389242e+01 
-2.582882937931e+01 -4.189498092900e+00 0.0 
-4.189498092900e+00 -6.339913752324e+01 0.0 
0.0 0.0 -2.392276581591e+01 
-1.098366312929e+02 -3.683930681168e+00 0.0 
-3.683930681168e+00 -2.505649924894e+02 0.0 
0.0 0.0 -1.052177909609e+02 
-1.289015267131e+02 1.274138796496e+01 0.0 
1.274138796496e+01 -2.987827916729e+02 0.0 
0.0 0.0 -1.279052955158e+02 
-1.093980792797e+02 6.441883547919e+00 0.0 
6.441883547919e+00 -2.356861617551e+02 0.0 
0.0 0.0 -1.031252723104e+02 
-6.626915942610e+01 7.129405643167e+00 0.0 
7.129405643167e+00 -1.131463196076e+02 0.0 
0.0 0.0 -4.850067097251e+01 
-1.504027831186e+02 7.222738084748e+00 0.0 
7.222738084748e+00 -3.522731606100e+02 0.0 
0.0 0.0 -1.504027831186e+02 
-4.330672699086e+01 3.316981231655e+01 0.0 
3.316981231655e+01 -3.137103902219e+01 0.0 
0.0 0.0 -2.282763331206e+01 
-6.992832463914e+01 6.288046933446e+00 0.0 
6.288046933446e+00 -1.227153339244e+02 0.0 
0.0 0.0 -5.351665834159e+01 
-9.667292824151e+01 9.818321465143e-01 0.0 
9.818321465143e-01 -2.535082569561e+02 0.0 
0.0 0.0 -1.095519584979e+02 
-1.113147709837e+02 -3.094620001206e+00 0.0 
-3.094620001206e+00 -2.397410022871e+02 0.0 
0.0 0.0 -1.007090934469e+02 
-8.486215787943e+01 8.531522726050e+00 0.0 
8.531522726050e+00 -1.603024224693e+02 0.0 
0.0 0.0 -7.033376649087e+01 
-6.950971067948e+01 -6.374027741567e+00 0.0 
-6.374027741567e+00 -1.876023932747e+02 0.0 
0.0 0.0 -7.631809105740e+01 
-1.044708436534e+02 -8.653058973451e-01 0.0 
-8.653058973451e-01 -2.653502143573e+02 0.0 
0.0 0.0 -1.139625410449e+02 
-1.068071425396e+02 1.375441468947e+01 0.0 
1.375441468947e+01 -2.544638815831e+02 0.0 
0.0 0.0 -1.079813072368e+02 
-1.100159571451e+02 9.218117542761e+00 0.0 
9.218117542761e+00 -2.798326801367e+02 0.0 
0.0 0.0 -1.188680543299e+02 
-1.333795346214e+02 1.002635744757e+01 0.0 
1.002635744757e+01 -3.057586264986e+02 0.0 
0.0 0.0 -1.313414483360e+02 
-4.477196438659e+01 2.546589768132e+01 0.0 
2.546589768132e+01 -1.156592616921e+02 0.0 
0.0 0.0 -4.484642736175e+01 
-1.041591481134e+02 -4.713801513385e+00 0.0 
-4.713801513385e+00 -2.310925924986e+02 0.0 
0.0 0.0 -9.650432214090e+01 
-1.112666161357e+02 -3.461783440411e+00 0.0 
-3.461783440411e+00 -2.470411123138e+02 0.0 
0.0 0.0 -1.041304763227e+02 
-6.505523504021e+01 -1.096644969919e+01 0.0 
-1.096644969919e+01 -1.336261372593e+02 0.0 
0.0 0.0 -5.607142946862e+01 
-8.818103288621e+01 4.284086123518e+00 0.0 
4.284086123518e+00 -1.781191139288e+02 0.0 
0.0 0.0 -7.927150072511e+01 
-1.102350938451e+02 8.430213858150e+00 0.0 
8.430213858150e+00 -2.364405883259e+02 0.0 
0.0 0.0 -1.036027046513e+02 
-1.300745119075e+02 6.979907633741e-01 0.0 
6.979907633741e-01 -3.023674764999e+02 0.0 
0.0 0.0 -1.285865065000e+02 
-1.713395154812e+01 -1.185602805804e-01 0.0 
-1.185602805804e-01 -4.261729699074e+01 0.0 
0.0 0.0 -1.488486666812e+01 
-4.699303854815e+01 -7.477150427386e+00 0.0 
-7.477150427386e+00 -1.181715813697e+02 0.0 
0.0 0.0 -5.092777728418e+01 
-4.518463554972e+01 -8.940058132747e+00 0.0 
-8.940058132747e+00 -9.115915891476e+01 0.0 
0.0 0.0 -3.714430732459e+01 
-1.144073353619e+02 -2.208833466928e+00 0.0 
-2.208833466928e+00 -2.477973208868e+02 0.0 
0.0 0.0 -1.045465849908e+02 
-7.250776670501e+01 1.570851907511e+00 0.0 
1.570851907511e+00 -1.999585364879e+02 0.0 
0.0 0.0 -8.089931892990e+01 
-6.858670988015e+01 -6.821966639179e+00 0.0 
-6.821966639179e+00 -1.842464040766e+02 0.0 
0.0 0.0 -7.509952298776e+01 
-5.979028389555e+01 9.721253605927e-02 0.0 
9.721253605927e-02 -1.715654208307e+02 0.0 
0.0 0.0 -6.629769178559e+01 
-1.132928111070e+02 -3.166224724334e+00 0.0 
-3.166224724334e+00 -2.584545624858e+02 0.0 
0.0 0.0 -1.088933053539e+02 
-1.162796372341e+02 7.974999443365e+00 0.0 
7.974999443365e+00 -2.556747682216e+02 0.0 
0.0 0.0 -1.111863216367e+02 
-1.146230648589e+02 -2.830310336610e+00 0.0 
-2.830310336610e+00 -2.551996214062e+02 0.0 
0.0 0.0 -1.078639094808e+02 
-7.229084978286e+01 4.703385465533e+00 0.0 
4.703385465533e+00 -2.004087716469e+02 0.0 
0.0 0.0 -8.071238469989e+01 
-1.132152208830e+02 1.326827063711e+01 0.0 
1.326827063711e+01 -2.600927555327e+02 0.0 
0.0 0.0 -1.115923929247e+02 
-9.392935374669e+01 2.331002847651e+00 0.0 
2.331002847651e+00 -1.967839364673e+02 0.0 
0.0 0.0 -8.681398706419e+01 
-1.251134695910e+02 9.323054796156e+00 0.0 
9.323054796156e+00 -3.069085722723e+02 0.0 
0.0 0.0 -1.292066125590e+02 
-1.173058293131e+02 -1.383222981960e+00 0.0 
-1.383222981960e+00 -2.559656998529e+02 0.0 
0.0 0.0 -1.083118860872e+02 
-1.171130737443e+02 -2.162521038659e+00 0.0 
-2.162521038659e+00 -2.592924179219e+02 0.0 
0.0 0.0 -1.093361470821e+02 
-5.794798822839e+01 8.987036887214e+00 0.0 
8.987036887214e+00 -9.299108183155e+01 0.0 
0.0 0.0 -4.039557954993e+01 
-7.617226285117e+01 -1.525620120491e+00 0.0 
-1.525620120491e+00 -2.074563233216e+02 0.0 
0.0 0.0 -8.600505934609e+01 
-1.178100298918e+02 -2.203888431795e+00 0.0 
-2.203888431795e+00 -2.633940716203e+02 0.0 
0.0 0.0 -1.115651802573e+02 
-1.072655923576e+02 -4.829333751978e-01 0.0 
-4.829333751978e-01 -2.361485461321e+02 0.0 
0.0 0.0 -1.026242415469e+02 
-9.999324049989e+01 -5.727637633256e-01 0.0 
-5.727637633256e-01 -2.178526575723e+02 0.0 
0.0 0.0 -9.495376942164e+01 
-6.209466401533e+01 7.776704409797e+00 0.0 
7.776704409797e+00 -1.033751060063e+02 0.0 
0.0 0.0 -4.369630185356e+01 
-1.166866203841e+02 -2.637889668520e+00 0.0 
-2.637889668520e+00 -2.665138679613e+02 0.0 
0.0 0.0 -1.125790477806e+02 
-7.158125370281e+01 -1.252077741608e+01 0.0 
-1.252077741608e+01 -1.795184791724e+02 0.0 
0.0 0.0 -7.528410545544e+01 
-4.690262185609e+01 2.729833386847e+01 0.0 
2.729833386847e+01 -7.476631900110e+01 0.0 
0.0 0.0 -3.211279024814e+01 
-1.439181621094e+02 1.114736441303e+01 0.0 
1.114736441303e+01 -3.445555825805e+02 0.0 
0.0 0.0 -1.461421234070e+02 
-4.706840807424e+01 -1.147739157596e+01 0.0 
-1.147739157596e+01 -8.550004899007e+01 0.0 
0.0 0.0 -3.599372636509e+01 
-7.046629018665e+01 -1.070001950788e+01 0.0 
-1.070001950788e+01 -1.790740685444e+02 0.0 
0.0 0.0 -7.469435619018e+01 
-9.694661008556e+01 1.182927263792e+01 0.0 
1.182927263792e+01 -2.497528888820e+02 0.0 
0.0 0.0 -1.064355179336e+02 
-6.415758653518e+01 4.316048355554e+00 0.0 
4.316048355554e+00 -1.125077611483e+02 0.0 
0.0 0.0 -4.869391995817e+01 
-1.201111520111e+02 -6.305439558111e-01 0.0 
-6.305439558111e-01 -2.643798643511e+02 0.0 
0.0 0.0 -1.121079493005e+02 
-5.891359333883e+01 5.173434249333e-01 0.0 
5.173434249333e-01 -1.205506255254e+02 0.0 
0.0 0.0 -4.992643955290e+01 
-9.207507509876e+01 6.142449425315e+00 0.0 
6.142449425315e+00 -1.862319776251e+02 0.0 
0.0 0.0 -8.309104786935e+01 
-1.199891081800e+02 -1.397092076877e+00 0.0 
-1.397092076877e+00 -2.673245517134e+02 0.0 
0.0 0.0 -1.130459874132e+02 
-9.177939028587e+01 -3.891804650016e+00 0.0 
-3.891804650016e+00 -2.401646549707e+02 0.0 
0.0 0.0 -1.030560333051e+02 
-1.107863121349e+02 -3.931109949078e+00 0.0 
-3.931109949078e+00 -2.437056361368e+02 0.0 
0.0 0.0 -1.017277043326e+02 
-3.648148028840e+01 3.281440430861e+01 0.0 
3.281440430861e+01 -8.514081587773e+01 0.0 
0.0 0.0 -3.832065447392e+01 
-1.293796282337e+02 1.210220563370e+00 0.0 
1.210220563370e+00 -2.942651024879e+02 0.0 
0.0 0.0 -1.266934192165e+02 
-7.935057867623e+01 -7.771887234379e+00 0.0 
-7.771887234379e+00 -2.065267613920e+02 0.0 
0.0 0.0 -8.769153351063e+01 
-1.373443523902e+02 6.710144660802e+00 0.0 
6.710144660802e+00 -3.376893790479e+02 0.0 
0.0 0.0 -1.421101194314e+02 
-1.122839307365e+02 1.277634889139e+01 0.0 
1.277634889139e+01 -2.752818325230e+02 0.0 
0.0 0.0 -1.158697289778e+02 
-1.199663775626e+02 -2.137685375550e+00 0.0 
-2.137685375550e+00 -2.746522079740e+02 0.0 
0.0 0.0 -1.162605403361e+02 
-1.227121754966e+02 -7.566592778500e-01 0.0 
-7.566592778500e-01 -2.754141452880e+02 0.0 
0.0 0.0 -1.167172348537e+02 
-6.887017597090e+01 8.317036414385e-01 0.0 
8.317036414385e-01 -1.921611779812e+02 0.0 
0.0 0.0 -7.688706152551e+01 
-4.033432884073e+01 -1.032369007822e+01 0.0 
-1.032369007822e+01 -5.920288865023e+01 0.0 
0.0 0.0 -2.572157957143e+01 
-3.631150470784e+01 3.342996938038e+01 0.0 
3.342996938038e+01 -8.313029202657e+01 0.0 
0.0 0.0 -3.699402496570e+01 
-1.231072092376e+02 -1.677990677733e+00 0.0 
-1.677990677733e+00 -2.829197677755e+02 0.0 
0.0 0.0 -1.199825579742e+02 
-1.371375376039e+02 5.251999897782e+00 0.0 
5.251999897782e+00 -3.384337951726e+02 0.0 
0.0 0.0 -1.422713998330e+02 
-7.293531856122e+01 -1.563524661730e+01 0.0 
-1.563524661730e+01 -1.700632670707e+02 0.0 
0.0 0.0 -7.222518785381e+01 
-1.170407803333e+02 1.147225324023e+01 0.0 
1.147225324023e+01 -2.708377870548e+02 0.0 
0.0 0.0 -1.159635702164e+02 
-6.395953139839e+01 1.155781412171e+01 0.0 
1.155781412171e+01 -1.097449335063e+02 0.0 
0.0 0.0 -4.837011280975e+01 
-1.179210712033e+02 1.272236668019e+01 0.0 
1.272236668019e+01 -2.689135996669e+02 0.0 
0.0 0.0 -1.156504012610e+02 
-1.572113373044e+02 3.644133650932e+00 0.0 
3.644133650932e+00 -3.766217622769e+02 0.0 
0.0 0.0 -1.597499298744e+02 
-1.273297223489e+02 -8.660170750997e-01 0.0 
-8.660170750997e-01 -1.030705666772e+02 0.0 
0.0 0.0 -6.939695771826e+01 
-1.483432733593e+02 9.504626861282e-01 0.0 
9.504626861282e-01 -3.474676378385e+02 0.0 
0.0 0.0 -1.483432733593e+02 
-1.681904156340e+02 2.041239403801e-01 0.0 
2.041239403801e-01 -3.937776364793e+02 0.0 
0.0 0.0 -1.681904156340e+02 
-8.700910248917e+01 8.159712140182e-01 0.0 
8.159712140182e-01 -1.859762568259e+02 0.0 
0.0 0.0 -8.149560779452e+01 
-8.141293792566e+01 -1.221072118124e+01 0.0 
-1.221072118124e+01 -2.003946679969e+02 0.0 
0.0 0.0 -8.549798622389e+01 
-1.092290747524e+02 1.335811780988e+01 0.0 
1.335811780988e+01 -2.649942875543e+02 0.0 
0.0 0.0 -1.118670086920e+02 
-6.889651266509e+01 5.245023027620e+00 0.0 
5.245023027620e+00 -1.913211236451e+02 0.0 
0.0 0.0 -7.614178221447e+01 
-2.128748698269e+01 8.115473563153e-02 0.0 
8.115473563153e-02 -5.516160866478e+01 0.0 
0.0 0.0 -2.104295479665e+01 
-4.802989240634e+01 3.394569464009e+01 0.0 
3.394569464009e+01 -3.192942252866e+01 0.0 
0.0 0.0 -2.261947030364e+01 
-1.364156794280e+02 3.168188295033e+00 0.0 
3.168188295033e+00 -3.116864121965e+02 0.0 
0.0 0.0 -1.340306274873e+02 
-1.137505889340e+02 9.293297215939e+00 0.0 
9.293297215939e+00 -2.465932446922e+02 0.0 
0.0 0.0 -1.077031500879e+02 
-8.671680808122e+01 5.680921397786e+00 0.0 
5.680921397786e+00 -1.715118483764e+02 0.0 
0.0 0.0 -7.667501746137e+01 
-1.596162350057e+02 1.301582309135e+01 0.0 
1.301582309135e+01 -3.745146442376e+02 0.0 
0.0 0.0 -1.598392637730e+02 
-4.462199389966e+01 6.389950732396e-01 0.0 
6.389950732396e-01 -1.003444465838e+02 0.0 
0.0 0.0 -4.082016658566e+01 
-1.599088179886e+02 1.270815332903e+01 0.0 
1.270815332903e+01 -3.764453231291e+02 0.0 
0.0 0.0 -1.605062423353e+02 
-1.129182954218e+02 7.225962201621e+00 0.0 
7.225962201621e+00 -2.457358652317e+02 0.0 
0.0 0.0 -1.071962481961e+02 
-8.548459832603e+01 -1.209179968163e+01 0.0 
-1.209179968163e+01 -1.942297593244e+02 0.0 
0.0 0.0 -8.333426752983e+01 
-1.070228319188e+02 1.304156103411e+01 0.0 
1.304156103411e+01 -2.576037668544e+02 0.0 
0.0 0.0 -1.092166650539e+02 
-7.606482004454e+01 -1.037253874046e+01 0.0 
-1.037253874046e+01 -1.857689426125e+02 0.0 
0.0 0.0 -7.786803972597e+01 
-4.753618695107e+01 2.394385199988e+01 0.0 
2.394385199988e+01 -7.434266901095e+01 0.0 
0.0 0.0 -3.282249159460e+01 
-7.381013835150e+01 -1.163900802918e+01 0.0 
-1.163900802918e+01 -1.733907846481e+02 0.0 
0.0 0.0 -7.263855924917e+01 
-1.196467611841e+02 8.659173116008e+00 0.0 
8.659173116008e+00 -2.657916062122e+02 0.0 
0.0 0.0 -1.152315102189e+02 
-1.448152712255e+02 9.671035061783e-01 0.0 
9.671035061783e-01 -3.422059367773e+02 0.0 
0.0 0.0 -1.457063624008e+02 
-7.315471098985e+01 -7.988450524154e+00 0.0 
-7.988450524154e+00 -1.908693463046e+02 0.0 
0.0 0.0 -7.970359569224e+01 
-1.214356966884e+02 1.106597364749e+01 0.0 
1.106597364749e+01 -2.793150264123e+02 0.0 
0.0 0.0 -1.198252169302e+02 
-7.832155403759e+01 -2.392258011821e+00 0.0 
-2.392258011821e+00 -1.130161372002e+02 0.0 
0.0 0.0 -5.790256289459e+01 
-7.229314280402e+01 -2.584769978739e+00 0.0 
-2.584769978739e+00 -1.974684399122e+02 0.0 
0.0 0.0 -8.021110464692e+01 
-1.249971305957e+02 9.213258608597e+00 0.0 
9.213258608597e+00 -2.766598451487e+02 0.0 
0.0 0.0 -1.200970927233e+02 
-7.569151585128e+01 -1.096171784982e+01 0.0 
-1.096171784982e+01 -1.672346807494e+02 0.0 
0.0 0.0 -6.982428261896e+01 
-7.043827222573e+01 -1.596314216400e+01 0.0 
-1.596314216400e+01 -1.555986843015e+02 0.0 
0.0 0.0 -6.631558298142e+01 
-1.044692929448e+02 1.321578003296e+01 0.0 
1.321578003296e+01 -2.568988049021e+02 0.0 
0.0 0.0 -1.080104293541e+02 
-4.541393111242e+01 -1.768346137308e+01 0.0 
-1.768346137308e+01 -1.088809204216e+02 0.0 
0.0 0.0 -3.964343881545e+01 
-4.888938781974e+01 1.032605202925e+01 0.0 
1.032605202925e+01 -7.208062993041e+01 0.0 
0.0 0.0 -3.249555881419e+01 
-5.333121357140e+01 9.639803516086e+00 0.0 
9.639803516086e+00 -8.383321646739e+01 0.0 
0.0 0.0 -3.646359026622e+01 
-6.778280106170e+01 -1.241730809451e+01 0.0 
-1.241730809451e+01 -1.471838676385e+02 0.0 
0.0 0.0 -6.134915266270e+01 
-9.904854415518e+01 -8.519363129383e-01 0.0 
-8.519363129383e-01 -2.571682526839e+02 0.0 
0.0 0.0 -1.107501699106e+02 
-9.399026120014e+01 1.474257607157e+01 0.0 
1.474257607157e+01 -2.361126511809e+02 0.0 
0.0 0.0 -1.022303747253e+02 
-1.210488002846e+02 1.291632906291e+01 0.0 
1.291632906291e+01 -2.794523482752e+02 0.0 
0.0 0.0 -1.197503445679e+02 
-1.415184076123e+02 9.893241784665e+00 0.0 
9.893241784665e+00 -3.261091803543e+02 0.0 
0.0 0.0 -1.398882763900e+02 
-5.532880716715e+01 5.718140845305e+00 0.0 
5.718140845305e+00 -9.281212555607e+01 0.0 
0.0 0.0 -3.922660692429e+01 
-1.151072549063e+02 1.337262855806e+00 0.0 
1.337262855806e+00 -2.559143246269e+02 0.0 
0.0 0.0 -1.109064738600e+02 
-1.436499914134e+02 1.133857912196e+01 0.0 
1.133857912196e+01 -3.353763118981e+02 0.0 
0.0 0.0 -1.433078909934e+02 
-6.594956259166e+01 4.803780473704e+00 0.0 
4.803780473704e+00 -1.860465926388e+02 0.0 
0.0 0.0 -7.331853859977e+01 
-4.235199165900e+01 2.567223258454e+01 0.0 
2.567223258454e+01 -5.239249769954e+01 0.0 
0.0 0.0 -2.388918676735e+01 
-6.997927835760e+01 1.252014942981e+01 0.0 
1.252014942981e+01 -1.214602614836e+02 0.0 
0.0 0.0 -5.251423359193e+01 
-9.789424552961e+01 -3.758561119017e+00 0.0 
-3.758561119017e+00 -2.476280254886e+02 0.0 
0.0 0.0 -1.066266436934e+02 
-1.222542948793e+02 1.029800861320e+01 0.0 
1.029800861320e+01 -2.772577306896e+02 0.0 
0.0 0.0 -1.194536076707e+02 
-9.449773545991e+01 -1.100356450995e+00 0.0 
-1.100356450995e+00 -2.440181500415e+02 0.0 
0.0 0.0 -1.047109891960e+02 
-3.648541645883e+01 2.631093058995e+01 0.0 
2.631093058995e+01 -9.606159306207e+01 0.0 
0.0 0.0 -3.737278153421e+01 
-1.059128686109e+02 2.333442099161e+00 0.0 
2.333442099161e+00 -2.739883644572e+02 0.0 
0.0 0.0 -1.177201023557e+02 
-4.986274293349e+01 2.107301348450e+01 0.0 
2.107301348450e+01 -7.763950135549e+01 0.0 
0.0 0.0 -3.502045641047e+01 
-9.033037366079e+01 1.254953818195e+01 0.0 
1.254953818195e+01 -2.303615997389e+02 0.0 
0.0 0.0 -9.880946977084e+01 
-1.012218512777e+02 8.025273713746e-01 0.0 
8.025273713746e-01 -2.626056017885e+02 0.0 
0.0 0.0 -1.121905730622e+02 
-1.084807787208e+02 1.139252725095e+01 0.0 
1.139252725095e+01 -2.673655356974e+02 0.0 
0.0 0.0 -1.134559349892e+02 
-1.060633730418e+02 1.650199188620e+00 0.0 
1.650199188620e+00 -2.314289072387e+02 0.0 
0.0 0.0 -1.008476840841e+02 
-7.061609981439e+01 -1.286180748599e+01 0.0 
-1.286180748599e+01 -1.475587969532e+02 0.0 
0.0 0.0 -6.270041946786e+01 
-4.498971148393e+01 2.921475964832e+01 0.0 
2.921475964832e+01 -7.556400718500e+01 0.0 
0.0 0.0 -3.134718361450e+01 
-1.086093156721e+02 1.056085593520e+00 0.0 
1.056085593520e+00 -2.814934110940e+02 0.0 
0.0 0.0 -1.177515205351e+02 
-5.197735526265e+01 1.848994563298e+01 0.0 
1.848994563298e+01 -8.210507924033e+01 0.0 
0.0 0.0 -3.754936675756e+01 
-4.499751718222e+01 1.130720004253e+01 0.0 
1.130720004253e+01 -1.205895199060e+02 0.0 
0.0 0.0 -5.108389945250e+01 
-1.364343706835e+02 -3.198120439290e-01 0.0 
-3.198120439290e-01 -3.131117810317e+02 0.0 
0.0 0.0 -1.344638455146e+02 
-1.296819364652e+02 -4.662569087355e-01 0.0 
-4.662569087355e-01 -2.944893693753e+02 0.0 
0.0 0.0 -1.268513917522e+02 
-2.004277541217e+01 -2.886355077987e+00 0.0 
-2.886355077987e+00 -2.706900032334e+01 0.0 
0.0 0.0 -1.261317830377e+01 
-1.146460055628e+02 3.505704646158e+00 0.0 
3.505704646158e+00 -2.922763431455e+02 0.0 
0.0 0.0 -1.233363527778e+02 
-5.523442427346e+01 -1.065154595636e+01 0.0 
-1.065154595636e+01 -1.123118842443e+02 0.0 
0.0 0.0 -4.667177100223e+01 
-5.953899151150e+01 -1.098482554735e+01 0.0 
-1.098482554735e+01 -1.205994448777e+02 0.0 
0.0 0.0 -5.008702973493e+01 
-1.291275158257e+02 1.093657469939e+01 0.0 
1.093657469939e+01 -2.987145751413e+02 0.0 
0.0 0.0 -1.279526272901e+02 
-1.068558918834e+02 1.262125628806e+01 0.0 
1.262125628806e+01 -2.669140296646e+02 0.0 
0.0 0.0 -1.117309764644e+02 
-1.247477273291e+02 1.121855914580e+01 0.0 
1.121855914580e+01 -2.900414974627e+02 0.0 
0.0 0.0 -1.240367674375e+02 
-7.453103616667e+01 -5.713925026862e+00 0.0 
-5.713925026862e+00 -1.991666830997e+02 0.0 
0.0 0.0 -8.283936583871e+01 
-7.916058734779e+01 5.396606921098e-01 0.0 
5.396606921098e-01 -1.648778616732e+02 0.0 
0.0 0.0 -7.281153470630e+01 
-1.593495801241e+02 3.273358604809e+00 0.0 
3.273358604809e+00 -3.773392271284e+02 0.0 
0.0 0.0 -1.606066421758e+02 
-5.074762180696e+01 -1.032691169561e+01 0.0 
-1.032691169561e+01 -9.996472910215e+01 0.0 
0.0 0.0 -4.160805685358e+01 
-1.327636441486e+02 8.490230422732e+00 0.0 
8.490230422732e+00 -3.273726619144e+02 0.0 
0.0 0.0 -1.376408918189e+02 
-9.465880339293e+01 1.232427778520e+01 0.0 
1.232427778520e+01 -2.381033556880e+02 0.0 
0.0 0.0 -1.017193146444e+02 
-3.020635802476e+01 -2.355354669812e+00 0.0 
-2.355354669812e+00 -7.605272785771e+01 0.0 
0.0 0.0 -2.985635570396e+01 
-1.189686689180e+02 9.804533261649e+00 0.0 
9.804533261649e+00 -2.666672981613e+02 0.0 
0.0 0.0 -1.152907901238e+02 
-7.513035879290e+01 1.171012752320e+00 0.0 
1.171012752320e+00 -2.066698810440e+02 0.0 
0.0 0.0 -8.460306062023e+01 
-3.539489244499e+01 -9.591205391561e+00 0.0 
-9.591205391561e+00 -4.869620101701e+01 0.0 
0.0 0.0 -2.010368211664e+01 
-6.584389660013e+01 -3.355148852125e+00 0.0 
-3.355148852125e+00 -1.828994352269e+02 0.0 
0.0 0.0 -7.256528963406e+01 
-1.277005857855e+02 -8.505883019766e-01 0.0 
-8.505883019766e-01 -2.936760296818e+02 0.0 
0.0 0.0 -1.248388583959e+02 
-1.203202448772e+02 1.071720527078e+01 0.0 
1.071720527078e+01 -2.667644213324e+02 0.0 
0.0 0.0 -1.157253998629e+02 
-4.419866187921e+01 -9.269335119713e+00 0.0 
-9.269335119713e+00 -7.869366360231e+01 0.0 
0.0 0.0 -3.185642522560e+01 
-1.129631562105e+02 -3.547941821078e-01 0.0 
-3.547941821078e-01 -2.396826461939e+02 0.0 
0.0 0.0 -1.018270530022e+02 
-1.257360798170e+02 1.066481998092e+01 0.0 
1.066481998092e+01 -2.881219837431e+02 0.0 
0.0 0.0 -1.237574190680e+02 
-1.300336527457e+02 1.129791694342e+01 0.0 
1.129791694342e+01 -3.157176523052e+02 0.0 
0.0 0.0 -1.333253915153e+02 
-7.081424314623e+01 -1.231698393937e+01 0.0 
-1.231698393937e+01 -1.603527890788e+02 0.0 
0.0 0.0 -6.695660875989e+01 
-6.138191684553e+01 -2.154380279273e+00 0.0 
-2.154380279273e+00 -1.206541240242e+02 0.0 
0.0 0.0 -4.996611362268e+01 
-9.989069859095e+01 1.290797686279e+01 0.0 
1.290797686279e+01 -2.531592926368e+02 0.0 
0.0 0.0 -1.093166648626e+02 
-1.032183410161e+02 9.044052416359e-01 0.0 
9.044052416359e-01 -2.255676108165e+02 0.0 
0.0 0.0 -9.823578554979e+01 
-3.777291162159e+01 -1.381107086374e+01 0.0 
-1.381107086374e+01 -5.248934013956e+01 0.0 
0.0 0.0 -1.942681239062e+01 
-1.510680968755e+02 1.265444168224e+01 0.0 
1.265444168224e+01 -3.533045109285e+02 0.0 
0.0 0.0 -1.509117823412e+02 
-1.460914252658e+02 9.759938956607e+00 0.0 
9.759938956607e+00 -3.393950556772e+02 0.0 
0.0 0.0 -1.452459442829e+02 
-9.205099082500e+01 9.588466983782e-01 0.0 
9.588466983782e-01 -1.978870020762e+02 0.0 
0.0 0.0 -8.658139787036e+01 
-1.436778985827e+02 6.683941866181e+00 0.0 
6.683941866181e+00 -3.286313425891e+02 0.0 
0.0 0.0 -1.412927723516e+02 
-1.479493453860e+02 1.054020448178e+01 0.0 
1.054020448178e+01 -3.440400980784e+02 0.0 
0.0 0.0 -1.471968330393e+02 
-7.568611029666e+01 -4.826546480769e+00 0.0 
-4.826546480769e+00 -2.020558785852e+02 0.0 
0.0 0.0 -8.422129679674e+01 
-7.793877502906e+01 -1.110332733223e+01 0.0 
-1.110332733223e+01 -1.967530810993e+02 0.0 
0.0 0.0 -8.345320469258e+01 
-1.544119227438e+02 9.371782586115e+00 0.0 
9.371782586115e+00 -3.697781036240e+02 0.0 
0.0 0.0 -1.568570079103e+02 
-7.201621971982e+01 5.153106439061e+00 0.0 
5.153106439061e+00 -1.089934022839e+02 0.0 
0.0 0.0 -5.485349878389e+01 
-5.250974671749e+01 -1.330741595174e+00 0.0 
-1.330741595174e+00 -1.095030785152e+02 0.0 
0.0 0.0 -4.500815847455e+01 
-1.139396343319e+02 -1.296227211238e+00 0.0 
-1.296227211238e+00 -2.440457564667e+02 0.0 
0.0 0.0 -1.034724128301e+02 
-7.472159955637e+01 -1.389964706118e+01 0.0 
-1.389964706118e+01 -1.613348027813e+02 0.0 
0.0 0.0 -6.886536127774e+01 
-6.697998457095e+01 -9.537864824281e+00 0.0 
-9.537864824281e+00 -1.758113989714e+02 0.0 
0.0 0.0 -7.162999911946e+01 
-4.281659410556e+01 1.195628886343e+01 0.0 
1.195628886343e+01 -5.240814824221e+01 0.0 
0.0 0.0 -2.533545222702e+01 
-4.676339446771e+01 1.198889556036e+01 0.0 
1.198889556036e+01 -6.500087505171e+01 0.0 
0.0 0.0 -2.987538744084e+01 
-9.508324603281e+01 3.139519352085e+00 0.0 
3.139519352085e+00 -1.993758907286e+02 0.0 
0.0 0.0 -8.793774102843e+01 
-7.053405670896e+01 -2.676921807182e+00 0.0 
-2.676921807182e+00 -1.925596680802e+02 0.0 
0.0 0.0 -7.814288132499e+01 
-6.611813587452e+01 -4.137652600506e+00 0.0 
-4.137652600506e+00 -1.290226444419e+02 0.0 
0.0 0.0 -5.286735335681e+01 
-1.254578115564e+02 1.031909976497e+01 0.0 
1.031909976497e+01 -3.041697121035e+02 0.0 
0.0 0.0 -1.284882570980e+02 
-1.673592685125e+02 2.088227209806e+00 0.0 
2.088227209806e+00 -3.941969482273e+02 0.0 
0.0 0.0 -1.680668650219e+02 
-1.662696127102e+02 2.945139101560e+00 0.0 
2.945139101560e+00 -3.929967658726e+02 0.0 
0.0 0.0 -1.673799135748e+02 
-7.741263966808e+01 -8.712561409508e+00 0.0 
-8.712561409508e+00 -1.974864968031e+02 0.0 
0.0 0.0 -8.262457018138e+01 
-8.870476735933e+01 2.502282295238e+00 0.0 
2.502282295238e+00 -1.832469295190e+02 0.0 
0.0 0.0 -8.118550906350e+01 
-7.595586878645e+01 1.450754223836e+00 0.0 
1.450754223836e+00 -1.091608092621e+02 0.0 
0.0 0.0 -5.651728737167e+01 
-4.238789355801e+01 1.654411320674e+01 0.0 
1.654411320674e+01 -3.717369766462e+01 0.0 
0.0 0.0 -2.044531178994e+01 
-4.961263902721e+01 -2.081333007790e+01 0.0 
-2.081333007790e+01 -1.133690799947e+02 0.0 
0.0 0.0 -4.407956585078e+01 
-4.289694209644e+01 1.390957386306e+01 0.0 
1.390957386306e+01 -4.614209942834e+01 0.0 
0.0 0.0 -2.350993749564e+01 
-1.013926066487e+02 1.257571229832e+01 0.0 
1.257571229832e+01 -2.582382986215e+02 0.0 
0.0 0.0 -1.082247306021e+02 
-6.796346076199e+01 -1.268753331222e+01 0.0 
-1.268753331222e+01 -1.669721937671e+02 0.0 
0.0 0.0 -6.924966741779e+01 
-7.298261801023e+01 -9.182767713882e+00 0.0 
-9.182767713882e+00 -1.895410853582e+02 0.0 
0.0 0.0 -7.932054970666e+01 
-3.788721183586e+01 -2.592343520272e+01 0.0 
-2.592343520272e+01 -9.219871517032e+01 0.0 
0.0 0.0 -3.945195509452e+01 
-1.301814918848e+02 5.703380113013e-01 0.0 
5.703380113013e-01 -2.974839493380e+02 0.0 
0.0 0.0 -1.278996323668e+02 
-7.540881581084e+01 -1.393717393923e+01 0.0 
-1.393717393923e+01 -1.845923564833e+02 0.0 
0.0 0.0 -7.807724633054e+01 
-1.358799039226e+02 1.604236888724e+00 0.0 
1.604236888724e+00 -3.111117131362e+02 0.0 
0.0 0.0 -1.336974851176e+02 
-1.252782293697e+02 1.612640230185e+00 0.0 
1.612640230185e+00 -2.820225462156e+02 0.0 
0.0 0.0 -1.217902326756e+02 
-1.495106777284e+02 8.717318682064e-01 0.0 
8.717318682064e-01 -3.474151042855e+02 0.0 
0.0 0.0 -1.486777346042e+02 
-1.678817155046e+02 8.726571339868e-02 0.0 
8.726571339868e-02 -3.938713296190e+02 0.0 
0.0 0.0 -1.681259135371e+02 
-9.210317096376e+01 -4.971976001630e-01 0.0 
-4.971976001630e-01 -1.983897372098e+02 0.0 
0.0 0.0 -8.674787245205e+01 
-7.992720941251e+01 -1.366569458066e+01 0.0 
-1.366569458066e+01 -1.877480263054e+02 0.0 
0.0 0.0 -8.019733323603e+01 
-4.576499178294e+01 7.921144861448e+00 0.0 
7.921144861448e+00 -7.135865143234e+01 0.0 
0.0 0.0 -3.159912644798e+01 
-8.158612998388e+01 -8.946614268816e+00 0.0 
-8.946614268816e+00 -1.926190761271e+02 0.0 
0.0 0.0 -8.079072675250e+01 
-1.687031574617e+02 1.558973900762e+00 0.0 
1.558973900762e+00 -3.949740340773e+02 0.0 
0.0 0.0 -1.687031574617e+02 
-4.500815242585e+01 2.390838391657e+01 0.0 
2.390838391657e+01 -2.604081277361e+01 0.0 
0.0 0.0 -1.798958115376e+01 
-4.314501167450e+01 1.884609717683e+01 0.0 
1.884609717683e+01 -3.135445139398e+01 0.0 
0.0 0.0 -1.893872851037e+01 
-1.375616739199e+02 9.259850936465e+00 0.0 
9.259850936465e+00 -3.359139372106e+02 0.0 
0.0 0.0 -1.416426833392e+02 
-8.820071724286e+01 1.922237314204e+00 0.0 
1.922237314204e+00 -1.834047642123e+02 0.0 
0.0 0.0 -8.108164443654e+01 
-1.364191263404e+02 7.451826461471e-01 0.0 
7.451826461471e-01 -3.129451112822e+02 0.0 
0.0 0.0 -1.344092712868e+02 
-1.255713785736e+02 1.255940310770e+01 0.0 
1.255940310770e+01 -2.882217596450e+02 0.0 
0.0 0.0 -1.237379414656e+02 
-1.388866919934e+02 9.911032342387e+00 0.0 
9.911032342387e+00 -3.336871632088e+02 0.0 
0.0 0.0 -1.413721565607e+02 
-1.310931930586e+02 1.161964608233e+01 0.0 
1.161964608233e+01 -2.969010382413e+02 0.0 
0.0 0.0 -1.279982693900e+02 
-9.397907705920e+01 2.334814484992e-02 0.0 
2.334814484992e-02 -2.019998604265e+02 0.0 
0.0 0.0 -8.839368124572e+01 
-6.698866075776e+01 -1.512714278567e+01 0.0 
-1.512714278567e+01 -1.411618676447e+02 0.0 
0.0 0.0 -6.015573277319e+01 
-6.413912702633e+01 -1.349747355910e+01 0.0 
-1.349747355910e+01 -1.408571364748e+02 0.0 
0.0 0.0 -5.856273206164e+01 
-1.110899674090e+02 -2.922961572379e-01 0.0 
-2.922961572379e-01 -2.453300885342e+02 0.0 
0.0 0.0 -1.065260167830e+02 
-1.346641538836e+02 1.188042728917e+01 0.0 
1.188042728917e+01 -3.234621320396e+02 0.0 
0.0 0.0 -1.370378857770e+02 
-8.364577273577e+01 3.551922244084e+00 0.0 
3.551922244084e+00 -1.681895741030e+02 0.0 
0.0 0.0 -7.508890472785e+01 
-8.542945159623e+01 2.144996308427e-01 0.0 
2.144996308427e-01 -1.814434617875e+02 0.0 
0.0 0.0 -7.966187401511e+01 
-9.222543437940e+01 7.006485999353e-01 0.0 
7.006485999353e-01 -1.974428553354e+02 0.0 
0.0 0.0 -8.650048691445e+01 
-9.460647580144e+01 1.844537069108e+00 0.0 
1.844537069108e+00 -2.031917799144e+02 0.0 
0.0 0.0 -8.893947671475e+01 
-3.363234958477e+01 -1.316137868588e+01 0.0 
-1.316137868588e+01 -1.152176031896e+02 0.0 
0.0 0.0 -4.441761784773e+01 
-6.074044485901e+01 -1.298789521457e+01 0.0 
-1.298789521457e+01 -1.271290822730e+02 0.0 
0.0 0.0 -5.288149735003e+01 
-1.441645788526e+02 3.089654902576e+00 0.0 
3.089654902576e+00 -3.323276069198e+02 0.0 
0.0 0.0 -1.425476557317e+02 
-1.026648179208e+02 2.000601899742e+00 0.0 
2.000601899742e+00 -2.225736729237e+02 0.0 
0.0 0.0 -9.717154725334e+01 
-1.568786229872e+02 9.901457918393e+00 0.0 
9.901457918393e+00 -3.714475119087e+02 0.0 
0.0 0.0 -1.580978404688e+02 
-1.431892046029e+02 1.159570075404e+01 0.0 
1.159570075404e+01 -3.279623511889e+02 0.0 
0.0 0.0 -1.409454667375e+02 
-1.191674305759e+02 1.178463330884e+01 0.0 
1.178463330884e+01 -2.672788560726e+02 0.0 
0.0 0.0 -1.155338859946e+02 
-1.388806236087e+02 6.567535637634e+00 0.0 
6.567535637634e+00 -3.160745124612e+02 0.0 
0.0 0.0 -1.360865408209e+02 
-9.137751640594e+01 -4.275502331512e+00 0.0 
-4.275502331512e+00 -1.823453508630e+02 0.0 
0.0 0.0 -7.621187140721e+01 
-8.285604057103e+01 -4.744737071052e+00 0.0 
-4.744737071052e+00 -1.658284211504e+02 0.0 
0.0 0.0 -6.850865358011e+01 
-1.510282990160e+02 2.347262117468e+00 0.0 
2.347262117468e+00 -3.623047691124e+02 0.0 
0.0 0.0 -1.535999204385e+02 
-3.422410097533e+01 -2.280089520593e+01 0.0 
-2.280089520593e+01 -9.899731074764e+01 0.0 
0.0 0.0 -4.136080129411e+01 
-5.293860699277e+01 -6.496850082718e-01 0.0 
-6.496850082718e-01 -1.160906140140e+02 0.0 
0.0 0.0 -4.774992242033e+01 
-1.605034435867e+02 1.242083604747e+01 0.0 
1.242083604747e+01 -3.758413683689e+02 0.0 
0.0 0.0 -1.605034435867e+02 
-1.725951193946e+01 8.357323218025e-01 0.0 
8.357323218025e-01 -5.726735565023e+01 0.0 
0.0 0.0 -2.127016174794e+01 
-8.532623823390e+01 2.336622445620e-01 0.0 
2.336622445620e-01 -1.813977836505e+02 0.0 
0.0 0.0 -7.961720656532e+01 
-1.471268465704e+02 7.884585640128e+00 0.0 
7.884585640128e+00 -3.572850539206e+02 0.0 
0.0 0.0 -1.509235701473e+02 
-2.176257740130e+01 -2.925699182474e+00 0.0 
-2.925699182474e+00 -3.968485965487e+01 0.0 
0.0 0.0 -1.588824533943e+01 
-1.435996258288e+01 3.693946770979e-01 0.0 
3.693946770979e-01 -2.385718098983e+01 0.0 
0.0 0.0 -8.991315808357e+00 
-1.510477921131e+02 5.554364731051e+00 0.0 
5.554364731051e+00 -3.501579055771e+02 0.0 
0.0 0.0 -1.499617093070e+02 
-7.984197227612e+01 7.354081442287e-01 0.0 
7.354081442287e-01 -1.648879964503e+02 0.0 
0.0 0.0 -7.301899061793e+01 
-1.430869392576e+02 3.589435741137e+00 0.0 
3.589435741137e+00 -3.289613331944e+02 0.0 
0.0 0.0 -1.412144817356e+02 
-1.484551910415e+02 8.223938388913e+00 0.0 
8.223938388913e+00 -3.562393683046e+02 0.0 
0.0 0.0 -1.510083678038e+02 
-7.951793727539e+01 1.093429980367e+00 0.0 
1.093429980367e+00 -1.644926976269e+02 0.0 
0.0 0.0 -7.280319047067e+01 
-7.254387530853e+01 7.445015644612e+00 0.0 
7.445015644612e+00 -1.083778961139e+02 0.0 
0.0 0.0 -5.533756906061e+01 
-1.423424749483e+02 1.286414432767e+00 0.0 
1.286414432767e+00 -3.302811245133e+02 0.0 
0.0 0.0 -1.413870798385e+02 
-2.279418227696e+01 -1.540801389722e+00 0.0 
-1.540801389722e+00 -6.345771756583e+01 0.0 
0.0 0.0 -2.390689526052e+01 
-1.379954548770e+02 3.347061654662e+00 0.0 
3.347061654662e+00 -3.172710404432e+02 0.0 
0.0 0.0 -1.361799485961e+02 
-1.685197549644e+02 1.009349943080e+00 0.0 
1.009349943080e+00 -3.945460949169e+02 0.0 
0.0 0.0 -1.685197549644e+02 
-1.415903268552e+02 1.024222935776e+01 0.0 
1.024222935776e+01 -3.245685283705e+02 0.0 
0.0 0.0 -1.394476565677e+02 
-4.022656251147e+01 -9.504253204618e+00 0.0 
-9.504253204618e+00 -1.292763837590e+02 0.0 
0.0 0.0 -4.821069631466e+01 
-9.689561038159e+01 4.139938833195e+00 0.0 
4.139938833195e+00 -2.020340548037e+02 0.0 
0.0 0.0 -8.927889955558e+01 
-9.206609013376e+01 -1.844357383409e+00 0.0 
-1.844357383409e+00 -1.847195662793e+02 0.0 
0.0 0.0 -7.759861674039e+01 
-1.252526297057e+02 1.173736241439e+01 0.0 
1.173736241439e+01 -3.042336659769e+02 0.0 
0.0 0.0 -1.284458887048e+02 
-1.622826615758e+02 1.170418660137e+01 0.0 
1.170418660137e+01 -3.822963584664e+02 0.0 
0.0 0.0 -1.629737060127e+02 
-1.191571520141e+02 8.659952145167e-02 0.0 
8.659952145167e-02 -2.667011832035e+02 0.0 
0.0 0.0 -1.153575005653e+02 
-1.623322450534e+02 1.021289525957e+01 0.0 
1.021289525957e+01 -3.838228477880e+02 0.0 
0.0 0.0 -1.634465278524e+02 
-2.996947009259e+01 -1.658640605167e+01 0.0 
-1.658640605167e+01 -1.167974702713e+02 0.0 
0.0 0.0 -4.620377525819e+01 
-1.609387349423e+02 1.895392257730e+00 0.0 
1.895392257730e+00 -3.798355689741e+02 0.0 
0.0 0.0 -1.618322911749e+02 
-4.531362644595e+01 -1.367203419158e+01 0.0 
-1.367203419158e+01 -1.248532778156e+02 0.0 
0.0 0.0 -4.441054541603e+01 
-1.750079277211e+01 -1.224121356937e+00 0.0 
-1.224121356937e+00 -5.724599658940e+01 0.0 
0.0 0.0 -2.129764701360e+01 
-1.565507939113e+02 7.155208976166e+00 0.0 
7.155208976166e+00 -3.751092897184e+02 0.0 
0.0 0.0 -1.590980250889e+02 
-1.471075925672e+02 8.024960469727e+00 0.0 
8.024960469727e+00 -3.375253782730e+02 0.0 
0.0 0.0 -1.449898912521e+02 
-1.458678646982e+02 5.920935786316e+00 0.0 
5.920935786316e+00 -3.370680897755e+02 0.0 
0.0 0.0 -1.444807863421e+02 
-8.531784483580e+01 1.472182565485e-02 0.0 
1.472182565485e-02 -1.802960910678e+02 0.0 
0.0 0.0 -7.928418077109e+01 
-9.803155521695e+01 4.887105339881e+00 0.0 
4.887105339881e+00 -2.057819408480e+02 0.0 
0.0 0.0 -9.074404881948e+01 
-4.762127004285e+01 2.598224764426e+01 0.0 
2.598224764426e+01 -7.388753056862e+01 0.0 
0.0 0.0 -3.230137661593e+01 
-1.501073980668e+02 1.181709599393e+01 0.0 
1.181709599393e+01 -3.464139172328e+02 0.0 
0.0 0.0 -1.485563945899e+02 
-7.879262298191e+01 -3.015543706443e+00 0.0 
-3.015543706443e+00 -1.532267081802e+02 0.0 
0.0 0.0 -6.409476019286e+01 
-3.690482748353e+01 2.856672214104e+01 0.0 
2.856672214104e+01 -7.646918862714e+01 0.0 
0.0 0.0 -2.891605961064e+01 
-1.300685504247e+02 9.934895104637e+00 0.0 
9.934895104637e+00 -3.154749048551e+02 0.0 
0.0 0.0 -1.332630365840e+02 
-7.867147609098e+01 5.284938807476e-01 0.0 
5.284938807476e-01 -1.640922876382e+02 0.0 
0.0 0.0 -7.242912911877e+01 
-1.410773186791e+02 6.916223611726e+00 0.0 
6.916223611726e+00 -3.238155813374e+02 0.0 
0.0 0.0 -1.390678700049e+02 
-1.488044566267e+02 8.131171463902e-01 0.0 
8.131171463902e-01 -3.457382485255e+02 0.0 
0.0 0.0 -1.479628115456e+02 
-1.485512534544e+02 4.208225405178e-01 0.0 
4.208225405178e-01 -3.479529247270e+02 0.0 
0.0 0.0 -1.485512534544e+02 
-1.339265093392e+01 -3.269306001920e-02 0.0 
-3.269306001920e-02 -6.127247161501e+00 0.0 
0.0 0.0 -5.109436349219e+00 
-9.843577897826e+00 1.152806346117e-01 0.0 
1.152806346117e-01 -1.082776930280e+01 0.0 
0.0 0.0 -4.479400394201e+00 
-7.896133376584e+01 6.925707401680e-01 0.0 
6.925707401680e-01 -1.664082807867e+02 0.0 
0.0 0.0 -7.321088436578e+01 
-7.764878790520e+01 -6.513890943745e-02 0.0 
-6.513890943745e-02 -1.639322783994e+02 0.0 
0.0 0.0 -7.207431989137e+01 
-1.683407808985e+02 5.443118171298e-02 0.0 
5.443118171298e-02 -3.941284887631e+02 0.0 
0.0 0.0 -1.683407808985e+02 
-1.670686609584e+02 -7.210738693706e-01 0.0 
-7.210738693706e-01 -3.915230834477e+02 0.0 
0.0 0.0 -1.671775233218e+02 
-1.347890765912e+01 -3.396446595108e-01 0.0 
-3.396446595108e-01 -2.325217257539e+01 0.0 
0.0 0.0 -8.435579486590e+00 
-7.458768089010e+01 -3.966072250943e+00 0.0 
-3.966072250943e+00 -1.132644782245e+02 0.0 
0.0 0.0 -5.685607408158e+01 
-1.533359116837e+02 5.254090901005e-02 0.0 
5.254090901005e-02 -3.622668571420e+02 0.0 
0.0 0.0 -1.542808306477e+02 
-1.435452995076e+02 1.098049730618e+01 0.0 
1.098049730618e+01 -3.400007162910e+02 0.0 
0.0 0.0 -1.446638047396e+02 
-2.517612518616e+01 -1.374413371433e+00 0.0 
-1.374413371433e+00 -7.449554533939e+01 0.0 
0.0 0.0 -2.885371249622e+01 
-1.547283439698e+02 2.085433340442e+00 0.0 
2.085433340442e+00 -3.670617848364e+02 0.0 
0.0 0.0 -1.561370386419e+02 
-1.192095265841e+02 -1.063184584860e-01 0.0 
-1.063184584860e-01 -2.603852819314e+02 0.0 
0.0 0.0 -1.105955703271e+02 
-1.079337717636e+02 2.357337640639e-01 0.0 
2.357337640639e-01 -2.247311267492e+02 0.0 
0.0 0.0 -9.522172542729e+01 
-1.061803577037e+02 4.690120059949e-01 0.0 
4.690120059949e-01 -2.325190740391e+02 0.0 
0.0 0.0 -1.012098295228e+02 
-4.769560829206e+01 -1.923865202059e+01 0.0 
-1.923865202059e+01 -9.125738454665e+01 0.0 
0.0 0.0 -3.527884166474e+01 
-1.158922979446e+02 1.207043169058e+01 0.0 
1.207043169058e+01 -2.855416089644e+02 0.0 
0.0 0.0 -1.200301720727e+02 
-2.131737034536e+01 -2.144890089686e-01 0.0 
-2.144890089686e-01 -5.976676289119e+01 0.0 
0.0 0.0 -2.255052119966e+01 
-1.010526135391e+02 -1.997400866442e+00 0.0 
-1.997400866442e+00 -2.052178146439e+02 0.0 
0.0 0.0 -8.653547959981e+01 
-1.439233253307e+02 1.051134178554e+01 0.0 
1.051134178554e+01 -3.326703195516e+02 0.0 
0.0 0.0 -1.425780934647e+02 
-1.339397089622e+02 9.212498286715e-01 0.0 
9.212498286715e-01 -3.056264090259e+02 0.0 
0.0 0.0 -1.314698353964e+02 
-1.081156790280e+02 -1.192480674542e+00 0.0 
-1.192480674542e+00 -2.236679434919e+02 0.0 
0.0 0.0 -9.497645920392e+01 
-9.785096507626e+01 1.144408828986e+00 0.0 
1.144408828986e+00 -2.118394277276e+02 0.0 
0.0 0.0 -9.250711784115e+01 
-1.445694225589e+02 1.208651557670e+01 0.0 
1.208651557670e+01 -3.392065528160e+02 0.0 
0.0 0.0 -1.447327926125e+02 
-1.343012146535e+02 1.203686022962e+01 0.0 
1.203686022962e+01 -3.065694675065e+02 0.0 
0.0 0.0 -1.318612046480e+02 
-1.266537305441e+02 1.189045299129e+01 0.0 
1.189045299129e+01 -2.868707906040e+02 0.0 
0.0 0.0 -1.236573563444e+02 
-7.904796844609e+01 6.603641661141e-01 0.0 
6.603641661141e-01 -1.646663869563e+02 0.0 
0.0 0.0 -7.271430662072e+01 
-1.102749305950e+02 1.196548954682e+01 0.0 
1.196548954682e+01 -2.771784081080e+02 0.0 
0.0 0.0 -1.158360016109e+02 
-1.405589634515e+02 8.050219290093e+00 0.0 
8.050219290093e+00 -3.229964238361e+02 0.0 
0.0 0.0 -1.386666161863e+02 
-5.834177376894e+01 -2.873445657116e+00 0.0 
-2.873445657116e+00 -1.155159705633e+02 0.0 
0.0 0.0 -4.734743349058e+01 
-1.593607931822e+01 9.818936221787e-01 0.0 
9.818936221787e-01 -2.406569453143e+01 0.0 
0.0 0.0 -1.137683197773e+01 
-1.395002163429e+02 1.256914557389e+01 0.0 
1.256914557389e+01 -3.262066099656e+02 0.0 
0.0 0.0 -1.393120478925e+02 
-1.325264248694e+02 7.224439206524e+00 0.0 
7.224439206524e+00 -3.271504538777e+02 0.0 
0.0 0.0 -1.375030636241e+02 
-4.528004049400e+01 -1.996068765502e+01 0.0 
-1.996068765502e+01 -8.360532139097e+01 0.0 
0.0 0.0 -3.206421671826e+01 
-1.117792147758e+02 1.197806819560e+00 0.0 
1.197806819560e+00 -2.466366955026e+02 0.0 
0.0 0.0 -1.071247730835e+02 
-1.602817377117e+02 8.249817859190e-01 0.0 
8.249817859190e-01 -3.769702583640e+02 0.0 
0.0 0.0 -1.607755988227e+02 
-1.389750060789e+02 1.129867580908e+01 0.0 
1.129867580908e+01 -3.281982592673e+02 0.0 
0.0 0.0 -1.397519796038e+02 
-1.445764611983e+02 1.246217997227e+01 0.0 
1.246217997227e+01 -3.406501613068e+02 0.0 
0.0 0.0 -1.451679867515e+02 
-1.247410390265e+02 6.052741019098e-01 0.0 
6.052741019098e-01 -2.813125376417e+02 0.0 
0.0 0.0 -1.195363674822e+02 
-3.880991457086e+01 3.213461464100e+01 0.0 
3.213461464100e+01 -9.671147575606e+01 0.0 
0.0 0.0 -4.200859294913e+01 
-3.724289278779e+01 9.515150296095e+00 0.0 
9.515150296095e+00 -5.025492091917e+01 0.0 
0.0 0.0 -2.340156187697e+01 
-5.393319619374e+01 2.051949777722e+01 0.0 
2.051949777722e+01 -8.305559861457e+01 0.0 
0.0 0.0 -3.770389484552e+01 
-9.666837673849e+01 4.221487942319e+00 0.0 
4.221487942319e+00 -2.018549366619e+02 0.0 
0.0 0.0 -8.915699402012e+01 
-1.117618605610e+02 1.041583379827e+01 0.0 
1.041583379827e+01 -2.775441266379e+02 0.0 
0.0 0.0 -1.172085199606e+02 
-1.391081225416e+02 3.676016725003e+00 0.0 
3.676016725003e+00 -3.192960860265e+02 0.0 
0.0 0.0 -1.371212625704e+02 
-1.558240659377e+02 8.797391126937e+00 0.0 
8.797391126937e+00 -3.694413363000e+02 0.0 
0.0 0.0 -1.571796206713e+02 
-4.171790384078e+01 -1.490726259125e+01 0.0 
-1.490726259125e+01 -5.258237867827e+01 0.0 
0.0 0.0 -2.318569609451e+01 
-2.896423146223e+01 -5.420552323638e+00 0.0 
-5.420552323638e+00 -4.221825635199e+01 0.0 
0.0 0.0 -1.734399822425e+01 
-3.229132536191e+01 1.030446718165e+01 0.0 
1.030446718165e+01 -3.377551327950e+01 0.0 
0.0 0.0 -1.634232834447e+01 
-1.138480887593e+02 -1.073007234391e-01 0.0 
-1.073007234391e-01 -2.523132184799e+02 0.0 
0.0 0.0 -1.094483921717e+02 
-7.140301350862e+01 -2.647516302251e+00 0.0 
-2.647516302251e+00 -1.437326109951e+02 0.0 
0.0 0.0 -5.918384341885e+01 
-1.417330271722e+02 7.219610729856e+00 0.0 
7.219610729856e+00 -3.242395287303e+02 0.0 
0.0 0.0 -1.393917667708e+02 
-2.192377139580e+01 -3.100591117040e-01 0.0 
-3.100591117040e-01 -7.123614062109e+01 0.0 
0.0 0.0 -2.739161475909e+01 
-1.467185496082e+02 8.446572954926e+00 0.0 
8.446572954926e+00 -3.525606988365e+02 0.0 
0.0 0.0 -1.493837745334e+02 
-9.392166132422e+01 1.488169249485e+00 0.0 
1.488169249485e+00 -1.983671858508e+02 0.0 
0.0 0.0 -8.728665415250e+01 
-1.543161625503e+02 1.139522971107e+01 0.0 
1.139522971107e+01 -3.631007980511e+02 0.0 
0.0 0.0 -1.548250881804e+02 
-1.302805055129e+02 1.227716241604e+01 0.0 
1.227716241604e+01 -3.130424947522e+02 0.0 
0.0 0.0 -1.325969000795e+02 
-9.732645733921e+01 5.339507450124e+00 0.0 
5.339507450124e+00 -2.025680270069e+02 0.0 
0.0 0.0 -8.956834530383e+01 
-1.574468215079e+02 5.222837135502e+00 0.0 
5.222837135502e+00 -3.769519998865e+02 0.0 
0.0 0.0 -1.599196464183e+02 
-1.464554207878e+02 6.932915681424e+00 0.0 
6.932915681424e+00 -3.370404991887e+02 0.0 
0.0 0.0 -1.446487759929e+02 
-1.441343322472e+02 4.696564485561e-01 0.0 
4.696564485561e-01 -3.318874187905e+02 0.0 
0.0 0.0 -1.424065253113e+02 
-3.314480896061e+01 1.448821112672e+01 0.0 
1.448821112672e+01 -2.245866346368e+01 0.0 
0.0 0.0 -1.244207033133e+01 
-1.380346464894e+02 5.088435358468e+00 0.0 
5.088435358468e+00 -3.155528043250e+02 0.0 
0.0 0.0 -1.356762352443e+02 
-1.505023476439e+02 1.201159976644e+01 0.0 
1.201159976644e+01 -3.519435800033e+02 0.0 
0.0 0.0 -1.503337782942e+02 
-1.460617186673e+02 9.426514969341e+00 0.0 
9.426514969341e+00 -3.528871701545e+02 0.0 
0.0 0.0 -1.492846666465e+02 
-1.343687862337e+02 1.013816344680e+01 0.0 
1.013816344680e+01 -3.227607772123e+02 0.0 
0.0 0.0 -1.367388690338e+02 
-1.685500665978e+02 2.233801261224e+00 0.0 
2.233801261224e+00 -3.946168220616e+02 0.0 
0.0 0.0 -1.685500665978e+02 
-1.262290639227e+02 9.836134387289e+00 0.0 
9.836134387289e+00 -2.862882560141e+02 0.0 
0.0 0.0 -1.233551959811e+02 
-5.791018647601e+01 2.270923862090e+01 0.0 
2.270923862090e+01 -7.417519975772e+01 0.0 
0.0 0.0 -4.017735877064e+01 
-4.145456666707e+01 2.907877470458e+01 0.0 
2.907877470458e+01 -7.349871162985e+01 0.0 
0.0 0.0 -2.810490603464e+01 
-1.382197329214e+02 1.168832079344e+01 0.0 
1.168832079344e+01 -3.163132087849e+02 0.0 
0.0 0.0 -1.359598825119e+02 
-1.022125662196e+02 3.787330798429e+00 0.0 
3.787330798429e+00 -2.167645968945e+02 0.0 
0.0 0.0 -9.529314893424e+01 
-1.534771568889e+02 1.055528028463e+00 0.0 
1.055528028463e+00 -3.612588526834e+02 0.0 
0.0 0.0 -1.540208028717e+02 
-1.394445358982e+02 1.225514423591e+01 0.0 
1.225514423591e+01 -3.319637608319e+02 0.0 
0.0 0.0 -1.410224890190e+02 
-1.614056524734e+02 2.031717656659e+00 0.0 
2.031717656659e+00 -3.802921640846e+02 0.0 
0.0 0.0 -1.621093449674e+02 
-1.221302175813e+02 2.769599079624e-01 0.0 
2.769599079624e-01 -2.733115001458e+02 0.0 
0.0 0.0 -1.182325153181e+02 
-1.549135031293e+02 1.107810887825e+01 0.0 
1.107810887825e+01 -3.651977842027e+02 0.0 
0.0 0.0 -1.556333861996e+02 
-1.523026125830e+02 4.710987599924e+00 0.0 
4.710987599924e+00 -3.652034824143e+02 0.0 
0.0 0.0 -1.548518284992e+02 
-1.516925032054e+02 3.611377193609e+00 0.0 
3.611377193609e+00 -3.648002751846e+02 0.0 
0.0 0.0 -1.545478335170e+02 
-7.383556167597e+01 -1.792687233255e+00 0.0 
-1.792687233255e+00 -1.485709195243e+02 0.0 
0.0 0.0 -6.180884415411e+01 
-1.678747911964e+02 1.692260794172e+00 0.0 
1.692260794172e+00 -3.945786443957e+02 0.0 
0.0 0.0 -1.683360306776e+02 
-8.889627617400e+01 2.725771617928e+00 0.0 
2.725771617928e+00 -1.826728992494e+02 0.0 
0.0 0.0 -8.107075262702e+01 
-1.372404926375e+02 2.417040234921e+00 0.0 
2.417040234921e+00 -3.135890041037e+02 0.0 
0.0 0.0 -1.348488490223e+02 
-3.100365951318e+01 -5.968677614980e+00 0.0 
-5.968677614980e+00 -4.577006178690e+01 0.0 
0.0 0.0 -1.853330763084e+01 
-1.319998899673e+02 1.302097897938e+00 0.0 
1.302097897938e+00 -2.986150335134e+02 0.0 
0.0 0.0 -1.287844770442e+02 
-1.128030025471e+02 9.523198867844e-01 0.0 
9.523198867844e-01 -2.485521382313e+02 0.0 
0.0 0.0 -1.080065422335e+02 
-1.533159719373e+01 2.071287383316e-01 0.0 
2.071287383316e-01 -4.166095814554e+01 0.0 
0.0 0.0 -1.392898930044e+01 
-4.093916472548e+01 -1.265661645041e+01 0.0 
-1.265661645041e+01 -1.278210839365e+02 0.0 
0.0 0.0 -4.998341548198e+01 
-1.296763331236e+02 1.025238826280e+01 0.0 
1.025238826280e+01 -2.968124890949e+02 0.0 
0.0 0.0 -1.275466466655e+02 
-1.432435922508e+02 4.176633525834e+00 0.0 
4.176633525834e+00 -3.321322704657e+02 0.0 
0.0 0.0 -1.422127588149e+02 
-1.378494869302e+02 1.516613525712e+00 0.0 
1.516613525712e+00 -3.161630240204e+02 0.0 
0.0 0.0 -1.358037532852e+02 
-1.523665341139e+02 1.001424760721e+01 0.0 
1.001424760721e+01 -3.624036044539e+02 0.0 
0.0 0.0 -1.540310415703e+02 
-9.782080238632e+01 9.214054260337e-02 0.0 
9.214054260337e-02 -2.114345696133e+02 0.0 
0.0 0.0 -9.237661159988e+01 
-1.535289816755e+01 4.891951984095e-01 0.0 
4.891951984095e-01 -2.318302482431e+01 0.0 
0.0 0.0 -1.041289208971e+01 
-3.422635198852e+01 2.375751139831e+01 0.0 
2.375751139831e+01 -1.116810701750e+02 0.0 
0.0 0.0 -4.566367530835e+01 
-1.338996574059e+01 -8.274692739314e-01 0.0 
-8.274692739314e-01 -2.856932926574e+01 0.0 
0.0 0.0 -1.172626684404e+01 
-3.515077677177e+01 -5.572475747371e+00 0.0 
-5.572475747371e+00 -5.772401031761e+01 0.0 
0.0 0.0 -2.256634848403e+01 
-5.122100382390e+01 4.281730922952e+01 0.0 
4.281730922952e+01 -5.542235865648e+01 0.0 
0.0 0.0 -3.244345995880e+01 
-9.781094090205e+01 -3.095118323354e+00 0.0 
-3.095118323354e+00 -1.993828847266e+02 0.0 
0.0 0.0 -8.402907913076e+01 
-1.532899888697e+02 -5.073930261817e-01 0.0 
-5.073930261817e-01 -3.611311859975e+02 0.0 
0.0 0.0 -1.539263524602e+02 
-1.416000156491e+02 8.902440064495e+00 0.0 
8.902440064495e+00 -3.248445880321e+02 0.0 
0.0 0.0 -1.395333811043e+02 
-1.036644039690e+02 6.695359610484e+00 0.0 
6.695359610484e+00 -2.177095102575e+02 0.0 
0.0 0.0 -9.601217426796e+01 
-8.800864917646e+01 -3.238127617359e+00 0.0 
-3.238127617359e+00 -1.757651424741e+02 0.0 
0.0 0.0 -7.288487572738e+01 
-1.516232874522e+02 3.412793784943e+00 0.0 
3.412793784943e+00 -3.630726203586e+02 0.0 
0.0 0.0 -1.540087723432e+02 
-1.465690865819e+02 5.715670681242e+00 0.0 
5.715670681242e+00 -3.563348288950e+02 0.0 
0.0 0.0 -1.504711746431e+02 
-1.530233284591e+02 1.161587001082e+01 0.0 
1.161587001082e+01 -3.624645336850e+02 0.0 
0.0 0.0 -1.542463586432e+02 
-1.450325906743e+02 1.207384614469e+01 0.0 
1.207384614469e+01 -3.391607675818e+02 0.0 
0.0 0.0 -1.448580074768e+02 
-1.369793089460e+02 1.049236591498e+01 0.0 
1.049236591498e+01 -3.158663997599e+02 0.0 
0.0 0.0 -1.354537126117e+02 
-2.908718250720e+01 -6.280084276281e+00 0.0 
-6.280084276281e+00 -4.350438305370e+01 0.0 
0.0 0.0 -1.909480293871e+01 
-3.461930584070e+01 -2.024069005702e+01 0.0 
-2.024069005702e+01 -1.099082493693e+02 0.0 
0.0 0.0 -4.512072285920e+01 
-1.536422176629e+02 1.154256180644e+00 0.0 
1.154256180644e+00 -3.629055870230e+02 0.0 
0.0 0.0 -1.545643414058e+02 
-1.286545511375e+01 -2.600364803982e-01 0.0 
-2.600364803982e-01 -4.088550728923e+01 0.0 
0.0 0.0 -1.386140449894e+01 
-1.549579044410e+01 -1.073661873846e+00 0.0 
-1.073661873846e+00 -4.894754233492e+01 0.0 
0.0 0.0 -1.724369130097e+01 
-4.223705122429e+01 3.375565663944e+01 0.0 
3.375565663944e+01 -5.814140141531e+01 0.0 
0.0 0.0 -2.864087290827e+01 
-1.787015456367e+01 7.687039626948e-01 0.0 
7.687039626948e-01 -3.866989091148e+01 0.0 
0.0 0.0 -1.525430046956e+01 
-1.597297468629e+02 4.505422223620e+00 0.0 
4.505422223620e+00 -3.785954307009e+02 0.0 
0.0 0.0 -1.610975532691e+02 
-1.498349209277e+02 1.204461582091e+01 0.0 
1.204461582091e+01 -3.489774349890e+02 0.0 
0.0 0.0 -1.492437067750e+02 
-1.385890043151e+02 2.124878269462e+00 0.0 
2.124878269462e+00 -3.192016989581e+02 0.0 
0.0 0.0 -1.369372109820e+02 
-1.540147807111e+02 1.175762314822e+01 0.0 
1.175762314822e+01 -3.627196577751e+02 0.0 
0.0 0.0 -1.546203315458e+02 
-1.418735266429e+02 7.272840071431e+00 0.0 
7.272840071431e+00 -3.459441794438e+02 0.0 
0.0 0.0 -1.459453118260e+02 
-1.024957899069e+02 -4.257946607738e-02 0.0 
-4.257946607738e-02 -2.227715745639e+02 0.0 
0.0 0.0 -9.718020934123e+01 
-1.497699011023e+02 5.408441243663e+00 0.0 
5.408441243663e+00 -3.507964359053e+02 0.0 
0.0 0.0 -1.497699011023e+02 
-5.315488023106e+01 -1.781886191133e+01 0.0 
-1.781886191133e+01 -1.293028518872e+02 0.0 
0.0 0.0 -5.110007288842e+01 
-7.979373109883e+01 9.908226946763e-01 0.0 
9.908226946763e-01 -1.641742286980e+02 0.0 
0.0 0.0 -7.279038793906e+01 
-5.026923789187e+01 -2.117559540224e+01 0.0 
-2.117559540224e+01 -7.504183544651e+01 0.0 
0.0 0.0 -3.079742179272e+01 
-1.037757595452e+01 -5.433903418003e-01 0.0 
-5.433903418003e-01 -2.434419634543e+01 0.0 
0.0 0.0 -8.040799603737e+00 
-1.678892202213e+02 7.203912521659e-01 0.0 
7.203912521659e-01 -3.940003103579e+02 0.0 
0.0 0.0 -1.681668591737e+02 
-9.183126088978e+01 4.904573257587e+00 0.0 
4.904573257587e+00 -1.872294353165e+02 0.0 
0.0 0.0 -8.331820886189e+01 
-1.961031868717e+01 -2.758447707328e-01 0.0 
-2.758447707328e-01 -5.723733590258e+01 0.0 
0.0 0.0 -2.112306028913e+01 
-9.515093293329e+01 -2.886933507870e+00 0.0 
-2.886933507870e+00 -1.911882177093e+02 0.0 
0.0 0.0 -8.057509839732e+01 
-1.507044969037e+02 1.188756251487e+01 0.0 
1.188756251487e+01 -3.493283530642e+02 0.0 
0.0 0.0 -1.496098549904e+02 
-1.391576514296e+02 4.661392561155e+00 0.0 
4.661392561155e+00 -3.183362289194e+02 0.0 
0.0 0.0 -1.368481641047e+02 
-1.456582751696e+02 7.941629567089e+00 0.0 
7.941629567089e+00 -3.378248246085e+02 0.0 
0.0 0.0 -1.446449299334e+02 
-6.609997683374e+01 -6.418174980875e-01 0.0 
-6.418174980875e-01 -1.349216438560e+02 0.0 
0.0 0.0 -5.613490704141e+01 
-3.568319302188e+01 2.928596173622e+00 0.0 
2.928596173622e+00 -1.216036664089e+02 0.0 
0.0 0.0 -4.911589077271e+01 
-1.597723276570e+02 2.542740748057e+00 0.0 
2.542740748057e+00 -3.792029370003e+02 0.0 
0.0 0.0 -1.612925793972e+02 
-1.503623761557e+02 4.770715742174e-01 0.0 
4.770715742174e-01 -3.485813849703e+02 0.0 
0.0 0.0 -1.492831283378e+02 
-1.677743647500e+02 2.061064641970e-01 0.0 
2.061064641970e-01 -3.937831773603e+02 0.0 
0.0 0.0 -1.680672626331e+02 
-8.395804086022e+01 -4.445257375365e-01 0.0 
-4.445257375365e-01 -1.783590107141e+02 0.0 
0.0 0.0 -7.829511547231e+01 
-1.496869489724e+02 6.958864528167e+00 0.0 
6.958864528167e+00 -3.594275589053e+02 0.0 
0.0 0.0 -1.523343523633e+02 
-1.881812056117e+01 -5.378536676201e-01 0.0 
-5.378536676201e-01 -5.811429389777e+01 0.0 
0.0 0.0 -2.178124065811e+01 
-1.410110930852e+02 5.792682797959e+00 0.0 
5.792682797959e+00 -3.240958096784e+02 0.0 
0.0 0.0 -1.391320708291e+02 
-1.148279201099e+01 -1.505983983375e-01 0.0 
-1.505983983375e-01 -2.351351457709e+01 0.0 
0.0 0.0 -8.531556221771e+00 
-1.592048479403e+02 6.090096019884e+00 0.0 
6.090096019884e+00 -3.776625414510e+02 0.0 
0.0 0.0 -1.606602168174e+02 
-1.467504111681e+02 8.038648003692e+00 0.0 
8.038648003692e+00 -3.377917967167e+02 0.0 
0.0 0.0 -1.449626623654e+02 
-4.217449862620e+01 1.402443744766e+01 0.0 
1.402443744766e+01 -1.177113790297e+02 0.0 
0.0 0.0 -4.933203750051e+01 
-1.389736783018e+02 1.250201145127e+01 0.0 
1.250201145127e+01 -3.288306184696e+02 0.0 
0.0 0.0 -1.399412890314e+02 
-1.184046658196e+02 1.698969550393e+00 0.0 
1.698969550393e+00 -2.631903412669e+02 0.0 
0.0 0.0 -1.140785021260e+02 
-1.434095930856e+02 3.222684627745e+00 0.0 
3.222684627745e+00 -3.328422435432e+02 0.0 
0.0 0.0 -1.424755509887e+02 
-1.643355958049e+02 1.071747487563e+01 0.0 
1.071747487563e+01 -3.847830568781e+02 0.0 
0.0 0.0 -1.643355958049e+02 
-1.073832725676e+02 1.499183661131e+00 0.0 
1.499183661131e+00 -2.361649880653e+02 0.0 
0.0 0.0 -1.026644781899e+02 
-1.494875744912e+02 1.135384974748e+01 0.0 
1.135384974748e+01 -3.480663123798e+02 0.0 
0.0 0.0 -1.488661660613e+02 
-1.421165602909e+02 8.388276466270e+00 0.0 
8.388276466270e+00 -3.249770276828e+02 0.0 
0.0 0.0 -1.397280763921e+02 
-1.116837124930e+02 6.268468067860e-01 0.0 
6.268468067860e-01 -2.478061686522e+02 0.0 
0.0 0.0 -1.074469643436e+02 
-1.451207427101e+02 1.133679852173e+01 0.0 
1.133679852173e+01 -3.359712775853e+02 0.0 
0.0 0.0 -1.439276060886e+02 
-8.326932105887e+01 -1.880350450411e+00 0.0 
-1.880350450411e+00 -1.633228683243e+02 0.0 
0.0 0.0 -6.846235517834e+01 
-7.801137806396e+01 4.627529740724e-01 0.0 
4.627529740724e-01 -1.638136310441e+02 0.0 
0.0 0.0 -7.214750273240e+01 
-1.473235778843e+02 1.111950504661e+01 0.0 
1.111950504661e+01 -3.493807424724e+02 0.0 
0.0 0.0 -1.486112961070e+02 
-1.440725677858e+02 -6.312483582340e-02 0.0 
-6.312483582340e-02 -3.337088171301e+02 0.0 
0.0 0.0 -1.429344154748e+02 
-8.323986164096e+00 -4.122012503048e-03 0.0 
-4.122012503048e-03 -8.782597483878e+00 0.0 
0.0 0.0 -3.168736465668e+00 
-7.776085563884e+01 -1.346193309423e-01 0.0 
-1.346193309423e-01 -1.640443922275e+02 0.0 
0.0 0.0 -7.214157435989e+01 
-1.621978172211e+02 5.865702208462e-01 0.0 
5.865702208462e-01 -3.805804873339e+02 0.0 
0.0 0.0 -1.624334913665e+02 
-3.132452151457e+01 -4.134424606012e+00 0.0 
-4.134424606012e+00 -7.354045007291e+01 0.0 
0.0 0.0 -2.818930279585e+01 
-1.465201245136e+02 8.235940722218e+00 0.0 
8.235940722218e+00 -3.558239879143e+02 0.0 
0.0 0.0 -1.503032337284e+02 
-1.425662821975e+02 9.411977734564e+00 0.0 
9.411977734564e+00 -3.247012907455e+02 0.0 
0.0 0.0 -1.397802718829e+02 
-1.440801527157e+02 3.464379086460e+00 0.0 
3.464379086460e+00 -3.319207585398e+02 0.0 
0.0 0.0 -1.424002733767e+02 
-2.400488059982e+01 -2.615493641759e+00 0.0 
-2.615493641759e+00 -7.040235913141e+01 0.0 
0.0 0.0 -2.713436750567e+01 
-4.411457531624e+01 3.472341016164e+01 0.0 
3.472341016164e+01 -8.749404371107e+01 0.0 
0.0 0.0 -3.745082992209e+01 
-1.106843755675e+02 -1.424645872139e+00 0.0 
-1.424645872139e+00 -2.335491770578e+02 0.0 
0.0 0.0 -9.892782929681e+01 
-1.257202135590e+02 3.531651487131e-01 0.0 
3.531651487131e-01 -2.844433674992e+02 0.0 
0.0 0.0 -1.226490743175e+02 
-1.320271655948e+02 -3.270827178300e+00 0.0 
-3.270827178300e+00 -9.601353722411e+01 0.0 
0.0 0.0 -6.863659535847e+01 
-1.453103499083e+02 6.870211882791e+00 0.0 
6.870211882791e+00 -3.370942911763e+02 0.0 
0.0 0.0 -1.443213923254e+02 
-1.047181119430e+02 3.383880097389e-01 0.0 
3.383880097389e-01 -2.300811420901e+02 0.0 
0.0 0.0 -1.000397762099e+02 
-5.252874476560e+01 -1.968133164612e+01 0.0 
-1.968133164612e+01 -9.316964487216e+01 0.0 
0.0 0.0 -3.819564275748e+01 
-9.924390985496e+01 4.661416854088e-01 0.0 
4.661416854088e-01 -2.162683690779e+02 0.0 
0.0 0.0 -9.425368367986e+01 
-1.525281669809e+02 1.282534378696e+01 0.0 
1.282534378696e+01 -3.598441198518e+02 0.0 
0.0 0.0 -1.533116860498e+02 
-1.142922827427e+02 7.826767168326e-01 0.0 
7.826767168326e-01 -2.447362983333e+02 0.0 
0.0 0.0 -1.038358297290e+02 
-4.941050078540e+01 3.575478160996e+01 0.0 
3.575478160996e+01 -3.494868808499e+01 0.0 
0.0 0.0 -2.619822588257e+01 
-7.670158689837e+01 -3.734925441609e+00 0.0 
-3.734925441609e+00 -1.476604242460e+02 0.0 
0.0 0.0 -6.120805849669e+01 
-1.032968990842e+02 -2.722298230034e+00 0.0 
-2.722298230034e+00 -2.147566780709e+02 0.0 
0.0 0.0 -9.072688160884e+01 
-1.173816600232e+02 -1.440382938127e+00 0.0 
-1.440382938127e+00 -2.541590405725e+02 0.0 
0.0 0.0 -1.080170564529e+02 
-1.478118470509e+02 1.154272550776e+01 0.0 
1.154272550776e+01 -3.517553902742e+02 0.0 
0.0 0.0 -1.494701711975e+02 
-1.029695672175e+02 -6.646154424687e-01 0.0 
-6.646154424687e-01 -2.091774373057e+02 0.0 
0.0 0.0 -8.847122045338e+01 
-1.065910337290e+02 -1.797661665026e+00 0.0 
-1.797661665026e+00 -2.219631653922e+02 0.0 
0.0 0.0 -9.407065917615e+01 
-1.528130590990e+01 -7.347107926303e-01 0.0 
-7.347107926303e-01 -3.729321611594e+01 0.0 
0.0 0.0 -1.426844077567e+01 
-1.541756781826e+02 1.097299245739e+00 0.0 
1.097299245739e+00 -3.671425350601e+02 0.0 
0.0 0.0 -1.559954639728e+02 
-1.393665189483e+02 1.132530644137e+01 0.0 
1.132530644137e+01 -3.263375837542e+02 0.0 
0.0 0.0 -1.393112308108e+02 
-4.385489839774e+01 2.969511444753e+01 0.0 
2.969511444753e+01 -1.034476173136e+02 0.0 
0.0 0.0 -4.290750389098e+01 
-1.437704638897e+02 8.093371672701e-01 0.0 
8.093371672701e-01 -3.330269947291e+02 0.0 
0.0 0.0 -1.426392375856e+02 
-1.618999528734e+02 -4.935996175118e-01 0.0 
-4.935996175118e-01 -3.799953641254e+02 0.0 
0.0 0.0 -1.621685950996e+02 
-8.446153183025e+01 7.473927716631e-01 0.0 
7.473927716631e-01 -1.794590247430e+02 0.0 
0.0 0.0 -7.877616697198e+01 
-1.051466537069e+02 2.895749309838e-01 0.0 
2.895749309838e-01 -2.302650444633e+02 0.0 
0.0 0.0 -1.002235094510e+02 
-1.017541781173e+02 -2.432217210534e+00 0.0 
-2.432217210534e+00 -2.088795320388e+02 0.0 
0.0 0.0 -8.836708404657e+01 
-1.056659306178e+02 -1.442811321513e+00 0.0 
-1.442811321513e+00 -2.160970039965e+02 0.0 
0.0 0.0 -9.153619586071e+01 
-1.067076790476e+02 -1.007198308252e+00 0.0 
-1.007198308252e+00 -2.225913380087e+02 0.0 
0.0 0.0 -9.420433268454e+01 
-1.412098847549e+02 7.647928841590e+00 0.0 
7.647928841590e+00 -3.435510349679e+02 0.0 
0.0 0.0 -1.450282759168e+02 
-4.301119442297e+01 -1.492170185260e+01 0.0 
-1.492170185260e+01 -6.890050648909e+01 0.0 
0.0 0.0 -2.602837969077e+01 
-1.443720355463e+02 1.286205226814e+01 0.0 
1.286205226814e+01 -3.367116074243e+02 0.0 
0.0 0.0 -1.439250928912e+02 
-9.120646389507e+01 6.936768355399e-02 0.0 
6.936768355399e-02 -1.962645266384e+02 0.0 
0.0 0.0 -8.584129716004e+01 
-1.462177460115e+02 7.094596055709e+00 0.0 
7.094596055709e+00 -3.359353436319e+02 0.0 
0.0 0.0 -1.442459268930e+02 
-1.415746282339e+02 8.557822220552e+00 0.0 
8.557822220552e+00 -3.435441419319e+02 0.0 
0.0 0.0 -1.451356310498e+02 
-1.004929192601e+02 1.078797305996e+00 0.0 
1.078797305996e+00 -2.171718318497e+02 0.0 
0.0 0.0 -9.489942533294e+01 
-1.399854811715e+02 1.062820298379e+01 0.0 
1.062820298379e+01 -3.230510395572e+02 0.0 
0.0 0.0 -1.385109562186e+02 
-1.473029093726e+02 1.035993984267e+01 0.0 
1.035993984267e+01 -3.509426231338e+02 0.0 
0.0 0.0 -1.490736597519e+02 
-1.532024659012e+02 1.175205998247e+01 0.0 
1.175205998247e+01 -3.638162854630e+02 0.0 
0.0 0.0 -1.547056254093e+02 
-4.489854656181e+01 4.053118895044e+01 0.0 
4.053118895044e+01 -6.929999406767e+01 0.0 
0.0 0.0 -3.548547466188e+01 
-1.404448396562e+02 1.184434123997e+01 0.0 
1.184434123997e+01 -3.234397309807e+02 0.0 
0.0 0.0 -1.387653711911e+02 
-1.446080311905e+02 1.098847089863e+01 0.0 
1.098847089863e+01 -3.348410943251e+02 0.0 
0.0 0.0 -1.434347376547e+02 
-1.778654073686e+01 3.714949954592e-01 0.0 
3.714949954592e-01 -3.767052123916e+01 0.0 
0.0 0.0 -1.446672658602e+01 
-9.930156801583e+01 -1.616744077131e+00 0.0 
-1.616744077131e+00 -1.991230001627e+02 0.0 
0.0 0.0 -8.409280712745e+01 
-5.148614446840e+01 4.074787962074e+01 0.0 
4.074787962074e+01 -6.523990938058e+01 0.0 
0.0 0.0 -3.607166897346e+01 
-1.452075939828e+02 1.189044268542e+01 0.0 
1.189044268542e+01 -3.345010253804e+02 0.0 
0.0 0.0 -1.435125858090e+02 
-1.398837461020e+01 2.447536937984e-01 0.0 
2.447536937984e-01 -1.159959752823e+01 0.0 
0.0 0.0 -6.513719715633e+00 
-1.048972109984e+01 -2.351028426419e-01 0.0 
-2.351028426419e-01 -9.919220009391e+00 0.0 
0.0 0.0 -5.722682332770e+00 
-1.376784071924e+01 -1.530085008133e-01 0.0 
-1.530085008133e-01 -9.743607134446e+00 0.0 
0.0 0.0 -5.557361581655e+00 
-1.010944285964e+01 -7.196427228299e-02 0.0 
-7.196427228299e-02 -9.766080445109e+00 0.0 
0.0 0.0 -5.562656991424e+00 
-1.362381868978e+01 -2.001951935933e-01 0.0 
-2.001951935933e-01 -9.711467581729e+00 0.0 
0.0 0.0 -5.503073414209e+00 
-9.838390840931e+00 -8.962518937621e-02 0.0 
-8.962518937621e-02 -9.739710958934e+00 0.0 
0.0 0.0 -5.473430539960e+00 
-1.339559536701e+01 -2.374474302770e-01 0.0 
-2.374474302770e-01 -9.728821765999e+00 0.0 
0.0 0.0 -5.457500033958e+00 
-9.511504129860e+00 -1.172561883194e-01 0.0 
-1.172561883194e-01 -9.717430392661e+00 0.0 
0.0 0.0 -5.368680356756e+00 
-1.308568032656e+01 -2.781070791769e-01 0.0 
-2.781070791769e-01 -9.744323887565e+00 0.0 
0.0 0.0 -5.392037580192e+00 
-9.115123423509e+00 -1.528824735367e-01 0.0 
-1.528824735367e-01 -9.694614408475e+00 0.0 
0.0 0.0 -5.242921349595e+00 
-1.269553006791e+01 -3.191289746722e-01 0.0 
-3.191289746722e-01 -9.760838485665e+00 0.0 
0.0 0.0 -5.309470848745e+00 
-8.640467251036e+00 -1.962784968279e-01 0.0 
-1.962784968279e-01 -9.669768747585e+00 0.0 
0.0 0.0 -5.093070799586e+00 
-1.223033535970e+01 -3.600018060892e-01 0.0 
-3.600018060892e-01 -9.780225545821e+00 0.0 
0.0 0.0 -5.211050586179e+00 
-8.079559864513e+00 -2.468199539357e-01 0.0 
-2.468199539357e-01 -9.642593469396e+00 0.0 
0.0 0.0 -4.916646000173e+00 
-1.169756974969e+01 -4.001146894963e-01 0.0 
-4.001146894963e-01 -9.803291219151e+00 0.0 
0.0 0.0 -5.096473630610e+00 
-7.425762121903e+00 -3.035061642692e-01 0.0 
-3.035061642692e-01 -9.612261359499e+00 0.0 
0.0 0.0 -4.711407044421e+00 
-1.110353026512e+01 -4.372801080542e-01 0.0 
-4.372801080542e-01 -9.830838338699e+00 0.0 
0.0 0.0 -4.966556627746e+00 
-6.675684809308e+00 -3.651969680942e-01 0.0 
-3.651969680942e-01 -9.579208447209e+00 0.0 
0.0 0.0 -4.476467976955e+00 
-1.045980534481e+01 -4.708298160037e-01 0.0 
-4.708298160037e-01 -9.863574258846e+00 0.0 
0.0 0.0 -4.822151317692e+00 
-5.828106212769e+00 -4.294085221996e-01 0.0 
-4.294085221996e-01 -9.544723382332e+00 0.0 
0.0 0.0 -4.211848878530e+00 
-2.148634309943e+01 5.731548607901e+00 0.0 
5.731548607901e+00 -1.219936540751e+01 0.0 
0.0 0.0 -7.003895902653e+00 
-9.781006840347e+00 -4.975276570963e-01 0.0 
-4.975276570963e-01 -9.902086099641e+00 0.0 
0.0 0.0 -4.664457578668e+00 
-4.888313731861e+00 -4.907957571107e-01 0.0 
-4.907957571107e-01 -9.513984502526e+00 0.0 
0.0 0.0 -3.920689470316e+00 
-9.095346969207e+00 -5.144616208632e-01 0.0 
-5.144616208632e-01 -9.946993737064e+00 0.0 
0.0 0.0 -4.493955118765e+00 
-1.190082458401e+01 1.919121253823e+00 0.0 
1.919121253823e+00 -5.085353312984e+00 0.0 
0.0 0.0 -1.612031198688e+00 
-3.871762357794e+00 -5.377921925638e-01 0.0 
-5.377921925638e-01 -9.492317282128e+00 0.0 
0.0 0.0 -3.609223891977e+00 
-8.438829750882e+00 -5.119041414440e-01 0.0 
-5.119041414440e-01 -9.997614870453e+00 0.0 
0.0 0.0 -4.312564165122e+00 
-2.313416435354e+01 5.116390525896e+00 0.0 
5.116390525896e+00 -1.261242677229e+01 0.0 
0.0 0.0 -8.343774469554e+00 
-2.816974680119e+00 -5.548537510997e-01 0.0 
-5.548537510997e-01 -9.481004753909e+00 0.0 
0.0 0.0 -3.289393830208e+00 
-7.861827416875e+00 -4.811962442652e-01 0.0 
-4.811962442652e-01 -1.004920423772e+01 0.0 
0.0 0.0 -4.123967060860e+00 
-1.785629764924e+00 -5.336323060567e-01 0.0 
-5.336323060567e-01 -9.467727890967e+00 0.0 
0.0 0.0 -2.976007296767e+00 
-7.436942151429e+00 -4.331395247794e-01 0.0 
-4.331395247794e-01 -1.009457451307e+01 0.0 
0.0 0.0 -3.935590200918e+00 
-8.352739316415e-01 -4.739995151499e-01 0.0 
-4.739995151499e-01 -9.479479561857e+00 0.0 
0.0 0.0 -2.694426048050e+00 
-7.174539930051e+00 -3.510829526717e-01 0.0 
-3.510829526717e-01 -1.012360175719e+01 0.0 
0.0 0.0 -3.808772707389e+00 
-4.102218330362e-02 -3.724633989203e-01 0.0 
-3.724633989203e-01 -9.494995540871e+00 0.0 
0.0 0.0 -2.460805317252e+00 
-7.159991258562e+00 -2.410675662240e-01 0.0 
-2.410675662240e-01 -1.012451996713e+01 0.0 
0.0 0.0 -3.886609701691e+00 
5.350578082057e-01 -2.569719288098e-01 0.0 
-2.569719288098e-01 -9.501677454789e+00 0.0 
0.0 0.0 -2.289985893975e+00 
-3.397220271892e+01 1.064996303949e+01 0.0 
1.064996303949e+01 -1.426797861183e+01 0.0 
0.0 0.0 -1.077085270997e+01 
-7.583996006223e+00 -8.057307137724e-02 0.0 
-8.057307137724e-02 -1.011126119517e+01 0.0 
0.0 0.0 -4.120430526239e+00 
8.259576076155e-01 -1.200272289055e-01 0.0 
-1.200272289055e-01 -9.583672103988e+00 0.0 
0.0 0.0 -2.227314348912e+00 
-7.952032662897e+00 1.712095445059e-01 0.0 
1.712095445059e-01 -1.000359317063e+01 0.0 
0.0 0.0 -4.345300975830e+00 
7.496521257641e-01 -4.014515796701e-02 0.0 
-4.014515796701e-02 -9.570471827707e+00 0.0 
0.0 0.0 -2.246245910583e+00 
2.853747323394e-01 -1.039727912391e-01 0.0 
-1.039727912391e-01 -9.590275884573e+00 0.0 
0.0 0.0 -2.391470345670e+00 
-8.660817456155e+00 5.413823162562e-01 0.0 
5.413823162562e-01 -9.857452372665e+00 0.0 
0.0 0.0 -4.671876614277e+00 
-7.305336827348e-01 -2.782116203843e-01 0.0 
-2.782116203843e-01 -9.428722435397e+00 0.0 
0.0 0.0 -2.647776835440e+00 
-9.808435180498e+00 1.219040191389e+00 0.0 
1.219040191389e+00 -9.802139899656e+00 0.0 
0.0 0.0 -5.065679809297e+00 
-2.517061759704e+00 -1.138155757867e-01 0.0 
-1.138155757867e-01 -9.471928818895e+00 0.0 
0.0 0.0 -2.345726747347e+00 
-1.163984286477e+01 2.036540526617e+00 0.0 
2.036540526617e+00 -1.022612859649e+01 0.0 
0.0 0.0 -5.667362398442e+00 
-5.521598404614e+00 5.732707430381e-01 0.0 
5.732707430381e-01 -8.528039003865e+00 0.0 
0.0 0.0 -1.295991436177e+00 
-9.835603834384e+00 1.778841624782e+00 0.0 
1.778841624782e+00 -9.491802836627e+00 0.0 
0.0 0.0 -2.121457455513e+00 
-1.385301906127e+01 2.858393321594e+00 0.0 
2.858393321594e+00 -1.117783562229e+01 0.0 
0.0 0.0 -6.315147972842e+00 
-1.693792495209e+01 3.211875704398e+00 0.0 
3.211875704398e+00 -1.177077495738e+01 0.0 
0.0 0.0 -6.818118312436e+00 
-2.457942978508e+01 4.578608708693e+00 0.0 
4.578608708693e+00 -9.030433378565e-02 0.0 
0.0 0.0 -3.923835546193e+00 
-1.256409665194e+01 1.395678811154e+00 0.0 
1.395678811154e+00 -9.394866692946e+00 0.0 
0.0 0.0 -5.823458839727e+00 
-1.232320173024e+01 -1.331483005033e+00 0.0 
-1.331483005033e+00 -1.137850462722e+01 0.0 
0.0 0.0 -6.212339869335e+00 
-9.384119434133e+00 1.182639548291e-01 0.0 
1.182639548291e-01 -5.154845707398e+00 0.0 
0.0 0.0 -3.742697371370e+00 
-1.516406949266e+01 -9.892798574293e-02 0.0 
-9.892798574293e-02 -1.546041289641e+01 0.0 
0.0 0.0 -8.233566971126e+00 
-3.896584624686e+01 1.151333702895e+01 0.0 
1.151333702895e+01 -1.169692978699e+01 0.0 
0.0 0.0 -1.146683244081e+01 
-1.824263986922e+01 2.279986187964e-01 0.0 
2.279986187964e-01 -2.745305810645e+01 0.0 
0.0 0.0 -1.330870939270e+01 
-2.170055986435e+01 -3.464820778534e-01 0.0 
-3.464820778534e-01 -2.936774724497e+01 0.0 
0.0 0.0 -1.410772623868e+01 
-1.843806887252e+01 -6.111011005148e-02 0.0 
-6.111011005148e-02 -2.916046091289e+01 0.0 
0.0 0.0 -1.387955893562e+01 
-2.158180390368e+01 -3.132171846361e-01 0.0 
-3.132171846361e-01 -2.952525938614e+01 0.0 
0.0 0.0 -1.414536023487e+01 
-1.835433029099e+01 -1.894076334041e-01 0.0 
-1.894076334041e-01 -2.927154692057e+01 0.0 
0.0 0.0 -1.388776316347e+01 
-2.150225965421e+01 -4.485298155995e-01 0.0 
-4.485298155995e-01 -2.955536130075e+01 0.0 
0.0 0.0 -1.412960357152e+01 
-1.818013260247e+01 -2.862817856723e-01 0.0 
-2.862817856723e-01 -2.926608499955e+01 0.0 
0.0 0.0 -1.383386528061e+01 
-2.142574676565e+01 -5.874091452842e-01 0.0 
-5.874091452842e-01 -2.958045883494e+01 0.0 
0.0 0.0 -1.410721747453e+01 
-1.793338591927e+01 -3.716531323381e-01 0.0 
-3.716531323381e-01 -2.923866858956e+01 0.0 
0.0 0.0 -1.375161635265e+01 
-2.133265704785e+01 -7.255710072019e-01 0.0 
-7.255710072019e-01 -2.960758594771e+01 0.0 
0.0 0.0 -1.407688781724e+01 
-1.762556252983e+01 -4.535088787748e-01 0.0 
-4.535088787748e-01 -2.920493002041e+01 0.0 
0.0 0.0 -1.364914776507e+01 
-2.121812263934e+01 -8.647596411223e-01 0.0 
-8.647596411223e-01 -2.963669302876e+01 0.0 
0.0 0.0 -1.403793846478e+01 
-1.725930908971e+01 -5.342746421047e-01 0.0 
-5.342746421047e-01 -2.916772966487e+01 0.0 
0.0 0.0 -1.352811162637e+01 
-2.108154171781e+01 -1.005719413085e+00 0.0 
-1.005719413085e+00 -2.966881516846e+01 0.0 
0.0 0.0 -1.399019170674e+01 
-1.683372653548e+01 -6.129384758312e-01 0.0 
-6.129384758312e-01 -2.913044362656e+01 0.0 
0.0 0.0 -1.338925104861e+01 
-2.092851892058e+01 -1.145524120125e+00 0.0 
-1.145524120125e+00 -2.970387048941e+01 0.0 
0.0 0.0 -1.393316685169e+01 
-1.635105057518e+01 -6.873200875151e-01 0.0 
-6.873200875151e-01 -2.909604453885e+01 0.0 
0.0 0.0 -1.323412853421e+01 
-2.077163557339e+01 -1.280308723725e+00 0.0 
-1.280308723725e+00 -2.974161850089e+01 0.0 
0.0 0.0 -1.386744072774e+01 
-1.581366490484e+01 -7.533073673485e-01 0.0 
-7.533073673485e-01 -2.906630347925e+01 0.0 
0.0 0.0 -1.306399051523e+01 
-2.903487592851e+01 7.417397881549e+00 0.0 
7.417397881549e+00 -3.274617974485e+01 0.0 
0.0 0.0 -1.532330967589e+01 
-2.062398435856e+01 -1.404945461540e+00 0.0 
-1.404945461540e+00 -2.978388019903e+01 0.0 
0.0 0.0 -1.379376115478e+01 
-1.522708413421e+01 -8.037033057346e-01 0.0 
-8.037033057346e-01 -2.904827801936e+01 0.0 
0.0 0.0 -1.288260864607e+01 
-2.050097120311e+01 -1.508733148327e+00 0.0 
-1.508733148327e+00 -2.983340274409e+01 0.0 
0.0 0.0 -1.371249679431e+01 
-2.899328404554e+01 6.670348954085e+00 0.0 
6.670348954085e+00 -3.207630609264e+01 0.0 
0.0 0.0 -1.597546266729e+01 
-1.459740161286e+01 -8.246443883297e-01 0.0 
-8.246443883297e-01 -2.905295881157e+01 0.0 
0.0 0.0 -1.269510812733e+01 
-2.042056528322e+01 -1.572919004937e+00 0.0 
-1.572919004937e+00 -2.989409304629e+01 0.0 
0.0 0.0 -1.362397582475e+01 
-1.393781178845e+01 -7.984509511636e-01 0.0 
-7.984509511636e-01 -2.909369716085e+01 0.0 
0.0 0.0 -1.250945268479e+01 
-2.040819876860e+01 -1.568640986647e+00 0.0 
-1.568640986647e+00 -2.995880453138e+01 0.0 
0.0 0.0 -1.352265332486e+01 
-1.326478486115e+01 -7.125334554418e-01 0.0 
-7.125334554418e-01 -2.916514646037e+01 0.0 
0.0 0.0 -1.232897939646e+01 
-2.386380243259e+01 5.865332423184e+00 0.0 
5.865332423184e+00 -2.603355694733e+01 0.0 
0.0 0.0 -1.153476866615e+01 
-2.051146879314e+01 -1.468198843907e+00 0.0 
-1.468198843907e+00 -3.000117222926e+01 0.0 
0.0 0.0 -1.340417002927e+01 
-1.258418374043e+01 -5.900592791411e-01 0.0 
-5.900592791411e-01 -2.920083312095e+01 0.0 
0.0 0.0 -1.213550505841e+01 
-2.078381961413e+01 -1.321039510635e+00 0.0 
-1.321039510635e+00 -3.005106793711e+01 0.0 
0.0 0.0 -1.327442631766e+01 
-1.190132889998e+01 -4.297541279567e-01 0.0 
-4.297541279567e-01 -2.928378275693e+01 0.0 
0.0 0.0 -1.195553349707e+01 
-2.087296633357e+01 -1.036071854631e+00 0.0 
-1.036071854631e+00 -3.004069060280e+01 0.0 
0.0 0.0 -1.299710214096e+01 
-1.127179284872e+01 -1.741860098077e-01 0.0 
-1.741860098077e-01 -2.948897005636e+01 0.0 
0.0 0.0 -1.182822887152e+01 
-2.105062061836e+01 -5.073253521150e-01 0.0 
-5.073253521150e-01 -2.998346275937e+01 0.0 
0.0 0.0 -1.264003569687e+01 
-1.080630775046e+01 2.141061201776e-01 0.0 
2.141061201776e-01 -2.976606171470e+01 0.0 
0.0 0.0 -1.177171083955e+01 
-2.143614747384e+01 2.886670154565e-01 0.0 
2.886670154565e-01 -3.002932184202e+01 0.0 
0.0 0.0 -1.294312439559e+01 
-1.130821563680e+01 7.549842345707e-01 0.0 
7.549842345707e-01 -2.995916074090e+01 0.0 
0.0 0.0 -1.154567821314e+01 
-2.198701703524e+01 1.355482344310e+00 0.0 
1.355482344310e+00 -3.003325845908e+01 0.0 
0.0 0.0 -1.336401563287e+01 
-3.448747500825e+01 8.814984221139e+00 0.0 
8.814984221139e+00 -3.528904607135e+01 0.0 
0.0 0.0 -1.739427356405e+01 
-2.283787359506e+01 2.434018099909e+00 0.0 
2.434018099909e+00 -3.025738718735e+01 0.0 
0.0 0.0 -1.388399637626e+01 
-1.268854630064e+01 1.346855043335e+00 0.0 
1.346855043335e+00 -2.989376132502e+01 0.0 
0.0 0.0 -1.118220703278e+01 
-2.403652328165e+01 3.764239735407e+00 0.0 
3.764239735407e+00 -3.061355109475e+01 0.0 
0.0 0.0 -1.456886434102e+01 
-1.485837767104e+01 2.033119259565e+00 0.0 
2.033119259565e+00 -3.012973929838e+01 0.0 
0.0 0.0 -1.108763936288e+01 
-2.549891982207e+01 4.728774410406e+00 0.0 
4.728774410406e+00 -3.132467530224e+01 0.0 
0.0 0.0 -1.500297040885e+01 
-1.788932848313e+01 2.917213315530e+00 0.0 
2.917213315530e+00 -3.002999862017e+01 0.0 
0.0 0.0 -1.070985784753e+01 
-2.160691366718e+01 4.187325862697e+00 0.0 
4.187325862697e+00 -3.085905848443e+01 0.0 
0.0 0.0 -1.182503610241e+01 
-2.875518206841e+01 7.347870373995e+00 0.0 
7.347870373995e+00 -2.496918139263e+01 0.0 
0.0 0.0 -1.312531276792e+01 
-2.011373436243e+01 1.369321466891e+00 0.0 
1.369321466891e+00 -2.974293575192e+01 0.0 
0.0 0.0 -1.419342502862e+01 
-2.031209225705e+01 -1.500105156887e+00 0.0 
-1.500105156887e+00 -2.796507509414e+01 0.0 
0.0 0.0 -1.388564701968e+01 
-2.315905049677e+01 1.366690630650e-02 0.0 
1.366690630650e-02 -3.399302809187e+01 0.0 
0.0 0.0 -1.631533387159e+01 
-1.692556895028e+01 -1.588985536457e-01 0.0 
-1.588985536457e-01 -2.382867784546e+01 0.0 
0.0 0.0 -1.182003320606e+01 
-3.113567306679e+01 9.744559719756e+00 0.0 
9.744559719756e+00 -2.793194349634e+01 0.0 
0.0 0.0 -1.416135318961e+01 
-2.909891207128e+01 2.204055956628e-01 0.0 
2.204055956628e-01 -5.061060497075e+01 0.0 
0.0 0.0 -2.341349158318e+01 
-2.731180092338e+01 -4.393195932716e-01 0.0 
-4.393195932716e-01 -4.878173323011e+01 0.0 
0.0 0.0 -2.242806024605e+01 
-2.912170024139e+01 -2.357274052953e-01 0.0 
-2.357274052953e-01 -4.887865278896e+01 0.0 
0.0 0.0 -2.254457688282e+01 
-2.716906747583e+01 -3.347075346322e-01 0.0 
-3.347075346322e-01 -4.867342482503e+01 0.0 
0.0 0.0 -2.235274769026e+01 
-2.923548441658e+01 -3.524043741120e-01 0.0 
-3.524043741120e-01 -4.885570378547e+01 0.0 
0.0 0.0 -2.253746696147e+01 
-2.706708461318e+01 -4.521725841855e-01 0.0 
-4.521725841855e-01 -4.865173669671e+01 0.0 
0.0 0.0 -2.231564639297e+01 
-2.933757056297e+01 -4.766240545633e-01 0.0 
-4.766240545633e-01 -4.888049857750e+01 0.0 
0.0 0.0 -2.254941989646e+01 
-2.695168092967e+01 -5.895932087055e-01 0.0 
-5.895932087055e-01 -4.863257532987e+01 0.0 
0.0 0.0 -2.227527687786e+01 
-2.944244381549e+01 -6.091131448607e-01 0.0 
-6.091131448607e-01 -4.889738445296e+01 0.0 
0.0 0.0 -2.255159866910e+01 
-2.680724249103e+01 -7.306547718135e-01 0.0 
-7.306547718135e-01 -4.861310762198e+01 0.0 
0.0 0.0 -2.222610503390e+01 
-2.956049065707e+01 -7.424911804497e-01 0.0 
-7.424911804497e-01 -4.891344467395e+01 0.0 
0.0 0.0 -2.254814095477e+01 
-2.663057465121e+01 -8.710361968922e-01 0.0 
-8.710361968922e-01 -4.859103537558e+01 0.0 
0.0 0.0 -2.216648300804e+01 
-2.970073833696e+01 -8.768244735446e-01 0.0 
-8.768244735446e-01 -4.893064093557e+01 0.0 
0.0 0.0 -2.254134786980e+01 
-2.642244607282e+01 -1.009326826652e+00 0.0 
-1.009326826652e+00 -4.857318714799e+01 0.0 
0.0 0.0 -2.209868996624e+01 
-2.986746642485e+01 -1.007592977941e+00 0.0 
-1.007592977941e+00 -4.895358344605e+01 0.0 
0.0 0.0 -2.253275505108e+01 
-2.618326221672e+01 -1.140465126017e+00 0.0 
-1.140465126017e+00 -4.856445788917e+01 0.0 
0.0 0.0 -2.202431603177e+01 
-3.007254653670e+01 -1.127094713152e+00 0.0 
-1.127094713152e+00 -4.898428301622e+01 0.0 
0.0 0.0 -2.252295236518e+01 
-2.591449712573e+01 -1.257184962825e+00 0.0 
-1.257184962825e+00 -4.856354417033e+01 0.0 
0.0 0.0 -2.194341238882e+01 
-3.666803826290e+01 7.383003565343e+00 0.0 
7.383003565343e+00 -5.319458158027e+01 0.0 
0.0 0.0 -2.336225246379e+01 
-3.033393228474e+01 -1.231615216792e+00 0.0 
-1.231615216792e+00 -4.902373990068e+01 0.0 
0.0 0.0 -2.251379749960e+01 
-2.561995629584e+01 -1.353166879039e+00 0.0 
-1.353166879039e+00 -4.858030141952e+01 0.0 
0.0 0.0 -2.186007731461e+01 
-3.066427697442e+01 -1.313243117064e+00 0.0 
-1.313243117064e+00 -4.907861811290e+01 0.0 
0.0 0.0 -2.250675693321e+01 
-3.187802532221e+01 6.215809469050e+00 0.0 
6.215809469050e+00 -4.639907941699e+01 0.0 
0.0 0.0 -1.991067805086e+01 
-2.530290496856e+01 -1.418136894996e+00 0.0 
-1.418136894996e+00 -4.862992501760e+01 0.0 
0.0 0.0 -2.177984899585e+01 
-3.752678525846e+01 6.548588282161e+00 0.0 
6.548588282161e+00 -5.231786126131e+01 0.0 
0.0 0.0 -2.412993240068e+01 
-3.108035013002e+01 -1.355841621018e+00 0.0 
-1.355841621018e+00 -4.916004481029e+01 0.0 
0.0 0.0 -2.250528306892e+01 
-2.496551023227e+01 -1.435997098987e+00 0.0 
-1.435997098987e+00 -4.872938402172e+01 0.0 
0.0 0.0 -2.170846827620e+01 
-3.160040870618e+01 -1.334798827613e+00 0.0 
-1.334798827613e+00 -4.927969750606e+01 0.0 
0.0 0.0 -2.251183654722e+01 
-2.460527178103e+01 -1.385794260408e+00 0.0 
-1.385794260408e+00 -4.889374951447e+01 0.0 
0.0 0.0 -2.164970638865e+01 
-3.224674282289e+01 -1.203486726210e+00 0.0 
-1.203486726210e+00 -4.942645474421e+01 0.0 
0.0 0.0 -2.251447768124e+01 
-2.422454877462e+01 -1.241271894191e+00 0.0 
-1.241271894191e+00 -4.907723662398e+01 0.0 
0.0 0.0 -2.159053561958e+01 
-3.260310370477e+01 -9.900148710400e-01 0.0 
-9.900148710400e-01 -4.947070720679e+01 0.0 
0.0 0.0 -2.234025464985e+01 
-2.384901315416e+01 -9.431388578537e-01 0.0 
-9.431388578537e-01 -4.939552245645e+01 0.0 
0.0 0.0 -2.157336068318e+01 
-4.079761438292e+01 8.204983583892e+00 0.0 
8.204983583892e+00 -5.542118175661e+01 0.0 
0.0 0.0 -2.512321544948e+01 
-3.294277334890e+01 -5.537346915988e-01 0.0 
-5.537346915988e-01 -4.955086806464e+01 0.0 
0.0 0.0 -2.208785730085e+01 
-2.409296766681e+01 -5.002702041354e-01 0.0 
-5.002702041354e-01 -4.967448082837e+01 0.0 
0.0 0.0 -2.141614499830e+01 
-3.338170673333e+01 5.395746803926e-02 0.0 
5.395746803926e-02 -4.978216555890e+01 0.0 
0.0 0.0 -2.182757429756e+01 
-2.473778846970e+01 1.054764377765e-01 0.0 
1.054764377765e-01 -5.011583962789e+01 0.0 
0.0 0.0 -2.124107567936e+01 
-2.570531227450e+01 8.854722877097e-01 0.0 
8.854722877097e-01 -5.037681187062e+01 0.0 
0.0 0.0 -2.091810940720e+01 
-3.387943591194e+01 9.270119420540e-01 0.0 
9.270119420540e-01 -5.009440812736e+01 0.0 
0.0 0.0 -2.144924071665e+01 
-2.695028621401e+01 1.890377106871e+00 0.0 
1.890377106871e+00 -5.077724342456e+01 0.0 
0.0 0.0 -2.047820482800e+01 
-3.443952640821e+01 1.941408406656e+00 0.0 
1.941408406656e+00 -5.048659700974e+01 0.0 
0.0 0.0 -2.193740733118e+01 
-2.880332995600e+01 3.178020427640e+00 0.0 
3.178020427640e+00 -5.053285590507e+01 0.0 
0.0 0.0 -1.990983560429e+01 
-3.107375131023e+01 4.661066721948e+00 0.0 
4.661066721948e+00 -5.139538364639e+01 0.0 
0.0 0.0 -2.017948154073e+01 
-3.503293366091e+01 3.396493501443e+00 0.0 
3.396493501443e+00 -5.069089963056e+01 0.0 
0.0 0.0 -2.256298322739e+01 
-3.548630978895e+01 4.651431303153e+00 0.0 
4.651431303153e+00 -5.139905194487e+01 0.0 
0.0 0.0 -2.308668265607e+01 
-3.602923803139e+01 7.536168229140e+00 0.0 
7.536168229140e+00 -4.586610139771e+01 0.0 
0.0 0.0 -2.161142015530e+01 
-2.857667919882e+01 1.473171297320e+00 0.0 
1.473171297320e+00 -4.845712563157e+01 0.0 
0.0 0.0 -2.271014144912e+01 
-2.823067025794e+01 -1.448000224448e+00 0.0 
-1.448000224448e+00 -5.048452419762e+01 0.0 
0.0 0.0 -2.321455833667e+01 
-2.616281752489e+01 1.495603670720e-01 0.0 
1.495603670720e-01 -4.434768335272e+01 0.0 
0.0 0.0 -2.075315026328e+01 
-3.057057647903e+01 -1.686363149077e-01 0.0 
-1.686363149077e-01 -5.445055600059e+01 0.0 
0.0 0.0 -2.510633974389e+01 
-3.619491440758e+01 8.846246029040e+00 0.0 
8.846246029040e+00 -4.696004727865e+01 0.0 
0.0 0.0 -2.164486963795e+01 
-3.562344617253e+01 2.087261784250e-01 0.0 
2.087261784250e-01 -6.660696262766e+01 0.0 
0.0 0.0 -3.026912264006e+01 
-3.691068272958e+01 -3.491450414736e-01 0.0 
-3.491450414736e-01 -6.838330290048e+01 0.0 
0.0 0.0 -3.107348759582e+01 
-3.585490985257e+01 -5.993123920918e-02 0.0 
-5.993123920918e-02 -6.813146856211e+01 0.0 
0.0 0.0 -3.079591352440e+01 
-3.694529781452e+01 -2.774500680358e-01 0.0 
-2.774500680358e-01 -6.851603785072e+01 0.0 
0.0 0.0 -3.112861318119e+01 
-3.590989658777e+01 -2.386418483345e-01 0.0 
-2.386418483345e-01 -6.823728332552e+01 0.0 
0.0 0.0 -3.084415397399e+01 
-3.706464463367e+01 -4.269478670793e-01 0.0 
-4.269478670793e-01 -6.852461177984e+01 0.0 
0.0 0.0 -3.113590142094e+01 
-3.591852161691e+01 -3.890365055247e-01 0.0 
-3.890365055247e-01 -6.824515096824e+01 0.0 
0.0 0.0 -3.084910177555e+01 
-3.726969889975e+01 -5.864807541348e-01 0.0 
-5.864807541348e-01 -6.853619281975e+01 0.0 
0.0 0.0 -3.115423379499e+01 
-3.589959768991e+01 -5.226094981672e-01 0.0 
-5.226094981672e-01 -6.823778770505e+01 0.0 
0.0 0.0 -3.084121561849e+01 
-3.754924318917e+01 -7.439556531978e-01 0.0 
-7.439556531978e-01 -6.855453355008e+01 0.0 
0.0 0.0 -3.118207015636e+01 
-3.586085210931e+01 -6.443583518488e-01 0.0 
-6.443583518488e-01 -6.822463836976e+01 0.0 
0.0 0.0 -3.082564714372e+01 
-3.788662497972e+01 -8.952882422645e-01 0.0 
-8.952882422645e-01 -6.857174466745e+01 0.0 
0.0 0.0 -3.121066003418e+01 
-3.580806119373e+01 -7.570926768462e-01 0.0 
-7.570926768462e-01 -6.820788040829e+01 0.0 
0.0 0.0 -3.080478248061e+01 
-3.828197049243e+01 -1.044474327314e+00 0.0 
-1.044474327314e+00 -6.859795732197e+01 0.0 
0.0 0.0 -3.124431764412e+01 
-3.574641504449e+01 -8.559056365578e-01 0.0 
-8.559056365578e-01 -6.820329015780e+01 0.0 
0.0 0.0 -3.078491156069e+01 
-3.874330751166e+01 -1.181945017860e+00 0.0 
-1.181945017860e+00 -6.863865215074e+01 0.0 
0.0 0.0 -3.128554106283e+01 
-3.567787785190e+01 -9.333294192698e-01 0.0 
-9.333294192698e-01 -6.821791736192e+01 0.0 
0.0 0.0 -3.076873856414e+01 
-4.571580205495e+01 6.572519062954e+00 0.0 
6.572519062954e+00 -7.362839091066e+01 0.0 
0.0 0.0 -3.097237491632e+01 
-3.928185519515e+01 -1.293871835890e+00 0.0 
-1.293871835890e+00 -6.868869856231e+01 0.0 
0.0 0.0 -3.133107369553e+01 
-3.560464340761e+01 -9.859389742423e-01 0.0 
-9.859389742423e-01 -6.824637436233e+01 0.0 
0.0 0.0 -3.075530533098e+01 
-4.746761454097e+01 5.103660692065e+00 0.0 
5.103660692065e+00 -7.310816718787e+01 0.0 
0.0 0.0 -3.194058110748e+01 
-3.991272717617e+01 -1.378960082064e+00 0.0 
-1.378960082064e+00 -6.875906158533e+01 0.0 
0.0 0.0 -3.138419107312e+01 
-3.553079468128e+01 -1.003580198605e+00 0.0 
-1.003580198605e+00 -6.830992129005e+01 0.0 
0.0 0.0 -3.075221479140e+01 
-4.065471967354e+01 -1.421578913345e+00 0.0 
-1.421578913345e+00 -6.886744515231e+01 0.0 
0.0 0.0 -3.145340371270e+01 
-3.545997790048e+01 -9.729981670045e-01 0.0 
-9.729981670045e-01 -6.842843817789e+01 0.0 
0.0 0.0 -3.076652482351e+01 
-4.153238784780e+01 -1.400843430722e+00 0.0 
-1.400843430722e+00 -6.903335175832e+01 0.0 
0.0 0.0 -3.154809560785e+01 
-4.127183130136e+01 5.586221719271e+00 0.0 
5.586221719271e+00 -6.689864494851e+01 0.0 
0.0 0.0 -2.778278333609e+01 
-3.539185920478e+01 -8.792349428562e-01 0.0 
-8.792349428562e-01 -6.862213002221e+01 0.0 
0.0 0.0 -3.080419676810e+01 
-4.256072457619e+01 -1.287885288406e+00 0.0 
-1.287885288406e+00 -6.927747051100e+01 0.0 
0.0 0.0 -3.167642475758e+01 
-3.531625090846e+01 -6.929304512382e-01 0.0 
-6.929304512382e-01 -6.892282812267e+01 0.0 
0.0 0.0 -3.087172370934e+01 
-4.320146328245e+01 -9.665546425205e-01 0.0 
-9.665546425205e-01 -6.948011795160e+01 0.0 
0.0 0.0 -3.160645027043e+01 
-3.580731459742e+01 -3.501232433404e-01 0.0 
-3.501232433404e-01 -6.923694282466e+01 0.0 
0.0 0.0 -3.081173949095e+01 
-4.381548089011e+01 -5.019194370844e-01 0.0 
-5.019194370844e-01 -6.983585949214e+01 0.0 
0.0 0.0 -3.152771691567e+01 
-3.654717063142e+01 1.277726677974e-01 0.0 
1.277726677974e-01 -6.969511159089e+01 0.0 
0.0 0.0 -3.071950402101e+01 
-4.444056211583e+01 1.915800809748e-01 0.0 
1.915800809748e-01 -7.020096463821e+01 0.0 
0.0 0.0 -3.132777418451e+01 
-3.747538601726e+01 7.739436311137e-01 0.0 
7.739436311137e-01 -7.014043527276e+01 0.0 
0.0 0.0 -3.054760963715e+01 
-4.510606353565e+01 9.928727886189e-01 0.0 
9.928727886189e-01 -7.082655881732e+01 0.0 
0.0 0.0 -3.120724794563e+01 
-4.894351713276e+01 6.857199449283e+00 0.0 
6.857199449283e+00 -7.561794000686e+01 0.0 
0.0 0.0 -3.255807128809e+01 
-4.575476161374e+01 2.162815577204e+00 0.0 
2.162815577204e+00 -7.133307858355e+01 0.0 
0.0 0.0 -3.075469216181e+01 
-3.853719943806e+01 1.618825373948e+00 0.0 
1.618825373948e+00 -7.080260805813e+01 0.0 
0.0 0.0 -3.031045063728e+01 
-4.605041006541e+01 3.282516607324e+00 0.0 
3.282516607324e+00 -7.216020902760e+01 0.0 
0.0 0.0 -3.090197618361e+01 
-3.993785597054e+01 2.671559569427e+00 0.0 
2.671559569427e+00 -7.114937173343e+01 0.0 
0.0 0.0 -2.982480677998e+01 
-4.141644903761e+01 4.092522525256e+00 0.0 
4.092522525256e+00 -7.208966254412e+01 0.0 
0.0 0.0 -2.938583054703e+01 
-4.487640008394e+01 6.503343095114e+00 0.0 
6.503343095114e+00 -6.649233476692e+01 0.0 
0.0 0.0 -2.954505423445e+01 
-3.620593991026e+01 1.449139959624e+00 0.0 
1.449139959624e+00 -6.881535916852e+01 0.0 
0.0 0.0 -3.110638972363e+01 
-3.653446746199e+01 -1.479453217270e+00 0.0 
-1.479453217270e+00 -6.689217168658e+01 0.0 
0.0 0.0 -3.062799174457e+01 
-3.863068455435e+01 1.133968018802e-01 0.0 
1.133968018802e-01 -7.297254016902e+01 0.0 
0.0 0.0 -3.308096741701e+01 
-3.418148069045e+01 -1.870346950359e-01 0.0 
-1.870346950359e-01 -6.287599916057e+01 0.0 
0.0 0.0 -2.871724395531e+01 
-4.378652272939e+01 7.734931296129e+00 0.0 
7.734931296129e+00 -6.708889064021e+01 0.0 
0.0 0.0 -2.912912212714e+01 
-4.590476645736e+01 2.347805335728e-01 0.0 
2.347805335728e-01 -8.967852654788e+01 0.0 
0.0 0.0 -4.027498790157e+01 
-4.484688113499e+01 -3.758560704989e-01 0.0 
-3.758560704989e-01 -8.779324735848e+01 0.0 
0.0 0.0 -3.939203854804e+01 
-4.522441738270e+01 -8.002571034679e-02 0.0 
-8.002571034679e-02 -8.791197049024e+01 0.0 
0.0 0.0 -3.954091636188e+01 
-4.477130873409e+01 -2.207567935463e-01 0.0 
-2.207567935463e-01 -8.763022491061e+01 0.0 
0.0 0.0 -3.932046009341e+01 
-4.527040319192e+01 -1.785682350622e-01 0.0 
-1.785682350622e-01 -8.783276298512e+01 0.0 
0.0 0.0 -3.953094985311e+01 
-4.477255784305e+01 -3.103539060449e-01 0.0 
-3.103539060449e-01 -8.760455839079e+01 0.0 
0.0 0.0 -3.931313487015e+01 
-4.538307642084e+01 -2.684095660898e-01 0.0 
-2.684095660898e-01 -8.784916825494e+01 0.0 
0.0 0.0 -3.956967340273e+01 
-4.480847792716e+01 -4.172549700405e-01 0.0 
-4.172549700405e-01 -8.758357862082e+01 0.0 
0.0 0.0 -3.931761696440e+01 
-4.556265328944e+01 -3.562654858067e-01 0.0 
-3.562654858067e-01 -8.787518339511e+01 0.0 
0.0 0.0 -3.963135100536e+01 
-4.486828662033e+01 -5.280602136320e-01 0.0 
-5.280602136320e-01 -8.756647135143e+01 0.0 
0.0 0.0 -3.933042739153e+01 
-4.586889693380e+01 -4.522668173173e-01 0.0 
-4.522668173173e-01 -8.790287437576e+01 0.0 
0.0 0.0 -3.970202212603e+01 
-4.494299013038e+01 -6.377794682750e-01 0.0 
-6.377794682750e-01 -8.757390694640e+01 0.0 
0.0 0.0 -3.935506912304e+01 
-4.641389735195e+01 -5.474325915837e-01 0.0 
-5.474325915837e-01 -8.792001005969e+01 0.0 
0.0 0.0 -3.975391047478e+01 
-4.502355707374e+01 -7.275164121214e-01 0.0 
-7.275164121214e-01 -8.758506955056e+01 0.0 
0.0 0.0 -3.938258798729e+01 
-4.708191423741e+01 -6.264478573201e-01 0.0 
-6.264478573201e-01 -8.795872516533e+01 0.0 
0.0 0.0 -3.983079715608e+01 
-4.512108136272e+01 -7.987316616763e-01 0.0 
-7.987316616763e-01 -8.762496312369e+01 0.0 
0.0 0.0 -3.942381334592e+01 
-5.505513637628e+01 5.207050823447e+00 0.0 
5.207050823447e+00 -9.420447108354e+01 0.0 
0.0 0.0 -3.983730215080e+01 
-4.784302002324e+01 -6.811195878385e-01 0.0 
-6.811195878385e-01 -8.802332230559e+01 0.0 
0.0 0.0 -3.992620578283e+01 
-4.523421996578e+01 -8.408644740208e-01 0.0 
-8.408644740208e-01 -8.769910545501e+01 0.0 
0.0 0.0 -3.947999762624e+01 
-5.107275857847e+01 4.198416848702e+00 0.0 
4.198416848702e+00 -8.743960741698e+01 0.0 
0.0 0.0 -3.698738854658e+01 
-4.867337521009e+01 -7.072457947025e-01 0.0 
-7.072457947025e-01 -8.809376743239e+01 0.0 
0.0 0.0 -4.001033734681e+01 
-4.535961798228e+01 -8.377061425356e-01 0.0 
-8.377061425356e-01 -8.781148524700e+01 0.0 
0.0 0.0 -3.955133096878e+01 
-5.694076277330e+01 3.725714873620e+00 0.0 
3.725714873620e+00 -9.293387776387e+01 0.0 
0.0 0.0 -4.042593693147e+01 
-4.962659394807e+01 -6.841351462078e-01 0.0 
-6.841351462078e-01 -8.820349637524e+01 0.0 
0.0 0.0 -4.011462087761e+01 
-4.551173330381e+01 -7.778070970066e-01 0.0 
-7.778070970066e-01 -8.798963766669e+01 0.0 
0.0 0.0 -3.965041129115e+01 
-5.070735896642e+01 -5.899954312324e-01 0.0 
-5.899954312324e-01 -8.837475318659e+01 0.0 
0.0 0.0 -4.024830900700e+01 
-4.570368869637e+01 -6.434914703010e-01 0.0 
-6.434914703010e-01 -8.825710794485e+01 0.0 
0.0 0.0 -3.978823899237e+01 
-5.193183802079e+01 -4.055583016414e-01 0.0 
-4.055583016414e-01 -8.862957570573e+01 0.0 
0.0 0.0 -4.041336444573e+01 
-4.596107843525e+01 -4.043901990378e-01 0.0 
-4.043901990378e-01 -8.867919919899e+01 0.0 
0.0 0.0 -3.999208329027e+01 
-5.794165598726e+01 5.247847373614e+00 0.0 
5.247847373614e+00 -9.574926692343e+01 0.0 
0.0 0.0 -4.074791634142e+01 
-5.296160985663e+01 -1.318989955507e-01 0.0 
-1.318989955507e-01 -8.898912874130e+01 0.0 
0.0 0.0 -4.052666238013e+01 
-4.678974154744e+01 -7.496223905710e-02 0.0 
-7.496223905710e-02 -8.920878300927e+01 0.0 
0.0 0.0 -4.006129261256e+01 
-5.366756062220e+01 3.355640954219e-01 0.0 
3.355640954219e-01 -8.936027965715e+01 0.0 
0.0 0.0 -4.044787603733e+01 
-4.779602615857e+01 4.287807551537e-01 0.0 
4.287807551537e-01 -8.966756404983e+01 0.0 
0.0 0.0 -4.002537540757e+01 
-4.887027381198e+01 1.100023246587e+00 0.0 
1.100023246587e+00 -9.049590837606e+01 0.0 
0.0 0.0 -4.002132834259e+01 
-5.441777585655e+01 8.646237110492e-01 0.0 
8.646237110492e-01 -8.995562009148e+01 0.0 
0.0 0.0 -4.044809071899e+01 
-5.020334954178e+01 2.000609020427e+00 0.0 
2.000609020427e+00 -9.088361625917e+01 0.0 
0.0 0.0 -3.979281754896e+01 
-5.516064181502e+01 1.776618132232e+00 0.0 
1.776618132232e+00 -9.055481376854e+01 0.0 
0.0 0.0 -4.025506356221e+01 
-5.144543582283e+01 3.082544337862e+00 0.0 
3.082544337862e+00 -9.206467334945e+01 0.0 
0.0 0.0 -3.961084524982e+01 
-5.551181049471e+01 2.469301101386e+00 0.0 
2.469301101386e+00 -9.159835655328e+01 0.0 
0.0 0.0 -4.036951369560e+01 
-5.442702647853e+01 4.847156946484e+00 0.0 
4.847156946484e+00 -8.729650792308e+01 0.0 
0.0 0.0 -3.715069810381e+01 
-4.552365724255e+01 1.454480667413e+00 0.0 
1.454480667413e+00 -8.756485321220e+01 0.0 
0.0 0.0 -3.952655313642e+01 
-4.519274106126e+01 -1.472170873895e+00 0.0 
-1.472170873895e+00 -8.949569395000e+01 0.0 
0.0 0.0 -4.000653050338e+01 
-4.310142328996e+01 1.154860109233e-01 0.0 
1.154860109233e-01 -8.340426388544e+01 0.0 
0.0 0.0 -3.755170615262e+01 
-4.753214054598e+01 -1.832060497914e-01 0.0 
-1.832060497914e-01 -9.349407179013e+01 0.0 
0.0 0.0 -4.190786370083e+01 
-5.291868413027e+01 6.201054768967e+00 0.0 
6.201054768967e+00 -8.726269500232e+01 0.0 
0.0 0.0 -3.655977728174e+01 
-5.278473811311e+01 2.299173928609e-01 0.0 
2.299173928609e-01 -1.057317937446e+02 0.0 
0.0 0.0 -4.715495955732e+01 
-5.367732756423e+01 -2.982554870839e-01 0.0 
-2.982554870839e-01 -1.073798121989e+02 0.0 
0.0 0.0 -4.791714192893e+01 
-5.356114706283e+01 -5.993828314489e-02 0.0 
-5.993828314489e-02 -1.073643397439e+02 0.0 
0.0 0.0 -4.787764604201e+01 
-5.384889340180e+01 -1.332026866290e-01 0.0 
-1.332026866290e-01 -1.074760464412e+02 0.0 
0.0 0.0 -4.799748195289e+01 
-5.365470907625e+01 -1.219134079898e-01 0.0 
-1.219134079898e-01 -1.073961433819e+02 0.0 
0.0 0.0 -4.791525573744e+01 
-5.395234999100e+01 -1.877089775894e-01 0.0 
-1.877089775894e-01 -1.074813991829e+02 0.0 
0.0 0.0 -4.803012475215e+01 
-5.376752403727e+01 -1.557305381496e-01 0.0 
-1.557305381496e-01 -1.074128793600e+02 0.0 
0.0 0.0 -4.795412101917e+01 
-5.413190236964e+01 -2.241803881296e-01 0.0 
-2.241803881296e-01 -1.074847820304e+02 0.0 
0.0 0.0 -4.808500532000e+01 
-5.393843903426e+01 -1.843250377257e-01 0.0 
-1.843250377257e-01 -1.074186834664e+02 0.0 
0.0 0.0 -4.800713675018e+01 
-5.434691709919e+01 -2.545110212543e-01 0.0 
-2.545110212543e-01 -1.074916722095e+02 0.0 
0.0 0.0 -4.815157679261e+01 
-5.414095581252e+01 -1.932138788541e-01 0.0 
-1.932138788541e-01 -1.074337488730e+02 0.0 
0.0 0.0 -4.807241140567e+01 
-5.462465187463e+01 -2.739362681084e-01 0.0 
-2.739362681084e-01 -1.075302567632e+02 0.0 
0.0 0.0 -4.824647259136e+01 
-5.429518918655e+01 -1.767667775325e-01 0.0 
-1.767667775325e-01 -1.074466354791e+02 0.0 
0.0 0.0 -4.812254739970e+01 
-5.493632987412e+01 -2.758521522300e-01 0.0 
-2.758521522300e-01 -1.075719263802e+02 0.0 
0.0 0.0 -4.835247687629e+01 
-5.450669171557e+01 -1.580754223390e-01 0.0 
-1.580754223390e-01 -1.074705442767e+02 0.0 
0.0 0.0 -4.819317079769e+01 
-6.369464487962e+01 4.536469640871e+00 0.0 
4.536469640871e+00 -1.136362524822e+02 0.0 
0.0 0.0 -4.974580057229e+01 
-5.543123991315e+01 -2.937570627940e-01 0.0 
-2.937570627940e-01 -1.076609134371e+02 0.0 
0.0 0.0 -4.852764600506e+01 
-6.534494536320e+01 3.062445091931e+00 0.0 
3.062445091931e+00 -1.123594126167e+02 0.0 
0.0 0.0 -5.011178303363e+01 
-5.473847147604e+01 -1.554709739287e-01 0.0 
-1.554709739287e-01 -1.074841470818e+02 0.0 
0.0 0.0 -4.826678556735e+01 
-5.629452086405e+01 -3.237856614467e-01 0.0 
-3.237856614467e-01 -1.077667357200e+02 0.0 
0.0 0.0 -4.865612737300e+01 
-5.498474836591e+01 -9.858051746753e-02 0.0 
-9.858051746753e-02 -1.076392135149e+02 0.0 
0.0 0.0 -4.838718856425e+01 
-5.736301384322e+01 -2.535627059734e-01 0.0 
-2.535627059734e-01 -1.079076490598e+02 0.0 
0.0 0.0 -4.878440811960e+01 
-5.526414356344e+01 2.487082470950e-02 0.0 
2.487082470950e-02 -1.078464058856e+02 0.0 
0.0 0.0 -4.853316483471e+01 
-5.857192724167e+01 -1.138098430212e-01 0.0 
-1.138098430212e-01 -1.081239295067e+02 0.0 
0.0 0.0 -4.896207670935e+01 
-5.997186374261e+01 3.470036110000e+00 0.0 
3.470036110000e+00 -1.070655952298e+02 0.0 
0.0 0.0 -4.698938126110e+01 
-5.558782433411e+01 2.181110769702e-01 0.0 
2.181110769702e-01 -1.081336983895e+02 0.0 
0.0 0.0 -4.871645681709e+01 
-5.992596723902e+01 1.157779623999e-01 0.0 
1.157779623999e-01 -1.084316849549e+02 0.0 
0.0 0.0 -4.917349844598e+01 
-5.595200568766e+01 4.974555795538e-01 0.0 
4.974555795538e-01 -1.085488388770e+02 0.0 
0.0 0.0 -4.895025336941e+01 
-6.142504686498e+01 4.558161779650e-01 0.0 
4.558161779650e-01 -1.088937843346e+02 0.0 
0.0 0.0 -4.942241859366e+01 
-5.666786772667e+01 8.152177828133e-01 0.0 
8.152177828133e-01 -1.089716500905e+02 0.0 
0.0 0.0 -4.909111173894e+01 
-6.255232335157e+01 7.818552773996e-01 0.0 
7.818552773996e-01 -1.095515892528e+02 0.0 
0.0 0.0 -4.966356970051e+01 
-5.773409636043e+01 1.308682446212e+00 0.0 
1.308682446212e+00 -1.097106780550e+02 0.0 
0.0 0.0 -4.917023308841e+01 
-6.339046745502e+01 1.483657444417e+00 0.0 
1.483657444417e+00 -1.100680512831e+02 0.0 
0.0 0.0 -4.953109664255e+01 
-6.393677645081e+01 2.046795105940e+00 0.0 
2.046795105940e+00 -1.111401536601e+02 0.0 
0.0 0.0 -4.984653238324e+01 
-5.903586389560e+01 1.964078839270e+00 0.0 
1.964078839270e+00 -1.103705233546e+02 0.0 
0.0 0.0 -4.919846914737e+01 
-6.617311739147e+01 4.211467863745e+00 0.0 
4.211467863745e+00 -1.151114070796e+02 0.0 
0.0 0.0 -5.078082009512e+01 
-6.026003594550e+01 2.832043764513e+00 0.0 
2.832043764513e+00 -1.115652733272e+02 0.0 
0.0 0.0 -4.925711578466e+01 
-6.311702168715e+01 3.850232752191e+00 0.0 
3.850232752191e+00 -1.067634796019e+02 0.0 
0.0 0.0 -4.719892418454e+01 
-5.316423878812e+01 1.461454209462e+00 0.0 
1.461454209462e+00 -1.078928748629e+02 0.0 
0.0 0.0 -4.791713409531e+01 
-5.350279969001e+01 -1.466958785504e+00 0.0 
-1.466958785504e+00 -1.059179300486e+02 0.0 
0.0 0.0 -4.742621892158e+01 
-5.559715776586e+01 1.253262148835e-01 0.0 
1.253262148835e-01 -1.120305750540e+02 0.0 
0.0 0.0 -4.988831984595e+01 
-5.115316023933e+01 -1.810879152548e-01 0.0 
-1.810879152548e-01 -1.019431177413e+02 0.0 
0.0 0.0 -4.552888339418e+01 
-6.169359963029e+01 4.936811356601e+00 0.0 
4.936811356601e+00 -1.069601425891e+02 0.0 
0.0 0.0 -4.641552429675e+01 
-6.281324212526e+01 3.271604865414e-01 0.0 
3.271604865414e-01 -1.288377613132e+02 0.0 
0.0 0.0 -5.709530103153e+01 
-6.207764759693e+01 -2.263714830513e-01 0.0 
-2.263714830513e-01 -1.269805589418e+02 0.0 
0.0 0.0 -5.631746196163e+01 
-6.234780854422e+01 7.921320316413e-02 0.0 
7.921320316413e-02 -1.270441429129e+02 0.0 
0.0 0.0 -5.641758543712e+01 
-6.211968183569e+01 -2.267294052971e-02 0.0 
-2.267294052971e-02 -1.267745527869e+02 0.0 
0.0 0.0 -5.626827038678e+01 
-6.243240926342e+01 -3.951213821998e-03 0.0 
-3.951213821998e-03 -1.269018490757e+02 0.0 
0.0 0.0 -5.640027750173e+01 
-6.224701451073e+01 -4.719457416478e-02 0.0 
-4.719457416478e-02 -1.268356163956e+02 0.0 
0.0 0.0 -5.632478927189e+01 
-6.257810464667e+01 4.066690554089e-02 0.0 
4.066690554089e-02 -1.269440394776e+02 0.0 
0.0 0.0 -5.645664323727e+01 
-6.241120762565e+01 -1.959051597619e-02 0.0 
-1.959051597619e-02 -1.268031609611e+02 0.0 
0.0 0.0 -5.636431057601e+01 
-6.288390662993e+01 5.353999961535e-02 0.0 
5.353999961535e-02 -1.269663085310e+02 0.0 
0.0 0.0 -5.655506454828e+01 
-6.264440893877e+01 -6.182888180585e-03 0.0 
-6.182888180585e-03 -1.268524865019e+02 0.0 
0.0 0.0 -5.644906863219e+01 
-6.312325769218e+01 9.691899967191e-02 0.0 
9.691899967191e-02 -1.269926821292e+02 0.0 
0.0 0.0 -5.663478194642e+01 
-6.291694779845e+01 4.196686865303e-02 0.0 
4.196686865303e-02 -1.268789472522e+02 0.0 
0.0 0.0 -5.653876851518e+01 
-6.350911506435e+01 1.521152526492e-01 0.0 
1.521152526492e-01 -1.270458719090e+02 0.0 
0.0 0.0 -5.676649609201e+01 
-7.130735693882e+01 4.177635395510e+00 0.0 
4.177635395510e+00 -1.327200396131e+02 0.0 
0.0 0.0 -5.900619425368e+01 
-6.326900010834e+01 1.242995122146e-01 0.0 
1.242995122146e-01 -1.270148235934e+02 0.0 
0.0 0.0 -5.668514711051e+01 
-6.385654523268e+01 3.371800409622e-01 0.0 
3.371800409622e-01 -1.270928383023e+02 0.0 
0.0 0.0 -5.688481506048e+01 
-6.778459233830e+01 3.167262907891e+00 0.0 
3.167262907891e+00 -1.261692994664e+02 0.0 
0.0 0.0 -5.629082401323e+01 
-6.371444108337e+01 2.913983875349e-01 0.0 
2.913983875349e-01 -1.269883828342e+02 0.0 
0.0 0.0 -5.681084717527e+01 
-6.436327136021e+01 4.217937975021e-01 0.0 
4.217937975021e-01 -1.271265197593e+02 0.0 
0.0 0.0 -5.704693733586e+01 
-7.260048439604e+01 2.943883298601e+00 0.0 
2.943883298601e+00 -1.311307867469e+02 0.0 
0.0 0.0 -5.903353468770e+01 
-6.405784085438e+01 4.176450027467e-01 0.0 
4.176450027467e-01 -1.271429488095e+02 0.0 
0.0 0.0 -5.696023689916e+01 
-6.490856805323e+01 5.456368291908e-01 0.0 
5.456368291908e-01 -1.273334606765e+02 0.0 
0.0 0.0 -5.727260861891e+01 
-6.441062826941e+01 5.817043774713e-01 0.0 
5.817043774713e-01 -1.274381666419e+02 0.0 
0.0 0.0 -5.715463847340e+01 
-6.607791074046e+01 7.637262593127e-01 0.0 
7.637262593127e-01 -1.275557644679e+02 0.0 
0.0 0.0 -5.743762341712e+01 
-6.482527413396e+01 8.360112035001e-01 0.0 
8.360112035001e-01 -1.277447462181e+02 0.0 
0.0 0.0 -5.737100610560e+01 
-7.359762361107e+01 3.792747844345e+00 0.0 
3.792747844345e+00 -1.340249976753e+02 0.0 
0.0 0.0 -6.004302229945e+01 
-6.744725276075e+01 1.031218985071e+00 0.0 
1.031218985071e+00 -1.278737129201e+02 0.0 
0.0 0.0 -5.767947099814e+01 
-6.528218758645e+01 1.150076825631e+00 0.0 
1.150076825631e+00 -1.281907704613e+02 0.0 
0.0 0.0 -5.764188741433e+01 
-6.573446150252e+01 1.551521142625e+00 0.0 
1.551521142625e+00 -1.288432788576e+02 0.0 
0.0 0.0 -5.797332210805e+01 
-6.888227167155e+01 1.365002433692e+00 0.0 
1.365002433692e+00 -1.283089858933e+02 0.0 
0.0 0.0 -5.791910513173e+01 
-6.687697137735e+01 2.017758595025e+00 0.0 
2.017758595025e+00 -1.291796630128e+02 0.0 
0.0 0.0 -5.807811455198e+01 
-7.040459914154e+01 1.907351403986e+00 0.0 
1.907351403986e+00 -1.287934387176e+02 0.0 
0.0 0.0 -5.809587378975e+01 
-6.802383763642e+01 2.628797715997e+00 0.0 
2.628797715997e+00 -1.307172217745e+02 0.0 
0.0 0.0 -5.838393264453e+01 
-7.108998273383e+01 2.038398925594e+00 0.0 
2.038398925594e+00 -1.297761880228e+02 0.0 
0.0 0.0 -5.853007962426e+01 
-7.078219731385e+01 3.534248597936e+00 0.0 
3.534248597936e+00 -1.256544230837e+02 0.0 
0.0 0.0 -5.645712079823e+01 
-6.255882541849e+01 1.428774263433e+00 0.0 
1.428774263433e+00 -1.265578335853e+02 0.0 
0.0 0.0 -5.633499770114e+01 
-6.218565422628e+01 -1.503073899862e+00 0.0 
-1.503073899862e+00 -1.287230966653e+02 0.0 
0.0 0.0 -5.687262526748e+01 
-6.008763802390e+01 1.004996437398e-01 0.0 
1.004996437398e-01 -1.225083623227e+02 0.0 
0.0 0.0 -5.437880010399e+01 
-6.455611798366e+01 -2.353866287518e-01 0.0 
-2.353866287518e-01 -1.325775268108e+02 0.0 
0.0 0.0 -5.874009343835e+01 
-6.952715210510e+01 4.257513816558e+00 0.0 
4.257513816558e+00 -1.260567938989e+02 0.0 
0.0 0.0 -5.598244687944e+01 
-6.989034284284e+01 4.986472575864e-01 0.0 
4.986472575864e-01 -1.453509963209e+02 0.0 
0.0 0.0 -6.417240174911e+01 
-7.072951464943e+01 7.780580766248e-02 0.0 
7.780580766248e-02 -1.465566884058e+02 0.0 
0.0 0.0 -6.478586091656e+01 
-7.071058144596e+01 1.292085610953e-01 0.0 
1.292085610953e-01 -1.465572796836e+02 0.0 
0.0 0.0 -6.478035833886e+01 
-7.062296559134e+01 1.417244078707e-01 0.0 
1.417244078707e-01 -1.465614467061e+02 0.0 
0.0 0.0 -6.475532368922e+01 
-7.090774579884e+01 1.257325158028e-01 0.0 
1.257325158028e-01 -1.466776343250e+02 0.0 
0.0 0.0 -6.487561403716e+01 
-7.086483017674e+01 1.179128065735e-01 0.0 
1.179128065735e-01 -1.467297595309e+02 0.0 
0.0 0.0 -6.487837691230e+01 
-7.112452938099e+01 2.586525155172e-01 0.0 
2.586525155172e-01 -1.468856971910e+02 0.0 
0.0 0.0 -6.500306797159e+01 
-7.121056790627e+01 3.051990940019e-01 0.0 
3.051990940019e-01 -1.466835018739e+02 0.0 
0.0 0.0 -6.496822093405e+01 
-7.135472180452e+01 2.788621657298e-01 0.0 
2.788621657298e-01 -1.467315439384e+02 0.0 
0.0 0.0 -6.502587972287e+01 
-7.139234078880e+01 2.687183334737e-01 0.0 
2.687183334737e-01 -1.467519530356e+02 0.0 
0.0 0.0 -6.504328814731e+01 
-7.166969396922e+01 4.070574199854e-01 0.0 
4.070574199854e-01 -1.469343667757e+02 0.0 
0.0 0.0 -6.518121822346e+01 
-7.168052863385e+01 4.558867160022e-01 0.0 
4.558867160022e-01 -1.467795453444e+02 0.0 
0.0 0.0 -6.513802219346e+01 
-7.801549022001e+01 4.293520789470e+00 0.0 
4.293520789470e+00 -1.517810941012e+02 0.0 
0.0 0.0 -6.783519614676e+01 
-7.205117697893e+01 5.427101623214e-01 0.0 
5.427101623214e-01 -1.469773497097e+02 0.0 
0.0 0.0 -6.530855800659e+01 
-7.847238484279e+01 2.965318783702e+00 0.0 
2.965318783702e+00 -1.499284647009e+02 0.0 
0.0 0.0 -6.730252260084e+01 
-7.243278094625e+01 5.081126373480e-01 0.0 
5.081126373480e-01 -1.469986783420e+02 0.0 
0.0 0.0 -6.542943778647e+01 
-7.245733265301e+01 7.307043617445e-01 0.0 
7.307043617445e-01 -1.471613422830e+02 0.0 
0.0 0.0 -6.548560248081e+01 
-7.235825434561e+01 8.401830728393e-01 0.0 
8.401830728393e-01 -1.468764341176e+02 0.0 
0.0 0.0 -6.537040653897e+01 
-7.295251620555e+01 9.325460998101e-01 0.0 
9.325460998101e-01 -1.471680910651e+02 0.0 
0.0 0.0 -6.563618218120e+01 
-7.290306650505e+01 9.710596049297e-01 0.0 
9.710596049297e-01 -1.470737084799e+02 0.0 
0.0 0.0 -6.559303249547e+01 
-7.358104857145e+01 1.262911646926e+00 0.0 
1.262911646926e+00 -1.475692485523e+02 0.0 
0.0 0.0 -6.594508913713e+01 
-7.361330660106e+01 1.319908551189e+00 0.0 
1.319908551189e+00 -1.474310452902e+02 0.0 
0.0 0.0 -6.591330556739e+01 
-7.465799915819e+01 3.237418979102e+00 0.0 
3.237418979102e+00 -1.453453931237e+02 0.0 
0.0 0.0 -6.520939247290e+01 
-7.395232735309e+01 1.677791707417e+00 0.0 
1.677791707417e+00 -1.478923649174e+02 0.0 
0.0 0.0 -6.615340768116e+01 
-7.426816926143e+01 1.738640673186e+00 0.0 
1.738640673186e+00 -1.477590767886e+02 0.0 
0.0 0.0 -6.620817381500e+01 
-7.440715397695e+01 2.044438604280e+00 0.0 
2.044438604280e+00 -1.481294701981e+02 0.0 
0.0 0.0 -6.636098725252e+01 
-7.534427154706e+01 2.028688653927e+00 0.0 
2.028688653927e+00 -1.482312359203e+02 0.0 
0.0 0.0 -6.653522171644e+01 
-7.682350062673e+01 2.410498606029e+00 0.0 
2.410498606029e+00 -1.489241132281e+02 0.0 
0.0 0.0 -6.687418923055e+01 
-7.482706410954e+01 2.416809927914e+00 0.0 
2.416809927914e+00 -1.486872033596e+02 0.0 
0.0 0.0 -6.665428024075e+01 
-7.511809365313e+01 2.895530734650e+00 0.0 
2.895530734650e+00 -1.495856059161e+02 0.0 
0.0 0.0 -6.701110987077e+01 
-8.010049664560e+01 3.738987068838e+00 0.0 
3.738987068838e+00 -1.531581440384e+02 0.0 
0.0 0.0 -6.896283359915e+01 
-7.750079859343e+01 3.495573893654e+00 0.0 
3.495573893654e+00 -1.446817709192e+02 0.0 
0.0 0.0 -6.533408215663e+01 
-7.000797141776e+01 1.315164877134e+00 0.0 
1.315164877134e+00 -1.466363880511e+02 0.0 
0.0 0.0 -6.459330784065e+01 
-7.023039319663e+01 -1.551224294775e+00 0.0 
-1.551224294775e+00 -1.453241699666e+02 0.0 
0.0 0.0 -6.426636894895e+01 
-7.216908500929e+01 -5.470036943529e-02 0.0 
-5.470036943529e-02 -1.511463049756e+02 0.0 
0.0 0.0 -6.659461699546e+01 
-6.816480689650e+01 -2.385129923813e-01 0.0 
-2.385129923813e-01 -1.409978009408e+02 0.0 
0.0 0.0 -6.234878235119e+01 
-7.634802169842e+01 4.146834552459e+00 0.0 
4.146834552459e+00 -1.451204220290e+02 0.0 
0.0 0.0 -6.503544299991e+01 

TENSORS element_materi_strain_total float
-7.778611276157e-04 2.078016654444e-03 0.0 
2.078016654444e-03 3.249494262642e-03 0.0 
0.0 0.0 0.0 
-9.231663167222e-04 2.215333984784e-03 0.0 
2.215333984784e-03 3.359320026284e-03 0.0 
0.0 0.0 0.0 
-2.273945858221e-04 2.339495003950e-03 0.0 
2.339495003950e-03 7.832197562613e-03 0.0 
0.0 0.0 0.0 
-3.870561504021e-04 2.721945605232e-04 0.0 
2.721945605232e-04 9.603043405702e-03 0.0 
0.0 0.0 0.0 
-1.356566253378e-03 3.571980902982e-04 0.0 
3.571980902982e-04 7.266018639884e-03 0.0 
0.0 0.0 0.0 
1.425934395578e-03 3.536645119716e-03 0.0 
3.536645119716e-03 -3.415960259062e-03 0.0 
0.0 0.0 0.0 
-1.267044075915e-03 2.558540186852e-04 0.0 
2.558540186852e-04 7.302739580755e-03 0.0 
0.0 0.0 0.0 
-7.623676124648e-04 2.467584084492e-03 0.0 
2.467584084492e-03 2.918262688372e-03 0.0 
0.0 0.0 0.0 
-1.368040432486e-03 2.164957576234e-04 0.0 
2.164957576234e-04 7.307225783961e-03 0.0 
0.0 0.0 0.0 
-3.677466225304e-04 5.046679540067e-04 0.0 
5.046679540067e-04 9.547155829832e-03 0.0 
0.0 0.0 0.0 
-1.361378455202e-03 -3.378606739031e-04 0.0 
-3.378606739031e-04 4.374183680806e-03 0.0 
0.0 0.0 0.0 
-7.553856330214e-04 2.076902331720e-03 0.0 
2.076902331720e-03 3.115171702134e-03 0.0 
0.0 0.0 0.0 
-4.298435254390e-04 -2.470196948044e-04 0.0 
-2.470196948044e-04 5.728710904435e-03 0.0 
0.0 0.0 0.0 
-1.459203713248e-03 7.830000032315e-04 0.0 
7.830000032315e-04 7.384254801993e-03 0.0 
0.0 0.0 0.0 
-2.457314902566e-04 -3.780806203691e-04 0.0 
-3.780806203691e-04 5.735330483136e-03 0.0 
0.0 0.0 0.0 
-2.311101964817e-04 4.131560169896e-04 0.0 
4.131560169896e-04 9.683042361860e-03 0.0 
0.0 0.0 0.0 
-1.512373436116e-03 4.687271266137e-04 0.0 
4.687271266137e-04 7.122177474968e-03 0.0 
0.0 0.0 0.0 
1.467140437413e-03 1.691978841291e-03 0.0 
1.691978841291e-03 -3.874111125366e-03 0.0 
0.0 0.0 0.0 
1.820755604487e-04 -1.304882335974e-04 0.0 
-1.304882335974e-04 1.362409667657e-03 0.0 
0.0 0.0 0.0 
-3.312974649006e-04 -2.558369854511e-04 0.0 
-2.558369854511e-04 1.615814280564e-03 0.0 
0.0 0.0 0.0 
-4.412869776237e-04 4.774917929305e-04 0.0 
4.774917929305e-04 9.552249730685e-03 0.0 
0.0 0.0 0.0 
-1.047427375578e-03 1.796808992794e-03 0.0 
1.796808992794e-03 3.915203543432e-03 0.0 
0.0 0.0 0.0 
-1.161933009911e-03 1.994573244818e-03 0.0 
1.994573244818e-03 3.932896857367e-03 0.0 
0.0 0.0 0.0 
1.063335044070e-03 1.036438946798e-04 0.0 
1.036438946798e-04 2.617848038768e-03 0.0 
0.0 0.0 0.0 
-1.393832547900e-03 1.121639054492e-03 0.0 
1.121639054492e-03 7.465557814161e-03 0.0 
0.0 0.0 0.0 
-1.329093719801e-03 -3.907418127408e-04 0.0 
-3.907418127408e-04 4.401589309256e-03 0.0 
0.0 0.0 0.0 
-1.754779416822e-03 9.284213355578e-04 0.0 
9.284213355578e-04 6.506443103563e-03 0.0 
0.0 0.0 0.0 
3.675679803519e-04 2.633093214098e-03 0.0 
2.633093214098e-03 5.199668850497e-03 0.0 
0.0 0.0 0.0 
-1.528347041301e-03 1.166459152434e-03 0.0 
1.166459152434e-03 7.461952244999e-03 0.0 
0.0 0.0 0.0 
8.544978317782e-04 3.755557384819e-05 0.0 
3.755557384819e-05 3.055027671226e-03 0.0 
0.0 0.0 0.0 
1.581442828386e-03 -3.159518604816e-03 0.0 
-3.159518604816e-03 -2.692131730340e-03 0.0 
0.0 0.0 0.0 
1.674060367804e-04 -4.139029274862e-04 0.0 
-4.139029274862e-04 3.202695720221e-04 0.0 
0.0 0.0 0.0 
-3.992052284431e-04 2.411463173709e-03 0.0 
2.411463173709e-03 7.950894968974e-03 0.0 
0.0 0.0 0.0 
-9.572466895875e-04 -1.369767972106e-04 0.0 
-1.369767972106e-04 5.127922945927e-03 0.0 
0.0 0.0 0.0 
2.210955638338e-04 -7.810449987707e-04 0.0 
-7.810449987707e-04 4.194571743568e-03 0.0 
0.0 0.0 0.0 
-1.296496081206e-04 -7.269526334541e-04 0.0 
-7.269526334541e-04 5.384488152336e-03 0.0 
0.0 0.0 0.0 
-4.721007427033e-05 -8.106046456585e-04 0.0 
-8.106046456585e-04 5.379251129126e-03 0.0 
0.0 0.0 0.0 
7.936804992308e-04 1.414870785091e-03 0.0 
1.414870785091e-03 3.390232340849e-03 0.0 
0.0 0.0 0.0 
-1.303437622317e-03 6.487133839665e-05 0.0 
6.487133839665e-05 6.929150083455e-03 0.0 
0.0 0.0 0.0 
-1.238157503729e-03 1.466334609067e-04 0.0 
1.466334609067e-04 6.942109540502e-03 0.0 
0.0 0.0 0.0 
-1.442687566414e-03 1.754821427629e-03 0.0 
1.754821427629e-03 4.724286183236e-03 0.0 
0.0 0.0 0.0 
2.738889664569e-04 -5.076855877589e-04 0.0 
-5.076855877589e-04 3.925279280172e-03 0.0 
0.0 0.0 0.0 
-5.519894600118e-04 2.403906027533e-03 0.0 
2.403906027533e-03 2.494527651841e-03 0.0 
0.0 0.0 0.0 
-1.723936733929e-03 9.302436572848e-04 0.0 
9.302436572848e-04 6.493591024941e-03 0.0 
0.0 0.0 0.0 
-5.282415431022e-04 9.457691102496e-05 0.0 
9.457691102496e-05 9.468036339976e-03 0.0 
0.0 0.0 0.0 
-7.985632199675e-04 2.761772974025e-03 0.0 
2.761772974025e-03 2.527637615947e-03 0.0 
0.0 0.0 0.0 
1.570617800553e-03 -3.262566360116e-03 0.0 
-3.262566360116e-03 -3.362840879364e-03 0.0 
0.0 0.0 0.0 
-3.607722892023e-04 1.729845991586e-04 0.0 
1.729845991586e-04 9.478556559495e-03 0.0 
0.0 0.0 0.0 
-2.914112424532e-04 -2.665487935042e-03 0.0 
-2.665487935042e-03 -1.249618324162e-03 0.0 
0.0 0.0 0.0 
-1.589081240216e-03 6.574762272571e-04 0.0 
6.574762272571e-04 7.309777080316e-03 0.0 
0.0 0.0 0.0 
-1.298037822314e-03 1.889805008325e-03 0.0 
1.889805008325e-03 4.304198949814e-03 0.0 
0.0 0.0 0.0 
-3.647999581877e-04 -1.430360474161e-04 0.0 
-1.430360474161e-04 1.962071370077e-03 0.0 
0.0 0.0 0.0 
2.981742308562e-03 -2.711170258912e-03 0.0 
-2.711170258912e-03 -3.623060304093e-03 0.0 
0.0 0.0 0.0 
-1.292424375971e-03 1.579727884507e-03 0.0 
1.579727884507e-03 4.520600596958e-03 0.0 
0.0 0.0 0.0 
-2.803748844147e-04 1.922680871106e-03 0.0 
1.922680871106e-03 8.619165189796e-03 0.0 
0.0 0.0 0.0 
-1.065593821239e-03 -4.834396814183e-04 0.0 
-4.834396814183e-04 2.615096933050e-03 0.0 
0.0 0.0 0.0 
-7.824465233525e-04 -2.870346868730e-04 0.0 
-2.870346868730e-04 2.140852441537e-03 0.0 
0.0 0.0 0.0 
-9.450238217360e-04 -1.897185477623e-04 0.0 
-1.897185477623e-04 5.126468756140e-03 0.0 
0.0 0.0 0.0 
5.775409982420e-04 -4.012287677534e-04 0.0 
-4.012287677534e-04 7.890888862077e-04 0.0 
0.0 0.0 0.0 
-2.685077090456e-04 3.838757280780e-04 0.0 
3.838757280780e-04 9.683461112824e-03 0.0 
0.0 0.0 0.0 
-9.989207203158e-04 -2.124599607892e-03 0.0 
-2.124599607892e-03 -3.211284040569e-03 0.0 
0.0 0.0 0.0 
8.303849458016e-04 2.223203115620e-03 0.0 
2.223203115620e-03 3.724901502658e-03 0.0 
0.0 0.0 0.0 
-3.281379755571e-05 2.921299137161e-03 0.0 
2.921299137161e-03 2.231113857451e-03 0.0 
0.0 0.0 0.0 
2.947261076191e-03 -2.803821049597e-03 0.0 
-2.803821049597e-03 -3.106378280017e-03 0.0 
0.0 0.0 0.0 
-3.659887901003e-04 -5.034062122597e-04 0.0 
-5.034062122597e-04 5.538700438466e-03 0.0 
0.0 0.0 0.0 
-1.185989163178e-03 1.674148203568e-03 0.0 
1.674148203568e-03 4.215889547656e-03 0.0 
0.0 0.0 0.0 
5.534277366535e-04 -7.037903206811e-04 0.0 
-7.037903206811e-04 -4.937790778212e-03 0.0 
0.0 0.0 0.0 
-3.889452060694e-04 2.496280001603e-03 0.0 
2.496280001603e-03 7.718698338330e-03 0.0 
0.0 0.0 0.0 
-1.462159275912e-04 -2.129290184380e-03 0.0 
-2.129290184380e-03 5.468275264591e-04 0.0 
0.0 0.0 0.0 
-3.158948669857e-05 2.642174334723e-03 0.0 
2.642174334723e-03 6.546871616677e-03 0.0 
0.0 0.0 0.0 
-1.176925260651e-03 -5.540758986451e-04 0.0 
-5.540758986451e-04 4.417105018543e-03 0.0 
0.0 0.0 0.0 
0.0 1.356780685400e-03 0.0 
1.356780685400e-03 9.432537177226e-03 0.0 
0.0 0.0 0.0 
3.463849226919e-04 2.468629646337e-03 0.0 
2.468629646337e-03 4.806916913050e-03 0.0 
0.0 0.0 0.0 
1.521764703091e-03 -9.914738798993e-05 0.0 
-9.914738798993e-05 -1.641474427441e-04 0.0 
0.0 0.0 0.0 
-1.282964386127e-03 -5.460427577144e-04 0.0 
-5.460427577144e-04 2.814751008378e-03 0.0 
0.0 0.0 0.0 
-4.493274478581e-04 1.025163473962e-03 0.0 
1.025163473962e-03 9.382913043626e-03 0.0 
0.0 0.0 0.0 
-4.800405237937e-04 2.071691668046e-03 0.0 
2.071691668046e-03 8.508798405505e-03 0.0 
0.0 0.0 0.0 
-7.600512503492e-04 3.290746558633e-03 0.0 
3.290746558633e-03 1.798223093691e-03 0.0 
0.0 0.0 0.0 
6.915720973599e-05 -3.702160716218e-04 0.0 
-3.702160716218e-04 1.012594234158e-03 0.0 
0.0 0.0 0.0 
-5.348224152804e-04 2.940832555129e-03 0.0 
2.940832555129e-03 1.783293379694e-03 0.0 
0.0 0.0 0.0 
-2.131725076886e-04 -2.409941891744e-03 0.0 
-2.409941891744e-03 5.904447467477e-04 0.0 
0.0 0.0 0.0 
-1.444965570728e-03 4.112935803813e-04 0.0 
4.112935803813e-04 7.164698811276e-03 0.0 
0.0 0.0 0.0 
-1.042557795036e-03 2.129793733156e-03 0.0 
2.129793733156e-03 3.591727247368e-03 0.0 
0.0 0.0 0.0 
-9.375046314672e-04 1.822420298186e-03 0.0 
1.822420298186e-03 3.595992969177e-03 0.0 
0.0 0.0 0.0 
-1.400316862515e-03 3.185366270905e-04 0.0 
3.185366270905e-04 7.488644611823e-03 0.0 
0.0 0.0 0.0 
-1.280541256510e-03 3.424251453211e-04 0.0 
3.424251453211e-04 7.488398569452e-03 0.0 
0.0 0.0 0.0 
-1.174725259352e-03 -3.377817841602e-04 0.0 
-3.377817841602e-04 4.665206472401e-03 0.0 
0.0 0.0 0.0 
-1.058769880088e-03 -3.063118488334e-05 0.0 
-3.063118488334e-05 5.045859304639e-03 0.0 
0.0 0.0 0.0 
-7.720689024133e-04 2.267730672033e-03 0.0 
2.267730672033e-03 6.846772417996e-03 0.0 
0.0 0.0 0.0 
-1.453398345039e-03 3.270858340950e-04 0.0 
3.270858340950e-04 7.260517107735e-03 0.0 
0.0 0.0 0.0 
-3.395285797517e-04 -5.207664229486e-04 0.0 
-5.207664229486e-04 5.854635127684e-04 0.0 
0.0 0.0 0.0 
-1.664653981420e-03 1.022958828289e-03 0.0 
1.022958828289e-03 6.848283695826e-03 0.0 
0.0 0.0 0.0 
-8.213268862857e-04 1.237004316353e-04 0.0 
1.237004316353e-04 8.749307543980e-03 0.0 
0.0 0.0 0.0 
-9.162592612174e-04 2.022291405306e-04 0.0 
2.022291405306e-04 8.691485383789e-03 0.0 
0.0 0.0 0.0 
-2.789221447094e-04 1.482135018982e-03 0.0 
1.482135018982e-03 9.380649567619e-03 0.0 
0.0 0.0 0.0 
4.722525514462e-04 1.569553462650e-03 0.0 
1.569553462650e-03 3.983159891353e-03 0.0 
0.0 0.0 0.0 
-1.535731182837e-03 4.783111814219e-04 0.0 
4.783111814219e-04 7.135732056240e-03 0.0 
0.0 0.0 0.0 
3.955395525159e-04 -6.566657368591e-04 0.0 
-6.566657368591e-04 4.064263263775e-03 0.0 
0.0 0.0 0.0 
-1.087901035057e-03 2.583533354665e-05 0.0 
2.583533354665e-05 7.899286054892e-03 0.0 
0.0 0.0 0.0 
-4.278000656746e-04 2.866228174062e-03 0.0 
2.866228174062e-03 2.792357505214e-03 0.0 
0.0 0.0 0.0 
-1.429001710456e-03 2.490000798916e-04 0.0 
2.490000798916e-04 7.104618717113e-03 0.0 
0.0 0.0 0.0 
-2.767182947265e-04 -3.710510006380e-04 0.0 
-3.710510006380e-04 5.734921259247e-03 0.0 
0.0 0.0 0.0 
1.773549517939e-03 2.057575855022e-03 0.0 
2.057575855022e-03 1.816089880875e-03 0.0 
0.0 0.0 0.0 
8.412622246912e-04 2.096245996581e-03 0.0 
2.096245996581e-03 3.745024606631e-03 0.0 
0.0 0.0 0.0 
6.739911062614e-04 3.399307481001e-03 0.0 
3.399307481001e-03 1.105748925473e-03 0.0 
0.0 0.0 0.0 
-3.302579470863e-04 -3.897962929867e-03 0.0 
-3.897962929867e-03 -1.484601222998e-03 0.0 
0.0 0.0 0.0 
-6.554968127698e-04 -2.647727747330e-04 0.0 
-2.647727747330e-04 5.456240427227e-03 0.0 
0.0 0.0 0.0 
-7.947729258085e-04 2.224542369703e-04 0.0 
2.224542369703e-04 8.990650596270e-03 0.0 
0.0 0.0 0.0 
-1.101888556658e-03 -3.495132255061e-03 0.0 
-3.495132255061e-03 -1.968013698114e-03 0.0 
0.0 0.0 0.0 
-1.275656541089e-04 -6.576783831666e-04 0.0 
-6.576783831666e-04 5.350721197605e-03 0.0 
0.0 0.0 0.0 
-7.005949230894e-04 2.290292386056e-03 0.0 
2.290292386056e-03 6.412036705894e-03 0.0 
0.0 0.0 0.0 
1.955556909465e-03 1.087316611247e-04 0.0 
1.087316611247e-04 -4.860423046407e-04 0.0 
0.0 0.0 0.0 
1.573138736657e-03 3.226997114443e-03 0.0 
3.226997114443e-03 3.295627808697e-05 0.0 
0.0 0.0 0.0 
-1.757669974128e-03 1.360325146452e-03 0.0 
1.360325146452e-03 6.095168286122e-03 0.0 
0.0 0.0 0.0 
-1.394775813636e-03 -8.401021837371e-04 0.0 
-8.401021837371e-04 3.087219417821e-03 0.0 
0.0 0.0 0.0 
-2.689449157405e-04 2.729405580208e-03 0.0 
2.729405580208e-03 2.398327740807e-03 0.0 
0.0 0.0 0.0 
2.225616024809e-05 3.076365730549e-03 0.0 
3.076365730549e-03 2.219417340358e-03 0.0 
0.0 0.0 0.0 
7.072570168831e-05 -7.329423884386e-04 0.0 
-7.329423884386e-04 4.588266011065e-03 0.0 
0.0 0.0 0.0 
-1.119002386390e-03 9.228963808545e-05 0.0 
9.228963808545e-05 7.777792046841e-03 0.0 
0.0 0.0 0.0 
2.163822130550e-04 3.072841307572e-03 0.0 
3.072841307572e-03 1.690171198011e-03 0.0 
0.0 0.0 0.0 
-1.678625177850e-04 -1.455296384428e-03 0.0 
-1.455296384428e-03 8.937829453579e-04 0.0 
0.0 0.0 0.0 
-1.696904841082e-03 1.146812796076e-03 0.0 
1.146812796076e-03 6.666860490330e-03 0.0 
0.0 0.0 0.0 
-6.678591900848e-04 1.525031910790e-04 0.0 
1.525031910790e-04 9.018552034925e-03 0.0 
0.0 0.0 0.0 
3.063356254214e-04 3.187504124576e-03 0.0 
3.187504124576e-03 1.684610971134e-03 0.0 
0.0 0.0 0.0 
-7.642216894386e-04 3.620549278205e-03 0.0 
3.620549278205e-03 3.219796960949e-04 0.0 
0.0 0.0 0.0 
-1.643296288088e-03 1.529544765585e-03 0.0 
1.529544765585e-03 5.407775104052e-03 0.0 
0.0 0.0 0.0 
-1.362822916013e-03 -8.352474196083e-04 0.0 
-8.352474196083e-04 3.062250821647e-03 0.0 
0.0 0.0 0.0 
-1.485696024769e-03 1.392797700210e-03 0.0 
1.392797700210e-03 5.168885080018e-03 0.0 
0.0 0.0 0.0 
-2.439000920125e-04 1.187925242814e-03 0.0 
1.187925242814e-03 9.390063634616e-03 0.0 
0.0 0.0 0.0 
5.338012522933e-04 4.195081221002e-03 0.0 
4.195081221002e-03 -1.016577413481e-03 0.0 
0.0 0.0 0.0 
-1.226369649775e-03 -5.003296776118e-04 0.0 
-5.003296776118e-04 4.448923807657e-03 0.0 
0.0 0.0 0.0 
-3.522859783213e-04 3.023486696060e-04 0.0 
3.023486696060e-04 9.603932917468e-03 0.0 
0.0 0.0 0.0 
-7.412566910929e-04 2.495218800936e-03 0.0 
2.495218800936e-03 3.728866290823e-03 0.0 
0.0 0.0 0.0 
-1.559283025517e-03 1.629305091112e-03 0.0 
1.629305091112e-03 5.072092617922e-03 0.0 
0.0 0.0 0.0 
2.733787986777e-04 -6.929102103710e-04 0.0 
-6.929102103710e-04 4.196337656172e-03 0.0 
0.0 0.0 0.0 
-4.228861465476e-04 -2.625331667095e-04 0.0 
-2.625331667095e-04 5.731608084982e-03 0.0 
0.0 0.0 0.0 
-1.105392246354e-03 -4.208901051235e-04 0.0 
-4.208901051235e-04 4.662943178144e-03 0.0 
0.0 0.0 0.0 
-8.996277236620e-04 2.558992571549e-03 0.0 
2.558992571549e-03 4.208472192448e-03 0.0 
0.0 0.0 0.0 
7.161867716088e-04 -1.110041602411e-04 0.0 
-1.110041602411e-04 3.568099487364e-03 0.0 
0.0 0.0 0.0 
-1.016102605920e-03 2.186923355861e-03 0.0 
2.186923355861e-03 4.144902872444e-03 0.0 
0.0 0.0 0.0 
-2.431676085339e-04 8.068851713178e-04 0.0 
8.068851713178e-04 9.524721131628e-03 0.0 
0.0 0.0 0.0 
-8.261326154779e-05 2.781334288331e-03 0.0 
2.781334288331e-03 6.704437885335e-03 0.0 
0.0 0.0 0.0 
-1.566350283812e-03 7.942902153884e-04 0.0 
7.942902153884e-04 7.387559662439e-03 0.0 
0.0 0.0 0.0 
-1.019812881767e-03 2.908969287881e-04 0.0 
2.908969287881e-04 8.324914712739e-03 0.0 
0.0 0.0 0.0 
-1.013706948238e-03 2.424844069040e-03 0.0 
2.424844069040e-03 4.134903051928e-03 0.0 
0.0 0.0 0.0 
-1.396280739145e-03 1.471472624285e-03 0.0 
1.471472624285e-03 4.808901464685e-03 0.0 
0.0 0.0 0.0 
-6.244687520650e-04 2.626518299348e-03 0.0 
2.626518299348e-03 3.796708036581e-03 0.0 
0.0 0.0 0.0 
1.020256931723e-03 3.384543869156e-03 0.0 
3.384543869156e-03 8.959747139352e-04 0.0 
0.0 0.0 0.0 
-1.331303918346e-03 1.586613293839e-04 0.0 
1.586613293839e-04 7.169085036991e-03 0.0 
0.0 0.0 0.0 
1.987526032604e-03 3.256258476118e-03 0.0 
3.256258476118e-03 2.781203771063e-05 0.0 
0.0 0.0 0.0 
4.356656867022e-05 -3.736962131859e-04 0.0 
-3.736962131859e-04 3.874570587572e-04 0.0 
0.0 0.0 0.0 
-1.177511475447e-03 5.150507308719e-05 0.0 
5.150507308719e-05 7.473574362733e-03 0.0 
0.0 0.0 0.0 
1.895120834645e-04 -1.544534804402e-04 0.0 
-1.544534804402e-04 1.069249272478e-03 0.0 
0.0 0.0 0.0 
-1.703078589091e-03 1.446418995702e-03 0.0 
1.446418995702e-03 5.745672765801e-03 0.0 
0.0 0.0 0.0 
3.901490333666e-04 -1.737700679184e-04 0.0 
-1.737700679184e-04 3.598383756488e-03 0.0 
0.0 0.0 0.0 
4.687020276348e-04 3.238925072543e-03 0.0 
3.238925072543e-03 1.117880118506e-03 0.0 
0.0 0.0 0.0 
-1.109731713482e-03 -2.189445486761e-04 0.0 
-2.189445486761e-04 4.881855587163e-03 0.0 
0.0 0.0 0.0 
-8.428474441140e-04 2.540244629691e-03 0.0 
2.540244629691e-03 2.809764350907e-03 0.0 
0.0 0.0 0.0 
1.614088050842e-03 2.243185789863e-03 0.0 
2.243185789863e-03 1.799634744661e-03 0.0 
0.0 0.0 0.0 
-1.207878067518e-03 8.742160985718e-05 0.0 
8.742160985718e-05 7.214199473236e-03 0.0 
0.0 0.0 0.0 
2.125785175119e-03 3.320529757215e-03 0.0 
3.320529757215e-03 -6.934605412336e-04 0.0 
0.0 0.0 0.0 
-8.532106946854e-04 -2.850514152260e-04 0.0 
-2.850514152260e-04 5.183888193201e-03 0.0 
0.0 0.0 0.0 
-4.950028513652e-04 -1.639371017765e-03 0.0 
-1.639371017765e-03 9.314832973963e-04 0.0 
0.0 0.0 0.0 
-6.359568208364e-04 -2.697921491885e-04 0.0 
-2.697921491885e-04 5.456716294800e-03 0.0 
0.0 0.0 0.0 
-1.453350173502e-03 1.743668668230e-03 0.0 
1.743668668230e-03 5.829606918229e-03 0.0 
0.0 0.0 0.0 
-3.088919424405e-04 -6.593005370207e-04 0.0 
-6.593005370207e-04 5.425755005721e-03 0.0 
0.0 0.0 0.0 
-1.175760728832e-03 3.847491583005e-05 0.0 
3.847491583005e-05 7.190183947993e-03 0.0 
0.0 0.0 0.0 
1.115441619833e-03 3.381421509075e-03 0.0 
3.381421509075e-03 2.534296853480e-04 0.0 
0.0 0.0 0.0 
-1.616326787787e-03 1.257156873162e-03 0.0 
1.257156873162e-03 5.815612948131e-03 0.0 
0.0 0.0 0.0 
-1.443609551275e-03 -2.468013220620e-04 0.0 
-2.468013220620e-04 4.324210945394e-03 0.0 
0.0 0.0 0.0 
-6.648579147901e-04 2.258022487398e-03 0.0 
2.258022487398e-03 2.727407824524e-03 0.0 
0.0 0.0 0.0 
2.551545451563e-03 3.147885815044e-03 0.0 
3.147885815044e-03 -6.720135435370e-04 0.0 
0.0 0.0 0.0 
-9.974993002786e-04 2.157824395699e-04 0.0 
2.157824395699e-04 8.513463191421e-03 0.0 
0.0 0.0 0.0 
-1.230551169136e-03 1.215460925255e-04 0.0 
1.215460925255e-04 7.180945241667e-03 0.0 
0.0 0.0 0.0 
1.381208227512e-03 3.316676145452e-03 0.0 
3.316676145452e-03 8.705473040460e-05 0.0 
0.0 0.0 0.0 
-1.566660817018e-03 1.315789959633e-03 0.0 
1.315789959633e-03 5.488865912525e-03 0.0 
0.0 0.0 0.0 
-1.461769752950e-04 2.591566252300e-03 0.0 
2.591566252300e-03 5.763497925023e-03 0.0 
0.0 0.0 0.0 
-1.397392008403e-03 -9.320963728294e-04 0.0 
-9.320963728294e-04 3.180064195992e-03 0.0 
0.0 0.0 0.0 
2.571644802292e-04 2.447457113724e-03 0.0 
2.447457113724e-03 5.005467364999e-03 0.0 
0.0 0.0 0.0 
-1.853273394981e-05 2.792743377558e-03 0.0 
2.792743377558e-03 6.380245625873e-03 0.0 
0.0 0.0 0.0 
-6.314758613283e-04 2.689206881731e-03 0.0 
2.689206881731e-03 2.918449823184e-03 0.0 
0.0 0.0 0.0 
-1.512209600301e-03 -7.619265571694e-04 0.0 
-7.619265571694e-04 3.440043819876e-03 0.0 
0.0 0.0 0.0 
1.547248283097e-03 4.774841075102e-04 0.0 
4.774841075102e-04 1.893488111001e-03 0.0 
0.0 0.0 0.0 
-1.258044441143e-03 2.106816595583e-03 0.0 
2.106816595583e-03 4.477517940555e-03 0.0 
0.0 0.0 0.0 
-4.996079588601e-04 2.458232096722e-03 0.0 
2.458232096722e-03 2.643569738192e-03 0.0 
0.0 0.0 0.0 
-1.572811291624e-03 1.475988484422e-03 0.0 
1.475988484422e-03 5.990047161962e-03 0.0 
0.0 0.0 0.0 
1.265355192794e-03 3.324699232434e-03 0.0 
3.324699232434e-03 8.101112078580e-04 0.0 
0.0 0.0 0.0 
-2.343329443873e-04 6.050349268862e-04 0.0 
6.050349268862e-04 9.586568790423e-03 0.0 
0.0 0.0 0.0 
-8.661503430640e-04 2.049103747860e-03 0.0 
2.049103747860e-03 7.041811276962e-03 0.0 
0.0 0.0 0.0 
-7.670083175969e-04 -1.521535006200e-04 0.0 
-1.521535006200e-04 5.387508743907e-03 0.0 
0.0 0.0 0.0 
-7.886051363788e-04 3.045927981433e-03 0.0 
3.045927981433e-03 2.203631652000e-03 0.0 
0.0 0.0 0.0 
3.075386499992e-03 2.933586609162e-03 0.0 
2.933586609162e-03 -1.359546341663e-03 0.0 
0.0 0.0 0.0 
-7.021661779978e-04 2.210138003398e-03 0.0 
2.210138003398e-03 6.860387826345e-03 0.0 
0.0 0.0 0.0 
-3.119277553024e-03 2.377071825151e-03 0.0 
2.377071825151e-03 -2.284477208159e-03 0.0 
0.0 0.0 0.0 
-1.230031344175e-03 1.854165259222e-03 0.0 
1.854165259222e-03 4.482335337037e-03 0.0 
0.0 0.0 0.0 
1.751732458991e-03 -1.983716984809e-04 0.0 
-1.983716984809e-04 1.179124871207e-03 0.0 
0.0 0.0 0.0 
8.425055044674e-04 -4.505271261798e-04 0.0 
-4.505271261798e-04 4.087986176833e-04 0.0 
0.0 0.0 0.0 
-3.715879854471e-04 2.178957735826e-03 0.0 
2.178957735826e-03 8.215523068903e-03 0.0 
0.0 0.0 0.0 
-1.246889006624e-03 1.509118269589e-03 0.0 
1.509118269589e-03 7.406906967669e-03 0.0 
0.0 0.0 0.0 
9.202963747190e-04 -2.419728650328e-03 0.0 
-2.419728650328e-03 2.968513002366e-04 0.0 
0.0 0.0 0.0 
1.906187714697e-03 4.957707237858e-05 0.0 
4.957707237858e-05 1.162087219203e-03 0.0 
0.0 0.0 0.0 
-1.677436040856e-03 1.188722730024e-03 0.0 
1.188722730024e-03 6.987751500773e-03 0.0 
0.0 0.0 0.0 
-1.578341546738e-03 1.006467951391e-03 0.0 
1.006467951391e-03 7.462423745964e-03 0.0 
0.0 0.0 0.0 
7.699726400667e-04 -7.808879884919e-05 0.0 
-7.808879884919e-05 3.026253643480e-03 0.0 
0.0 0.0 0.0 
-3.354712926751e-05 -2.279137054813e-03 0.0 
-2.279137054813e-03 1.082112267039e-03 0.0 
0.0 0.0 0.0 
-2.752793499444e-04 2.848697858346e-03 0.0 
2.848697858346e-03 3.298222576230e-03 0.0 
0.0 0.0 0.0 
-1.292435442387e-03 2.004150701831e-03 0.0 
2.004150701831e-03 5.617746222612e-03 0.0 
0.0 0.0 0.0 
-1.296320312258e-03 1.485608311057e-03 0.0 
1.485608311057e-03 7.700452729408e-03 0.0 
0.0 0.0 0.0 
-1.585988089977e-03 1.790238845008e-03 0.0 
1.790238845008e-03 6.200139897685e-03 0.0 
0.0 0.0 0.0 
-1.660390337542e-03 1.626768370802e-03 0.0 
1.626768370802e-03 5.990904038034e-03 0.0 
0.0 0.0 0.0 
2.509776667436e-03 2.073087284430e-03 0.0 
2.073087284430e-03 3.793772494392e-04 0.0 
0.0 0.0 0.0 
-3.225634984608e-04 2.528278411750e-03 0.0 
2.528278411750e-03 5.975795712540e-03 0.0 
0.0 0.0 0.0 
-1.033348924336e-03 2.244779206744e-03 0.0 
2.244779206744e-03 -2.987916115035e-03 0.0 
0.0 0.0 0.0 
-6.014290280226e-04 2.441886827988e-03 0.0 
2.441886827988e-03 2.888061305072e-03 0.0 
0.0 0.0 0.0 
-4.427374611530e-04 2.619066153096e-03 0.0 
2.619066153096e-03 2.832732598791e-03 0.0 
0.0 0.0 0.0 
-5.528092593891e-04 2.803154832255e-03 0.0 
2.803154832255e-03 3.772352754662e-03 0.0 
0.0 0.0 0.0 
-9.277833445100e-04 2.020369647476e-03 0.0 
2.020369647476e-03 7.417202871597e-03 0.0 
0.0 0.0 0.0 
2.957266476121e-03 3.058728371851e-03 0.0 
3.058728371851e-03 -4.122131156849e-03 0.0 
0.0 0.0 0.0 
1.740319043432e-03 -5.528619525489e-04 0.0 
-5.528619525489e-04 9.348298927341e-04 0.0 
0.0 0.0 0.0 
-1.271466776659e-03 7.945453865894e-05 0.0 
7.945453865894e-05 7.161707318984e-03 0.0 
0.0 0.0 0.0 
2.651735759426e-03 3.246706133446e-03 0.0 
3.246706133446e-03 -1.401537835900e-03 0.0 
0.0 0.0 0.0 
1.635233906762e-03 -9.134270855335e-04 0.0 
-9.134270855335e-04 8.029339633293e-04 0.0 
0.0 0.0 0.0 
5.928927804006e-04 -3.751257983943e-04 0.0 
-3.751257983943e-04 2.507750671654e-04 0.0 
0.0 0.0 0.0 
-1.076889743240e-03 1.626569138137e-03 0.0 
1.626569138137e-03 7.642568670715e-03 0.0 
0.0 0.0 0.0 
8.830327953264e-04 -4.559874103045e-04 0.0 
-4.559874103045e-04 -3.130141476626e-05 0.0 
0.0 0.0 0.0 
4.280312830454e-04 -3.877347340225e-04 0.0 
-3.877347340225e-04 5.720116537993e-04 0.0 
0.0 0.0 0.0 
-5.215249710445e-04 2.648025276054e-03 0.0 
2.648025276054e-03 2.183329917691e-03 0.0 
0.0 0.0 0.0 
-1.635270555684e-04 -2.138619543516e-03 0.0 
-2.138619543516e-03 1.079457895108e-03 0.0 
0.0 0.0 0.0 
-1.118900817982e-03 1.593815162716e-03 0.0 
1.593815162716e-03 7.942873178392e-03 0.0 
0.0 0.0 0.0 
-5.074784226911e-05 -2.172488304569e-03 0.0 
-2.172488304569e-03 7.963549875476e-04 0.0 
0.0 0.0 0.0 
6.466935930045e-04 3.607097588386e-03 0.0 
3.607097588386e-03 2.169902708977e-04 0.0 
0.0 0.0 0.0 
1.467665399010e-03 -3.532271835755e-03 0.0 
-3.532271835755e-03 -1.853454773805e-03 0.0 
0.0 0.0 0.0 
-4.507225461824e-04 -1.586503900565e-03 0.0 
-1.586503900565e-03 1.043860630102e-03 0.0 
0.0 0.0 0.0 
1.774607348552e-03 3.581892683997e-04 0.0 
3.581892683997e-04 1.472476138859e-03 0.0 
0.0 0.0 0.0 
-1.523499424788e-03 1.892212984496e-03 0.0 
1.892212984496e-03 5.823864982693e-03 0.0 
0.0 0.0 0.0 
-3.647712371360e-04 -4.891795805826e-04 0.0 
-4.891795805826e-04 5.539483606601e-03 0.0 
0.0 0.0 0.0 
-9.852291002749e-04 1.028882758919e-03 0.0 
1.028882758919e-03 -4.452636400753e-03 0.0 
0.0 0.0 0.0 
1.165722448325e-03 3.648931079585e-03 0.0 
3.648931079585e-03 -1.498891654702e-04 0.0 
0.0 0.0 0.0 
2.808980734966e-03 3.080904149880e-03 0.0 
3.080904149880e-03 -1.395781150396e-03 0.0 
0.0 0.0 0.0 
-1.067352186146e-03 1.971465845089e-03 0.0 
1.971465845089e-03 4.076890682371e-03 0.0 
0.0 0.0 0.0 
1.958852619194e-03 -3.066306811870e-04 0.0 
-3.066306811870e-04 9.176807863942e-04 0.0 
0.0 0.0 0.0 
-2.203274944839e-04 -6.880230551524e-04 0.0 
-6.880230551524e-04 5.341136369752e-03 0.0 
0.0 0.0 0.0 
-1.105364339660e-03 1.936809952858e-03 0.0 
1.936809952858e-03 7.186720148435e-03 0.0 
0.0 0.0 0.0 
3.327682188715e-03 2.808448662462e-03 0.0 
2.808448662462e-03 -2.020382952844e-03 0.0 
0.0 0.0 0.0 
1.669829900798e-03 1.557765533252e-04 0.0 
1.557765533252e-04 1.473870041023e-03 0.0 
0.0 0.0 0.0 
-1.255277869788e-03 -2.591587446596e-04 0.0 
-2.591587446596e-04 4.630442239177e-03 0.0 
0.0 0.0 0.0 
-7.734672810201e-04 2.665960274791e-03 0.0 
2.665960274791e-03 4.313125201248e-03 0.0 
0.0 0.0 0.0 
-1.140146270674e-03 1.693884466123e-03 0.0 
1.693884466123e-03 7.317605167600e-03 0.0 
0.0 0.0 0.0 
5.320676354399e-04 2.252640645395e-03 0.0 
2.252640645395e-03 4.316664197539e-03 0.0 
0.0 0.0 0.0 
3.226776613150e-03 2.786040948858e-03 0.0 
2.786040948858e-03 -1.354701463334e-03 0.0 
0.0 0.0 0.0 
5.642793157006e-04 3.550314417621e-03 0.0 
3.550314417621e-03 8.608869695925e-04 0.0 
0.0 0.0 0.0 
-1.454227793319e-03 1.922226939888e-03 0.0 
1.922226939888e-03 6.405589557099e-03 0.0 
0.0 0.0 0.0 
-2.193880810093e-04 1.357727080282e-03 0.0 
1.357727080282e-03 9.479388875362e-03 0.0 
0.0 0.0 0.0 
-1.595833219132e-04 2.977524473003e-03 0.0 
2.977524473003e-03 3.281528421992e-03 0.0 
0.0 0.0 0.0 
3.570406099054e-03 2.011542865281e-03 0.0 
2.011542865281e-03 -1.615703206606e-03 0.0 
0.0 0.0 0.0 
-1.211376616712e-03 1.236384788621e-04 0.0 
1.236384788621e-04 7.545200815133e-03 0.0 
0.0 0.0 0.0 
-2.997802053457e-04 -2.568766770289e-03 0.0 
-2.568766770289e-03 3.422381702649e-04 0.0 
0.0 0.0 0.0 
-1.496557927361e-03 1.656854322756e-03 0.0 
1.656854322756e-03 6.220635587464e-03 0.0 
0.0 0.0 0.0 
2.875410130331e-03 3.301321604255e-03 0.0 
3.301321604255e-03 -2.092156313701e-03 0.0 
0.0 0.0 0.0 
3.283347662176e-03 2.725405019044e-03 0.0 
2.725405019044e-03 -3.878234590355e-03 0.0 
0.0 0.0 0.0 
2.870002873456e-03 -3.131222728640e-03 0.0 
-3.131222728640e-03 -4.303740248614e-03 0.0 
0.0 0.0 0.0 
-9.990448871846e-04 1.563422590735e-03 0.0 
1.563422590735e-03 7.946290488430e-03 0.0 
0.0 0.0 0.0 
-1.418536566855e-03 2.041574757573e-03 0.0 
2.041574757573e-03 6.014231501342e-03 0.0 
0.0 0.0 0.0 
7.332741550636e-04 3.222043979150e-03 0.0 
3.222043979150e-03 9.239568896739e-04 0.0 
0.0 0.0 0.0 
-1.031211741708e-03 1.524641436216e-03 0.0 
1.524641436216e-03 8.233976869633e-03 0.0 
0.0 0.0 0.0 
-9.443338687672e-04 2.103249174743e-03 0.0 
2.103249174743e-03 7.031601060716e-03 0.0 
0.0 0.0 0.0 
-9.520436712930e-04 2.529743510966e-03 0.0 
2.529743510966e-03 4.826614775344e-03 0.0 
0.0 0.0 0.0 
-4.517362321543e-05 -7.374442048917e-04 0.0 
-7.374442048917e-04 4.986377809465e-03 0.0 
0.0 0.0 0.0 
3.533654178456e-03 1.875167312680e-03 0.0 
1.875167312680e-03 -1.942145159838e-03 0.0 
0.0 0.0 0.0 
-1.096226346316e-03 2.397822099031e-03 0.0 
2.397822099031e-03 5.319531802148e-03 0.0 
0.0 0.0 0.0 
1.451044276255e-03 3.183121698238e-03 0.0 
3.183121698238e-03 7.918929336632e-04 0.0 
0.0 0.0 0.0 
3.280110580147e-03 1.926271199754e-03 0.0 
1.926271199754e-03 -1.162265613181e-03 0.0 
0.0 0.0 0.0 
3.669693864928e-03 2.453274084475e-03 0.0 
2.453274084475e-03 -3.681593651864e-03 0.0 
0.0 0.0 0.0 
-1.628635275572e-03 8.526505470062e-04 0.0 
8.526505470062e-04 6.927844096861e-03 0.0 
0.0 0.0 0.0 
3.765319442850e-03 2.275902892543e-03 0.0 
2.275902892543e-03 -1.926475102159e-03 0.0 
0.0 0.0 0.0 
3.821856015085e-03 -1.303359835203e-03 0.0 
-1.303359835203e-03 -3.552456385422e-03 0.0 
0.0 0.0 0.0 
-1.013043924519e-03 1.879328131441e-03 0.0 
1.879328131441e-03 7.196782352286e-03 0.0 
0.0 0.0 0.0 
-4.595482854797e-03 4.309700619544e-04 0.0 
4.309700619544e-04 -2.783980776765e-03 0.0 
0.0 0.0 0.0 
-1.607833911403e-03 1.689959033497e-03 0.0 
1.689959033497e-03 6.553492752226e-03 0.0 
0.0 0.0 0.0 
3.588462002591e-03 2.729002593454e-03 0.0 
2.729002593454e-03 -2.823263507288e-03 0.0 
0.0 0.0 0.0 
1.550137237549e-03 3.601078909467e-03 0.0 
3.601078909467e-03 -1.450957813295e-04 0.0 
0.0 0.0 0.0 
3.772840923757e-03 1.452275431184e-03 0.0 
1.452275431184e-03 -3.512470099846e-03 0.0 
0.0 0.0 0.0 
-1.233699607958e-03 2.027699124822e-03 0.0 
2.027699124822e-03 6.226063280868e-03 0.0 
0.0 0.0 0.0 
-1.592063454443e-04 -1.044771320609e-03 0.0 
-1.044771320609e-03 7.369459379849e-04 0.0 
0.0 0.0 0.0 
-6.480339094446e-04 2.477490491950e-03 0.0 
2.477490491950e-03 3.286283819214e-03 0.0 
0.0 0.0 0.0 
3.217167134346e-03 1.810695124406e-03 0.0 
1.810695124406e-03 -1.367779631797e-03 0.0 
0.0 0.0 0.0 
-1.356404527896e-03 1.907917062243e-03 0.0 
1.907917062243e-03 6.036909183478e-03 0.0 
0.0 0.0 0.0 
-1.636112582282e-03 1.022165523959e-03 0.0 
1.022165523959e-03 7.133704363780e-03 0.0 
0.0 0.0 0.0 
2.262635780113e-03 2.233787173436e-03 0.0 
2.233787173436e-03 -4.650291064857e-03 0.0 
0.0 0.0 0.0 
4.190792072496e-03 -3.996153201376e-04 0.0 
-3.996153201376e-04 -3.693902701492e-03 0.0 
0.0 0.0 0.0 
3.353119860181e-03 -2.147741484299e-03 0.0 
-2.147741484299e-03 -3.304372066910e-03 0.0 
0.0 0.0 0.0 
-7.893242110503e-04 2.556278030665e-03 0.0 
2.556278030665e-03 3.316900385337e-03 0.0 
0.0 0.0 0.0 
-1.247029079079e-03 1.752486538935e-03 0.0 
1.752486538935e-03 7.307561446847e-03 0.0 
0.0 0.0 0.0 
-6.274440318507e-04 2.738737546164e-03 0.0 
2.738737546164e-03 3.247068766382e-03 0.0 
0.0 0.0 0.0 
3.843421878456e-03 2.354581205424e-03 0.0 
2.354581205424e-03 -2.585948379260e-03 0.0 
0.0 0.0 0.0 
3.323943859587e-03 2.872243821179e-03 0.0 
2.872243821179e-03 -2.077473994957e-03 0.0 
0.0 0.0 0.0 
2.468497613745e-03 1.781917198573e-03 0.0 
1.781917198573e-03 -3.667840578616e-03 0.0 
0.0 0.0 0.0 
1.689790747880e-03 3.102058074822e-03 0.0 
3.102058074822e-03 8.014716555382e-05 0.0 
0.0 0.0 0.0 
2.318869806717e-04 3.647429687851e-03 0.0 
3.647429687851e-03 6.150108643226e-04 0.0 
0.0 0.0 0.0 
-2.665441288849e-04 2.153662192521e-03 0.0 
2.153662192521e-03 8.759344463069e-03 0.0 
0.0 0.0 0.0 
-2.544114718486e-04 2.439211635590e-03 0.0 
2.439211635590e-03 8.331686146800e-03 0.0 
0.0 0.0 0.0 
1.101625727629e-04 3.005266787117e-03 0.0 
3.005266787117e-03 2.772513598578e-03 0.0 
0.0 0.0 0.0 
3.346806117197e-03 2.997009792205e-03 0.0 
2.997009792205e-03 -2.883026099999e-03 0.0 
0.0 0.0 0.0 
2.041675908125e-03 3.559983504333e-03 0.0 
3.559983504333e-03 -9.078277490117e-04 0.0 
0.0 0.0 0.0 
-8.458974160552e-04 2.482381952876e-03 0.0 
2.482381952876e-03 5.014945784199e-03 0.0 
0.0 0.0 0.0 
2.944952656738e-03 3.034790435063e-03 0.0 
3.034790435063e-03 -1.941985175995e-03 0.0 
0.0 0.0 0.0 
3.796611718039e-03 -1.304918814657e-03 0.0 
-1.304918814657e-03 -3.437878693921e-03 0.0 
0.0 0.0 0.0 
-8.154722082624e-04 2.495909962697e-03 0.0 
2.495909962697e-03 4.343694558589e-03 0.0 
0.0 0.0 0.0 
-4.452879995115e-04 8.879485917048e-04 0.0 
8.879485917048e-04 9.500114266035e-03 0.0 
0.0 0.0 0.0 
3.142253387121e-03 3.058267314149e-03 0.0 
3.058267314149e-03 -2.112866293883e-03 0.0 
0.0 0.0 0.0 
2.206275133854e-03 2.307809519845e-03 0.0 
2.307809519845e-03 3.522599976853e-04 0.0 
0.0 0.0 0.0 
9.575903434025e-04 3.755890609562e-03 0.0 
3.755890609562e-03 -5.463982807805e-04 0.0 
0.0 0.0 0.0 
4.784181687603e-04 3.205712870922e-04 0.0 
3.205712870922e-04 4.050721437025e-03 0.0 
0.0 0.0 0.0 
2.534798879376e-03 3.537210294588e-03 0.0 
3.537210294588e-03 -2.020454815196e-03 0.0 
0.0 0.0 0.0 
-5.039143849387e-04 2.727370413153e-03 0.0 
2.727370413153e-03 3.902336065997e-03 0.0 
0.0 0.0 0.0 
3.157253349968e-03 1.956499489055e-03 0.0 
1.956499489055e-03 -4.528006517517e-03 0.0 
0.0 0.0 0.0 
2.968662530904e-03 -1.619299566178e-05 0.0 
-1.619299566178e-05 -9.481259428628e-04 0.0 
0.0 0.0 0.0 
3.383347450634e-03 2.671622531663e-03 0.0 
2.671622531663e-03 -1.987107015468e-03 0.0 
0.0 0.0 0.0 
3.443283296202e-03 -1.903278710894e-03 0.0 
-1.903278710894e-03 -2.781212078925e-03 0.0 
0.0 0.0 0.0 
-1.332443432807e-03 2.157393221396e-03 0.0 
2.157393221396e-03 5.598258788988e-03 0.0 
0.0 0.0 0.0 
-1.319526742776e-04 2.798657030248e-03 0.0 
2.798657030248e-03 7.531581455095e-03 0.0 
0.0 0.0 0.0 
3.761967220098e-03 2.511175535376e-03 0.0 
2.511175535376e-03 -2.726171199303e-03 0.0 
0.0 0.0 0.0 
3.379935123279e-03 1.468047460802e-03 0.0 
1.468047460802e-03 -1.320352439050e-03 0.0 
0.0 0.0 0.0 
1.244717678120e-03 3.697977120792e-03 0.0 
3.697977120792e-03 -5.398270622666e-04 0.0 
0.0 0.0 0.0 
-1.258154747487e-03 8.705306887469e-04 0.0 
8.705306887469e-04 7.937086495196e-03 0.0 
0.0 0.0 0.0 
1.919899427648e-03 -6.763685526480e-04 0.0 
-6.763685526480e-04 7.718580800191e-04 0.0 
0.0 0.0 0.0 
2.486546300660e-04 3.380351782037e-03 0.0 
3.380351782037e-03 1.409618042500e-03 0.0 
0.0 0.0 0.0 
-1.410936093253e-03 7.302615368342e-04 0.0 
7.302615368342e-04 7.865282355840e-03 0.0 
0.0 0.0 0.0 
2.965058270066e-05 2.927612405004e-03 0.0 
2.927612405004e-03 6.552625685908e-03 0.0 
0.0 0.0 0.0 
1.609234008493e-03 -4.667369000629e-04 0.0 
-4.667369000629e-04 1.472802243914e-03 0.0 
0.0 0.0 0.0 
-1.861993289719e-04 2.701037168104e-03 0.0 
2.701037168104e-03 7.818398926113e-03 0.0 
0.0 0.0 0.0 
-1.474972457967e-03 9.326599218038e-04 0.0 
9.326599218038e-04 7.697464841703e-03 0.0 
0.0 0.0 0.0 
-7.237548776078e-04 2.352199418278e-03 0.0 
2.352199418278e-03 6.399767169473e-03 0.0 
0.0 0.0 0.0 
-2.229163136336e-04 3.263740956277e-03 0.0 
3.263740956277e-03 1.784536392283e-03 0.0 
0.0 0.0 0.0 
-1.436734930783e-03 2.009496171116e-03 0.0 
2.009496171116e-03 5.416030374170e-03 0.0 
0.0 0.0 0.0 
-1.087179328363e-03 2.255134653757e-03 0.0 
2.255134653757e-03 5.339838923565e-03 0.0 
0.0 0.0 0.0 
-1.212438411897e-03 2.275713958215e-03 0.0 
2.275713958215e-03 5.784451672694e-03 0.0 
0.0 0.0 0.0 
1.457373500475e-04 3.077869540203e-03 0.0 
3.077869540203e-03 2.670966979380e-03 0.0 
0.0 0.0 0.0 
1.503958057372e-04 2.808978178974e-03 0.0 
2.808978178974e-03 5.890072160934e-03 0.0 
0.0 0.0 0.0 
-1.490304377312e-03 1.224064605077e-03 0.0 
1.224064605077e-03 7.214775321426e-03 0.0 
0.0 0.0 0.0 
-1.709840717976e-03 1.538289474789e-03 0.0 
1.538289474789e-03 6.330901089738e-03 0.0 
0.0 0.0 0.0 
3.674382681179e-03 2.426866922119e-03 0.0 
2.426866922119e-03 -2.012016024498e-03 0.0 
0.0 0.0 0.0 
-3.272099905068e-04 -1.911433764196e-03 0.0 
-1.911433764196e-03 1.076383181169e-03 0.0 
0.0 0.0 0.0 
-1.600194822782e-03 1.722228249465e-03 0.0 
1.722228249465e-03 5.609754714468e-03 0.0 
0.0 0.0 0.0 
7.729275404673e-04 3.438460575694e-03 0.0 
3.438460575694e-03 5.128123264917e-04 0.0 
0.0 0.0 0.0 
-1.213397395870e-03 7.016276908431e-05 0.0 
7.016276908431e-05 7.195904058269e-03 0.0 
0.0 0.0 0.0 
2.841064729037e-03 -2.453387900532e-03 0.0 
-2.453387900532e-03 -2.696241046621e-03 0.0 
0.0 0.0 0.0 
3.545154803692e-03 2.581114246637e-03 0.0 
2.581114246637e-03 -2.046831274576e-03 0.0 
0.0 0.0 0.0 
-9.595130882259e-04 1.805887763920e-03 0.0 
1.805887763920e-03 7.546746721690e-03 0.0 
0.0 0.0 0.0 
1.121926345792e-03 3.541207087242e-03 0.0 
3.541207087242e-03 4.979531015588e-04 0.0 
0.0 0.0 0.0 
-1.191081038765e-03 2.114255419023e-03 0.0 
2.114255419023e-03 5.178473979302e-03 0.0 
0.0 0.0 0.0 
3.177237668635e-03 1.344165311052e-03 0.0 
1.344165311052e-03 -1.245549292995e-03 0.0 
0.0 0.0 0.0 
1.697171654739e-03 -1.769014923938e-03 0.0 
-1.769014923938e-03 -1.029542030553e-04 0.0 
0.0 0.0 0.0 
3.543520506470e-04 2.324498286701e-03 0.0 
2.324498286701e-03 4.980923673427e-03 0.0 
0.0 0.0 0.0 
-1.395802415091e-03 1.966164381375e-03 0.0 
1.966164381375e-03 4.856377957371e-03 0.0 
0.0 0.0 0.0 
4.250119466607e-03 5.059461870211e-04 0.0 
5.059461870211e-04 -4.005038399044e-03 0.0 
0.0 0.0 0.0 
9.787326128232e-04 -2.550262375885e-03 0.0 
-2.550262375885e-03 -2.019795157373e-04 0.0 
0.0 0.0 0.0 
-5.069722168235e-04 2.823530539040e-03 0.0 
2.823530539040e-03 2.591160624176e-03 0.0 
0.0 0.0 0.0 
1.353353725113e-04 3.132185689187e-03 0.0 
3.132185689187e-03 1.437265344724e-03 0.0 
0.0 0.0 0.0 
-7.657297382190e-04 2.177025884729e-03 0.0 
2.177025884729e-03 7.261944470695e-03 0.0 
0.0 0.0 0.0 
-6.409267948034e-04 2.733934428125e-03 0.0 
2.733934428125e-03 4.453859784880e-03 0.0 
0.0 0.0 0.0 
-1.113889957339e-03 2.238106609611e-03 0.0 
2.238106609611e-03 4.054825279568e-03 0.0 
0.0 0.0 0.0 
-1.278034879873e-03 1.942011305827e-03 0.0 
1.942011305827e-03 5.028159891044e-03 0.0 
0.0 0.0 0.0 
5.098467197004e-04 1.262344160859e-03 0.0 
1.262344160859e-03 4.163666875925e-03 0.0 
0.0 0.0 0.0 
9.191984661134e-04 1.301094622460e-03 0.0 
1.301094622460e-03 3.427017409028e-03 0.0 
0.0 0.0 0.0 
-6.806182480436e-04 2.136475989684e-03 0.0 
2.136475989684e-03 7.269760358950e-03 0.0 
0.0 0.0 0.0 
-1.194901901604e-03 1.670016469736e-03 0.0 
1.670016469736e-03 7.635901908109e-03 0.0 
0.0 0.0 0.0 
1.816126989544e-03 -1.877795546368e-03 0.0 
-1.877795546368e-03 -6.872207305523e-04 0.0 
0.0 0.0 0.0 
-2.156752778431e-04 2.986114633548e-03 0.0 
2.986114633548e-03 2.715241533667e-03 0.0 
0.0 0.0 0.0 
3.633672773582e-03 2.275901097083e-03 0.0 
2.275901097083e-03 -2.770662260566e-03 0.0 
0.0 0.0 0.0 
3.925634928326e-03 2.060801279046e-03 0.0 
2.060801279046e-03 -2.722993779207e-03 0.0 
0.0 0.0 0.0 
-4.211088500358e-04 2.863635844514e-03 0.0 
2.863635844514e-03 3.881793035567e-03 0.0 
0.0 0.0 0.0 
3.139392148414e-03 -4.008582060037e-05 0.0 
-4.008582060037e-05 -1.381804892181e-03 0.0 
0.0 0.0 0.0 
-4.486582866968e-04 -1.942530217974e-03 0.0 
-1.942530217974e-03 1.875427572007e-03 0.0 
0.0 0.0 0.0 
-7.677546939299e-04 1.918042399649e-03 0.0 
1.918042399649e-03 7.776214327949e-03 0.0 
0.0 0.0 0.0 
4.052114673525e-03 -5.514690212106e-04 0.0 
-5.514690212106e-04 -3.839387588384e-03 0.0 
0.0 0.0 0.0 
4.743390946462e-04 3.145431426469e-03 0.0 
3.145431426469e-03 2.065119224911e-03 0.0 
0.0 0.0 0.0 
-9.645358740221e-04 2.369516429056e-03 0.0 
2.369516429056e-03 4.857525790520e-03 0.0 
0.0 0.0 0.0 
2.777124134401e-04 3.139455829266e-03 0.0 
3.139455829266e-03 2.115055938439e-03 0.0 
0.0 0.0 0.0 
-2.301260485952e-04 2.587843546865e-03 0.0 
2.587843546865e-03 8.082138513888e-03 0.0 
0.0 0.0 0.0 
-2.439533281258e-04 2.307259584829e-03 0.0 
2.307259584829e-03 8.540748123589e-03 0.0 
0.0 0.0 0.0 
-4.918125429828e-04 2.178699011486e-03 0.0 
2.178699011486e-03 8.216219610755e-03 0.0 
0.0 0.0 0.0 
1.721790143648e-03 -1.733997012115e-03 0.0 
-1.733997012115e-03 -3.453047767018e-04 0.0 
0.0 0.0 0.0 
-9.029507950894e-04 1.506007464615e-03 0.0 
1.506007464615e-03 8.235835109828e-03 0.0 
0.0 0.0 0.0 
3.595245175179e-04 3.381066818147e-03 0.0 
3.381066818147e-03 8.812239123381e-04 0.0 
0.0 0.0 0.0 
4.056949359133e-03 1.904625693833e-03 0.0 
1.904625693833e-03 -2.634796311330e-03 0.0 
0.0 0.0 0.0 
3.328504034746e-03 1.576072696825e-03 0.0 
1.576072696825e-03 -3.682968398808e-03 0.0 
0.0 0.0 0.0 
-8.232982197506e-04 2.573761607679e-03 0.0 
2.573761607679e-03 3.672746949870e-03 0.0 
0.0 0.0 0.0 
-1.609582274801e-03 7.084095968754e-04 0.0 
7.084095968754e-04 7.030231425815e-03 0.0 
0.0 0.0 0.0 
-1.343389267234e-03 9.040436020960e-04 0.0 
9.040436020960e-04 7.699872864831e-03 0.0 
0.0 0.0 0.0 
8.813850696523e-04 4.182053799693e-04 0.0 
4.182053799693e-04 3.345991462666e-03 0.0 
0.0 0.0 0.0 
-5.208366309403e-04 2.344520343216e-03 0.0 
2.344520343216e-03 6.654953747105e-03 0.0 
0.0 0.0 0.0 
-1.390565721925e-03 1.807355949763e-03 0.0 
1.807355949763e-03 6.422747655849e-03 0.0 
0.0 0.0 0.0 
-9.698854390907e-04 2.370080475947e-03 0.0 
2.370080475947e-03 5.525875078483e-03 0.0 
0.0 0.0 0.0 
3.750576838349e-03 1.665163277028e-03 0.0 
1.665163277028e-03 -4.307491974257e-03 0.0 
0.0 0.0 0.0 
-6.524083718419e-04 -1.677764782507e-03 0.0 
-1.677764782507e-03 6.953029023449e-04 0.0 
0.0 0.0 0.0 
2.229358163252e-03 3.162701414842e-03 0.0 
3.162701414842e-03 -7.216116121846e-04 0.0 
0.0 0.0 0.0 
6.150215799792e-04 3.133382123214e-03 0.0 
3.133382123214e-03 2.101545826042e-03 0.0 
0.0 0.0 0.0 
2.100357623896e-03 3.089399414852e-03 0.0 
3.089399414852e-03 7.986144938488e-05 0.0 
0.0 0.0 0.0 
-6.497045160446e-04 3.485188786344e-03 0.0 
3.485188786344e-03 3.192426409029e-04 0.0 
0.0 0.0 0.0 
-1.152796146775e-03 1.158183694990e-04 0.0 
1.158183694990e-04 7.541635944273e-03 0.0 
0.0 0.0 0.0 
-1.610467599622e-04 -1.873440646984e-03 0.0 
-1.873440646984e-03 8.804298243206e-04 0.0 
0.0 0.0 0.0 
2.045550964729e-03 3.613987650562e-03 0.0 
3.613987650562e-03 -1.160959482724e-03 0.0 
0.0 0.0 0.0 
0.0 4.643347687464e-04 0.0 
4.643347687464e-04 4.047458702866e-03 0.0 
0.0 0.0 0.0 
2.542085472915e-03 1.675327056846e-03 0.0 
1.675327056846e-03 3.718655687841e-04 0.0 
0.0 0.0 0.0 
-1.599512336530e-03 1.411417531983e-03 0.0 
1.411417531983e-03 6.345996459937e-03 0.0 
0.0 0.0 0.0 
8.351559011428e-04 -1.010993902950e-04 0.0 
-1.010993902950e-04 7.547626051094e-04 0.0 
0.0 0.0 0.0 
-6.341154306200e-06 2.969197693230e-03 0.0 
2.969197693230e-03 2.686593729195e-03 0.0 
0.0 0.0 0.0 
2.690568406421e-03 3.013532289176e-03 0.0 
3.013532289176e-03 -7.029036366372e-04 0.0 
0.0 0.0 0.0 
-1.261896741628e-03 2.135432693841e-03 0.0 
2.135432693841e-03 6.212495784696e-03 0.0 
0.0 0.0 0.0 
-7.063436607113e-05 2.880709238516e-03 0.0 
2.880709238516e-03 7.209266366447e-03 0.0 
0.0 0.0 0.0 
-1.370656855917e-03 1.839149401596e-03 0.0 
1.839149401596e-03 5.435039205346e-03 0.0 
0.0 0.0 0.0 
-8.185145269339e-04 2.605516032778e-03 0.0 
2.605516032778e-03 4.999010883282e-03 0.0 
0.0 0.0 0.0 
-2.207312546485e-04 -2.032816197686e-03 0.0 
-2.032816197686e-03 1.887662921838e-03 0.0 
0.0 0.0 0.0 
-8.911944837964e-04 1.746146067751e-03 0.0 
1.746146067751e-03 7.876879107361e-03 0.0 
0.0 0.0 0.0 
1.605226891088e-03 -1.605921559012e-03 0.0 
-1.605921559012e-03 3.029516790121e-04 0.0 
0.0 0.0 0.0 
-3.833795709163e-05 2.920999167455e-03 0.0 
2.920999167455e-03 6.890682358293e-03 0.0 
0.0 0.0 0.0 
0.0 2.533164319740e-03 0.0 
2.533164319740e-03 7.947033038678e-03 0.0 
0.0 0.0 0.0 
0.0 1.981120824945e-03 0.0 
1.981120824945e-03 8.870833880860e-03 0.0 
0.0 0.0 0.0 
0.0 2.263828297509e-03 0.0 
2.263828297509e-03 8.447396502697e-03 0.0 
0.0 0.0 0.0 
-1.043463666941e-03 2.224920974910e-03 0.0 
2.224920974910e-03 5.991515860605e-03 0.0 
0.0 0.0 0.0 
-1.006778420384e-03 1.771824420561e-03 0.0 
1.771824420561e-03 7.874022168641e-03 0.0 
0.0 0.0 0.0 
-5.142880862677e-04 2.300689473533e-03 0.0 
2.300689473533e-03 7.096163851948e-03 0.0 
0.0 0.0 0.0 
1.349713656160e-04 3.032373366523e-03 0.0 
3.032373366523e-03 2.128639261429e-03 0.0 
0.0 0.0 0.0 
-2.857188126318e-04 2.798428491014e-03 0.0 
2.798428491014e-03 2.739171252666e-03 0.0 
0.0 0.0 0.0 
-7.215927367030e-04 -1.781899882226e-03 0.0 
-1.781899882226e-03 2.163766382171e-03 0.0 
0.0 0.0 0.0 
-8.798454513759e-04 1.948518139774e-03 0.0 
1.948518139774e-03 7.772318189125e-03 0.0 
0.0 0.0 0.0 
9.263402480264e-05 2.886679612858e-03 0.0 
2.886679612858e-03 6.212416956646e-03 0.0 
0.0 0.0 0.0 
-8.013045848867e-04 1.680970966496e-03 0.0 
1.680970966496e-03 8.181364685366e-03 0.0 
0.0 0.0 0.0 
2.962265610859e-03 1.833105349694e-03 0.0 
1.833105349694e-03 -4.710305577628e-04 0.0 
0.0 0.0 0.0 
-9.236147272668e-04 1.703633541173e-03 0.0 
1.703633541173e-03 8.178841305421e-03 0.0 
0.0 0.0 0.0 
8.725315084468e-04 2.773313157043e-03 0.0 
2.773313157043e-03 3.133578452323e-03 0.0 
0.0 0.0 0.0 
7.538385736598e-04 3.145113785637e-03 0.0 
3.145113785637e-03 1.456072381106e-03 0.0 
0.0 0.0 0.0 
-8.304411269163e-04 2.330281724992e-03 0.0 
2.330281724992e-03 3.698264716622e-03 0.0 
0.0 0.0 0.0 
2.034918357085e-03 3.802104446046e-03 0.0 
3.802104446046e-03 -1.892383440143e-03 0.0 
0.0 0.0 0.0 
-2.561827227854e-04 1.403208229210e-03 0.0 
1.403208229210e-03 9.169135253628e-03 0.0 
0.0 0.0 0.0 
4.233784662697e-04 3.142472557026e-03 0.0 
3.142472557026e-03 1.561787065749e-03 0.0 
0.0 0.0 0.0 
2.398650759281e-04 2.536278650818e-03 0.0 
2.536278650818e-03 5.203215782295e-03 0.0 
0.0 0.0 0.0 
-5.446341852603e-04 -1.918588116460e-03 0.0 
-1.918588116460e-03 2.183264701290e-03 0.0 
0.0 0.0 0.0 
2.185509583759e-03 -2.925954480201e-03 0.0 
-2.925954480201e-03 -2.115069608587e-03 0.0 
0.0 0.0 0.0 
4.800617043734e-04 2.962179782924e-04 0.0 
2.962179782924e-04 3.372086925411e-03 0.0 
0.0 0.0 0.0 
1.593564360553e-03 3.553913837738e-03 0.0 
3.553913837738e-03 -4.296006101800e-04 0.0 
0.0 0.0 0.0 
0.0 2.641723413537e-03 0.0 
2.641723413537e-03 7.675448863215e-03 0.0 
0.0 0.0 0.0 
-2.960643733256e-04 2.039040305569e-03 0.0 
2.039040305569e-03 8.443879965265e-03 0.0 
0.0 0.0 0.0 
-3.842948112396e-04 2.789891690218e-03 0.0 
2.789891690218e-03 4.056809900576e-03 0.0 
0.0 0.0 0.0 
-6.017685393667e-04 -8.781869500918e-04 0.0 
-8.781869500918e-04 7.409481456422e-04 0.0 
0.0 0.0 0.0 
0.0 2.769124830267e-03 0.0 
2.769124830267e-03 7.053812649471e-03 0.0 
0.0 0.0 0.0 
5.044054814956e-04 8.409086093802e-04 0.0 
8.409086093802e-04 3.379991747878e-03 0.0 
0.0 0.0 0.0 
2.748286627547e-03 -2.476801369199e-03 0.0 
-2.476801369199e-03 -2.185946965404e-03 0.0 
0.0 0.0 0.0 
2.952144004480e-03 1.369156496983e-03 0.0 
1.369156496983e-03 -3.915859743139e-04 0.0 
0.0 0.0 0.0 
3.742612412012e-04 2.086290610475e-03 0.0 
2.086290610475e-03 4.726238045089e-03 0.0 
0.0 0.0 0.0 
-3.890255817237e-04 -5.706915929111e-05 0.0 
-5.706915929111e-05 2.788038421373e-04 0.0 
0.0 0.0 0.0 
5.998253909858e-04 3.158982382107e-03 0.0 
3.158982382107e-03 1.476085256050e-03 0.0 
0.0 0.0 0.0 
-5.679107425342e-04 2.673763974059e-03 0.0 
2.673763974059e-03 4.650437442871e-03 0.0 
0.0 0.0 0.0 
-1.578138911120e-04 2.904551642882e-03 0.0 
2.904551642882e-03 3.426844531095e-03 0.0 
0.0 0.0 0.0 
-6.901871109596e-04 2.604313079161e-03 0.0 
2.604313079161e-03 4.472268430565e-03 0.0 
0.0 0.0 0.0 
1.580505764237e-03 3.758001609929e-03 0.0 
3.758001609929e-03 -9.350214406507e-04 0.0 
0.0 0.0 0.0 
0.0 2.773893186211e-03 0.0 
2.773893186211e-03 6.380292718883e-03 0.0 
0.0 0.0 0.0 
4.111380118974e-03 1.789624253732e-03 0.0 
1.789624253732e-03 -2.498768770398e-03 0.0 
0.0 0.0 0.0 
2.223253495817e-03 5.351053983674e-04 0.0 
5.351053983674e-04 -4.365839870301e-03 0.0 
0.0 0.0 0.0 
-1.388634670696e-05 -8.229636703336e-04 0.0 
-8.229636703336e-04 4.871008542308e-03 0.0 
0.0 0.0 0.0 
-4.004258148409e-04 -7.029343752928e-04 0.0 
-7.029343752928e-04 4.617975019423e-04 0.0 
0.0 0.0 0.0 
-1.156001514690e-03 2.056038797276e-03 0.0 
2.056038797276e-03 4.603611484197e-03 0.0 
0.0 0.0 0.0 
1.672931922693e-03 -2.994204705361e-03 0.0 
-2.994204705361e-03 -2.528542206944e-03 0.0 
0.0 0.0 0.0 
-1.509621487136e-03 1.550061936961e-03 0.0 
1.550061936961e-03 5.631175181535e-03 0.0 
0.0 0.0 0.0 
5.060981604432e-04 9.156772371590e-04 0.0 
9.156772371590e-04 4.066771044266e-03 0.0 
0.0 0.0 0.0 
0.0 2.626644953931e-03 0.0 
2.626644953931e-03 5.717585767073e-03 0.0 
0.0 0.0 0.0 
-1.177879812614e-03 2.151392955650e-03 0.0 
2.151392955650e-03 5.801544851272e-03 0.0 
0.0 0.0 0.0 
5.577738442757e-04 -3.209210021171e-03 0.0 
-3.209210021171e-03 -9.976229315821e-04 0.0 
0.0 0.0 0.0 
2.025389502704e-03 8.533608661586e-04 0.0 
8.533608661586e-04 -4.825912919131e-03 0.0 
0.0 0.0 0.0 
4.948576080368e-04 -3.674773633103e-03 0.0 
-3.674773633103e-03 -1.269482174887e-03 0.0 
0.0 0.0 0.0 
3.718381485491e-04 -9.712412745753e-04 0.0 
-9.712412745753e-04 3.149754324586e-03 0.0 
0.0 0.0 0.0 
-1.683207645584e-03 8.261610864123e-04 0.0 
8.261610864123e-04 6.915211776533e-03 0.0 
0.0 0.0 0.0 
-1.713710026745e-03 1.448444570197e-03 0.0 
1.448444570197e-03 6.651731393572e-03 0.0 
0.0 0.0 0.0 
0.0 2.329653452947e-03 0.0 
2.329653452947e-03 5.115854141993e-03 0.0 
0.0 0.0 0.0 
-1.634790577381e-03 6.826076810790e-04 0.0 
6.826076810790e-04 7.008314665473e-03 0.0 
0.0 0.0 0.0 
-2.446962929301e-04 1.984345998250e-03 0.0 
1.984345998250e-03 8.948819154432e-03 0.0 
0.0 0.0 0.0 
9.084474433625e-04 2.693366917196e-03 0.0 
2.693366917196e-03 2.824691152265e-03 0.0 
0.0 0.0 0.0 
-1.363187422011e-03 7.411787007292e-04 0.0 
7.411787007292e-04 7.625637341878e-03 0.0 
0.0 0.0 0.0 
-7.291507581619e-05 2.947969721218e-03 0.0 
2.947969721218e-03 1.924113973642e-03 0.0 
0.0 0.0 0.0 
2.738786252105e-03 1.679596636206e-03 0.0 
1.679596636206e-03 -4.338881192766e-04 0.0 
0.0 0.0 0.0 
2.899913934126e-03 2.852371383556e-03 0.0 
2.852371383556e-03 -2.777047566818e-03 0.0 
0.0 0.0 0.0 
0.0 1.881097049560e-03 0.0 
1.881097049560e-03 4.614054676894e-03 0.0 
0.0 0.0 0.0 
0.0 2.407773276123e-03 0.0 
2.407773276123e-03 8.207801540778e-03 0.0 
0.0 0.0 0.0 
0.0 2.121278648121e-03 0.0 
2.121278648121e-03 8.681673066692e-03 0.0 
0.0 0.0 0.0 
1.274284442416e-03 -1.789115438814e-03 0.0 
-1.789115438814e-03 3.319496718261e-04 0.0 
0.0 0.0 0.0 
-9.410093768831e-04 -1.570977533803e-03 0.0 
-1.570977533803e-03 2.400332720211e-03 0.0 
0.0 0.0 0.0 
9.772851550267e-04 3.138360296817e-03 0.0 
3.138360296817e-03 1.455795219630e-03 0.0 
0.0 0.0 0.0 
1.204020981049e-03 -1.616675774889e-03 0.0 
-1.616675774889e-03 9.915296809828e-04 0.0 
0.0 0.0 0.0 
0.0 1.372279852724e-03 0.0 
1.372279852724e-03 4.256367085670e-03 0.0 
0.0 0.0 0.0 
2.501653512816e-03 3.354475369915e-03 0.0 
3.354475369915e-03 -1.124803871835e-03 0.0 
0.0 0.0 0.0 
3.923490505907e-03 -1.120527934739e-03 0.0 
-1.120527934739e-03 -3.234408974139e-03 0.0 
0.0 0.0 0.0 
3.487671229556e-03 -1.661846477824e-03 0.0 
-1.661846477824e-03 -2.663936466203e-03 0.0 
0.0 0.0 0.0 
-1.282130307494e-03 7.159815894024e-04 0.0 
7.159815894024e-04 7.866488701095e-03 0.0 
0.0 0.0 0.0 
3.818139035028e-04 1.749483906956e-05 0.0 
1.749483906956e-05 4.108377787758e-03 0.0 
0.0 0.0 0.0 
-8.399313768883e-04 -3.395758596278e-03 0.0 
-3.395758596278e-03 -1.057592367997e-04 0.0 
0.0 0.0 0.0 
0.0 7.519314297676e-04 0.0 
7.519314297676e-04 4.046109972467e-03 0.0 
0.0 0.0 0.0 
2.905958444596e-03 -2.226866247846e-03 0.0 
-2.226866247846e-03 -2.174837844712e-03 0.0 
0.0 0.0 0.0 
0.0 2.725487503559e-03 0.0 
2.725487503559e-03 7.380819412247e-03 0.0 
0.0 0.0 0.0 
-6.078219452815e-04 2.331245818463e-03 0.0 
2.331245818463e-03 7.091630008133e-03 0.0 
0.0 0.0 0.0 
1.057329855594e-04 -7.153317842065e-05 0.0 
-7.153317842065e-05 9.384433465276e-05 0.0 
0.0 0.0 0.0 
1.103842394464e-03 3.156679251762e-03 0.0 
3.156679251762e-03 7.978901304944e-04 0.0 
0.0 0.0 0.0 
-9.248713726487e-04 1.462029973760e-03 0.0 
1.462029973760e-03 8.501001191256e-03 0.0 
0.0 0.0 0.0 
0.0 2.791520911474e-03 0.0 
2.791520911474e-03 6.724881856621e-03 0.0 
0.0 0.0 0.0 
-1.034829439920e-03 2.325183794447e-03 0.0 
2.325183794447e-03 5.978286821702e-03 0.0 
0.0 0.0 0.0 
1.128521647355e-03 2.521242511573e-03 0.0 
2.521242511573e-03 2.593911497852e-03 0.0 
0.0 0.0 0.0 
1.324939367368e-03 3.842961235974e-03 0.0 
3.842961235974e-03 -1.558239483690e-03 0.0 
0.0 0.0 0.0 
9.632956040706e-04 6.573842633179e-04 0.0 
6.573842633179e-04 2.700528651301e-03 0.0 
0.0 0.0 0.0 
2.353265226757e-03 -2.412527601081e-03 0.0 
-2.412527601081e-03 -1.498103024782e-03 0.0 
0.0 0.0 0.0 
2.952244174550e-03 -2.178250053917e-03 0.0 
-2.178250053917e-03 -2.592588066687e-03 0.0 
0.0 0.0 0.0 
-1.580901450026e-03 -3.275820655872e-03 0.0 
-3.275820655872e-03 -1.282607215707e-04 0.0 
0.0 0.0 0.0 
0.0 2.718655544353e-03 0.0 
2.718655544353e-03 6.045257452471e-03 0.0 
0.0 0.0 0.0 
3.276404404372e-03 2.491485496032e-03 0.0 
2.491485496032e-03 -2.796981565955e-03 0.0 
0.0 0.0 0.0 
1.453921653740e-03 -3.559006504779e-04 0.0 
-3.559006504779e-04 1.685132334356e-03 0.0 
0.0 0.0 0.0 
-1.502905149761e-03 6.004631466499e-04 0.0 
6.004631466499e-04 7.523628023228e-03 0.0 
0.0 0.0 0.0 
6.818643802355e-04 -2.689644829956e-03 0.0 
-2.689644829956e-03 -1.789200755699e-04 0.0 
0.0 0.0 0.0 
3.460540914072e-03 -1.837767008986e-03 0.0 
-1.837767008986e-03 -3.128555636741e-03 0.0 
0.0 0.0 0.0 
-9.655243741579e-04 2.484085705673e-03 0.0 
2.484085705673e-03 5.510438483052e-03 0.0 
0.0 0.0 0.0 
0.0 2.113899873680e-03 0.0 
2.113899873680e-03 4.855785755022e-03 0.0 
0.0 0.0 0.0 
-1.047413693051e-03 -1.507393530250e-03 0.0 
-1.507393530250e-03 2.814698529921e-03 0.0 
0.0 0.0 0.0 
1.440321315604e-03 -1.253956278882e-03 0.0 
-1.253956278882e-03 7.693553131844e-04 0.0 
0.0 0.0 0.0 
5.196470149440e-04 3.085316283253e-03 0.0 
3.085316283253e-03 2.232158907133e-03 0.0 
0.0 0.0 0.0 
2.687593030989e-03 -8.853469105265e-04 0.0 
-8.853469105265e-04 -1.145745130591e-03 0.0 
0.0 0.0 0.0 
3.944802845497e-03 -1.114177200511e-03 0.0 
-1.114177200511e-03 -3.351680341890e-03 0.0 
0.0 0.0 0.0 
1.592753612615e-03 -1.553751504922e-03 0.0 
-1.553751504922e-03 1.439868745623e-04 0.0 
0.0 0.0 0.0 
2.703344647983e-04 3.081455661076e-03 0.0 
3.081455661076e-03 2.761627818338e-03 0.0 
0.0 0.0 0.0 
2.688363527550e-04 2.786772791427e-03 0.0 
2.786772791427e-03 4.176471402380e-03 0.0 
0.0 0.0 0.0 
2.349907496698e-03 1.545604285751e-03 0.0 
1.545604285751e-03 4.046230149437e-04 0.0 
0.0 0.0 0.0 
8.657606703202e-04 3.121664755443e-03 0.0 
3.121664755443e-03 1.527199077030e-03 0.0 
0.0 0.0 0.0 
1.403151431294e-04 -2.209875225234e-03 0.0 
-2.209875225234e-03 1.357540233334e-03 0.0 
0.0 0.0 0.0 
2.026143572341e-03 3.451531312601e-03 0.0 
3.451531312601e-03 -4.171079863146e-04 0.0 
0.0 0.0 0.0 
-8.171399394022e-04 -1.745863408155e-03 0.0 
-1.745863408155e-03 2.425879029931e-03 0.0 
0.0 0.0 0.0 
1.135750697186e-03 2.610986511998e-03 0.0 
2.610986511998e-03 2.837410127962e-03 0.0 
0.0 0.0 0.0 
3.649332332339e-03 1.362729480334e-03 0.0 
1.362729480334e-03 -2.032895519025e-03 0.0 
0.0 0.0 0.0 
4.918635066902e-04 6.087876245038e-04 0.0 
6.087876245038e-04 4.046778563789e-03 0.0 
0.0 0.0 0.0 
-8.277301829118e-04 1.638612515172e-03 0.0 
1.638612515172e-03 8.466865704311e-03 0.0 
0.0 0.0 0.0 
4.274510570332e-04 -2.546404738805e-03 0.0 
-2.546404738805e-03 3.783482912258e-04 0.0 
0.0 0.0 0.0 
0.0 1.052555432382e-03 0.0 
1.052555432382e-03 4.088705486395e-03 0.0 
0.0 0.0 0.0 
9.635408742921e-04 7.270417472671e-04 0.0 
7.270417472671e-04 3.357883984667e-03 0.0 
0.0 0.0 0.0 
2.273944158977e-03 2.979979838475e-03 0.0 
2.979979838475e-03 -6.087421106216e-04 0.0 
0.0 0.0 0.0 
-7.623091188237e-04 -2.247364337485e-03 0.0 
-2.247364337485e-03 8.164556346573e-04 0.0 
0.0 0.0 0.0 
3.894065939636e-04 -2.155726510463e-04 0.0 
-2.155726510463e-04 4.214199929481e-03 0.0 
0.0 0.0 0.0 
-8.069450073919e-04 1.878721649835e-03 0.0 
1.878721649835e-03 8.102227126332e-03 0.0 
0.0 0.0 0.0 
2.249536577707e-03 -2.671712407689e-03 0.0 
-2.671712407689e-03 -1.510518703258e-03 0.0 
0.0 0.0 0.0 
0.0 1.782872827988e-04 0.0 
1.782872827988e-04 4.054078029163e-03 0.0 
0.0 0.0 0.0 
1.176093625533e-03 -1.551338274866e-03 0.0 
-1.551338274866e-03 8.407568420739e-04 0.0 
0.0 0.0 0.0 
-5.204406215088e-04 2.645729371709e-03 0.0 
2.645729371709e-03 3.228331826054e-03 0.0 
0.0 0.0 0.0 
-1.511323465221e-03 1.578242481290e-03 0.0 
1.578242481290e-03 6.568622726952e-03 0.0 
0.0 0.0 0.0 
3.751021604013e-03 1.484888805317e-03 0.0 
1.484888805317e-03 -1.893767453976e-03 0.0 
0.0 0.0 0.0 
1.365269068184e-03 -1.952672211929e-03 0.0 
-1.952672211929e-03 -7.463695315246e-05 0.0 
0.0 0.0 0.0 
2.755405821832e-03 -3.766701034448e-04 0.0 
-3.766701034448e-04 -8.880518188670e-04 0.0 
0.0 0.0 0.0 
-1.365347154962e-03 1.567229133368e-03 0.0 
1.567229133368e-03 7.399216710407e-03 0.0 
0.0 0.0 0.0 
-9.211709512931e-04 2.354307646736e-03 0.0 
2.354307646736e-03 4.236442998747e-03 0.0 
0.0 0.0 0.0 
1.998950060322e-03 1.781368119104e-03 0.0 
1.781368119104e-03 1.095239041051e-03 0.0 
0.0 0.0 0.0 
-1.159116392798e-03 1.233620820194e-04 0.0 
1.233620820194e-04 7.851699469759e-03 0.0 
0.0 0.0 0.0 
-1.261399398840e-04 -2.147005342728e-03 0.0 
-2.147005342728e-03 1.349601728679e-03 0.0 
0.0 0.0 0.0 
2.711491407268e-03 1.234045790615e-03 0.0 
1.234045790615e-03 -2.676665164218e-04 0.0 
0.0 0.0 0.0 
1.801841591745e-03 -2.607224586440e-03 0.0 
-2.607224586440e-03 -1.471116320690e-03 0.0 
0.0 0.0 0.0 
-3.806750512918e-04 -1.376393834088e-03 0.0 
-1.376393834088e-03 3.195449094920e-03 0.0 
0.0 0.0 0.0 
-2.608035940543e-05 -2.060521040371e-04 0.0 
-2.060521040371e-04 4.795494036669e-05 0.0 
0.0 0.0 0.0 
1.539752504739e-03 3.459546083560e-03 0.0 
3.459546083560e-03 2.387145176790e-04 0.0 
0.0 0.0 0.0 
2.343739115373e-03 -2.625372601651e-03 0.0 
-2.625372601651e-03 -2.115476458709e-03 0.0 
0.0 0.0 0.0 
-5.306055033579e-04 -1.827047583594e-03 0.0 
-1.827047583594e-03 2.392460037557e-03 0.0 
0.0 0.0 0.0 
1.730372794238e-03 2.991647849533e-03 0.0 
2.991647849533e-03 2.281203578791e-04 0.0 
0.0 0.0 0.0 
1.543917022486e-03 -1.367693271775e-03 0.0 
-1.367693271775e-03 8.117005586394e-04 0.0 
0.0 0.0 0.0 
-1.418234092274e-03 5.799183776871e-04 0.0 
5.799183776871e-04 7.768828464477e-03 0.0 
0.0 0.0 0.0 
1.683156945364e-03 -2.874913963380e-03 0.0 
-2.874913963380e-03 -1.475518391427e-03 0.0 
0.0 0.0 0.0 
0.0 -5.505258646215e-05 0.0 
-5.505258646215e-05 4.163135867794e-03 0.0 
0.0 0.0 0.0 
-5.067050089126e-04 2.775159649742e-03 0.0 
2.775159649742e-03 4.636261576283e-03 0.0 
0.0 0.0 0.0 
-7.874120267731e-04 -1.601134799940e-03 0.0 
-1.601134799940e-03 2.857926642842e-03 0.0 
0.0 0.0 0.0 
-2.897995223188e-04 2.890873581280e-03 0.0 
2.890873581280e-03 4.042238630461e-03 0.0 
0.0 0.0 0.0 
-7.273203623299e-04 -1.719837150463e-03 0.0 
-1.719837150463e-03 2.377591870135e-03 0.0 
0.0 0.0 0.0 
-6.634409894754e-04 -1.002202427661e-04 0.0 
-1.002202427661e-04 3.867073439665e-04 0.0 
0.0 0.0 0.0 
-1.564568783705e-03 1.559975720755e-03 0.0 
1.559975720755e-03 6.861249040570e-03 0.0 
0.0 0.0 0.0 
-1.541054625204e-03 -6.060353373513e-04 0.0 
-6.060353373513e-04 3.362111104385e-03 0.0 
0.0 0.0 0.0 
1.269152023704e-03 -1.254256873449e-04 0.0 
-1.254256873449e-04 -4.243746856989e-04 0.0 
0.0 0.0 0.0 
-1.037320234842e-03 -1.451289717106e-03 0.0 
-1.451289717106e-03 3.042294333438e-03 0.0 
0.0 0.0 0.0 
1.386298994083e-03 -1.083173107286e-03 0.0 
-1.083173107286e-03 1.393699745529e-03 0.0 
0.0 0.0 0.0 
-6.769020088657e-04 5.080284706354e-04 0.0 
5.080284706354e-04 9.078533293904e-03 0.0 
0.0 0.0 0.0 
3.142728842381e-03 -5.272113769308e-04 0.0 
-5.272113769308e-04 -1.653852604090e-03 0.0 
0.0 0.0 0.0 
2.954637295096e-03 -5.131526935072e-04 0.0 
-5.131526935072e-04 -1.211700220898e-03 0.0 
0.0 0.0 0.0 
-1.798295090975e-03 1.286030230376e-03 0.0 
1.286030230376e-03 6.409114870158e-03 0.0 
0.0 0.0 0.0 
-1.627044387020e-03 5.233225421113e-04 0.0 
5.233225421113e-04 6.756710966129e-03 0.0 
0.0 0.0 0.0 
-2.714265062844e-04 1.659873137924e-03 0.0 
1.659873137924e-03 8.950235489349e-03 0.0 
0.0 0.0 0.0 
-3.493816076572e-05 2.996393497030e-03 0.0 
2.996393497030e-03 3.414363875262e-03 0.0 
0.0 0.0 0.0 
1.982191980921e-03 -1.513176582204e-04 0.0 
-1.513176582204e-04 -6.990628878364e-04 0.0 
0.0 0.0 0.0 
-1.906890970175e-04 -1.392950266862e-03 0.0 
-1.392950266862e-03 1.007941526578e-03 0.0 
0.0 0.0 0.0 
-8.271678402680e-04 -1.329839358858e-03 0.0 
-1.329839358858e-03 8.880854455555e-04 0.0 
0.0 0.0 0.0 
4.682426600744e-05 -2.352489648913e-03 0.0 
-2.352489648913e-03 7.260469683652e-04 0.0 
0.0 0.0 0.0 
-1.315402839435e-04 2.580962583677e-03 0.0 
2.580962583677e-03 5.763955971684e-03 0.0 
0.0 0.0 0.0 
-7.595674049853e-04 4.813404799528e-04 0.0 
4.813404799528e-04 9.082023816567e-03 0.0 
0.0 0.0 0.0 
3.925186667297e-04 -1.000754747894e-03 0.0 
-1.000754747894e-03 3.182790387295e-03 0.0 
0.0 0.0 0.0 
-3.716118370691e-04 -1.960657870982e-03 0.0 
-1.960657870982e-03 1.429572392475e-03 0.0 
0.0 0.0 0.0 
-6.110385671703e-04 -1.345619334927e-03 0.0 
-1.345619334927e-03 3.191987241568e-03 0.0 
0.0 0.0 0.0 
1.292168366489e-03 -3.104207130563e-04 0.0 
-3.104207130563e-04 2.163828575734e-03 0.0 
0.0 0.0 0.0 
3.034914023527e-03 4.645870016272e-04 0.0 
4.645870016272e-04 -4.280989302277e-03 0.0 
0.0 0.0 0.0 
-1.540903760462e-03 -3.667400953265e-04 0.0 
-3.667400953265e-04 3.357807262012e-03 0.0 
0.0 0.0 0.0 
-1.375478976527e-03 -3.359642188539e-04 0.0 
-3.359642188539e-04 2.961899671271e-03 0.0 
0.0 0.0 0.0 
2.858094643734e-04 -4.380697748532e-04 0.0 
-4.380697748532e-04 4.337378753109e-03 0.0 
0.0 0.0 0.0 
0.0 -2.920475324628e-04 0.0 
-2.920475324628e-04 4.265169543899e-03 0.0 
0.0 0.0 0.0 
-1.595213643063e-03 -3.864752236292e-04 0.0 
-3.864752236292e-04 3.589236299162e-03 0.0 
0.0 0.0 0.0 
-9.613951577102e-04 -1.482042795156e-03 0.0 
-1.482042795156e-03 2.840763439055e-03 0.0 
0.0 0.0 0.0 
1.248582347783e-03 -1.819084063741e-03 0.0 
-1.819084063741e-03 5.675900455795e-04 0.0 
0.0 0.0 0.0 
1.269927543264e-03 -3.825823888144e-05 0.0 
-3.825823888144e-05 2.368131237081e-03 0.0 
0.0 0.0 0.0 
-4.301706177331e-04 -1.499824663200e-03 0.0 
-1.499824663200e-03 1.155994061930e-03 0.0 
0.0 0.0 0.0 
1.280874433732e-03 -5.848956124312e-04 0.0 
-5.848956124312e-04 2.029730446813e-03 0.0 
0.0 0.0 0.0 
1.036618441244e-03 -3.678533560980e-04 0.0 
-3.678533560980e-04 3.119831761396e-04 0.0 
0.0 0.0 0.0 
-9.621759130385e-04 -1.545704882698e-03 0.0 
-1.545704882698e-03 2.608709640785e-03 0.0 
0.0 0.0 0.0 
-4.470024950550e-04 -1.844998638838e-03 0.0 
-1.844998638838e-03 2.109696989034e-03 0.0 
0.0 0.0 0.0 
1.200210873977e-03 -1.882378546795e-04 0.0 
-1.882378546795e-04 -1.139985108678e-04 0.0 
0.0 0.0 0.0 
-1.605603122142e-03 -3.641398370992e-04 0.0 
-3.641398370992e-04 3.543831384169e-03 0.0 
0.0 0.0 0.0 
-6.894506081965e-04 1.627888659161e-03 0.0 
1.627888659161e-03 8.467685022825e-03 0.0 
0.0 0.0 0.0 
2.198747585697e-03 -9.493060512581e-05 0.0 
-9.493060512581e-05 -7.779731134349e-04 0.0 
0.0 0.0 0.0 
-1.675130282434e-03 6.498086946656e-04 0.0 
6.498086946656e-04 6.689972724486e-03 0.0 
0.0 0.0 0.0 
-1.714311937283e-03 7.657545846218e-04 0.0 
7.657545846218e-04 6.579780044719e-03 0.0 
0.0 0.0 0.0 
2.723153095785e-03 1.316260115489e-04 0.0 
1.316260115489e-04 -4.848372502341e-04 0.0 
0.0 0.0 0.0 
-1.335550062694e-03 -7.920842259081e-05 0.0 
-7.920842259081e-05 2.971352880653e-03 0.0 
0.0 0.0 0.0 
1.699891670132e-03 -2.646776797018e-03 0.0 
-2.646776797018e-03 -8.465569292906e-04 0.0 
0.0 0.0 0.0 
8.882826110719e-04 3.662537140092e-03 0.0 
3.662537140092e-03 2.087893048472e-04 0.0 
0.0 0.0 0.0 
1.032190163628e-04 -8.188184426637e-04 0.0 
-8.188184426637e-04 4.125473698793e-03 0.0 
0.0 0.0 0.0 
8.611189155538e-05 2.624278338428e-03 0.0 
2.624278338428e-03 5.807391653766e-03 0.0 
0.0 0.0 0.0 
-9.520032530441e-04 7.118670948122e-04 0.0 
7.118670948122e-04 8.801634452025e-03 0.0 
0.0 0.0 0.0 
9.980827259337e-06 3.143985697689e-03 0.0 
3.143985697689e-03 1.899177494426e-03 0.0 
0.0 0.0 0.0 
-4.563044243497e-04 -1.150896207203e-03 0.0 
-1.150896207203e-03 8.860821101655e-04 0.0 
0.0 0.0 0.0 
-1.326991759351e-03 2.134496691887e-03 0.0 
2.134496691887e-03 5.003464589815e-03 0.0 
0.0 0.0 0.0 
-1.456672984577e-03 2.628082903714e-04 0.0 
2.628082903714e-04 6.861826758456e-03 0.0 
0.0 0.0 0.0 
-1.433732737735e-03 2.400536187654e-04 0.0 
2.400536187654e-04 6.827063276182e-03 0.0 
0.0 0.0 0.0 
1.464170081198e-03 -1.127571867611e-04 0.0 
-1.127571867611e-04 -5.120537933733e-04 0.0 
0.0 0.0 0.0 
1.036924579277e-03 -2.542187492346e-04 0.0 
-2.542187492346e-04 -4.144402899819e-05 0.0 
0.0 0.0 0.0 
7.626127909535e-04 -1.637993424821e-04 0.0 
-1.637993424821e-04 4.395804491597e-04 0.0 
0.0 0.0 0.0 
-5.152314136981e-04 -1.686849929510e-03 0.0 
-1.686849929510e-03 1.526835966626e-03 0.0 
0.0 0.0 0.0 
1.837528898344e-03 -1.619892577848e-04 0.0 
-1.619892577848e-04 -3.568239949898e-04 0.0 
0.0 0.0 0.0 
-1.611566909685e-03 -3.527299421937e-04 0.0 
-3.527299421937e-04 3.775695835222e-03 0.0 
0.0 0.0 0.0 
-1.326662483315e-03 -1.201389948571e-03 0.0 
-1.201389948571e-03 -1.834944503405e-03 0.0 
0.0 0.0 0.0 
-5.332452008031e-04 -1.855616090080e-03 0.0 
-1.855616090080e-03 1.689199692922e-03 0.0 
0.0 0.0 0.0 
-1.023474768053e-03 1.618663963753e-04 0.0 
1.618663963753e-04 8.169192143918e-03 0.0 
0.0 0.0 0.0 
-1.620953056433e-03 4.993235632954e-04 0.0 
4.993235632954e-04 6.726051325988e-03 0.0 
0.0 0.0 0.0 
-2.491697696979e-04 2.544871875188e-03 0.0 
2.544871875188e-03 6.293068713603e-03 0.0 
0.0 0.0 0.0 
1.148649045190e-03 -1.351051629865e-03 0.0 
-1.351051629865e-03 1.486637223727e-03 0.0 
0.0 0.0 0.0 
-1.090683260246e-03 1.168336885388e-04 0.0 
1.168336885388e-04 7.847782650003e-03 0.0 
0.0 0.0 0.0 
-1.458150635272e-03 -1.302071049174e-04 0.0 
-1.302071049174e-04 3.143722550658e-03 0.0 
0.0 0.0 0.0 
1.319656562441e-03 -2.035244911857e-04 0.0 
-2.035244911857e-04 2.099507539466e-04 0.0 
0.0 0.0 0.0 
0.0 9.334218050830e-04 0.0 
9.334218050830e-04 9.693445513701e-03 0.0 
0.0 0.0 0.0 
-2.405246662830e-04 1.037971973022e-03 0.0 
1.037971973022e-03 9.653930148379e-03 0.0 
0.0 0.0 0.0 
-1.369184531704e-03 5.885963537371e-04 0.0 
5.885963537371e-04 7.524328404409e-03 0.0 
0.0 0.0 0.0 
-1.522117685991e-03 3.289717273490e-04 0.0 
3.289717273490e-04 6.834746911812e-03 0.0 
0.0 0.0 0.0 
-1.412125759229e-03 -3.232738103724e-04 0.0 
-3.232738103724e-04 3.109382783880e-03 0.0 
0.0 0.0 0.0 
-2.163524910070e-04 7.448913617735e-04 0.0 
7.448913617735e-04 9.782073397709e-03 0.0 
0.0 0.0 0.0 
-3.328267365360e-04 -1.832708204999e-03 0.0 
-1.832708204999e-03 1.337162715246e-03 0.0 
0.0 0.0 0.0 
-1.674084026932e-03 6.230080478550e-04 0.0 
6.230080478550e-04 6.658255270445e-03 0.0 
0.0 0.0 0.0 
-1.578057747139e-03 4.210792334965e-04 0.0 
4.210792334965e-04 6.803901261788e-03 0.0 
0.0 0.0 0.0 
-1.438340477723e-03 1.641633485921e-03 0.0 
1.641633485921e-03 5.279616735878e-03 0.0 
0.0 0.0 0.0 
0.0 1.836652852919e-03 0.0 
1.836652852919e-03 9.037801700370e-03 0.0 
0.0 0.0 0.0 
-2.384323488018e-04 8.931054682359e-04 0.0 
8.931054682359e-04 9.726176850132e-03 0.0 
0.0 0.0 0.0 
1.690347877405e-03 -2.135493564397e-04 0.0 
-2.135493564397e-04 -3.078415303979e-04 0.0 
0.0 0.0 0.0 
1.690236904490e-03 -9.510852706281e-05 0.0 
-9.510852706281e-05 -6.086952208615e-04 0.0 
0.0 0.0 0.0 
-4.298197894899e-04 -1.120981984977e-03 0.0 
-1.120981984977e-03 9.791367882563e-04 0.0 
0.0 0.0 0.0 
-2.125556408143e-04 -1.908657743165e-03 0.0 
-1.908657743165e-03 2.117870306789e-03 0.0 
0.0 0.0 0.0 
-5.610359185774e-04 -1.280337281307e-04 0.0 
-1.280337281307e-04 5.648457925208e-03 0.0 
0.0 0.0 0.0 
-4.048868241862e-03 -2.015699152103e-03 0.0 
-2.015699152103e-03 -1.758953432683e-03 0.0 
0.0 0.0 0.0 
-7.940135979718e-04 5.454657214356e-05 0.0 
5.454657214356e-05 8.888141945397e-03 0.0 
0.0 0.0 0.0 
-1.535405152220e-03 -1.114419827625e-03 0.0 
-1.114419827625e-03 7.257616062806e-04 0.0 
0.0 0.0 0.0 
2.636181806221e-03 -3.045463706983e-04 0.0 
-3.045463706983e-04 -4.219188148911e-04 0.0 
0.0 0.0 0.0 
-6.978061832469e-04 -7.046224024793e-04 0.0 
-7.046224024793e-04 -2.577590299713e-05 0.0 
0.0 0.0 0.0 
-2.281849159397e-03 -2.281630213141e-03 0.0 
-2.281630213141e-03 -4.206412005862e-04 0.0 
0.0 0.0 0.0 
2.579598288204e-03 -7.780053431155e-04 0.0 
-7.780053431155e-04 -6.001661833479e-04 0.0 
0.0 0.0 0.0 
-5.076535631314e-04 -5.068121238032e-04 0.0 
-5.068121238032e-04 5.256062348730e-03 0.0 
0.0 0.0 0.0 
-1.094925836081e-03 1.175561441535e-04 0.0 
1.175561441535e-04 8.141741875513e-03 0.0 
0.0 0.0 0.0 
-1.078957677457e-03 2.414087392177e-03 0.0 
2.414087392177e-03 4.695735387527e-03 0.0 
0.0 0.0 0.0 
1.320237938480e-03 -1.393874086641e-04 0.0 
-1.393874086641e-04 -1.647397727091e-04 0.0 
0.0 0.0 0.0 
-7.810173711675e-04 -1.125856559391e-03 0.0 
-1.125856559391e-03 3.641471179255e-03 0.0 
0.0 0.0 0.0 
0.0 2.998190338166e-04 0.0 
2.998190338166e-04 9.876744852577e-03 0.0 
0.0 0.0 0.0 
-2.035098910198e-04 3.386151200582e-04 0.0 
3.386151200582e-04 9.880541610093e-03 0.0 
0.0 0.0 0.0 
-1.554094537377e-03 3.964428332983e-04 0.0 
3.964428332983e-04 6.767474620985e-03 0.0 
0.0 0.0 0.0 
2.568408167604e-03 1.431871304488e-04 0.0 
1.431871304488e-04 -1.194431214564e-04 0.0 
0.0 0.0 0.0 
0.0 7.913841948031e-04 0.0 
7.913841948031e-04 9.761106619411e-03 0.0 
0.0 0.0 0.0 
1.324192383500e-03 2.411725074500e-03 0.0 
2.411725074500e-03 2.608784726781e-03 0.0 
0.0 0.0 0.0 
1.390580476214e-03 -1.057802025788e-04 0.0 
-1.057802025788e-04 1.584222476534e-04 0.0 
0.0 0.0 0.0 
1.946784871047e-03 -1.106511672883e-04 0.0 
-1.106511672883e-04 -4.061263623016e-04 0.0 
0.0 0.0 0.0 
1.405897818211e-03 -3.690995902720e-05 0.0 
-3.690995902720e-05 -1.758127484514e-04 0.0 
0.0 0.0 0.0 
-1.589158203690e-03 -1.236786719015e-04 0.0 
-1.236786719015e-04 3.435628256109e-03 0.0 
0.0 0.0 0.0 
-1.994210429462e-04 -5.065573310338e-04 0.0 
-5.065573310338e-04 5.844586054484e-03 0.0 
0.0 0.0 0.0 
-3.526258636954e-04 -1.380761684983e-05 0.0 
-1.380761684983e-05 9.627323987874e-03 0.0 
0.0 0.0 0.0 
1.948469977670e-03 -7.002290867400e-05 0.0 
-7.002290867400e-05 -7.286664491087e-04 0.0 
0.0 0.0 0.0 
-1.631940340384e-03 -1.439427084822e-04 0.0 
-1.439427084822e-04 3.775394730258e-03 0.0 
0.0 0.0 0.0 
0.0 -3.832868154214e-04 0.0 
-3.832868154214e-04 5.919718751620e-03 0.0 
0.0 0.0 0.0 
-1.997739748573e-04 -6.033105716883e-04 0.0 
-6.033105716883e-04 5.739296866513e-03 0.0 
0.0 0.0 0.0 
2.702507297752e-04 -6.120986699622e-04 0.0 
-6.120986699622e-04 4.491379970762e-03 0.0 
0.0 0.0 0.0 
-9.135693062483e-04 7.949215255846e-05 0.0 
7.949215255846e-05 8.570061455790e-03 0.0 
0.0 0.0 0.0 
-7.135611645315e-04 -1.775677731447e-05 0.0 
-1.775677731447e-05 9.048364524984e-03 0.0 
0.0 0.0 0.0 
0.0 -4.978789450682e-04 0.0 
-4.978789450682e-04 5.794806490803e-03 0.0 
0.0 0.0 0.0 
0.0 -6.108359964073e-04 0.0 
-6.108359964073e-04 5.681395153535e-03 0.0 
0.0 0.0 0.0 
-7.812537170709e-04 8.742466122680e-05 0.0 
8.742466122680e-05 8.889297637926e-03 0.0 
0.0 0.0 0.0 
2.691099697054e-03 8.744565858363e-07 0.0 
8.744565858363e-07 -1.028228629941e-03 0.0 
0.0 0.0 0.0 
-1.331095477338e-03 1.436718445100e-04 0.0 
1.436718445100e-04 6.838820946729e-03 0.0 
0.0 0.0 0.0 
-1.495149606802e-03 3.159229664535e-04 0.0 
3.159229664535e-04 6.813271500799e-03 0.0 
0.0 0.0 0.0 
1.838191868920e-03 -7.541696713385e-05 0.0 
-7.541696713385e-05 -6.730081301762e-04 0.0 
0.0 0.0 0.0 
0.0 -7.807980371702e-04 0.0 
-7.807980371702e-04 5.196657101673e-03 0.0 
0.0 0.0 0.0 
1.631345253073e-04 -7.409830122381e-04 0.0 
-7.409830122381e-04 4.667479958563e-03 0.0 
0.0 0.0 0.0 
0.0 -7.044407444724e-04 0.0 
-7.044407444724e-04 4.757046031427e-03 0.0 
0.0 0.0 0.0 
2.533480614356e-03 -5.992834554446e-05 0.0 
-5.992834554446e-05 -9.185478891751e-04 0.0 
0.0 0.0 0.0 
2.382929993117e-03 -7.884156827558e-05 0.0 
-7.884156827558e-05 -8.584264202737e-04 0.0 
0.0 0.0 0.0 
0.0 -4.606454489594e-04 0.0 
-4.606454489594e-04 4.406580431522e-03 0.0 
0.0 0.0 0.0 
0.0 -6.104379963060e-04 0.0 
-6.104379963060e-04 4.569400317598e-03 0.0 
0.0 0.0 0.0 
-9.743587098781e-04 -2.246534383836e-05 0.0 
-2.246534383836e-05 8.399073229714e-03 0.0 
0.0 0.0 0.0 
-1.228562929672e-03 6.064140145377e-05 0.0 
6.064140145377e-05 6.836954710576e-03 0.0 
0.0 0.0 0.0 
-8.529231265334e-04 -1.972552209401e-05 0.0 
-1.972552209401e-05 8.732334166096e-03 0.0 
0.0 0.0 0.0 
-1.130134052986e-03 -2.522356296666e-05 0.0 
-2.522356296666e-05 7.675807372669e-03 0.0 
0.0 0.0 0.0 
-1.185048102169e-03 2.345933463786e-05 0.0 
2.345933463786e-05 6.831164197908e-03 0.0 
0.0 0.0 0.0 
1.676910993856e-03 -1.771547313025e-04 0.0 
-1.771547313025e-04 -5.699435249453e-04 0.0 
0.0 0.0 0.0 
9.337093267503e-04 -1.442122432103e-04 0.0 
-1.442122432103e-04 -2.033498370594e-04 0.0 
0.0 0.0 0.0 
6.660712076452e-04 -1.370567589471e-04 0.0 
-1.370567589471e-04 -9.050178082826e-05 0.0 
0.0 0.0 0.0 
3.417215493668e-04 -1.009072562648e-04 0.0 
-1.009072562648e-04 7.815459007499e-05 0.0 
0.0 0.0 0.0 
-1.627445245686e-03 -9.769445946770e-05 0.0 
-9.769445946770e-05 3.916598831321e-03 0.0 
0.0 0.0 0.0 
-1.636221053265e-03 -1.140546118793e-04 0.0 
-1.140546118793e-04 3.684175528785e-03 0.0 
0.0 0.0 0.0 
1.668914115664e-04 -1.495193097305e-04 0.0 
-1.495193097305e-04 5.838420723681e-05 0.0 
0.0 0.0 0.0 
-1.367573098606e-03 -5.964941713510e-05 0.0 
-5.964941713510e-05 4.562281592311e-03 0.0 
0.0 0.0 0.0 
-1.128665315770e-04 -1.445399372910e-04 0.0 
-1.445399372910e-04 1.841994570926e-04 0.0 
0.0 0.0 0.0 
0.0 1.524926539624e-03 0.0 
1.524926539624e-03 9.323874984277e-03 0.0 
0.0 0.0 0.0 
0.0 6.650583089023e-04 0.0 
6.650583089023e-04 9.802384368637e-03 0.0 
0.0 0.0 0.0 
0.0 1.080859039142e-03 0.0 
1.080859039142e-03 9.611571319303e-03 0.0 
0.0 0.0 0.0 
2.247602008323e-04 -1.224769431012e-04 0.0 
-1.224769431012e-04 1.189678086083e-03 0.0 
0.0 0.0 0.0 
-1.221512783650e-03 -1.301027583534e-04 0.0 
-1.301027583534e-04 2.785664357767e-03 0.0 
0.0 0.0 0.0 
0.0 5.289735990481e-04 0.0 
5.289735990481e-04 9.824133792855e-03 0.0 
0.0 0.0 0.0 
-8.822387921684e-04 -1.793247775597e-05 0.0 
-1.793247775597e-05 5.293481994361e-03 0.0 
0.0 0.0 0.0 
0.0 4.177229587429e-04 0.0 
4.177229587429e-04 9.887092506109e-03 0.0 
0.0 0.0 0.0 
-6.789842616142e-04 -6.158408031318e-06 0.0 
-6.158408031318e-06 5.542397559158e-03 0.0 
0.0 0.0 0.0 
-4.418687629139e-04 -1.902670701667e-06 0.0 
-1.902670701667e-06 5.774921588244e-03 0.0 
0.0 0.0 0.0 
-1.612603272184e-03 -1.345736347233e-04 0.0 
-1.345736347233e-04 3.543745932082e-03 0.0 
0.0 0.0 0.0 
-2.398074090043e-04 6.035306507794e-04 0.0 
6.035306507794e-04 9.813749252044e-03 0.0 
0.0 0.0 0.0 
-1.959798064846e-04 5.145745598798e-04 0.0 
5.145745598798e-04 9.847973730741e-03 0.0 
0.0 0.0 0.0 
-7.713945441578e-04 -1.346680757042e-04 0.0 
-1.346680757042e-04 5.386449981802e-03 0.0 
0.0 0.0 0.0 
-5.578348057448e-04 -1.377982954797e-04 0.0 
-1.377982954797e-04 5.649008071762e-03 0.0 
0.0 0.0 0.0 
-9.992593878054e-04 -6.990372007044e-04 0.0 
-6.990372007044e-04 4.385101678344e-03 0.0 
0.0 0.0 0.0 
-1.051930742305e-03 -3.272757584443e-04 0.0 
-3.272757584443e-04 5.286320140465e-04 0.0 
0.0 0.0 0.0 
-1.146549434261e-03 -1.332035978430e-03 0.0 
-1.332035978430e-03 2.790438310528e-03 0.0 
0.0 0.0 0.0 
1.473064795213e-03 -2.877126970618e-04 0.0 
-2.877126970618e-04 -2.034329768433e-04 0.0 
0.0 0.0 0.0 
-2.156642659934e-05 -8.804919705162e-04 0.0 
-8.804919705162e-04 4.132033225994e-03 0.0 
0.0 0.0 0.0 
-8.145248969617e-04 -1.690029018661e-03 0.0 
-1.690029018661e-03 2.629716886891e-03 0.0 
0.0 0.0 0.0 
-5.569075652289e-04 -7.043725034859e-04 0.0 
-7.043725034859e-04 4.652765571377e-03 0.0 
0.0 0.0 0.0 
-2.671946466732e-04 -1.605430435872e-03 0.0 
-1.605430435872e-03 1.237620401809e-03 0.0 
0.0 0.0 0.0 
2.704456625333e-04 -5.569081037761e-04 0.0 
-5.569081037761e-04 5.842119277437e-04 0.0 
0.0 0.0 0.0 
-5.545232012115e-04 -6.359224148532e-04 0.0 
-6.359224148532e-04 4.968916902134e-03 0.0 
0.0 0.0 0.0 
-1.166597933696e-03 -1.297873660118e-03 0.0 
-1.297873660118e-03 3.018494151910e-03 0.0 
0.0 0.0 0.0 
-1.522440866062e-03 -3.605831081883e-04 0.0 
-3.605831081883e-04 3.274609199362e-03 0.0 
0.0 0.0 0.0 
-6.836202551441e-04 -7.021077194161e-04 0.0 
-7.021077194161e-04 4.653204331135e-03 0.0 
0.0 0.0 0.0 
-5.311047229927e-04 2.621590597303e-04 0.0 
2.621590597303e-04 9.301062856709e-03 0.0 
0.0 0.0 0.0 
-1.523193167337e-03 -1.116961121459e-04 0.0 
-1.116961121459e-04 3.279318402874e-03 0.0 
0.0 0.0 0.0 
1.276977488571e-03 -9.768986343599e-04 0.0 
-9.768986343599e-04 1.412705080859e-03 0.0 
0.0 0.0 0.0 
1.830615927432e-04 -1.541806292169e-03 0.0 
-1.541806292169e-03 2.475782100049e-03 0.0 
0.0 0.0 0.0 
-8.575807334539e-04 -7.518835645871e-04 0.0 
-7.518835645871e-04 4.392406870703e-03 0.0 
0.0 0.0 0.0 
-9.353475308593e-04 -5.548748407448e-04 0.0 
-5.548748407448e-04 4.679122407788e-03 0.0 
0.0 0.0 0.0 
4.209815159738e-03 1.841084110860e-03 0.0 
1.841084110860e-03 -3.144654245553e-03 0.0 
0.0 0.0 0.0 
-1.184732171746e-03 2.269595355941e-03 0.0 
2.269595355941e-03 4.573376619424e-03 0.0 
0.0 0.0 0.0 
1.543089416294e-03 3.066868735908e-03 0.0 
3.066868735908e-03 8.500759643699e-04 0.0 
0.0 0.0 0.0 
-5.808979268856e-04 -1.167850423401e-03 0.0 
-1.167850423401e-03 3.646754555863e-03 0.0 
0.0 0.0 0.0 
-7.253527408262e-04 -5.496270742635e-04 0.0 
-5.496270742635e-04 4.964504194655e-03 0.0 
0.0 0.0 0.0 
-9.676155669643e-04 -3.706837587810e-04 0.0 
-3.706837587810e-04 4.916779084161e-03 0.0 
0.0 0.0 0.0 
-5.112490559944e-05 -2.280635694097e-03 0.0 
-2.280635694097e-03 8.149306414575e-04 0.0 
0.0 0.0 0.0 
-5.684654907497e-04 4.474013720818e-04 0.0 
4.474013720818e-04 9.254888559902e-03 0.0 
0.0 0.0 0.0 
-7.422394353749e-04 3.960464781767e-04 0.0 
3.960464781767e-04 8.964009891335e-03 0.0 
0.0 0.0 0.0 
-1.214677450338e-03 1.928499422532e-04 0.0 
1.928499422532e-04 7.383176643459e-03 0.0 
0.0 0.0 0.0 
-3.176310497647e-04 -1.187963016368e-03 0.0 
-1.187963016368e-03 3.515758971751e-03 0.0 
0.0 0.0 0.0 
-7.393421029495e-04 -9.574131127044e-04 0.0 
-9.574131127044e-04 4.044681650783e-03 0.0 
0.0 0.0 0.0 
-5.963580670074e-04 2.368738688231e-04 0.0 
2.368738688231e-04 9.309485860834e-03 0.0 
0.0 0.0 0.0 
-6.579735005758e-04 3.396529571297e-04 0.0 
3.396529571297e-04 9.141343655132e-03 0.0 
0.0 0.0 0.0 
1.900533514325e-04 -1.736753439663e-03 0.0 
-1.736753439663e-03 1.889886437788e-03 0.0 
0.0 0.0 0.0 
-5.629493495450e-04 -5.093714704523e-04 0.0 
-5.093714704523e-04 5.256404189784e-03 0.0 
0.0 0.0 0.0 
-8.429296480299e-04 7.278612063349e-04 0.0 
7.278612063349e-04 8.799372196507e-03 0.0 
0.0 0.0 0.0 
-1.013723335158e-03 -3.112386010044e-04 0.0 
-3.112386010044e-04 4.916835029406e-03 0.0 
0.0 0.0 0.0 
-1.297067875728e-04 -8.268994264133e-04 0.0 
-8.268994264133e-04 4.579294560336e-03 0.0 
0.0 0.0 0.0 
-6.367258133445e-04 4.225716731177e-04 0.0 
4.225716731177e-04 9.259468632404e-03 0.0 
0.0 0.0 0.0 
-1.057219499786e-03 3.524066648478e-04 0.0 
3.524066648478e-04 8.468287140522e-03 0.0 
0.0 0.0 0.0 
1.070248877274e-03 -1.253755366078e-03 0.0 
-1.253755366078e-03 1.421313961380e-03 0.0 
0.0 0.0 0.0 
-7.273880308437e-04 -7.903616620094e-04 0.0 
-7.903616620094e-04 2.000482092900e-03 0.0 
0.0 0.0 0.0 
5.265989802528e-05 -2.430737007148e-03 0.0 
-2.430737007148e-03 5.491168862526e-04 0.0 
0.0 0.0 0.0 
-1.278168590364e-04 -9.374369004040e-04 0.0 
-9.374369004040e-04 8.554901439495e-04 0.0 
0.0 0.0 0.0 
-1.059370488662e-03 -1.806496726481e-03 0.0 
-1.806496726481e-03 4.043410220707e-04 0.0 
0.0 0.0 0.0 
-7.005434956606e-04 3.091107141474e-04 0.0 
3.091107141474e-04 9.144415313125e-03 0.0 
0.0 0.0 0.0 
-6.543124603775e-04 -4.073189527654e-04 0.0 
-4.073189527654e-04 5.228276234002e-03 0.0 
0.0 0.0 0.0 
-6.715818131737e-04 -1.075014966725e-03 0.0 
-1.075014966725e-03 5.327839031799e-04 0.0 
0.0 0.0 0.0 
-7.433999196226e-04 2.106427914396e-03 0.0 
2.106427914396e-03 7.657037500846e-03 0.0 
0.0 0.0 0.0 
-1.212056305138e-03 2.532503235012e-04 0.0 
2.532503235012e-04 7.557989931704e-03 0.0 
0.0 0.0 0.0 
-6.064758332240e-04 -8.662329620818e-04 0.0 
-8.662329620818e-04 4.285222658200e-03 0.0 
0.0 0.0 0.0 
-7.947848240457e-04 -4.741132396824e-04 0.0 
-4.741132396824e-04 4.949674667807e-03 0.0 
0.0 0.0 0.0 
1.218406838212e-03 -2.530362216652e-03 0.0 
-2.530362216652e-03 -2.433290813963e-04 0.0 
0.0 0.0 0.0 
-8.939173908368e-04 -4.512931246806e-04 0.0 
-4.512931246806e-04 4.946905676074e-03 0.0 
0.0 0.0 0.0 
-1.276712835076e-03 1.449457182105e-04 0.0 
1.449457182105e-04 7.382120691488e-03 0.0 
0.0 0.0 0.0 
2.484055320758e-03 1.299057921833e-03 0.0 
1.299057921833e-03 4.401708420927e-04 0.0 
0.0 0.0 0.0 
-1.544055070130e-04 -7.092878674111e-04 0.0 
-7.092878674111e-04 4.969108627046e-03 0.0 
0.0 0.0 0.0 
-6.658198238078e-04 -4.476538670671e-04 0.0 
-4.476538670671e-04 2.023054430716e-03 0.0 
0.0 0.0 0.0 
1.279441491358e-04 -8.503140522251e-04 0.0 
-8.503140522251e-04 4.141422297183e-03 0.0 
0.0 0.0 0.0 
-9.603772677735e-04 3.136652992466e-04 0.0 
3.136652992466e-04 8.658716708454e-03 0.0 
0.0 0.0 0.0 
-8.929101278621e-04 -6.655170703758e-04 0.0 
-6.655170703758e-04 2.267047785829e-03 0.0 
0.0 0.0 0.0 
2.459955987177e-04 -2.513522234268e-03 0.0 
-2.513522234268e-03 3.746708353052e-04 0.0 
0.0 0.0 0.0 
-1.424113106114e-03 -6.711110454435e-04 0.0 
-6.711110454435e-04 3.963291580576e-03 0.0 
0.0 0.0 0.0 
-1.142533223521e-03 4.287258146181e-04 0.0 
4.287258146181e-04 8.067321852427e-03 0.0 
0.0 0.0 0.0 
-7.999721397778e-04 -1.748017853383e-03 0.0 
-1.748017853383e-03 2.233165613980e-03 0.0 
0.0 0.0 0.0 
-8.620253987708e-04 2.678615990843e-04 0.0 
2.678615990843e-04 8.845455106861e-03 0.0 
0.0 0.0 0.0 
-1.076959161988e-03 2.549050010882e-04 0.0 
2.549050010882e-04 8.323624111648e-03 0.0 
0.0 0.0 0.0 
-9.930754044108e-04 -1.358737247144e-03 0.0 
-1.358737247144e-03 3.274242311688e-03 0.0 
0.0 0.0 0.0 
-1.034049531344e-03 -4.986416937289e-04 0.0 
-4.986416937289e-04 4.675242521020e-03 0.0 
0.0 0.0 0.0 
-8.662464674951e-04 -6.236416708242e-04 0.0 
-6.236416708242e-04 4.665263857077e-03 0.0 
0.0 0.0 0.0 
-8.885801152168e-04 3.426456994217e-04 0.0 
3.426456994217e-04 8.654234793497e-03 0.0 
0.0 0.0 0.0 
-2.437992416612e-04 -7.363508773252e-04 0.0 
-7.363508773252e-04 1.441592453264e-03 0.0 
0.0 0.0 0.0 
-1.212159391645e-03 -1.198670515978e-03 0.0 
-1.198670515978e-03 3.403842392724e-03 0.0 
0.0 0.0 0.0 
1.371049916586e-03 1.901324610432e-03 0.0 
1.901324610432e-03 2.470518261801e-03 0.0 
0.0 0.0 0.0 
-9.231403314434e-04 4.182087119893e-04 0.0 
4.182087119893e-04 8.784670090713e-03 0.0 
0.0 0.0 0.0 
-1.239107827654e-03 -1.260642723897e-03 0.0 
-1.260642723897e-03 3.178184803401e-03 0.0 
0.0 0.0 0.0 
-1.004273814691e-04 -1.564341598971e-03 0.0 
-1.564341598971e-03 2.481219355225e-03 0.0 
0.0 0.0 0.0 
2.977305634628e-04 -8.504512405480e-04 0.0 
-8.504512405480e-04 3.673052338399e-03 0.0 
0.0 0.0 0.0 
-9.767911677644e-04 3.783630846674e-04 0.0 
3.783630846674e-04 8.464986932292e-03 0.0 
0.0 0.0 0.0 
1.872716159768e-03 -7.602363745737e-04 0.0 
-7.602363745737e-04 -4.653493980666e-03 0.0 
0.0 0.0 0.0 
2.099441940835e-04 -6.273703645523e-04 0.0 
-6.273703645523e-04 7.053961945682e-04 0.0 
0.0 0.0 0.0 
3.583377395598e-03 3.869921009561e-04 0.0 
3.869921009561e-04 -4.095389871206e-03 0.0 
0.0 0.0 0.0 
-6.306697719950e-04 -5.574998136223e-04 0.0 
-5.574998136223e-04 4.965153261278e-03 0.0 
0.0 0.0 0.0 
-1.062104708826e-03 4.071872103210e-04 0.0 
4.071872103210e-04 8.269402295355e-03 0.0 
0.0 0.0 0.0 
-1.432379318548e-03 -4.685049530372e-04 0.0 
-4.685049530372e-04 4.164127339852e-03 0.0 
0.0 0.0 0.0 
-1.220135060322e-03 3.406481930752e-04 0.0 
3.406481930752e-04 7.721218584578e-03 0.0 
0.0 0.0 0.0 
1.151824914790e-03 -4.901215602934e-04 0.0 
-4.901215602934e-04 2.190597127229e-03 0.0 
0.0 0.0 0.0 
-1.150420253558e-03 -1.105453343536e-03 0.0 
-1.105453343536e-03 3.635554647337e-03 0.0 
0.0 0.0 0.0 
-7.388867931125e-04 -6.481401737556e-04 0.0 
-6.481401737556e-04 4.668269151731e-03 0.0 
0.0 0.0 0.0 
-5.559463942646e-04 -5.254189978897e-04 0.0 
-5.254189978897e-04 1.956476728139e-03 0.0 
0.0 0.0 0.0 
-6.344486856069e-05 -7.775331043618e-04 0.0 
-7.775331043618e-04 4.581316676328e-03 0.0 
0.0 0.0 0.0 
-1.146446634616e-03 -1.231508750698e-03 0.0 
-1.231508750698e-03 3.255152081600e-03 0.0 
0.0 0.0 0.0 
-7.429304523516e-04 -3.954147422818e-04 0.0 
-3.954147422818e-04 2.224144011279e-03 0.0 
0.0 0.0 0.0 
-1.322791674907e-03 -1.038784906452e-03 0.0 
-1.038784906452e-03 3.378454678546e-03 0.0 
0.0 0.0 0.0 
-1.027566276505e-03 -1.529268349250e-03 0.0 
-1.529268349250e-03 2.601821483919e-03 0.0 
0.0 0.0 0.0 
-5.331837094192e-04 -1.649099240538e-03 0.0 
-1.649099240538e-03 1.656941586339e-03 0.0 
0.0 0.0 0.0 
-1.330948148058e-03 -5.971039924104e-04 0.0 
-5.971039924104e-04 4.188051655755e-03 0.0 
0.0 0.0 0.0 
9.842668472939e-04 -1.152832472011e-04 0.0 
-1.152832472011e-04 -2.901868114097e-04 0.0 
0.0 0.0 0.0 
5.978349329265e-04 -1.760535759430e-04 0.0 
-1.760535759430e-04 -1.281589098339e-04 0.0 
0.0 0.0 0.0 
-9.084576165019e-04 -9.102700211711e-04 0.0 
-9.102700211711e-04 4.038438564151e-03 0.0 
0.0 0.0 0.0 
-3.573939939745e-04 -6.217855976539e-04 0.0 
-6.217855976539e-04 1.694830082829e-03 0.0 
0.0 0.0 0.0 
-5.400161460033e-04 -1.179159048727e-03 0.0 
-1.179159048727e-03 3.515718437547e-03 0.0 
0.0 0.0 0.0 
-3.437488124605e-04 -1.375066014160e-03 0.0 
-1.375066014160e-03 3.024800608618e-03 0.0 
0.0 0.0 0.0 
-2.304036344313e-04 -2.124767840270e-03 0.0 
-2.124767840270e-03 1.708865475192e-03 0.0 
0.0 0.0 0.0 
1.496832675787e-03 -2.850685970828e-03 0.0 
-2.850685970828e-03 -7.587030939727e-04 0.0 
0.0 0.0 0.0 
-8.261504622751e-04 6.627694434729e-04 0.0 
6.627694434729e-04 8.992675203428e-03 0.0 
0.0 0.0 0.0 
1.711319579212e-03 3.255221739111e-03 0.0 
3.255221739111e-03 -3.139224416166e-03 0.0 
0.0 0.0 0.0 
-1.220148442987e-03 -1.292845070150e-03 0.0 
-1.292845070150e-03 2.926996015466e-03 0.0 
0.0 0.0 0.0 
1.132518686703e-03 -1.899199442651e-04 0.0 
-1.899199442651e-04 2.354512967124e-03 0.0 
0.0 0.0 0.0 
-3.405469076235e-04 -6.088985386982e-04 0.0 
-6.088985386982e-04 1.545872225689e-03 0.0 
0.0 0.0 0.0 
-1.241130493498e-03 3.087767011579e-04 0.0 
3.087767011579e-04 7.930620431009e-03 0.0 
0.0 0.0 0.0 
-1.306426588274e-03 2.228368829520e-04 0.0 
2.228368829520e-04 7.562478896004e-03 0.0 
0.0 0.0 0.0 
-1.997125463448e-04 -1.298153609228e-03 0.0 
-1.298153609228e-03 1.120332483413e-03 0.0 
0.0 0.0 0.0 
5.188923866430e-04 -8.306526148635e-04 0.0 
-8.306526148635e-04 3.147564560662e-03 0.0 
0.0 0.0 0.0 
-1.106684515246e-03 6.214984215404e-04 0.0 
6.214984215404e-04 8.506766724902e-03 0.0 
0.0 0.0 0.0 
-5.879373858704e-04 -8.984892789096e-04 0.0 
-8.984892789096e-04 1.752780043007e-03 0.0 
0.0 0.0 0.0 
-7.692077728256e-04 7.998280597928e-04 0.0 
7.998280597928e-04 9.074404007648e-03 0.0 
0.0 0.0 0.0 
-6.556997392181e-04 8.175912947854e-04 0.0 
8.175912947854e-04 9.070940590813e-03 0.0 
0.0 0.0 0.0 
-5.349960151227e-04 -9.628813429526e-04 0.0 
-9.628813429526e-04 1.790581993156e-03 0.0 
0.0 0.0 0.0 
-2.317110352523e-04 3.003190357682e-03 0.0 
3.003190357682e-03 2.371946706507e-03 0.0 
0.0 0.0 0.0 
-4.149608739158e-04 -1.466715650002e-03 0.0 
-1.466715650002e-03 1.491876408790e-03 0.0 
0.0 0.0 0.0 
-7.964409056047e-04 -8.028658668495e-04 0.0 
-8.028658668495e-04 4.338946599786e-03 0.0 
0.0 0.0 0.0 
-1.261484310568e-03 -8.478875512216e-04 0.0 
-8.478875512216e-04 3.936621647813e-03 0.0 
0.0 0.0 0.0 
-6.807433048056e-04 1.863801440355e-03 0.0 
1.863801440355e-03 8.103862306724e-03 0.0 
0.0 0.0 0.0 
-7.278792253079e-04 6.786471465321e-04 0.0 
6.786471465321e-04 8.990472701462e-03 0.0 
0.0 0.0 0.0 
-6.905627476185e-04 -9.865589748863e-04 0.0 
-9.865589748863e-04 3.953860005477e-03 0.0 
0.0 0.0 0.0 
-5.085990693220e-04 -1.005720434443e-03 0.0 
-1.005720434443e-03 3.955727303390e-03 0.0 
0.0 0.0 0.0 
-4.658933868784e-04 -1.420274501564e-03 0.0 
-1.420274501564e-03 1.324364901271e-03 0.0 
0.0 0.0 0.0 
-6.558725866531e-04 -8.284329800961e-04 0.0 
-8.284329800961e-04 4.342036672407e-03 0.0 
0.0 0.0 0.0 
-9.983853987299e-04 6.345935082023e-04 0.0 
6.345935082023e-04 8.504868454576e-03 0.0 
0.0 0.0 0.0 
-1.369110410930e-03 -7.169875061911e-04 0.0 
-7.169875061911e-04 3.916989404173e-03 0.0 
0.0 0.0 0.0 
-1.150362020777e-03 3.849880788453e-04 0.0 
3.849880788453e-04 8.272284192500e-03 0.0 
0.0 0.0 0.0 
-9.951125901877e-04 5.812243167695e-04 0.0 
5.812243167695e-04 8.704745947785e-03 0.0 
0.0 0.0 0.0 
3.727999388438e-03 2.007689364949e-03 0.0 
2.007689364949e-03 -2.257231404982e-03 0.0 
0.0 0.0 0.0 
-7.882098707583e-04 5.568850137929e-04 0.0 
5.568850137929e-04 8.894544465124e-03 0.0 
0.0 0.0 0.0 
-1.385790596432e-03 -1.012294089477e-03 0.0 
-1.012294089477e-03 3.490352916182e-03 0.0 
0.0 0.0 0.0 
-1.282115170040e-03 -9.720199623503e-04 0.0 
-9.720199623503e-04 3.615389129890e-03 0.0 
0.0 0.0 0.0 
-1.164252334599e-03 -1.282568662744e-03 0.0 
-1.282568662744e-03 2.706661267978e-03 0.0 
0.0 0.0 0.0 
2.151426271102e-04 -2.398957545894e-03 0.0 
-2.398957545894e-03 7.307274999531e-04 0.0 
0.0 0.0 0.0 
-1.033642064171e-03 5.140119846339e-04 0.0 
5.140119846339e-04 8.394736158191e-03 0.0 
0.0 0.0 0.0 
9.871094696590e-04 -2.110812432879e-03 0.0 
-2.110812432879e-03 2.469911675187e-04 0.0 
0.0 0.0 0.0 
-5.895400890512e-04 -1.307086105329e-03 0.0 
-1.307086105329e-03 1.779721376464e-03 0.0 
0.0 0.0 0.0 
-8.603383910444e-05 -9.203306137820e-04 0.0 
-9.203306137820e-04 9.526271886180e-04 0.0 
0.0 0.0 0.0 
-1.132488282777e-03 4.971736921021e-04 0.0 
4.971736921021e-04 8.397037920161e-03 0.0 
0.0 0.0 0.0 
-6.716875493133e-04 -1.542507761306e-03 0.0 
-1.542507761306e-03 1.816686459349e-03 0.0 
0.0 0.0 0.0 
2.154871349420e-04 -7.601380984980e-04 0.0 
-7.601380984980e-04 4.132167170682e-03 0.0 
0.0 0.0 0.0 
-9.391121653215e-04 4.826041572201e-04 0.0 
4.826041572201e-04 8.591259789672e-03 0.0 
0.0 0.0 0.0 
-4.314798558398e-04 -8.629611028983e-04 0.0 
-8.629611028983e-04 4.283718523935e-03 0.0 
0.0 0.0 0.0 
4.939599305955e-04 5.532221937577e-04 0.0 
5.532221937577e-04 3.323774307706e-03 0.0 
0.0 0.0 0.0 
-1.316518990471e-03 -1.079936569716e-03 0.0 
-1.079936569716e-03 3.141156873143e-03 0.0 
0.0 0.0 0.0 
-6.916600764939e-04 -1.212354294473e-03 0.0 
-1.212354294473e-03 1.830018972430e-03 0.0 
0.0 0.0 0.0 
-3.933364643763e-04 -1.091723250294e-03 0.0 
-1.091723250294e-03 1.104292426318e-03 0.0 
0.0 0.0 0.0 
-2.802485050003e-04 -1.195213539154e-03 0.0 
-1.195213539154e-03 3.383274286792e-03 0.0 
0.0 0.0 0.0 
-1.086868045922e-03 3.168604523718e-04 0.0 
3.168604523718e-04 8.130959620870e-03 0.0 
0.0 0.0 0.0 
-1.419656757767e-04 -8.142732798939e-04 0.0 
-8.142732798939e-04 7.562731810105e-04 0.0 
0.0 0.0 0.0 
-8.666936737637e-04 -1.548231954137e-03 0.0 
-1.548231954137e-03 2.202875493423e-03 0.0 
0.0 0.0 0.0 
-2.843843915183e-04 -2.690388057486e-04 0.0 
-2.690388057486e-04 1.734201471451e-03 0.0 
0.0 0.0 0.0 
-1.239018173046e-03 4.120650925159e-04 0.0 
4.120650925159e-04 8.069573590799e-03 0.0 
0.0 0.0 0.0 
-1.088042482943e-03 -1.325327677904e-03 0.0 
-1.325327677904e-03 2.570968772459e-03 0.0 
0.0 0.0 0.0 
-8.786615046830e-05 -1.370647223497e-03 0.0 
-1.370647223497e-03 3.022495405590e-03 0.0 
0.0 0.0 0.0 
-1.175087236135e-03 -1.034528515770e-03 0.0 
-1.034528515770e-03 2.680811357838e-03 0.0 
0.0 0.0 0.0 
-8.131842246506e-04 3.686395630745e-04 0.0 
3.686395630745e-04 8.967886168010e-03 0.0 
0.0 0.0 0.0 
-7.524705829463e-04 -1.678824012967e-03 0.0 
-1.678824012967e-03 2.036894983147e-03 0.0 
0.0 0.0 0.0 
1.880912292969e-04 -1.281253821083e-03 0.0 
-1.281253821083e-03 2.735572240134e-03 0.0 
0.0 0.0 0.0 
3.796926451582e-05 -2.325480902155e-03 0.0 
-2.325480902155e-03 5.327198612322e-04 0.0 
0.0 0.0 0.0 
-6.217834637534e-05 -1.358881644332e-03 0.0 
-1.358881644332e-03 2.861470898703e-03 0.0 
0.0 0.0 0.0 
-1.440192106361e-03 -7.732918093046e-04 0.0 
-7.732918093046e-04 3.690886176104e-03 0.0 
0.0 0.0 0.0 
-2.603912280554e-04 -1.019394286078e-03 0.0 
-1.019394286078e-03 3.855729459415e-03 0.0 
0.0 0.0 0.0 
4.291507822251e-03 -3.297379054486e-04 0.0 
-3.297379054486e-04 -3.462697214698e-03 0.0 
0.0 0.0 0.0 
-5.049951878227e-04 -5.443498833532e-04 0.0 
-5.443498833532e-04 1.807203073344e-03 0.0 
0.0 0.0 0.0 
-1.238879324634e-03 2.207939252585e-04 0.0 
2.207939252585e-04 7.778272112340e-03 0.0 
0.0 0.0 0.0 
2.385208148376e-03 -6.308063074858e-04 0.0 
-6.308063074858e-04 -3.720351429758e-04 0.0 
0.0 0.0 0.0 
2.932840233940e-04 3.074192898456e-03 0.0 
3.074192898456e-03 2.075939959320e-03 0.0 
0.0 0.0 0.0 
-1.161732492440e-03 2.862488580801e-04 0.0 
2.862488580801e-04 8.131980610178e-03 0.0 
0.0 0.0 0.0 
4.303911850996e-04 -2.685725164522e-03 0.0 
-2.685725164522e-03 -3.673319241448e-05 0.0 
0.0 0.0 0.0 
-1.191344705322e-03 6.917185133913e-04 0.0 
6.917185133913e-04 8.085419097780e-03 0.0 
0.0 0.0 0.0 
-1.079192038558e-04 -3.741073510389e-04 0.0 
-3.741073510389e-04 1.448949802134e-03 0.0 
0.0 0.0 0.0 
1.527689077188e-04 -9.403638839253e-04 0.0 
-9.403638839253e-04 3.675796038491e-03 0.0 
0.0 0.0 0.0 
2.416914789816e-03 -1.590367471410e-04 0.0 
-1.590367471410e-04 -7.327595506135e-05 0.0 
0.0 0.0 0.0 
2.148282786887e-03 1.578188619689e-03 0.0 
1.578188619689e-03 1.122727111900e-03 0.0 
0.0 0.0 0.0 
-6.286541091589e-04 7.431101570998e-04 0.0 
7.431101570998e-04 9.267752531086e-03 0.0 
0.0 0.0 0.0 
9.258235338270e-04 -1.950714757624e-03 0.0 
-1.950714757624e-03 5.892238443548e-04 0.0 
0.0 0.0 0.0 
-4.745445118479e-04 -9.830248733777e-04 0.0 
-9.830248733777e-04 1.498131567790e-03 0.0 
0.0 0.0 0.0 
5.082795429512e-04 -1.651389986617e-03 0.0 
-1.651389986617e-03 1.672198202580e-03 0.0 
0.0 0.0 0.0 
4.014479831340e-04 -7.496525176975e-04 0.0 
-7.496525176975e-04 3.656819900951e-03 0.0 
0.0 0.0 0.0 
1.225602678147e-03 -2.727385135400e-03 0.0 
-2.727385135400e-03 -8.322694403357e-04 0.0 
0.0 0.0 0.0 
-4.622401675460e-04 -1.030678388377e-03 0.0 
-1.030678388377e-03 3.858621756409e-03 0.0 
0.0 0.0 0.0 
-1.029803919113e-03 4.601424431845e-04 0.0 
4.601424431845e-04 8.594195178784e-03 0.0 
0.0 0.0 0.0 
1.994526646045e-03 -2.899201400992e-03 0.0 
-2.899201400992e-03 -1.376610256886e-03 0.0 
0.0 0.0 0.0 
1.988499860290e-04 -1.514003346157e-03 0.0 
-1.514003346157e-03 2.290844167743e-03 0.0 
0.0 0.0 0.0 
-1.396791691142e-03 4.515328628227e-04 0.0 
4.515328628227e-04 7.644503142518e-03 0.0 
0.0 0.0 0.0 
-9.144958881528e-04 -6.659314703497e-04 0.0 
-6.659314703497e-04 2.362815531256e-03 0.0 
0.0 0.0 0.0 
-6.241895814708e-04 -1.760960907089e-03 0.0 
-1.760960907089e-03 1.820270968013e-03 0.0 
0.0 0.0 0.0 
7.170627904842e-04 3.105511083886e-03 0.0 
3.105511083886e-03 2.228265085550e-03 0.0 
0.0 0.0 0.0 
-5.097205976345e-05 -1.174008872620e-03 0.0 
-1.174008872620e-03 3.378654108916e-03 0.0 
0.0 0.0 0.0 
-4.496899929407e-04 2.853973608163e-03 0.0 
2.853973608163e-03 3.198702973353e-03 0.0 
0.0 0.0 0.0 
1.091645662549e-03 3.091275739692e-03 0.0 
3.091275739692e-03 1.530479079954e-03 0.0 
0.0 0.0 0.0 
-1.097435521837e-03 6.643996559282e-04 0.0 
6.643996559282e-04 8.299060253246e-03 0.0 
0.0 0.0 0.0 
-1.154247701867e-03 3.336361232207e-04 0.0 
3.336361232207e-04 7.927443335748e-03 0.0 
0.0 0.0 0.0 
-1.289385499702e-03 5.751330692030e-04 0.0 
5.751330692030e-04 7.768899506565e-03 0.0 
0.0 0.0 0.0 
-1.338242896928e-03 -9.398015483695e-04 0.0 
-9.398015483695e-04 3.726064459832e-03 0.0 
0.0 0.0 0.0 
7.861606922224e-04 -8.069357335637e-04 0.0 
-8.069357335637e-04 2.613038777994e-03 0.0 
0.0 0.0 0.0 
8.671510876550e-04 -1.752261631936e-03 0.0 
-1.752261631936e-03 1.013669098033e-03 0.0 
0.0 0.0 0.0 
-1.319930830223e-03 3.263785246877e-04 0.0 
3.263785246877e-04 7.723176703150e-03 0.0 
0.0 0.0 0.0 
-6.002913504054e-04 2.272721874359e-03 0.0 
2.272721874359e-03 7.536587444895e-03 0.0 
0.0 0.0 0.0 
1.801123239183e-03 1.792456800137e-03 0.0 
1.792456800137e-03 1.804753593980e-03 0.0 
0.0 0.0 0.0 
1.991189209714e-04 -1.321175916322e-03 0.0 
-1.321175916322e-03 2.854116050286e-03 0.0 
0.0 0.0 0.0 
-8.949300831269e-04 5.982299001231e-04 0.0 
5.982299001231e-04 8.702414440595e-03 0.0 
0.0 0.0 0.0 
-1.228857605182e-04 -2.215049512049e-03 0.0 
-2.215049512049e-03 1.217979427135e-03 0.0 
0.0 0.0 0.0 
-4.099996678095e-04 -2.020979840491e-03 0.0 
-2.020979840491e-03 1.554379332870e-03 0.0 
0.0 0.0 0.0 
-2.419243259610e-04 -1.199226660940e-03 0.0 
-1.199226660940e-03 1.289041804064e-03 0.0 
0.0 0.0 0.0 
8.072027224229e-04 -1.488897844042e-03 0.0 
-1.488897844042e-03 1.509485863669e-03 0.0 
0.0 0.0 0.0 
-6.887333284882e-04 -1.803763810528e-03 0.0 
-1.803763810528e-03 1.982442466958e-03 0.0 
0.0 0.0 0.0 
-1.230933818602e-03 5.280818310290e-04 0.0 
5.280818310290e-04 8.193384482596e-03 0.0 
0.0 0.0 0.0 
-1.325115571647e-03 5.563563358094e-04 0.0 
5.563563358094e-04 7.983572659627e-03 0.0 
0.0 0.0 0.0 
4.044174962301e-03 9.956520109380e-04 0.0 
9.956520109380e-04 -2.394560416968e-03 0.0 
0.0 0.0 0.0 
-2.836976826146e-04 -2.119603830894e-03 0.0 
-2.119603830894e-03 1.451976414961e-03 0.0 
0.0 0.0 0.0 
4.118937084740e-03 2.000001913691e-03 0.0 
2.000001913691e-03 -3.308008709700e-03 0.0 
0.0 0.0 0.0 
-5.490563581177e-04 -1.946065548615e-03 0.0 
-1.946065548615e-03 1.848498579178e-03 0.0 
0.0 0.0 0.0 
-2.578851642955e-04 -2.159491153067e-03 0.0 
-2.159491153067e-03 1.574838448451e-03 0.0 
0.0 0.0 0.0 
-5.580877350478e-04 -1.335787124310e-03 0.0 
-1.335787124310e-03 1.570514151473e-03 0.0 
0.0 0.0 0.0 
1.085287968563e-03 -7.549319583232e-04 0.0 
-7.549319583232e-04 2.055448320001e-03 0.0 
0.0 0.0 0.0 
9.629910130167e-04 -2.292123686937e-03 0.0 
-2.292123686937e-03 4.012723006102e-04 0.0 
0.0 0.0 0.0 
-8.790183064228e-04 5.334397063421e-04 0.0 
5.334397063421e-04 8.897613788735e-03 0.0 
0.0 0.0 0.0 
1.386946094417e-03 -2.146656413943e-03 0.0 
-2.146656413943e-03 -1.277386695753e-05 0.0 
0.0 0.0 0.0 
8.370844036936e-04 -1.555093026608e-03 0.0 
-1.555093026608e-03 1.655595256313e-03 0.0 
0.0 0.0 0.0 
8.800943547889e-04 -1.973175201815e-03 0.0 
-1.973175201815e-03 8.803444908398e-04 0.0 
0.0 0.0 0.0 
2.118733685246e-03 2.939954334367e-03 0.0 
2.939954334367e-03 2.337106966332e-04 0.0 
0.0 0.0 0.0 
-3.815476070766e-04 -1.089695707152e-03 0.0 
-1.089695707152e-03 1.528664486304e-03 0.0 
0.0 0.0 0.0 
6.624157050248e-04 -7.220842380930e-04 0.0 
-7.220842380930e-04 3.126282058353e-03 0.0 
0.0 0.0 0.0 
6.074047574396e-04 -6.910610570862e-04 0.0 
-6.910610570862e-04 3.263929121373e-03 0.0 
0.0 0.0 0.0 
3.307008685101e-04 2.895022503480e-03 0.0 
2.895022503480e-03 3.479926581694e-03 0.0 
0.0 0.0 0.0 
1.092514928891e-04 -2.303130192715e-03 0.0 
-2.303130192715e-03 1.230190586444e-03 0.0 
0.0 0.0 0.0 
8.474005220345e-04 -1.786053310169e-03 0.0 
-1.786053310169e-03 1.239687474612e-03 0.0 
0.0 0.0 0.0 
-1.123636166002e-03 5.399948423994e-04 0.0 
5.399948423994e-04 8.191642753936e-03 0.0 
0.0 0.0 0.0 
-4.374381777292e-04 -2.007693293342e-03 0.0 
-2.007693293342e-03 1.692139311880e-03 0.0 
0.0 0.0 0.0 
8.225212992790e-04 3.192694688116e-03 0.0 
3.192694688116e-03 1.469562170743e-03 0.0 
0.0 0.0 0.0 
-7.538865989094e-04 -1.459800938764e-03 0.0 
-1.459800938764e-03 2.003091423574e-03 0.0 
0.0 0.0 0.0 
1.002803656719e-03 -2.890321948257e-03 0.0 
-2.890321948257e-03 -7.496510191756e-04 0.0 
0.0 0.0 0.0 
2.281359403675e-04 -2.328980414079e-03 0.0 
-2.328980414079e-03 8.225959622636e-04 0.0 
0.0 0.0 0.0 
-8.562613125804e-04 -1.382585053199e-03 0.0 
-1.382585053199e-03 2.127216961890e-03 0.0 
0.0 0.0 0.0 
-7.202112955870e-04 -8.162696617033e-04 0.0 
-8.162696617033e-04 2.077346610169e-03 0.0 
0.0 0.0 0.0 
5.656592824350e-04 -2.047788507888e-03 0.0 
-2.047788507888e-03 8.936289311283e-04 0.0 
0.0 0.0 0.0 
4.998319702092e-04 -1.450070093485e-03 0.0 
-1.450070093485e-03 2.279274841109e-03 0.0 
0.0 0.0 0.0 
1.664745985559e-04 2.635128454324e-03 0.0 
2.635128454324e-03 4.919357663231e-03 0.0 
0.0 0.0 0.0 
1.266786061448e-03 -1.762232318066e-04 0.0 
-1.762232318066e-04 -3.887116310025e-04 0.0 
0.0 0.0 0.0 
2.751758949840e-03 -1.631007971277e-03 0.0 
-1.631007971277e-03 -1.502228787397e-03 0.0 
0.0 0.0 0.0 
1.816317280094e-03 -2.078501742252e-03 0.0 
-2.078501742252e-03 -5.721322583621e-04 0.0 
0.0 0.0 0.0 
5.315896863911e-04 -2.349387790406e-03 0.0 
-2.349387790406e-03 8.239610070082e-04 0.0 
0.0 0.0 0.0 
-1.208899300543e-03 5.592064394838e-04 0.0 
5.592064394838e-04 7.982863870824e-03 0.0 
0.0 0.0 0.0 
9.324507788975e-04 -2.136966754539e-03 0.0 
-2.136966754539e-03 5.952246595735e-04 0.0 
0.0 0.0 0.0 
-9.668317088460e-04 -1.486011948284e-03 0.0 
-1.486011948284e-03 2.379707947436e-03 0.0 
0.0 0.0 0.0 
6.181510035439e-04 -2.344425641496e-03 0.0 
-2.344425641496e-03 4.113136770929e-04 0.0 
0.0 0.0 0.0 
-8.420544031552e-04 4.441398993492e-04 0.0 
4.441398993492e-04 8.781389671642e-03 0.0 
0.0 0.0 0.0 
-9.671094443660e-04 -1.263658685907e-03 0.0 
-1.263658685907e-03 2.345209794907e-03 0.0 
0.0 0.0 0.0 
-1.148988804978e-04 -7.942211783599e-04 0.0 
-7.942211783599e-04 9.067573498123e-04 0.0 
0.0 0.0 0.0 
-3.971876688821e-04 -1.035864345028e-03 0.0 
-1.035864345028e-03 1.269477476652e-03 0.0 
0.0 0.0 0.0 
1.031461532140e-03 -2.674941272502e-03 0.0 
-2.674941272502e-03 -1.828563974939e-04 0.0 
0.0 0.0 0.0 
6.160066268013e-05 -2.322443153941e-03 0.0 
-2.322443153941e-03 1.129086262831e-03 0.0 
0.0 0.0 0.0 
2.212068056141e-03 -1.769949903014e-03 0.0 
-1.769949903014e-03 -9.410128079003e-04 0.0 
0.0 0.0 0.0 
1.026221548528e-03 -2.268642279563e-03 0.0 
-2.268642279563e-03 9.647240587274e-06 0.0 
0.0 0.0 0.0 
1.442556283227e-04 -2.473210741668e-03 0.0 
-2.473210741668e-03 2.315274787825e-04 0.0 
0.0 0.0 0.0 
-9.722189636319e-05 -7.830913259406e-04 0.0 
-7.830913259406e-04 1.230728035571e-03 0.0 
0.0 0.0 0.0 
-1.509172273134e-03 7.541217576486e-04 0.0 
7.541217576486e-04 7.625728788779e-03 0.0 
0.0 0.0 0.0 
-7.876264321990e-04 -1.141855493710e-03 0.0 
-1.141855493710e-03 2.090139219135e-03 0.0 
0.0 0.0 0.0 
1.189011829470e-03 -8.454291131441e-04 0.0 
-8.454291131441e-04 1.986557710601e-03 0.0 
0.0 0.0 0.0 
3.740235585856e-04 2.655671549276e-03 0.0 
2.655671549276e-03 4.260144322064e-03 0.0 
0.0 0.0 0.0 
-1.438531999923e-03 1.775786318387e-03 0.0 
1.775786318387e-03 6.753046089909e-03 0.0 
0.0 0.0 0.0 
-8.354146250559e-04 1.064524496576e-03 0.0 
1.064524496576e-03 8.718850902757e-03 0.0 
0.0 0.0 0.0 
1.864159332454e-05 2.614048892520e-03 0.0 
2.614048892520e-03 5.528950877879e-03 0.0 
0.0 0.0 0.0 
3.964926136815e-03 1.578946805793e-03 0.0 
1.578946805793e-03 -2.194350275610e-03 0.0 
0.0 0.0 0.0 
3.715027380145e-04 2.752497502457e-03 0.0 
2.752497502457e-03 3.850765283029e-03 0.0 
0.0 0.0 0.0 
6.803007906993e-04 -2.963812202227e-03 0.0 
-2.963812202227e-03 -5.220308184904e-04 0.0 
0.0 0.0 0.0 
2.265005388991e-04 -2.209858686178e-03 0.0 
-2.209858686178e-03 9.812555115467e-04 0.0 
0.0 0.0 0.0 
2.845301679216e-03 2.900887849569e-03 0.0 
2.900887849569e-03 -1.360363820212e-03 0.0 
0.0 0.0 0.0 
3.259919204146e-03 -2.162528732006e-03 0.0 
-2.162528732006e-03 -2.849582540054e-03 0.0 
0.0 0.0 0.0 
2.210809018501e-04 -2.782684576255e-03 0.0 
-2.782684576255e-03 -1.249859473685e-04 0.0 
0.0 0.0 0.0 
-5.488667238481e-04 -1.967615155050e-03 0.0 
-1.967615155050e-03 2.006661693870e-03 0.0 
0.0 0.0 0.0 
1.446385280088e-03 -2.279293915585e-03 0.0 
-2.279293915585e-03 -5.347656933575e-04 0.0 
0.0 0.0 0.0 
1.855019415206e-03 -2.044440574364e-03 0.0 
-2.044440574364e-03 -8.947933868025e-04 0.0 
0.0 0.0 0.0 
-1.039714128565e-03 -1.209120157052e-03 0.0 
-1.209120157052e-03 2.431915682802e-03 0.0 
0.0 0.0 0.0 
1.327020929363e-03 -1.985610856107e-03 0.0 
-1.985610856107e-03 2.258622702336e-04 0.0 
0.0 0.0 0.0 
2.276233495161e-03 -1.895465179137e-03 0.0 
-1.895465179137e-03 -1.452934533043e-03 0.0 
0.0 0.0 0.0 
3.192770607344e-03 -1.204173179154e-03 0.0 
-1.204173179154e-03 -1.876987503579e-03 0.0 
0.0 0.0 0.0 
-1.188303397561e-04 -2.216680681267e-03 0.0 
-2.216680681267e-03 1.114360842824e-03 0.0 
0.0 0.0 0.0 
2.583733217214e-03 5.792134357273e-04 0.0 
5.792134357273e-04 1.446468300492e-05 0.0 
0.0 0.0 0.0 
-1.213052956311e-03 6.591722800203e-04 0.0 
6.591722800203e-04 8.300049391041e-03 0.0 
0.0 0.0 0.0 
3.773351523524e-03 -8.063419699062e-04 0.0 
-8.063419699062e-04 -2.557514606258e-03 0.0 
0.0 0.0 0.0 
9.625110016451e-04 -6.625426953272e-04 0.0 
-6.625426953272e-04 2.590158506159e-03 0.0 
0.0 0.0 0.0 
1.439933549300e-03 -3.093171212022e-03 0.0 
-3.093171212022e-03 -1.344408488737e-03 0.0 
0.0 0.0 0.0 
9.676057572561e-04 -1.982075462198e-04 0.0 
-1.982075462198e-04 2.874569485656e-03 0.0 
0.0 0.0 0.0 
1.790576090000e-03 -1.920960713958e-03 0.0 
-1.920960713958e-03 -3.948580237487e-04 0.0 
0.0 0.0 0.0 
-5.785361533206e-05 2.648384503231e-03 0.0 
2.648384503231e-03 6.128111140405e-03 0.0 
0.0 0.0 0.0 
-6.722685881033e-04 2.647509303548e-03 0.0 
2.647509303548e-03 5.197612816025e-03 0.0 
0.0 0.0 0.0 
7.190309171872e-04 -2.765150165579e-03 0.0 
-2.765150165579e-03 -2.624647767357e-05 0.0 
0.0 0.0 0.0 
-1.277828854681e-03 1.980622758086e-03 0.0 
1.980622758086e-03 6.601983075934e-03 0.0 
0.0 0.0 0.0 
-7.928751866108e-04 1.448671021680e-03 0.0 
1.448671021680e-03 8.502162131321e-03 0.0 
0.0 0.0 0.0 
2.166365568939e-03 -1.626039937813e-03 0.0 
-1.626039937813e-03 -7.279681600814e-04 0.0 
0.0 0.0 0.0 
1.816225141683e-03 3.364387640683e-03 0.0 
3.364387640683e-03 7.785052570464e-05 0.0 
0.0 0.0 0.0 
-1.086701098413e-03 2.165257573784e-03 0.0 
2.165257573784e-03 6.411418216811e-03 0.0 
0.0 0.0 0.0 
4.205416758896e-04 3.087146642784e-03 0.0 
3.087146642784e-03 2.109627915565e-03 0.0 
0.0 0.0 0.0 
2.058526453310e-04 -2.651585324287e-03 0.0 
-2.651585324287e-03 2.602186968741e-04 0.0 
0.0 0.0 0.0 
-3.947992734592e-04 1.282063767164e-03 0.0 
1.282063767164e-03 9.213922014736e-03 0.0 
0.0 0.0 0.0 
-2.839436015902e-04 -2.178513994132e-03 0.0 
-2.178513994132e-03 7.245992264984e-04 0.0 
0.0 0.0 0.0 
1.313340994900e-03 1.273031463629e-03 0.0 
1.273031463629e-03 2.684571443225e-03 0.0 
0.0 0.0 0.0 
-6.101448171734e-04 6.251752958289e-04 0.0 
6.251752958289e-04 9.175840953792e-03 0.0 
0.0 0.0 0.0 
2.344028183221e-03 2.685743090130e-04 0.0 
2.685743090130e-04 3.344858703374e-04 0.0 
0.0 0.0 0.0 
-1.218884726230e-03 4.461374464007e-04 0.0 
4.461374464007e-04 7.855005049608e-03 0.0 
0.0 0.0 0.0 
-1.022475760823e-03 9.065864224240e-04 0.0 
9.065864224240e-04 8.669443978843e-03 0.0 
0.0 0.0 0.0 
2.724655954976e-03 -1.527337241716e-03 0.0 
-1.527337241716e-03 -1.821391425439e-03 0.0 
0.0 0.0 0.0 
3.753629116489e-03 9.578110012734e-04 0.0 
9.578110012734e-04 -1.976203025267e-03 0.0 
0.0 0.0 0.0 
-6.299111729121e-04 1.168510942580e-03 0.0 
1.168510942580e-03 8.967391113137e-03 0.0 
0.0 0.0 0.0 
4.641886184362e-04 -1.206581765803e-03 0.0 
-1.206581765803e-03 2.722270742513e-03 0.0 
0.0 0.0 0.0 
-1.183679619059e-03 8.019293365862e-04 0.0 
8.019293365862e-04 8.386698371704e-03 0.0 
0.0 0.0 0.0 
2.281453868850e-03 -5.263026132908e-04 0.0 
-5.263026132908e-04 1.596291539401e-04 0.0 
0.0 0.0 0.0 
1.144718157804e-03 -2.975995342992e-03 0.0 
-2.975995342992e-03 -5.229884076337e-04 0.0 
0.0 0.0 0.0 
-1.141665523188e-03 9.563576950753e-04 0.0 
9.563576950753e-04 8.452209837122e-03 0.0 
0.0 0.0 0.0 
2.480927177131e-04 2.726171753193e-03 0.0 
2.726171753193e-03 5.608598753352e-03 0.0 
0.0 0.0 0.0 
6.883143486704e-04 -5.381318871798e-04 0.0 
-5.381318871798e-04 3.228987413740e-03 0.0 
0.0 0.0 0.0 
5.323623733591e-04 -2.213006869308e-03 0.0 
-2.213006869308e-03 9.799584888330e-04 0.0 
0.0 0.0 0.0 
-1.322576949811e-03 4.311543150847e-04 0.0 
4.311543150847e-04 7.856623732755e-03 0.0 
0.0 0.0 0.0 
-1.288591810763e-03 4.551111026081e-04 0.0 
4.551111026081e-04 7.643737922370e-03 0.0 
0.0 0.0 0.0 
1.431919610051e-03 -2.109174817369e-03 0.0 
-2.109174817369e-03 -3.638491868636e-04 0.0 
0.0 0.0 0.0 
7.882426487777e-04 -1.292815749060e-03 0.0 
-1.292815749060e-03 2.124519473365e-03 0.0 
0.0 0.0 0.0 
1.019804178146e-03 -1.085537544649e-03 0.0 
-1.085537544649e-03 2.022341530493e-03 0.0 
0.0 0.0 0.0 
-7.701029491369e-05 -8.723565659003e-04 0.0 
-8.723565659003e-04 1.067868029735e-03 0.0 
0.0 0.0 0.0 
3.925896944940e-03 2.240696038108e-03 0.0 
2.240696038108e-03 -3.478393230064e-03 0.0 
0.0 0.0 0.0 
3.998557063035e-03 -2.279891943246e-04 0.0 
-2.279891943246e-04 -2.684515312494e-03 0.0 
0.0 0.0 0.0 
3.364387537253e-03 -1.279763373353e-03 0.0 
-1.279763373353e-03 -2.475224306413e-03 0.0 
0.0 0.0 0.0 
1.230398294535e-03 3.112095238613e-03 0.0 
3.112095238613e-03 8.450999404825e-04 0.0 
0.0 0.0 0.0 
-6.132338927993e-04 1.098820295989e-03 0.0 
1.098820295989e-03 9.184054427836e-03 0.0 
0.0 0.0 0.0 
-6.374217660349e-04 2.091827107454e-03 0.0 
2.091827107454e-03 7.658373325256e-03 0.0 
0.0 0.0 0.0 
-6.964375874785e-04 6.003275157254e-04 0.0 
6.003275157254e-04 9.177917262533e-03 0.0 
0.0 0.0 0.0 
-6.870996226478e-04 2.710539414164e-03 0.0 
2.710539414164e-03 3.709373422990e-03 0.0 
0.0 0.0 0.0 
-9.916495182161e-04 1.327898384301e-03 0.0 
1.327898384301e-03 8.258455514614e-03 0.0 
0.0 0.0 0.0 
4.780622168565e-04 -1.394375940771e-03 0.0 
-1.394375940771e-03 2.141749832792e-03 0.0 
0.0 0.0 0.0 
-5.904371081331e-04 9.586763814617e-04 0.0 
9.586763814617e-04 9.135085195810e-03 0.0 
0.0 0.0 0.0 
-1.251876959930e-03 1.003857063330e-03 0.0 
1.003857063330e-03 8.224482495467e-03 0.0 
0.0 0.0 0.0 
6.031431963422e-04 -2.197786017161e-03 0.0 
-2.197786017161e-03 6.066326022227e-04 0.0 
0.0 0.0 0.0 
4.265490966491e-03 3.719306537598e-04 0.0 
3.719306537598e-04 -2.927112532906e-03 0.0 
0.0 0.0 0.0 
-1.014009042054e-03 9.525503043368e-04 0.0 
9.525503043368e-04 8.452220058137e-03 0.0 
0.0 0.0 0.0 
-8.313693701458e-04 1.006304781426e-03 0.0 
1.006304781426e-03 8.935800215732e-03 0.0 
0.0 0.0 0.0 
-9.549472000783e-04 7.660656996400e-04 0.0 
7.660656996400e-04 8.595961015465e-03 0.0 
0.0 0.0 0.0 
-1.061329637443e-03 8.029590800327e-04 0.0 
8.029590800327e-04 8.386164423664e-03 0.0 
0.0 0.0 0.0 
5.583351991791e-04 -8.684609654682e-04 0.0 
-8.684609654682e-04 3.131780392521e-03 0.0 
0.0 0.0 0.0 
1.399835468991e-03 1.510541081746e-03 0.0 
1.510541081746e-03 2.554437228602e-03 0.0 
0.0 0.0 0.0 
8.586914950512e-04 -8.720707165159e-04 0.0 
-8.720707165159e-04 2.570421754214e-03 0.0 
0.0 0.0 0.0 
4.939474208181e-04 -1.686257424901e-03 0.0 
-1.686257424901e-03 1.880004079880e-03 0.0 
0.0 0.0 0.0 
-1.347981861483e-03 1.732905673328e-03 0.0 
1.732905673328e-03 4.911188663579e-03 0.0 
0.0 0.0 0.0 
2.180555175620e-03 6.527989705611e-04 0.0 
6.527989705611e-04 8.084228350680e-04 0.0 
0.0 0.0 0.0 
-1.176338636708e-03 1.444105808296e-03 0.0 
1.444105808296e-03 7.705792215602e-03 0.0 
0.0 0.0 0.0 
-8.516128363749e-04 -1.081802349078e-03 0.0 
-1.081802349078e-03 2.118227337570e-03 0.0 
0.0 0.0 0.0 
3.713472393428e-03 -7.321521834777e-04 0.0 
-7.321521834777e-04 -2.601453631984e-03 0.0 
0.0 0.0 0.0 
3.207372310241e-03 -5.962069748268e-04 0.0 
-5.962069748268e-04 -1.653629413470e-03 0.0 
0.0 0.0 0.0 
3.299095807338e-03 9.395798156771e-04 0.0 
9.395798156771e-04 -1.187850772671e-03 0.0 
0.0 0.0 0.0 
3.993675905142e-03 -4.518902328014e-04 0.0 
-4.518902328014e-04 -4.001557766292e-03 0.0 
0.0 0.0 0.0 
4.097539375714e-03 -2.039381133430e-04 0.0 
-2.039381133430e-04 -2.828892332083e-03 0.0 
0.0 0.0 0.0 
2.781842136990e-03 9.384708877367e-04 0.0 
9.384708877367e-04 -2.242264156364e-04 0.0 
0.0 0.0 0.0 
-1.071931503713e-03 2.230103677018e-03 0.0 
2.230103677018e-03 4.721874335104e-03 0.0 
0.0 0.0 0.0 
5.043926493822e-04 -2.061374374031e-03 0.0 
-2.061374374031e-03 1.217694649747e-03 0.0 
0.0 0.0 0.0 
-1.388450915789e-03 8.846652060789e-04 0.0 
8.846652060789e-04 7.936092266330e-03 0.0 
0.0 0.0 0.0 
-1.331976874209e-03 2.568449130249e-04 0.0 
2.568449130249e-04 7.104799884526e-03 0.0 
0.0 0.0 0.0 
-1.715421793562e-03 3.004596587376e-03 0.0 
3.004596587376e-03 1.783893310027e-03 0.0 
0.0 0.0 0.0 
5.310876088753e-04 -1.872916739152e-03 0.0 
-1.872916739152e-03 1.254805489384e-03 0.0 
0.0 0.0 0.0 
2.172429277224e-03 2.602577182046e-04 0.0 
2.602577182046e-04 6.772375865467e-04 0.0 
0.0 0.0 0.0 
-5.730358153879e-04 2.027840185919e-03 0.0 
2.027840185919e-03 7.995418260437e-03 0.0 
0.0 0.0 0.0 
3.928573688347e-03 8.915581634837e-04 0.0 
8.915581634837e-04 -2.451179360877e-03 0.0 
0.0 0.0 0.0 
4.860903749233e-04 -1.890635364107e-03 0.0 
-1.890635364107e-03 1.523039690954e-03 0.0 
0.0 0.0 0.0 
-1.314815938367e-03 6.931919488865e-04 0.0 
6.931919488865e-04 8.085646359437e-03 0.0 
0.0 0.0 0.0 
-8.281957647505e-04 2.028878673575e-03 0.0 
2.028878673575e-03 2.652743061996e-03 0.0 
0.0 0.0 0.0 
2.406275375568e-03 5.436920513449e-04 0.0 
5.436920513449e-04 2.926885865724e-04 0.0 
0.0 0.0 0.0 
3.551968182480e-03 4.346069851753e-04 0.0 
4.346069851753e-04 -1.840268772324e-03 0.0 
0.0 0.0 0.0 
-1.223640862865e-03 2.280714253075e-03 0.0 
2.280714253075e-03 5.154410558952e-03 0.0 
0.0 0.0 0.0 
7.340701740786e-04 -1.217041109978e-03 0.0 
-1.217041109978e-03 2.043820008105e-03 0.0 
0.0 0.0 0.0 
2.650856036115e-03 -2.749097376985e-03 0.0 
-2.749097376985e-03 -2.771753258447e-03 0.0 
0.0 0.0 0.0 
9.419876678123e-04 -1.002089506909e-03 0.0 
-1.002089506909e-03 2.011805340064e-03 0.0 
0.0 0.0 0.0 
9.913882773867e-04 -4.400218059613e-04 0.0 
-4.400218059613e-04 2.682671492841e-03 0.0 
0.0 0.0 0.0 
2.590438052813e-03 8.642218960311e-04 0.0 
8.642218960311e-04 -2.831719242147e-05 0.0 
0.0 0.0 0.0 
-1.070370440169e-03 7.590422738074e-04 0.0 
7.590422738074e-04 8.597212196021e-03 0.0 
0.0 0.0 0.0 
9.953692418474e-04 2.471906381383e-03 0.0 
2.471906381383e-03 3.337365074573e-03 0.0 
0.0 0.0 0.0 
8.632434172473e-04 -5.865382583725e-04 0.0 
-5.865382583725e-04 2.701762958867e-03 0.0 
0.0 0.0 0.0 
-7.171691702678e-04 1.756756260438e-03 0.0 
1.756756260438e-03 2.942620072719e-03 0.0 
0.0 0.0 0.0 
-1.290260088877e-03 8.436969696974e-04 0.0 
8.436969696974e-04 8.166947448306e-03 0.0 
0.0 0.0 0.0 
1.151255813975e-03 1.938118709203e-03 0.0 
1.938118709203e-03 3.105909036531e-03 0.0 
0.0 0.0 0.0 
-9.011456521576e-04 9.110140873627e-04 0.0 
9.110140873627e-04 8.668496963660e-03 0.0 
0.0 0.0 0.0 
3.028352336689e-03 8.426075299879e-04 0.0 
8.426075299879e-04 -8.875989391582e-04 0.0 
0.0 0.0 0.0 
4.162453235593e-03 4.216217478810e-04 0.0 
4.216217478810e-04 -2.684923335818e-03 0.0 
0.0 0.0 0.0 
-7.343399780558e-04 -1.479896989516e-03 0.0 
-1.479896989516e-03 3.102069130247e-03 0.0 
0.0 0.0 0.0 
2.864747817691e-03 7.987611435640e-04 0.0 
7.987611435640e-04 -4.933502407402e-03 0.0 
0.0 0.0 0.0 
-7.832333827511e-04 8.633780458992e-04 0.0 
8.633780458992e-04 8.873779524160e-03 0.0 
0.0 0.0 0.0 
-1.019777059840e-03 -9.272338737321e-04 0.0 
-9.272338737321e-04 2.396961509993e-03 0.0 
0.0 0.0 0.0 
-8.102446482077e-04 1.618647797079e-03 0.0 
1.618647797079e-03 3.261289722693e-03 0.0 
0.0 0.0 0.0 
8.047107914091e-04 2.623906413687e-03 0.0 
2.623906413687e-03 3.560818502254e-03 0.0 
0.0 0.0 0.0 
-5.382365275333e-04 7.574724315556e-04 0.0 
7.574724315556e-04 9.265544090561e-03 0.0 
0.0 0.0 0.0 
1.901669422409e-03 -3.204015432627e-03 0.0 
-3.204015432627e-03 -2.066031675239e-03 0.0 
0.0 0.0 0.0 
3.764461638114e-04 3.063162085223e-03 0.0 
3.063162085223e-03 2.928364918669e-03 0.0 
0.0 0.0 0.0 
-1.120506333608e-03 9.921279190745e-04 0.0 
9.921279190745e-04 8.225395758348e-03 0.0 
0.0 0.0 0.0 
-1.366720335843e-04 -1.913794171393e-03 0.0 
-1.913794171393e-03 1.820638770107e-03 0.0 
0.0 0.0 0.0 
3.697456513497e-03 -1.513443100981e-03 0.0 
-1.513443100981e-03 -3.832214059004e-03 0.0 
0.0 0.0 0.0 
1.908664595156e-03 3.432134279459e-03 0.0 
3.432134279459e-03 -6.148785607042e-04 0.0 
0.0 0.0 0.0 
4.275378997272e-04 -2.880902421604e-03 0.0 
-2.880902421604e-03 -1.100362994492e-04 0.0 
0.0 0.0 0.0 
2.458021544788e-03 -2.687635587567e-03 0.0 
-2.687635587567e-03 -2.132158559490e-03 0.0 
0.0 0.0 0.0 
1.652704821499e-03 -3.151756670153e-03 0.0 
-3.151756670153e-03 -1.121579515439e-03 0.0 
0.0 0.0 0.0 
3.559810778719e-03 8.409748560481e-04 0.0 
8.409748560481e-04 -1.900854813828e-03 0.0 
0.0 0.0 0.0 
-2.640437441637e-04 1.824218720479e-03 0.0 
1.824218720479e-03 9.116000529490e-03 0.0 
0.0 0.0 0.0 
-1.006969157704e-03 1.472813113306e-03 0.0 
1.472813113306e-03 3.769697943414e-03 0.0 
0.0 0.0 0.0 
2.999511461592e-04 -8.496499298579e-04 0.0 
-8.496499298579e-04 3.660124984042e-03 0.0 
0.0 0.0 0.0 
4.170669400634e-03 1.702234952729e-03 0.0 
1.702234952729e-03 -2.880703048657e-03 0.0 
0.0 0.0 0.0 
-1.352738757812e-03 1.055427866458e-03 0.0 
1.055427866458e-03 7.986181967591e-03 0.0 
0.0 0.0 0.0 
3.426215889717e-03 6.582722069857e-04 0.0 
6.582722069857e-04 -4.541481918316e-03 0.0 
0.0 0.0 0.0 
8.668582961864e-04 -3.581486086780e-04 0.0 
-3.581486086780e-04 2.865519510194e-03 0.0 
0.0 0.0 0.0 
9.855445489824e-04 -3.293641293454e-03 0.0 
-3.293641293454e-03 -1.106662500021e-03 0.0 
0.0 0.0 0.0 
-1.222700060501e-03 -1.011456088147e-03 0.0 
-1.011456088147e-03 2.749234379730e-03 0.0 
0.0 0.0 0.0 
2.296577001465e-03 1.198840949601e-03 0.0 
1.198840949601e-03 5.518616899776e-04 0.0 
0.0 0.0 0.0 
2.234027893264e-03 -1.731841932442e-03 0.0 
-1.731841932442e-03 -1.192826588648e-03 0.0 
0.0 0.0 0.0 
1.460782182981e-03 1.745316379026e-03 0.0 
1.745316379026e-03 2.490442461651e-03 0.0 
0.0 0.0 0.0 
5.952904290438e-04 3.221797635868e-03 0.0 
3.221797635868e-03 1.551147675444e-03 0.0 
0.0 0.0 0.0 
-1.214953323283e-03 1.412339749657e-03 0.0 
1.412339749657e-03 7.987652820993e-03 0.0 
0.0 0.0 0.0 
1.237207355345e-03 1.427180501045e-03 0.0 
1.427180501045e-03 2.661439899752e-03 0.0 
0.0 0.0 0.0 
-1.162480146062e-03 8.360825160109e-04 0.0 
8.360825160109e-04 8.167398759867e-03 0.0 
0.0 0.0 0.0 
-6.779887719888e-04 2.052599199638e-03 0.0 
2.052599199638e-03 7.992294022568e-03 0.0 
0.0 0.0 0.0 
-1.085413258743e-03 1.118443352995e-03 0.0 
1.118443352995e-03 8.494951822226e-03 0.0 
0.0 0.0 0.0 
-1.013284172547e-03 1.286162189601e-03 0.0 
1.286162189601e-03 8.512599566305e-03 0.0 
0.0 0.0 0.0 
2.966878860572e-03 3.240182810006e-03 0.0 
3.240182810006e-03 -2.922560713508e-03 0.0 
0.0 0.0 0.0 
1.445991900468e-04 -9.366413344558e-04 0.0 
-9.366413344558e-04 3.696557935809e-03 0.0 
0.0 0.0 0.0 
-1.064368133469e-03 1.157007168729e-03 0.0 
1.157007168729e-03 8.256566290122e-03 0.0 
0.0 0.0 0.0 
3.240630941235e-03 2.339627064698e-03 0.0 
2.339627064698e-03 -1.659744374309e-03 0.0 
0.0 0.0 0.0 
-1.248071161311e-03 1.305854740730e-03 0.0 
1.305854740730e-03 4.355909446933e-03 0.0 
0.0 0.0 0.0 
1.001757716635e-03 1.526534088874e-03 0.0 
1.526534088874e-03 3.245660494681e-03 0.0 
0.0 0.0 0.0 
4.100109704520e-03 1.505826557597e-03 0.0 
1.505826557597e-03 -4.038930284720e-03 0.0 
0.0 0.0 0.0 
-9.915432349613e-04 -9.546126411339e-04 0.0 
-9.546126411339e-04 2.394840211155e-03 0.0 
0.0 0.0 0.0 
1.663197074795e-03 1.698160359742e-03 0.0 
1.698160359742e-03 1.821783360690e-03 0.0 
0.0 0.0 0.0 
-7.491311645913e-05 5.668803484336e-05 0.0 
5.668803484336e-05 1.568739340296e-03 0.0 
0.0 0.0 0.0 
1.568115186434e-03 2.977285262745e-03 0.0 
2.977285262745e-03 9.907397494913e-04 0.0 
0.0 0.0 0.0 
2.176952070856e-03 8.832781274791e-04 0.0 
8.832781274791e-04 7.776618086461e-04 0.0 
0.0 0.0 0.0 
-7.960775331726e-04 1.389980136460e-03 0.0 
1.389980136460e-03 8.750511868513e-03 0.0 
0.0 0.0 0.0 
-6.993009774470e-04 1.580218750559e-03 0.0 
1.580218750559e-03 8.732262164780e-03 0.0 
0.0 0.0 0.0 
2.359232333770e-03 9.539897168308e-04 0.0 
9.539897168308e-04 5.871746477806e-04 0.0 
0.0 0.0 0.0 
-9.613718115253e-04 1.064748796378e-03 0.0 
1.064748796378e-03 8.719271459650e-03 0.0 
0.0 0.0 0.0 
3.832797412996e-03 2.152696085088e-03 0.0 
2.152696085088e-03 -2.427399693023e-03 0.0 
0.0 0.0 0.0 
2.792809948886e-04 2.678008763313e-03 0.0 
2.678008763313e-03 4.532895792131e-03 0.0 
0.0 0.0 0.0 
-1.462874728159e-03 1.146877826521e-03 0.0 
1.146877826521e-03 4.968950437575e-03 0.0 
0.0 0.0 0.0 
-3.754349453310e-04 2.414621221610e-03 0.0 
2.414621221610e-03 6.912233513203e-03 0.0 
0.0 0.0 0.0 
-1.608220519305e-03 1.036004373069e-03 0.0 
1.036004373069e-03 5.583413033689e-03 0.0 
0.0 0.0 0.0 
-1.667440943481e-03 1.000204381263e-03 0.0 
1.000204381263e-03 5.883391622485e-03 0.0 
0.0 0.0 0.0 
3.917362794102e-03 1.453179198147e-03 0.0 
1.453179198147e-03 -2.460970660644e-03 0.0 
0.0 0.0 0.0 
-1.690930011806e-03 9.694252979284e-04 0.0 
9.694252979284e-04 6.172007462346e-03 0.0 
0.0 0.0 0.0 
1.974747079144e-03 2.723827453087e-03 0.0 
2.723827453087e-03 8.238517580825e-04 0.0 
0.0 0.0 0.0 
2.708962143262e-03 2.858294898798e-03 0.0 
2.858294898798e-03 -5.928417258916e-04 0.0 
0.0 0.0 0.0 
3.901451969083e-03 -1.519987026873e-04 0.0 
-1.519987026873e-04 -2.580330023659e-03 0.0 
0.0 0.0 0.0 
3.594665956958e-03 -1.441237752841e-03 0.0 
-1.441237752841e-03 -3.680411752558e-03 0.0 
0.0 0.0 0.0 
4.174657964593e-03 9.497400992858e-04 0.0 
9.497400992858e-04 -2.765155296827e-03 0.0 
0.0 0.0 0.0 
-7.116504799765e-04 1.016187765225e-03 0.0 
1.016187765225e-03 8.934200201776e-03 0.0 
0.0 0.0 0.0 
-4.840205165469e-04 2.272476554650e-03 0.0 
2.272476554650e-03 7.536526093607e-03 0.0 
0.0 0.0 0.0 
1.812796309444e-04 -1.103217400195e-03 0.0 
-1.103217400195e-03 3.271586915186e-03 0.0 
0.0 0.0 0.0 
1.321075551010e-03 1.656425275848e-03 0.0 
1.656425275848e-03 2.533156941453e-03 0.0 
0.0 0.0 0.0 
2.598747393032e-03 -1.424009050493e-03 0.0 
-1.424009050493e-03 -1.243105595275e-03 0.0 
0.0 0.0 0.0 
-8.814090273460e-04 1.278619909802e-03 0.0 
1.278619909802e-03 8.513029666196e-03 0.0 
0.0 0.0 0.0 
4.055577199946e-03 3.529651743152e-04 0.0 
3.529651743152e-04 -2.656663403985e-03 0.0 
0.0 0.0 0.0 
-5.195685394643e-05 -8.567107821720e-04 0.0 
-8.567107821720e-04 4.165321321318e-03 0.0 
0.0 0.0 0.0 
-9.537276229475e-04 1.112959885805e-03 0.0 
1.112959885805e-03 8.495141266433e-03 0.0 
0.0 0.0 0.0 
-1.121618633274e-03 1.347085939564e-03 0.0 
1.347085939564e-03 8.256572146642e-03 0.0 
0.0 0.0 0.0 
2.826744840284e-03 4.585854783479e-04 0.0 
4.585854783479e-04 -5.352612122959e-04 0.0 
0.0 0.0 0.0 
4.099280154888e-03 1.558173645036e-03 0.0 
1.558173645036e-03 -2.683946661674e-03 0.0 
0.0 0.0 0.0 
2.562666845036e-04 2.612764167247e-03 0.0 
2.612764167247e-03 4.920759926882e-03 0.0 
0.0 0.0 0.0 
-7.348354597385e-04 2.554729867197e-03 0.0 
2.554729867197e-03 5.210457309805e-03 0.0 
0.0 0.0 0.0 
3.183805131070e-03 -2.435997561814e-03 0.0 
-2.435997561814e-03 -3.519079683991e-03 0.0 
0.0 0.0 0.0 
4.039650657494e-03 4.012728821814e-04 0.0 
4.012728821814e-04 -3.861668656762e-03 0.0 
0.0 0.0 0.0 
9.422474056078e-04 3.203201170504e-03 0.0 
3.203201170504e-03 8.304171552722e-04 0.0 
0.0 0.0 0.0 
2.126087277194e-04 3.017372267604e-03 0.0 
3.017372267604e-03 2.935561109396e-03 0.0 
0.0 0.0 0.0 
-1.991102864685e-04 -7.615604061432e-04 0.0 
-7.615604061432e-04 4.592531523583e-03 0.0 
0.0 0.0 0.0 
-1.195094419086e-03 1.173136019685e-03 0.0 
1.173136019685e-03 8.255111544545e-03 0.0 
0.0 0.0 0.0 
4.217361414835e-03 1.035805941786e-03 0.0 
1.035805941786e-03 -2.604704223388e-03 0.0 
0.0 0.0 0.0 
2.010350131487e-04 2.924556781608e-03 0.0 
2.924556781608e-03 3.858300356513e-03 0.0 
0.0 0.0 0.0 
2.004477913319e-03 6.139299938894e-04 0.0 
6.139299938894e-04 1.096973393866e-03 0.0 
0.0 0.0 0.0 
-8.973936937623e-04 8.554583472024e-04 0.0 
8.554583472024e-04 8.875177617175e-03 0.0 
0.0 0.0 0.0 
4.484922619130e-05 2.630330368718e-03 0.0 
2.630330368718e-03 5.527122982750e-03 0.0 
0.0 0.0 0.0 
-1.307062721729e-03 1.073893379697e-03 0.0 
1.073893379697e-03 7.737788111249e-03 0.0 
0.0 0.0 0.0 
1.587411249435e-03 -1.525467561490e-04 0.0 
-1.525467561490e-04 1.653337914387e-03 0.0 
0.0 0.0 0.0 
3.932174159536e-03 4.144016831464e-04 0.0 
4.144016831464e-04 -2.379346373875e-03 0.0 
0.0 0.0 0.0 
1.955975968478e-03 3.777507976129e-04 0.0 
3.777507976129e-04 1.118874810872e-03 0.0 
0.0 0.0 0.0 
1.309265790713e-03 3.063776059061e-03 0.0 
3.063776059061e-03 9.792610668966e-04 0.0 
0.0 0.0 0.0 
-7.547427615638e-04 1.168311423342e-03 0.0 
1.168311423342e-03 8.967739052127e-03 0.0 
0.0 0.0 0.0 
-9.779931449971e-05 2.627569772604e-03 0.0 
2.627569772604e-03 6.129422609862e-03 0.0 
0.0 0.0 0.0 
3.276585860274e-03 3.679172267527e-04 0.0 
3.679172267527e-04 -1.446533288236e-03 0.0 
0.0 0.0 0.0 
3.970147515163e-03 5.863851587077e-04 0.0 
5.863851587077e-04 -4.331652576218e-03 0.0 
0.0 0.0 0.0 
9.793308146344e-04 2.396248538995e-03 0.0 
2.396248538995e-03 3.152685889465e-03 0.0 
0.0 0.0 0.0 
1.569177751809e-03 2.918129836957e-03 0.0 
2.918129836957e-03 1.226179256177e-03 0.0 
0.0 0.0 0.0 
4.087056986551e-03 1.662639727220e-03 0.0 
1.662639727220e-03 -2.352527270974e-03 0.0 
0.0 0.0 0.0 
3.014970502414e-03 4.943931658934e-04 0.0 
4.943931658934e-04 -8.354631084440e-04 0.0 
0.0 0.0 0.0 
1.405930708361e-03 -6.739868164317e-04 0.0 
-6.739868164317e-04 1.500551585975e-03 0.0 
0.0 0.0 0.0 
3.797505379561e-03 -6.390653554146e-04 0.0 
-6.390653554146e-04 -4.132033882077e-03 0.0 
0.0 0.0 0.0 
3.730583593755e-03 3.317198657586e-04 0.0 
3.317198657586e-04 -2.189524599211e-03 0.0 
0.0 0.0 0.0 
-1.061702718065e-03 2.083029728294e-03 0.0 
2.083029728294e-03 6.422339945935e-03 0.0 
0.0 0.0 0.0 
-3.105541966472e-04 -8.024803122817e-04 0.0 
-8.024803122817e-04 4.598803919185e-03 0.0 
0.0 0.0 0.0 
-8.732407795727e-04 2.254219186745e-03 0.0 
2.254219186745e-03 6.197232313639e-03 0.0 
0.0 0.0 0.0 
8.287099304041e-04 2.561753700486e-03 0.0 
2.561753700486e-03 3.325177164936e-03 0.0 
0.0 0.0 0.0 
-1.223030127653e-03 1.891241564821e-03 0.0 
1.891241564821e-03 6.613521411301e-03 0.0 
0.0 0.0 0.0 
-1.452979389405e-03 1.472621924111e-03 0.0 
1.472621924111e-03 6.874275596126e-03 0.0 
0.0 0.0 0.0 
-4.736591462871e-04 2.683200067958e-03 0.0 
2.683200067958e-03 4.869028618989e-03 0.0 
0.0 0.0 0.0 
1.614965312660e-03 1.439655333616e-03 0.0 
1.439655333616e-03 1.926085744203e-03 0.0 
0.0 0.0 0.0 
1.787668378506e-04 -1.082823281783e-03 0.0 
-1.082823281783e-03 3.197184551572e-03 0.0 
0.0 0.0 0.0 
-1.163884072299e-03 1.204970672297e-03 0.0 
1.204970672297e-03 8.003411212403e-03 0.0 
0.0 0.0 0.0 
-5.841832802177e-04 1.570365879713e-03 0.0 
1.570365879713e-03 8.733045115837e-03 0.0 
0.0 0.0 0.0 
-1.355855297531e-03 1.685122570995e-03 0.0 
1.685122570995e-03 6.765034773742e-03 0.0 
0.0 0.0 0.0 
4.347620177736e-03 1.164193720422e-03 0.0 
1.164193720422e-03 -3.036858690151e-03 0.0 
0.0 0.0 0.0 
8.162421341209e-04 2.394584613352e-03 0.0 
2.394584613352e-03 3.853573004832e-03 0.0 
0.0 0.0 0.0 
-6.947154073551e-04 9.481814389596e-04 0.0 
9.481814389596e-04 9.136644265521e-03 0.0 
0.0 0.0 0.0 
2.237360086500e-03 2.822562818060e-03 0.0 
2.822562818060e-03 -3.637303929258e-04 0.0 
0.0 0.0 0.0 
1.736613594117e-03 2.926322766421e-03 0.0 
2.926322766421e-03 4.782238569885e-04 0.0 
0.0 0.0 0.0 
4.337340502019e-03 1.097178737430e-03 0.0 
1.097178737430e-03 -2.787022687384e-03 0.0 
0.0 0.0 0.0 
-1.090227240785e-03 1.382076306068e-03 0.0 
1.382076306068e-03 7.991116240965e-03 0.0 
0.0 0.0 0.0 
-1.357349581207e-04 2.907305137515e-03 0.0 
2.907305137515e-03 2.674481191341e-03 0.0 
0.0 0.0 0.0 
1.996358393914e-03 2.630781488856e-03 0.0 
2.630781488856e-03 5.051037887569e-04 0.0 
0.0 0.0 0.0 
-8.802058083401e-06 3.048641170011e-03 0.0 
3.048641170011e-03 2.654674677275e-03 0.0 
0.0 0.0 0.0 
1.982129871198e-03 1.474316006905e-03 0.0 
1.474316006905e-03 1.176764091054e-03 0.0 
0.0 0.0 0.0 
5.819090701364e-04 2.388539509170e-03 0.0 
2.388539509170e-03 4.369502421508e-03 0.0 
0.0 0.0 0.0 
4.306139094382e-03 4.157670429794e-04 0.0 
4.157670429794e-04 -2.886003625068e-03 0.0 
0.0 0.0 0.0 
2.787981937062e-03 -7.377066375191e-04 0.0 
-7.377066375191e-04 -4.684528247741e-03 0.0 
0.0 0.0 0.0 
-5.792018898096e-04 1.814792211433e-03 0.0 
1.814792211433e-03 8.410821071088e-03 0.0 
0.0 0.0 0.0 
-4.008204951829e-04 2.764326539603e-03 0.0 
2.764326539603e-03 3.232508842190e-03 0.0 
0.0 0.0 0.0 
2.951807012390e-03 -1.031778454303e-03 0.0 
-1.031778454303e-03 -1.492822510939e-03 0.0 
0.0 0.0 0.0 
8.150050415507e-04 2.346796254675e-03 0.0 
2.346796254675e-03 3.709869957982e-03 0.0 
0.0 0.0 0.0 
-1.293360665514e-03 1.231612061184e-03 0.0 
1.231612061184e-03 8.000701828584e-03 0.0 
0.0 0.0 0.0 
4.346371001869e-04 -1.155537087064e-03 0.0 
-1.155537087064e-03 2.637870614846e-03 0.0 
0.0 0.0 0.0 
3.273807909032e-03 2.628900946299e-03 0.0 
2.628900946299e-03 -1.321892388417e-03 0.0 
0.0 0.0 0.0 
2.564141311880e-03 -4.205010058418e-04 0.0 
-4.205010058418e-04 -5.043517588022e-03 0.0 
0.0 0.0 0.0 
-3.791043938173e-04 -7.140661477393e-04 0.0 
-7.140661477393e-04 4.997577744480e-03 0.0 
0.0 0.0 0.0 
6.005634059838e-04 3.062491954250e-03 0.0 
3.062491954250e-03 2.440619819495e-03 0.0 
0.0 0.0 0.0 
2.143745136105e-03 1.889055628759e-03 0.0 
1.889055628759e-03 1.092887924281e-03 0.0 
0.0 0.0 0.0 
3.427860441059e-04 2.620354469514e-03 0.0 
2.620354469514e-03 4.706753637064e-03 0.0 
0.0 0.0 0.0 
1.210002980482e-03 -2.765013072296e-05 0.0 
-2.765013072296e-05 -4.820421634696e-03 0.0 
0.0 0.0 0.0 
6.879349217255e-04 -1.053837215846e-03 0.0 
-1.053837215846e-03 2.620622686779e-03 0.0 
0.0 0.0 0.0 
2.854128763756e-03 3.126468294235e-03 0.0 
3.126468294235e-03 -1.288815483069e-03 0.0 
0.0 0.0 0.0 
-1.449357316050e-03 1.106156663555e-03 0.0 
1.106156663555e-03 7.734596922010e-03 0.0 
0.0 0.0 0.0 
-1.255331698695e-04 -1.757276286822e-03 0.0 
-1.757276286822e-03 2.132002071808e-03 0.0 
0.0 0.0 0.0 
4.321993420259e-03 1.017818661609e-03 0.0 
1.017818661609e-03 -2.985901299054e-03 0.0 
0.0 0.0 0.0 
-1.943709392984e-04 -8.993969690441e-04 0.0 
-8.993969690441e-04 4.172750282354e-03 0.0 
0.0 0.0 0.0 
1.701124580603e-03 2.872380702170e-03 0.0 
2.872380702170e-03 8.028254406685e-04 0.0 
0.0 0.0 0.0 
4.423739038086e-03 1.130268574985e-03 0.0 
1.130268574985e-03 -3.297633821163e-03 0.0 
0.0 0.0 0.0 
4.781402971319e-04 3.013034032259e-03 0.0 
3.013034032259e-03 3.162130253944e-03 0.0 
0.0 0.0 0.0 
2.322114669783e-03 -2.238021255600e-03 0.0 
-2.238021255600e-03 -4.715423974615e-03 0.0 
0.0 0.0 0.0 
5.555770225874e-04 2.725921497384e-03 0.0 
2.725921497384e-03 3.853536701302e-03 0.0 
0.0 0.0 0.0 
2.079764266286e-03 1.264866704633e-03 0.0 
1.264866704633e-03 1.207572575350e-03 0.0 
0.0 0.0 0.0 
-1.925989554208e-04 2.570837977784e-03 0.0 
2.570837977784e-03 6.615831195727e-03 0.0 
0.0 0.0 0.0 
5.059340292326e-04 2.617901346796e-03 0.0 
2.617901346796e-03 4.264733766764e-03 0.0 
0.0 0.0 0.0 
4.263616977506e-03 3.934815169928e-04 0.0 
3.934815169928e-04 -3.595680972713e-03 0.0 
0.0 0.0 0.0 
-4.836688653387e-05 -1.153271755666e-03 0.0 
-1.153271755666e-03 3.280885111904e-03 0.0 
0.0 0.0 0.0 
-4.915584892089e-04 1.117185171052e-03 0.0 
1.117185171052e-03 9.183285431149e-03 0.0 
0.0 0.0 0.0 
6.679121907214e-04 1.767958230687e-03 0.0 
1.767958230687e-03 3.834717153872e-03 0.0 
0.0 0.0 0.0 
1.772899196417e-03 1.528324164666e-03 0.0 
1.528324164666e-03 1.846527617908e-03 0.0 
0.0 0.0 0.0 
3.706313046297e-03 2.138285398600e-03 0.0 
2.138285398600e-03 -1.825354507655e-03 0.0 
0.0 0.0 0.0 
5.602635328652e-04 2.880788991236e-03 0.0 
2.880788991236e-03 3.480803972763e-03 0.0 
0.0 0.0 0.0 
-4.578400549166e-04 -6.192859443410e-04 0.0 
-6.192859443410e-04 4.965321187929e-03 0.0 
0.0 0.0 0.0 
-1.492164727898e-03 -5.208483052445e-04 0.0 
-5.208483052445e-04 3.936447137486e-03 0.0 
0.0 0.0 0.0 
6.200812823658e-04 2.672572821239e-03 0.0 
2.672572821239e-03 3.554794550833e-03 0.0 
0.0 0.0 0.0 
-1.219137221552e-03 1.031161647176e-03 0.0 
1.031161647176e-03 7.988506944164e-03 0.0 
0.0 0.0 0.0 
-3.046399274775e-05 -9.955770381408e-04 0.0 
-9.955770381408e-04 3.706634284931e-03 0.0 
0.0 0.0 0.0 
6.386135286693e-04 -9.951973179876e-04 0.0 
-9.951973179876e-04 2.590794981965e-03 0.0 
0.0 0.0 0.0 
-1.212622328290e-03 4.341107953911e-05 0.0 
4.341107953911e-05 6.850566094112e-03 0.0 
0.0 0.0 0.0 
-1.195939546463e-03 3.240132103338e-05 0.0 
3.240132103338e-05 6.845358630815e-03 0.0 
0.0 0.0 0.0 
-1.112861323216e-03 2.040036514598e-03 0.0 
2.040036514598e-03 6.810715721021e-03 0.0 
0.0 0.0 0.0 
6.367082928136e-04 2.817615348681e-03 0.0 
2.817615348681e-03 3.128195040640e-03 0.0 
0.0 0.0 0.0 
-3.938041782077e-04 -1.559786826395e-03 0.0 
-1.559786826395e-03 2.688862827816e-03 0.0 
0.0 0.0 0.0 
-5.183668929293e-04 2.592985505797e-03 0.0 
2.592985505797e-03 5.422324636173e-03 0.0 
0.0 0.0 0.0 
2.153651041431e-03 2.738690422377e-03 0.0 
2.738690422377e-03 -7.853741992192e-06 0.0 
0.0 0.0 0.0 
1.320110443306e-03 4.160436927573e-04 0.0 
4.160436927573e-04 2.190071903442e-03 0.0 
0.0 0.0 0.0 
3.359349593890e-03 2.501133484683e-03 0.0 
2.501133484683e-03 -1.877654139232e-03 0.0 
0.0 0.0 0.0 
-2.511004006527e-04 1.648583257821e-03 0.0 
1.648583257821e-03 9.264465916053e-03 0.0 
0.0 0.0 0.0 
-1.596305143424e-03 1.350922857387e-03 0.0 
1.350922857387e-03 6.655900386393e-03 0.0 
0.0 0.0 0.0 
2.035535952551e-03 2.824902867464e-03 0.0 
2.824902867464e-03 4.919655946130e-04 0.0 
0.0 0.0 0.0 
1.501114592362e-04 -1.752632929167e-03 0.0 
-1.752632929167e-03 2.129461148675e-03 0.0 
0.0 0.0 0.0 
4.090082441448e-03 1.348847059682e-03 0.0 
1.348847059682e-03 -3.340042733673e-03 0.0 
0.0 0.0 0.0 
2.083669524127e-04 -2.077421395840e-03 0.0 
-2.077421395840e-03 1.221956424125e-03 0.0 
0.0 0.0 0.0 
6.352391821560e-04 2.984507542380e-03 0.0 
2.984507542380e-03 2.738047110590e-03 0.0 
0.0 0.0 0.0 
-4.567030439184e-05 2.926938449599e-03 0.0 
2.926938449599e-03 3.613692065814e-03 0.0 
0.0 0.0 0.0 
-1.254213323270e-03 1.257561806090e-03 0.0 
1.257561806090e-03 7.740667426042e-03 0.0 
0.0 0.0 0.0 
-3.385982847498e-04 2.625520201474e-03 0.0 
2.625520201474e-03 5.123053971122e-03 0.0 
0.0 0.0 0.0 
-4.016314288501e-04 2.550077246838e-03 0.0 
2.550077246838e-03 5.674987940672e-03 0.0 
0.0 0.0 0.0 
7.601238494945e-04 -1.438166653985e-04 0.0 
-1.438166653985e-04 7.703878985068e-04 0.0 
0.0 0.0 0.0 
1.330861361266e-04 -2.080953672293e-03 0.0 
-2.080953672293e-03 1.560042337738e-03 0.0 
0.0 0.0 0.0 
-2.944956442343e-04 2.932646532596e-03 0.0 
2.932646532596e-03 3.212520135166e-03 0.0 
0.0 0.0 0.0 
-8.256845949800e-04 2.394305496370e-03 0.0 
2.394305496370e-03 5.722695498759e-03 0.0 
0.0 0.0 0.0 
-8.724527961806e-04 2.334363613600e-03 0.0 
2.334363613600e-03 6.181299797928e-03 0.0 
0.0 0.0 0.0 
1.505746836850e-03 1.171360274618e-03 0.0 
1.171360274618e-03 2.070140692718e-03 0.0 
0.0 0.0 0.0 
-4.196019037207e-04 -1.374169785356e-04 0.0 
-1.374169785356e-04 1.849676440261e-03 0.0 
0.0 0.0 0.0 
3.458903489718e-03 -1.682754277884e-03 0.0 
-1.682754277884e-03 -4.094937496653e-03 0.0 
0.0 0.0 0.0 
9.385835812383e-04 3.089841651586e-03 0.0 
3.089841651586e-03 1.703137031877e-03 0.0 
0.0 0.0 0.0 
-1.343219499420e-04 -2.041415073683e-03 0.0 
-2.041415073683e-03 1.555600695980e-03 0.0 
0.0 0.0 0.0 
-1.781847027654e-03 1.150171813295e-03 0.0 
1.150171813295e-03 5.853737233198e-03 0.0 
0.0 0.0 0.0 
-1.820453295166e-03 1.097604485229e-03 0.0 
1.097604485229e-03 6.154832334166e-03 0.0 
0.0 0.0 0.0 
-1.378214599159e-03 1.299427538462e-03 0.0 
1.299427538462e-03 7.736184047213e-03 0.0 
0.0 0.0 0.0 
2.503406017119e-03 3.296728581094e-03 0.0 
3.296728581094e-03 -1.810218232115e-03 0.0 
0.0 0.0 0.0 
-1.836791444030e-04 -1.757953470777e-03 0.0 
-1.757953470777e-03 2.387140707429e-03 0.0 
0.0 0.0 0.0 
2.063776432238e-03 1.260252615361e-05 0.0 
1.260252615361e-05 7.154462499321e-04 0.0 
0.0 0.0 0.0 
3.651844200321e-03 -4.299754135994e-04 0.0 
-4.299754135994e-04 -4.365980058964e-03 0.0 
0.0 0.0 0.0 
1.545322571392e-04 2.539736925765e-03 0.0 
2.539736925765e-03 5.407266838653e-03 0.0 
0.0 0.0 0.0 
-8.858296801325e-04 1.224910351308e-03 0.0 
1.224910351308e-03 8.746411736708e-03 0.0 
0.0 0.0 0.0 
-7.116630942507e-04 -1.624218025971e-03 0.0 
-1.624218025971e-03 2.622886537315e-03 0.0 
0.0 0.0 0.0 
-5.167208377166e-05 -9.888783204918e-04 0.0 
-9.888783204918e-04 3.771432709045e-03 0.0 
0.0 0.0 0.0 
5.864449815951e-04 -2.828352429979e-04 0.0 
-2.828352429979e-04 5.031329289631e-04 0.0 
0.0 0.0 0.0 
2.081114599158e-03 -3.904409143706e-04 0.0 
-3.904409143706e-04 4.046917023988e-04 0.0 
0.0 0.0 0.0 
7.934822196605e-04 3.060092357195e-03 0.0 
3.060092357195e-03 2.439940093628e-03 0.0 
0.0 0.0 0.0 
7.515345121425e-04 -2.146088583563e-04 0.0 
-2.146088583563e-04 4.496090030923e-04 0.0 
0.0 0.0 0.0 
-7.593944345201e-04 1.225683592624e-03 0.0 
1.225683592624e-03 8.746092299764e-03 0.0 
0.0 0.0 0.0 
3.268828074377e-03 -6.835843539056e-04 0.0 
-6.835843539056e-04 -4.320400197156e-03 0.0 
0.0 0.0 0.0 
-7.821157217999e-04 2.481108780806e-03 0.0 
2.481108780806e-03 5.709179635666e-03 0.0 
0.0 0.0 0.0 
8.291107403502e-05 2.987875333177e-03 0.0 
2.987875333177e-03 3.604900559121e-03 0.0 
0.0 0.0 0.0 
3.134729955768e-03 -1.095731903296e-03 0.0 
-1.095731903296e-03 -2.076562501864e-03 0.0 
0.0 0.0 0.0 
1.948954836030e-03 -1.319224823602e-03 0.0 
-1.319224823602e-03 1.080978104178e-04 0.0 
0.0 0.0 0.0 
-6.796758538992e-04 1.393019085208e-03 0.0 
1.393019085208e-03 8.750214707258e-03 0.0 
0.0 0.0 0.0 
1.781103260219e-03 -1.038645661979e-03 0.0 
-1.038645661979e-03 7.355830007523e-04 0.0 
0.0 0.0 0.0 
1.345598986143e-03 3.013733260105e-03 0.0 
3.013733260105e-03 1.212979304952e-03 0.0 
0.0 0.0 0.0 
1.157214226322e-03 3.043853815629e-03 0.0 
3.043853815629e-03 1.708726145439e-03 0.0 
0.0 0.0 0.0 
-1.470637129422e-03 3.096875253389e-03 0.0 
3.096875253389e-03 9.657099703626e-04 0.0 
0.0 0.0 0.0 
3.134464906382e-03 -4.718172269833e-04 0.0 
-4.718172269833e-04 -4.624514951431e-03 0.0 
0.0 0.0 0.0 
6.948788371615e-04 2.531809820341e-03 0.0 
2.531809820341e-03 4.015122750628e-03 0.0 
0.0 0.0 0.0 
-1.515718384563e-03 1.462583698152e-03 0.0 
1.462583698152e-03 7.167176961819e-03 0.0 
0.0 0.0 0.0 
7.174007117470e-04 2.491469675122e-03 0.0 
2.491469675122e-03 3.836803399213e-03 0.0 
0.0 0.0 0.0 
2.399862384463e-03 3.421142454715e-03 0.0 
3.421142454715e-03 -1.330839840938e-03 0.0 
0.0 0.0 0.0 
-8.256617857696e-04 1.979987021788e-03 0.0 
1.979987021788e-03 7.424161115658e-03 0.0 
0.0 0.0 0.0 
4.163927099754e-04 2.570775640675e-03 0.0 
2.570775640675e-03 4.710267585120e-03 0.0 
0.0 0.0 0.0 
-1.659917267083e-03 1.209749153752e-03 0.0 
1.209749153752e-03 6.117452700349e-03 0.0 
0.0 0.0 0.0 
5.563589504174e-04 2.568769788785e-03 0.0 
2.568769788785e-03 4.009733519184e-03 0.0 
0.0 0.0 0.0 
-2.400939362600e-04 -1.021671263299e-03 0.0 
-1.021671263299e-03 3.777798387719e-03 0.0 
0.0 0.0 0.0 
9.453182932138e-04 2.884596430698e-03 0.0 
2.884596430698e-03 2.363102844613e-03 0.0 
0.0 0.0 0.0 
1.301881505140e-04 -1.931212784516e-03 0.0 
-1.931212784516e-03 1.821742351611e-03 0.0 
0.0 0.0 0.0 
1.930606208660e-04 -1.925412530757e-03 0.0 
-1.925412530757e-03 1.530065104760e-03 0.0 
0.0 0.0 0.0 
-7.193854520320e-04 1.838534531987e-03 0.0 
1.838534531987e-03 8.406843069811e-03 0.0 
0.0 0.0 0.0 
2.039331466459e-03 -1.497058234818e-03 0.0 
-1.497058234818e-03 -3.812426370708e-04 0.0 
0.0 0.0 0.0 
2.963086764476e-04 2.997515068688e-03 0.0 
2.997515068688e-03 3.165097839221e-03 0.0 
0.0 0.0 0.0 
3.037332863574e-03 2.227147430949e-03 0.0 
2.227147430949e-03 -1.199071935262e-03 0.0 
0.0 0.0 0.0 
1.540625889142e-03 -7.818714363184e-04 0.0 
-7.818714363184e-04 1.382732120567e-03 0.0 
0.0 0.0 0.0 
2.633742766022e-03 2.691428774694e-03 0.0 
2.691428774694e-03 -3.467103142855e-04 0.0 
0.0 0.0 0.0 
4.404710101071e-03 4.554389798970e-04 0.0 
4.554389798970e-04 -3.722193070167e-03 0.0 
0.0 0.0 0.0 
3.328938334698e-03 -1.590664779752e-04 0.0 
-1.590664779752e-04 -1.716327713898e-03 0.0 
0.0 0.0 0.0 
4.410899131754e-03 1.215449968235e-03 0.0 
1.215449968235e-03 -3.524153138649e-03 0.0 
0.0 0.0 0.0 
-5.880166730236e-04 2.532140911076e-03 0.0 
2.532140911076e-03 5.431354494783e-03 0.0 
0.0 0.0 0.0 
4.388453055139e-03 3.934310784129e-04 0.0 
3.934310784129e-04 -3.396329546390e-03 0.0 
0.0 0.0 0.0 
-3.532638608290e-04 2.752186389215e-03 0.0 
2.752186389215e-03 4.859105689085e-03 0.0 
0.0 0.0 0.0 
1.683809602882e-03 1.258066166810e-03 0.0 
1.258066166810e-03 1.953616973156e-03 0.0 
0.0 0.0 0.0 
1.903829672569e-03 1.177014035806e-03 0.0 
1.177014035806e-03 1.328363642793e-03 0.0 
0.0 0.0 0.0 
2.807705266195e-03 2.721464063734e-03 0.0 
2.721464063734e-03 -1.203046948672e-03 0.0 
0.0 0.0 0.0 
-1.327922973516e-03 1.319326144408e-03 0.0 
1.319326144408e-03 7.458347550900e-03 0.0 
0.0 0.0 0.0 
-2.358151984980e-04 -8.681338357304e-04 0.0 
-8.681338357304e-04 4.222696925446e-03 0.0 
0.0 0.0 0.0 
-3.911514863170e-04 -8.912590435843e-04 0.0 
-8.912590435843e-04 4.227413207174e-03 0.0 
0.0 0.0 0.0 
1.450662052510e-03 3.409429345865e-03 0.0 
3.409429345865e-03 -1.485030559922e-03 0.0 
0.0 0.0 0.0 
-1.850317448087e-04 2.757708948980e-03 0.0 
2.757708948980e-03 4.517530209106e-03 0.0 
0.0 0.0 0.0 
-3.042187239400e-04 -6.644321500082e-04 0.0 
-6.644321500082e-04 4.985325883921e-03 0.0 
0.0 0.0 0.0 
-9.160243097592e-04 2.118351847166e-03 0.0 
2.118351847166e-03 3.716644363361e-03 0.0 
0.0 0.0 0.0 
-6.706605707641e-04 -1.497536146451e-03 0.0 
-1.497536146451e-03 2.893745714050e-03 0.0 
0.0 0.0 0.0 
-1.757932879342e-03 3.162824747581e-03 0.0 
3.162824747581e-03 1.790745922546e-03 0.0 
0.0 0.0 0.0 
-3.716246522294e-04 -7.442124654623e-04 0.0 
-7.442124654623e-04 4.620939273442e-03 0.0 
0.0 0.0 0.0 
4.269841475399e-03 1.342745195244e-03 0.0 
1.342745195244e-03 -3.742233426601e-03 0.0 
0.0 0.0 0.0 
-1.465497007423e-03 -4.220475211548e-04 0.0 
-4.220475211548e-04 4.158663186592e-03 0.0 
0.0 0.0 0.0 
1.951468870148e-03 2.100018906507e-03 0.0 
2.100018906507e-03 1.068382499677e-03 0.0 
0.0 0.0 0.0 
-1.455216249346e-03 1.369242874308e-03 0.0 
1.369242874308e-03 7.452402149530e-03 0.0 
0.0 0.0 0.0 
-1.407807713756e-03 1.391127459390e-03 0.0 
1.391127459390e-03 7.176024686049e-03 0.0 
0.0 0.0 0.0 
9.717188029117e-04 3.033757727284e-03 0.0 
3.033757727284e-03 1.976092852331e-03 0.0 
0.0 0.0 0.0 
-1.660337627598e-03 1.288724687696e-03 0.0 
1.288724687696e-03 5.238585955032e-03 0.0 
0.0 0.0 0.0 
-1.728235063090e-03 1.213852566875e-03 0.0 
1.213852566875e-03 5.556065115716e-03 0.0 
0.0 0.0 0.0 
-4.955919231558e-04 -7.629918906767e-04 0.0 
-7.629918906767e-04 4.624856861598e-03 0.0 
0.0 0.0 0.0 
1.837756243140e-03 -1.211353669222e-03 0.0 
-1.211353669222e-03 1.093804058143e-04 0.0 
0.0 0.0 0.0 
2.899941447292e-03 -9.532910284565e-04 0.0 
-9.532910284565e-04 -1.592609974164e-03 0.0 
0.0 0.0 0.0 
2.274820963017e-03 -1.120719565718e-04 0.0 
-1.120719565718e-04 3.692529578962e-04 0.0 
0.0 0.0 0.0 
3.724462151627e-03 -1.671403810761e-04 0.0 
-1.671403810761e-04 -2.241348461798e-03 0.0 
0.0 0.0 0.0 
4.260077343988e-03 1.219954275615e-03 0.0 
1.219954275615e-03 -3.186592053196e-03 0.0 
0.0 0.0 0.0 
-1.555591882484e-03 1.086403276071e-03 0.0 
1.086403276071e-03 5.283448118946e-03 0.0 
0.0 0.0 0.0 
-1.655684527303e-03 1.343550951470e-03 0.0 
1.343550951470e-03 6.927942004899e-03 0.0 
0.0 0.0 0.0 
-1.205735474527e-03 3.829951802521e-05 0.0 
3.829951802521e-05 6.841817036934e-03 0.0 
0.0 0.0 0.0 
1.956181010337e-03 9.756468225357e-04 0.0 
9.756468225357e-04 1.356623912238e-03 0.0 
0.0 0.0 0.0 
3.210431798593e-03 2.482014340719e-03 0.0 
2.482014340719e-03 -1.170460009860e-03 0.0 
0.0 0.0 0.0 
9.702453144307e-04 1.641389508782e-03 0.0 
1.641389508782e-03 3.223289095644e-03 0.0 
0.0 0.0 0.0 
-8.104513187900e-04 -3.089094746631e-04 0.0 
-3.089094746631e-04 5.186847811204e-03 0.0 
0.0 0.0 0.0 
3.620083200236e-03 -8.580254642590e-05 0.0 
-8.580254642590e-05 -2.123053753759e-03 0.0 
0.0 0.0 0.0 
-1.928552661979e-04 -7.550255390065e-04 0.0 
-7.550255390065e-04 4.974096543411e-03 0.0 
0.0 0.0 0.0 
4.290463305588e-03 -3.487526725596e-04 0.0 
-3.487526725596e-04 -3.380250906933e-03 0.0 
0.0 0.0 0.0 
1.039664280920e-03 1.866251910884e-03 0.0 
1.866251910884e-03 3.137295225404e-03 0.0 
0.0 0.0 0.0 
1.208997769930e-03 2.968154351983e-03 0.0 
2.968154351983e-03 1.984620870304e-03 0.0 
0.0 0.0 0.0 
1.231581406660e-03 2.695228815113e-03 0.0 
2.695228815113e-03 2.064359005151e-03 0.0 
0.0 0.0 0.0 
1.411022315805e-03 -3.657484344522e-05 0.0 
-3.657484344522e-05 1.925924551516e-03 0.0 
0.0 0.0 0.0 
6.048663493681e-04 -2.475505694027e-03 0.0 
-2.475505694027e-03 3.070194909527e-04 0.0 
0.0 0.0 0.0 
2.914004831767e-05 2.897086433968e-03 0.0 
2.897086433968e-03 3.861992010597e-03 0.0 
0.0 0.0 0.0 
3.444412658702e-03 -5.976796920012e-04 0.0 
-5.976796920012e-04 -2.174142199589e-03 0.0 
0.0 0.0 0.0 
-1.594493697308e-04 2.887081513003e-03 0.0 
2.887081513003e-03 4.247543337489e-03 0.0 
0.0 0.0 0.0 
2.351715123316e-03 3.284399970139e-03 0.0 
3.284399970139e-03 -5.956469794695e-04 0.0 
0.0 0.0 0.0 
1.461809463192e-03 2.485184208749e-03 0.0 
2.485184208749e-03 1.867000284089e-03 0.0 
0.0 0.0 0.0 
3.537645741366e-03 -7.040659225633e-04 0.0 
-7.040659225633e-04 -2.141738116903e-03 0.0 
0.0 0.0 0.0 
-1.368503151002e-04 -1.575959803976e-03 0.0 
-1.575959803976e-03 2.689777728998e-03 0.0 
0.0 0.0 0.0 
-2.746611735682e-04 2.817817863713e-03 0.0 
2.817817863713e-03 4.257311184567e-03 0.0 
0.0 0.0 0.0 
-7.763927484530e-04 4.053117651643e-03 0.0 
4.053117651643e-03 -6.912845415431e-04 0.0 
0.0 0.0 0.0 
2.685406827662e-03 2.147325043996e-03 0.0 
2.147325043996e-03 -5.122234433402e-04 0.0 
0.0 0.0 0.0 
-8.057001138621e-04 3.434369390068e-03 0.0 
3.434369390068e-03 1.117663535792e-03 0.0 
0.0 0.0 0.0 
-9.824486406673e-05 -7.381358035642e-04 0.0 
-7.381358035642e-04 1.069424554776e-03 0.0 
0.0 0.0 0.0 
-4.460175927994e-04 -1.553522758234e-03 0.0 
-1.553522758234e-03 2.901828252838e-03 0.0 
0.0 0.0 0.0 
5.123583323363e-05 2.628536235540e-03 0.0 
2.628536235540e-03 5.161562768933e-03 0.0 
0.0 0.0 0.0 
-1.312738551728e-03 1.585997993865e-03 0.0 
1.585997993865e-03 7.093766293318e-03 0.0 
0.0 0.0 0.0 
-1.465812856749e-03 1.482928910099e-03 0.0 
1.482928910099e-03 4.596927204755e-03 0.0 
0.0 0.0 0.0 
0.0 1.675105996700e-03 0.0 
1.675105996700e-03 9.199072969371e-03 0.0 
0.0 0.0 0.0 
-1.777067353789e-03 3.251355810669e-03 0.0 
3.251355810669e-03 2.254505344441e-04 0.0 
0.0 0.0 0.0 
-1.559973943666e-03 1.381307990631e-03 0.0 
1.381307990631e-03 4.930775321088e-03 0.0 
0.0 0.0 0.0 
2.735424972600e-03 -9.308459915437e-04 0.0 
-9.308459915437e-04 -1.170900755273e-03 0.0 
0.0 0.0 0.0 
-9.243675199744e-04 -1.385601266435e-03 0.0 
-1.385601266435e-03 3.087927256193e-03 0.0 
0.0 0.0 0.0 
-1.509134605783e-03 1.839493507052e-03 0.0 
1.839493507052e-03 5.239121156396e-03 0.0 
0.0 0.0 0.0 
3.471098238934e-03 -1.524922008634e-03 0.0 
-1.524922008634e-03 -2.510522316615e-03 0.0 
0.0 0.0 0.0 
2.044352297208e-03 -1.462605840438e-03 0.0 
-1.462605840438e-03 -5.369595311647e-04 0.0 
0.0 0.0 0.0 
8.659207619053e-04 2.956359258501e-03 0.0 
2.956359258501e-03 2.740969661974e-03 0.0 
0.0 0.0 0.0 
2.335253289659e-03 1.924523890488e-03 0.0 
1.924523890488e-03 3.392537485414e-04 0.0 
0.0 0.0 0.0 
-3.620846729008e-04 2.459709777798e-03 0.0 
2.459709777798e-03 6.464416872122e-03 0.0 
0.0 0.0 0.0 
2.442771847417e-03 3.617815678182e-03 0.0 
3.617815678182e-03 -2.928273908636e-03 0.0 
0.0 0.0 0.0 
-4.988257180648e-04 -1.704559627758e-03 0.0 
-1.704559627758e-03 2.634037261327e-03 0.0 
0.0 0.0 0.0 
-9.209573245018e-04 -1.240041766763e-03 0.0 
-1.240041766763e-03 3.515013589393e-03 0.0 
0.0 0.0 0.0 
-1.355499344085e-04 -2.148219480247e-03 0.0 
-2.148219480247e-03 1.070269247616e-03 0.0 
0.0 0.0 0.0 
-1.680680290632e-03 1.170800185806e-03 0.0 
1.170800185806e-03 6.430539778194e-03 0.0 
0.0 0.0 0.0 
-1.408449857952e-03 1.659810127851e-03 0.0 
1.659810127851e-03 7.083888250362e-03 0.0 
0.0 0.0 0.0 
-1.125604930714e-03 -1.396302410084e-04 0.0 
-1.396302410084e-04 4.879877325614e-03 0.0 
0.0 0.0 0.0 
1.200834734850e-03 -2.823222048763e-04 0.0 
-2.823222048763e-04 2.403034051321e-04 0.0 
0.0 0.0 0.0 
3.410106904558e-04 -6.480197037068e-04 0.0 
-6.480197037068e-04 -4.633190553117e-03 0.0 
0.0 0.0 0.0 
-1.955572889856e-04 -1.743073130165e-03 0.0 
-1.743073130165e-03 1.046197691520e-03 0.0 
0.0 0.0 0.0 
-1.087685690366e-03 -1.138113327158e-03 0.0 
-1.138113327158e-03 3.499471250776e-03 0.0 
0.0 0.0 0.0 
4.205162398735e-03 -2.805789377284e-04 0.0 
-2.805789377284e-04 -3.057582231702e-03 0.0 
0.0 0.0 0.0 
3.521402088935e-03 -1.631715176155e-03 0.0 
-1.631715176155e-03 -2.945904174007e-03 0.0 
0.0 0.0 0.0 
4.202917966321e-03 -4.380874774664e-04 0.0 
-4.380874774664e-04 -3.587466510280e-03 0.0 
0.0 0.0 0.0 
-6.616625154622e-04 -1.332595218590e-03 0.0 
-1.332595218590e-03 3.364080821800e-03 0.0 
0.0 0.0 0.0 
-1.048806300133e-03 1.966605981885e-03 0.0 
1.966605981885e-03 6.824415978211e-03 0.0 
0.0 0.0 0.0 
-1.061546743413e-03 -9.948470511376e-04 0.0 
-9.948470511376e-04 3.869729849993e-03 0.0 
0.0 0.0 0.0 
4.385497710034e-03 4.014526653065e-04 0.0 
4.014526653065e-04 -3.170231739956e-03 0.0 
0.0 0.0 0.0 
-3.386731491317e-05 2.795538059845e-03 0.0 
2.795538059845e-03 4.511967286855e-03 0.0 
0.0 0.0 0.0 
-1.459699494678e-03 6.278189398908e-04 0.0 
6.278189398908e-04 7.309380571383e-03 0.0 
0.0 0.0 0.0 
1.660321921704e-03 1.966765121545e-03 0.0 
1.966765121545e-03 1.783882154581e-03 0.0 
0.0 0.0 0.0 
-1.203650931457e-03 -8.879937319204e-04 0.0 
-8.879937319204e-04 3.852855820933e-03 0.0 
0.0 0.0 0.0 
-8.617452588250e-04 -1.263376704181e-03 0.0 
-1.263376704181e-03 3.353487130483e-03 0.0 
0.0 0.0 0.0 
-1.258545856309e-03 1.667206217485e-03 0.0 
1.667206217485e-03 4.012430942581e-03 0.0 
0.0 0.0 0.0 
3.857270938130e-03 -8.345817983813e-04 0.0 
-8.345817983813e-04 -2.819671294563e-03 0.0 
0.0 0.0 0.0 
-1.161341650720e-03 -7.486891741720e-04 0.0 
-7.486891741720e-04 4.175392819082e-03 0.0 
0.0 0.0 0.0 
-1.020756028329e-03 6.601342939139e-05 0.0 
6.601342939139e-05 8.235870718506e-03 0.0 
0.0 0.0 0.0 
-1.102436260690e-03 5.638964037758e-05 0.0 
5.638964037758e-05 7.901232576597e-03 0.0 
0.0 0.0 0.0 
-1.359286955006e-03 1.578889877993e-03 0.0 
1.578889877993e-03 4.305492881409e-03 0.0 
0.0 0.0 0.0 
-8.329104225858e-04 -1.102412643961e-03 0.0 
-1.102412643961e-03 3.770209885458e-03 0.0 
0.0 0.0 0.0 
2.418484034659e-03 -2.360578347174e-03 0.0 
-2.360578347174e-03 -2.016216244719e-03 0.0 
0.0 0.0 0.0 
8.619701929868e-05 3.556645762266e-03 0.0 
3.556645762266e-03 6.137713217080e-04 0.0 
0.0 0.0 0.0 
1.102487356650e-03 1.729699794033e-03 0.0 
1.729699794033e-03 3.167344917540e-03 0.0 
0.0 0.0 0.0 
-2.944382757791e-04 -2.029781280804e-03 0.0 
-2.029781280804e-03 9.073836143152e-04 0.0 
0.0 0.0 0.0 
2.331405497743e-03 -2.201721822045e-03 0.0 
-2.201721822045e-03 -1.333146231784e-03 0.0 
0.0 0.0 0.0 
2.765293204687e-03 2.267518249769e-03 0.0 
2.267518249769e-03 -3.314266390816e-04 0.0 
0.0 0.0 0.0 
-1.380378952598e-03 1.227724439479e-03 0.0 
1.227724439479e-03 4.672737420403e-03 0.0 
0.0 0.0 0.0 
-1.280513625324e-03 -6.417652016207e-04 0.0 
-6.417652016207e-04 4.150645093371e-03 0.0 
0.0 0.0 0.0 
-1.040910232770e-03 -5.197903262425e-05 0.0 
-5.197903262425e-05 2.585123719322e-03 0.0 
0.0 0.0 0.0 
-1.778166265227e-03 1.175571715061e-03 0.0 
1.175571715061e-03 6.688136045594e-03 0.0 
0.0 0.0 0.0 
-1.004952747282e-03 -1.027518726515e-03 0.0 
-1.027518726515e-03 3.758439637117e-03 0.0 
0.0 0.0 0.0 
2.583903266853e-03 -1.362838370980e-03 0.0 
-1.362838370980e-03 -1.434604662985e-03 0.0 
0.0 0.0 0.0 
-4.294056534063e-04 -1.718371893864e-03 0.0 
-1.718371893864e-03 2.382353786432e-03 0.0 
0.0 0.0 0.0 
1.593950960785e-04 2.843915040079e-03 0.0 
2.843915040079e-03 -2.468310447459e-03 0.0 
0.0 0.0 0.0 
-6.656326507950e-04 6.121766915049e-05 0.0 
6.121766915049e-05 9.182203074193e-03 0.0 
0.0 0.0 0.0 
2.894389821268e-03 -1.762372081691e-03 0.0 
-1.762372081691e-03 -2.197930068444e-03 0.0 
0.0 0.0 0.0 
1.604137100350e-03 6.850634236477e-04 0.0 
6.850634236477e-04 1.904284329215e-03 0.0 
0.0 0.0 0.0 
1.499791640179e-03 2.588224174893e-03 0.0 
2.588224174893e-03 2.081877523051e-03 0.0 
0.0 0.0 0.0 
-9.625475587667e-04 -8.739659576840e-04 0.0 
-8.739659576840e-04 4.123130222724e-03 0.0 
0.0 0.0 0.0 
-1.107251900568e-03 -7.926691534342e-04 0.0 
-7.926691534342e-04 4.110217334147e-03 0.0 
0.0 0.0 0.0 
4.276901916001e-03 -3.122112117186e-04 0.0 
-3.122112117186e-04 -3.241907318352e-03 0.0 
0.0 0.0 0.0 
-6.489599776537e-04 -1.814510125449e-03 0.0 
-1.814510125449e-03 8.604042613700e-04 0.0 
0.0 0.0 0.0 
6.805329866948e-04 3.714495236131e-03 0.0 
3.714495236131e-03 -2.645726534148e-03 0.0 
0.0 0.0 0.0 
-1.055835391564e-03 -6.496048048409e-04 0.0 
-6.496048048409e-04 4.432983526063e-03 0.0 
0.0 0.0 0.0 
1.515636615393e-03 1.582318252039e-04 0.0 
1.582318252039e-04 1.932893945058e-03 0.0 
0.0 0.0 0.0 
1.340099690408e-03 -2.556007777229e-03 0.0 
-2.556007777229e-03 -7.428473333567e-04 0.0 
0.0 0.0 0.0 
1.013927249951e-04 2.779066823921e-03 0.0 
2.779066823921e-03 4.178316300347e-03 0.0 
0.0 0.0 0.0 
-7.704378784210e-04 2.219012966046e-03 0.0 
2.219012966046e-03 3.389077214756e-03 0.0 
0.0 0.0 0.0 
-2.415869044797e-04 2.665919159089e-03 0.0 
2.665919159089e-03 5.116927265052e-03 0.0 
0.0 0.0 0.0 
5.128159158436e-04 -5.113946811327e-04 0.0 
-5.113946811327e-04 3.883795880977e-03 0.0 
0.0 0.0 0.0 
-5.020839601319e-03 -7.505481317530e-05 0.0 
-7.505481317530e-05 -2.678424567395e-03 0.0 
0.0 0.0 0.0 
0.0 1.796964438196e-04 0.0 
1.796964438196e-04 9.905235663861e-03 0.0 
0.0 0.0 0.0 
0.0 -2.434504397261e-04 0.0 
-2.434504397261e-04 5.965401403927e-03 0.0 
0.0 0.0 0.0 
-1.169534722936e-03 -2.313951074098e-05 0.0 
-2.313951074098e-05 7.282416376892e-03 0.0 
0.0 0.0 0.0 
1.839718635185e-03 -2.219882620231e-03 0.0 
-2.219882620231e-03 -1.039414972945e-03 0.0 
0.0 0.0 0.0 
1.227873037710e-03 2.800032210760e-03 0.0 
2.800032210760e-03 2.375147597735e-03 0.0 
0.0 0.0 0.0 
4.391737681335e-03 4.023830659183e-04 0.0 
4.023830659183e-04 -3.181240542456e-03 0.0 
0.0 0.0 0.0 
2.548515934717e-04 -5.744506088717e-04 0.0 
-5.744506088717e-04 8.212468539097e-04 0.0 
0.0 0.0 0.0 
-1.960822027168e-03 3.309266883463e-03 0.0 
3.309266883463e-03 9.668947849863e-04 0.0 
0.0 0.0 0.0 
-5.721822110758e-04 5.427645744076e-04 0.0 
5.427645744076e-04 9.354631888872e-03 0.0 
0.0 0.0 0.0 
-1.275792199916e-03 1.857478819381e-03 0.0 
1.857478819381e-03 6.966671350052e-03 0.0 
0.0 0.0 0.0 
-1.854927672648e-03 1.069717924216e-03 0.0 
1.069717924216e-03 6.435203926509e-03 0.0 
0.0 0.0 0.0 
2.284945818440e-04 2.696986757660e-03 0.0 
2.696986757660e-03 5.574431950024e-03 0.0 
0.0 0.0 0.0 
-6.293286774451e-04 -1.524730530137e-05 0.0 
-1.524730530137e-05 2.119174824391e-03 0.0 
0.0 0.0 0.0 
2.567165605103e-04 2.526403987745e-03 0.0 
2.526403987745e-03 5.262429052756e-03 0.0 
0.0 0.0 0.0 
-1.194449792170e-03 1.786130618747e-03 0.0 
1.786130618747e-03 6.978256481413e-03 0.0 
0.0 0.0 0.0 
1.016151661560e-03 -2.432994763588e-03 0.0 
-2.432994763588e-03 -1.250278149411e-04 0.0 
0.0 0.0 0.0 
1.312288096042e-03 2.904134685731e-03 0.0 
2.904134685731e-03 1.574049352551e-03 0.0 
0.0 0.0 0.0 
1.779658998923e-03 -2.234779442855e-03 0.0 
-2.234779442855e-03 -6.755858044023e-04 0.0 
0.0 0.0 0.0 
-3.840917513886e-05 3.239986301576e-03 0.0 
3.239986301576e-03 1.261240672685e-03 0.0 
0.0 0.0 0.0 
1.296615334919e-03 -2.411801907603e-03 0.0 
-2.411801907603e-03 -2.240609668179e-04 0.0 
0.0 0.0 0.0 
-8.823099110369e-04 2.136977071585e-03 0.0 
2.136977071585e-03 6.633851652854e-03 0.0 
0.0 0.0 0.0 
-7.160479140322e-04 -4.051111366422e-04 0.0 
-4.051111366422e-04 5.228324933868e-03 0.0 
0.0 0.0 0.0 
2.915570062708e-03 -1.859703051955e-03 0.0 
-1.859703051955e-03 -1.872773692893e-03 0.0 
0.0 0.0 0.0 
-8.587688307526e-05 2.676615869489e-03 0.0 
2.676615869489e-03 4.817680895898e-03 0.0 
0.0 0.0 0.0 
-1.769645899060e-03 -2.073290276911e-04 0.0 
-2.073290276911e-04 -4.342088319680e-03 0.0 
0.0 0.0 0.0 
3.930768766674e-03 -9.186244481183e-04 0.0 
-9.186244481183e-04 -2.800273999628e-03 0.0 
0.0 0.0 0.0 
-1.069255244763e-03 1.850325055106e-03 0.0 
1.850325055106e-03 7.539644171979e-03 0.0 
0.0 0.0 0.0 
4.704759588003e-04 -2.424646176456e-03 0.0 
-2.424646176456e-03 7.332390372345e-04 0.0 
0.0 0.0 0.0 
8.599022353697e-04 -2.635990300028e-03 0.0 
-2.635990300028e-03 -2.269317165847e-04 0.0 
0.0 0.0 0.0 
1.586962799790e-03 2.796528967880e-03 0.0 
2.796528967880e-03 1.589842076036e-03 0.0 
0.0 0.0 0.0 
2.048558790720e-03 -2.967515895276e-03 0.0 
-2.967515895276e-03 -1.927223987020e-03 0.0 
0.0 0.0 0.0 
-1.068075337625e-03 1.796403445344e-03 0.0 
1.796403445344e-03 3.553963829066e-03 0.0 
0.0 0.0 0.0 
-1.133162031576e-03 1.782323656933e-03 0.0 
1.782323656933e-03 3.730300283246e-03 0.0 
0.0 0.0 0.0 
3.793967100725e-04 -2.448494199247e-03 0.0 
-2.448494199247e-03 6.896647289047e-04 0.0 
0.0 0.0 0.0 
2.484205684834e-03 -1.256313037325e-03 0.0 
-1.256313037325e-03 -1.107650109158e-03 0.0 
0.0 0.0 0.0 
2.706107111653e-03 2.570256736974e-03 0.0 
2.570256736974e-03 -8.595821222127e-04 0.0 
0.0 0.0 0.0 
2.641520945534e-05 2.690960478639e-03 0.0 
2.690960478639e-03 4.815678108502e-03 0.0 
0.0 0.0 0.0 
-3.173664204962e-04 2.372780392663e-03 0.0 
2.372780392663e-03 7.357323727804e-03 0.0 
0.0 0.0 0.0 
-1.142738402058e-03 1.383526230197e-03 0.0 
1.383526230197e-03 4.070408541755e-03 0.0 
0.0 0.0 0.0 
-9.184497931608e-04 3.800669734584e-05 0.0 
3.800669734584e-05 8.573247701882e-03 0.0 
0.0 0.0 0.0 
5.348131712024e-05 2.616690188393e-03 0.0 
2.616690188393e-03 5.905616763713e-03 0.0 
0.0 0.0 0.0 
4.459143925653e-03 4.107840005888e-04 0.0 
4.107840005888e-04 -3.500554322130e-03 0.0 
0.0 0.0 0.0 
-5.355260538421e-04 3.296963478618e-03 0.0 
3.296963478618e-03 1.112589484956e-03 0.0 
0.0 0.0 0.0 
-9.610662521987e-04 2.385893380224e-03 0.0 
2.385893380224e-03 3.669489472618e-03 0.0 
0.0 0.0 0.0 
2.174613531926e-03 -1.580958751682e-03 0.0 
-1.580958751682e-03 -9.476432760528e-04 0.0 
0.0 0.0 0.0 
-4.467440434547e-04 2.517544539276e-03 0.0 
2.517544539276e-03 5.679287685697e-03 0.0 
0.0 0.0 0.0 
2.486414750100e-03 -1.285770809027e-03 0.0 
-1.285770809027e-03 -9.942267976715e-04 0.0 
0.0 0.0 0.0 
1.712571240073e-03 3.298972779650e-03 0.0 
3.298972779650e-03 -2.432140610428e-03 0.0 
0.0 0.0 0.0 
2.249280845978e-03 -1.109224227869e-03 0.0 
-1.109224227869e-03 -5.481959614565e-04 0.0 
0.0 0.0 0.0 
-1.981280181714e-04 2.992520091138e-03 0.0 
2.992520091138e-03 1.770519739964e-03 0.0 
0.0 0.0 0.0 
3.029855378597e-03 2.345931618810e-03 0.0 
2.345931618810e-03 -8.291997795875e-04 0.0 
0.0 0.0 0.0 
2.332545447702e-03 -1.182973332218e-03 0.0 
-1.182973332218e-03 -5.817763386574e-04 0.0 
0.0 0.0 0.0 
1.588086667081e-03 2.696380627308e-03 0.0 
2.696380627308e-03 1.290973364103e-03 0.0 
0.0 0.0 0.0 
-1.088127893986e-03 1.772921939798e-04 0.0 
1.772921939798e-04 8.143318861214e-03 0.0 
0.0 0.0 0.0 
1.591517206350e-04 -2.405760811941e-03 0.0 
-2.405760811941e-03 6.848539315079e-04 0.0 
0.0 0.0 0.0 
3.042426186657e-04 3.766139100719e-03 0.0 
3.766139100719e-03 -1.255786665705e-04 0.0 
0.0 0.0 0.0 
2.183513182680e-03 -9.434072441385e-04 0.0 
-9.434072441385e-04 6.732642005391e-05 0.0 
0.0 0.0 0.0 
-3.291273186250e-04 2.741185866302e-03 0.0 
2.741185866302e-03 2.213598334910e-03 0.0 
0.0 0.0 0.0 
5.274864634244e-04 9.799573370188e-04 0.0 
9.799573370188e-04 -4.803737223418e-03 0.0 
0.0 0.0 0.0 
-4.305879010488e-04 1.083365311114e-04 0.0 
1.083365311114e-04 9.463702063774e-03 0.0 
0.0 0.0 0.0 
-6.231331691260e-04 9.545057391444e-05 0.0 
9.545057391444e-05 9.183541286122e-03 0.0 
0.0 0.0 0.0 
-4.479183361137e-04 -6.059192303789e-04 0.0 
-6.059192303789e-04 6.008100015604e-04 0.0 
0.0 0.0 0.0 
2.006194423929e-03 -8.077359178910e-04 0.0 
-8.077359178910e-04 1.937859516850e-04 0.0 
0.0 0.0 0.0 
-1.685521397781e-04 -2.002981031182e-03 0.0 
-2.002981031182e-03 1.051026297700e-03 0.0 
0.0 0.0 0.0 
-3.455203378456e-04 -2.011837856499e-03 0.0 
-2.011837856499e-03 1.368279388565e-03 0.0 
0.0 0.0 0.0 
-1.881905467871e-05 2.629849192481e-03 0.0 
2.629849192481e-03 5.161550402803e-03 0.0 
0.0 0.0 0.0 
1.895014834757e-03 2.531414493384e-03 0.0 
2.531414493384e-03 1.311953024278e-03 0.0 
0.0 0.0 0.0 
1.535247522475e-04 2.688949932078e-03 0.0 
2.688949932078e-03 4.532011174390e-03 0.0 
0.0 0.0 0.0 
3.471831157141e-03 -1.483194010619e-03 0.0 
-1.483194010619e-03 -2.692528927603e-03 0.0 
0.0 0.0 0.0 
-1.286047477541e-03 1.138867596718e-04 0.0 
1.138867596718e-04 6.839702603079e-03 0.0 
0.0 0.0 0.0 
1.929402426812e-04 -6.216133681344e-04 0.0 
-6.216133681344e-04 4.136681798195e-03 0.0 
0.0 0.0 0.0 
-3.968394123419e-04 -1.798571990632e-03 0.0 
-1.798571990632e-03 1.265724269280e-03 0.0 
0.0 0.0 0.0 
1.766128714806e-03 7.262025520320e-04 0.0 
7.262025520320e-04 1.558471708216e-03 0.0 
0.0 0.0 0.0 
2.463785390620e-03 2.596207885968e-03 0.0 
2.596207885968e-03 1.340125584859e-05 0.0 
0.0 0.0 0.0 
-1.754738726217e-04 -3.484948227492e-04 0.0 
-3.484948227492e-04 1.482594497922e-03 0.0 
0.0 0.0 0.0 
-6.637386445286e-04 2.398483459443e-03 0.0 
2.398483459443e-03 5.940939803307e-03 0.0 
0.0 0.0 0.0 
4.171212769496e-03 -2.595973394478e-04 0.0 
-2.595973394478e-04 -2.921205302602e-03 0.0 
0.0 0.0 0.0 
-5.440365973580e-04 -1.860090776121e-03 0.0 
-1.860090776121e-03 8.630676532069e-04 0.0 
0.0 0.0 0.0 
3.954325245118e-03 -1.004236567284e-03 0.0 
-1.004236567284e-03 -3.039511870699e-03 0.0 
0.0 0.0 0.0 
-1.213371963508e-03 -4.531004423608e-05 0.0 
-4.531004423608e-05 4.799326988976e-03 0.0 
0.0 0.0 0.0 
-9.248432720436e-04 2.207807298283e-03 0.0 
2.207807298283e-03 6.617865942046e-03 0.0 
0.0 0.0 0.0 
-1.373754974460e-04 -2.007881370266e-03 0.0 
-2.007881370266e-03 6.968305320518e-04 0.0 
0.0 0.0 0.0 
-1.557770346161e-03 -2.938298500415e-04 0.0 
-2.938298500415e-04 4.132085622772e-03 0.0 
0.0 0.0 0.0 
-2.307706104516e-04 2.593811884359e-03 0.0 
2.593811884359e-03 5.417530585085e-03 0.0 
0.0 0.0 0.0 
1.473669113740e-03 1.980545210209e-03 0.0 
1.980545210209e-03 2.471982622784e-03 0.0 
0.0 0.0 0.0 
8.418755940667e-04 -2.489315513903e-03 0.0 
-2.489315513903e-03 2.350401785491e-04 0.0 
0.0 0.0 0.0 
-1.121580934193e-03 -3.081675737042e-04 0.0 
-3.081675737042e-04 2.579464070650e-03 0.0 
0.0 0.0 0.0 
2.496376001657e-03 2.492504261559e-03 0.0 
2.492504261559e-03 -3.612156868380e-04 0.0 
0.0 0.0 0.0 
-1.060506596205e-03 -2.296594143737e-05 0.0 
-2.296594143737e-05 8.043553621351e-03 0.0 
0.0 0.0 0.0 
-2.995836590202e-04 -2.618674979179e-03 0.0 
-2.618674979179e-03 6.482253214788e-04 0.0 
0.0 0.0 0.0 
1.039662705642e-04 2.781118192812e-03 0.0 
2.781118192812e-03 6.000088618050e-03 0.0 
0.0 0.0 0.0 
-2.205862305077e-04 2.242696821219e-03 0.0 
2.242696821219e-03 8.081657987940e-03 0.0 
0.0 0.0 0.0 
-1.144451873098e-03 1.020079599672e-05 0.0 
1.020079599672e-05 7.521298633605e-03 0.0 
0.0 0.0 0.0 
-5.331685201871e-04 1.278045105785e-03 0.0 
1.278045105785e-03 9.215192592776e-03 0.0 
0.0 0.0 0.0 
-1.469994197875e-04 2.483482744470e-03 0.0 
2.483482744470e-03 7.542015373597e-03 0.0 
0.0 0.0 0.0 
3.416953541052e-03 -1.383688419161e-03 0.0 
-1.383688419161e-03 -2.270649858451e-03 0.0 
0.0 0.0 0.0 
2.377686978993e-03 -2.137906019690e-03 0.0 
-2.137906019690e-03 -1.817409820115e-03 0.0 
0.0 0.0 0.0 
9.017132885909e-04 1.030569273834e-03 0.0 
1.030569273834e-03 3.455071174455e-03 0.0 
0.0 0.0 0.0 
-1.487435814448e-03 4.466025580520e-04 0.0 
4.466025580520e-04 -4.214927744916e-03 0.0 
0.0 0.0 0.0 
-8.823529347578e-04 -1.313601424706e-04 0.0 
-1.313601424706e-04 2.361202489958e-03 0.0 
0.0 0.0 0.0 
-1.467744608200e-03 -1.960190390488e-04 0.0 
-1.960190390488e-04 4.235351951326e-03 0.0 
0.0 0.0 0.0 
5.433843109890e-04 -2.541200461450e-03 0.0 
-2.541200461450e-03 2.467653586053e-04 0.0 
0.0 0.0 0.0 
2.938907580602e-03 -2.011995883802e-03 0.0 
-2.011995883802e-03 -2.063693044417e-03 0.0 
0.0 0.0 0.0 
-1.038295112577e-03 1.943464971089e-03 0.0 
1.943464971089e-03 3.189052620755e-03 0.0 
0.0 0.0 0.0 
-1.000640354535e-03 2.002720258923e-03 0.0 
2.002720258923e-03 3.201460816078e-03 0.0 
0.0 0.0 0.0 
-1.486458740918e-03 4.815296172274e-04 0.0 
4.815296172274e-04 7.436561168659e-03 0.0 
0.0 0.0 0.0 
3.969055438426e-03 -9.993257139737e-04 0.0 
-9.993257139737e-04 -3.125391097509e-03 0.0 
0.0 0.0 0.0 
-1.175863986002e-03 -7.564307503762e-04 0.0 
-7.564307503762e-04 2.642844180751e-03 0.0 
0.0 0.0 0.0 
1.282831849407e-03 2.336374338528e-03 0.0 
2.336374338528e-03 2.478181855295e-03 0.0 
0.0 0.0 0.0 
2.867753076807e-05 -8.510468070403e-04 0.0 
-8.510468070403e-04 5.089267705422e-03 0.0 
0.0 0.0 0.0 
9.999706285702e-05 -8.303711777771e-04 0.0 
-8.303711777771e-04 4.851450044229e-03 0.0 
0.0 0.0 0.0 
2.271000299041e-03 -1.975474609313e-03 0.0 
-1.975474609313e-03 -1.088077093659e-03 0.0 
0.0 0.0 0.0 
-1.533707603307e-03 5.961457611713e-04 0.0 
5.961457611713e-04 7.062489473607e-03 0.0 
0.0 0.0 0.0 
-1.684677055947e-03 1.257320327324e-04 0.0 
1.257320327324e-04 -3.711125800997e-03 0.0 
0.0 0.0 0.0 
-1.290907020274e-03 2.350034730044e-03 0.0 
2.350034730044e-03 2.913301694081e-03 0.0 
0.0 0.0 0.0 
1.782208776077e-03 -3.443305707326e-03 0.0 
-3.443305707326e-03 -2.612499834107e-03 0.0 
0.0 0.0 0.0 
-1.131046760864e-03 2.118537416891e-03 0.0 
2.118537416891e-03 2.983290387191e-03 0.0 
0.0 0.0 0.0 
2.306777253230e-03 2.441376973310e-03 0.0 
2.441376973310e-03 5.261758531001e-04 0.0 
0.0 0.0 0.0 
1.762441434435e-03 -2.404626357567e-03 0.0 
-2.404626357567e-03 -7.634323878468e-04 0.0 
0.0 0.0 0.0 
2.997270458264e-03 -1.988934331852e-03 0.0 
-1.988934331852e-03 -2.433668035892e-03 0.0 
0.0 0.0 0.0 
1.131859285560e-03 -3.414653918570e-03 0.0 
-3.414653918570e-03 -3.367390453478e-03 0.0 
0.0 0.0 0.0 
-5.395843869118e-04 1.584551936627e-04 0.0 
1.584551936627e-04 9.238884033625e-03 0.0 
0.0 0.0 0.0 
1.860347698548e-03 -2.386171223925e-03 0.0 
-2.386171223925e-03 -1.304020631080e-03 0.0 
0.0 0.0 0.0 
-4.800236869628e-04 5.659042319562e-04 0.0 
5.659042319562e-04 9.350484647131e-03 0.0 
0.0 0.0 0.0 
-7.478372049253e-04 2.070158654672e-04 0.0 
2.070158654672e-04 8.985701000955e-03 0.0 
0.0 0.0 0.0 
-2.054472748612e-04 2.528578416102e-04 0.0 
2.528578416102e-04 9.890772514384e-03 0.0 
0.0 0.0 0.0 
-2.276691954960e-04 -3.141631616913e-04 0.0 
-3.141631616913e-04 5.948374958952e-03 0.0 
0.0 0.0 0.0 
-1.155252738725e-03 4.572458275931e-05 0.0 
4.572458275931e-05 7.529608413029e-03 0.0 
0.0 0.0 0.0 
1.417098972980e-03 -2.449623295367e-03 0.0 
-2.449623295367e-03 -6.365130181269e-04 0.0 
0.0 0.0 0.0 
-9.079829373018e-04 1.538473730939e-03 0.0 
1.538473730939e-03 3.528163002431e-03 0.0 
0.0 0.0 0.0 
1.388272890966e-03 -2.307819367866e-03 0.0 
-2.307819367866e-03 -1.486140433359e-04 0.0 
0.0 0.0 0.0 
0.0 -7.634694320442e-04 0.0 
-7.634694320442e-04 5.346023031445e-03 0.0 
0.0 0.0 0.0 
-1.780180379961e-03 2.859366907946e-03 0.0 
2.859366907946e-03 2.520999186638e-03 0.0 
0.0 0.0 0.0 
-1.485845887153e-03 2.498690068141e-03 0.0 
2.498690068141e-03 2.697964687143e-03 0.0 
0.0 0.0 0.0 
1.560919985572e-03 1.023801977098e-03 0.0 
1.023801977098e-03 2.081893611094e-03 0.0 
0.0 0.0 0.0 
-1.445526853403e-03 3.893030148327e-04 0.0 
3.893030148327e-04 7.140184726488e-03 0.0 
0.0 0.0 0.0 
-4.512078638572e-04 3.829940071328e-04 0.0 
3.829940071328e-04 9.422741056173e-03 0.0 
0.0 0.0 0.0 
-1.684747394762e-04 2.604516074436e-03 0.0 
2.604516074436e-03 5.416796070690e-03 0.0 
0.0 0.0 0.0 
1.077843649627e-03 2.046959247234e-03 0.0 
2.046959247234e-03 3.079665797624e-03 0.0 
0.0 0.0 0.0 
-5.953561616047e-04 2.389875697695e-03 0.0 
2.389875697695e-03 6.645243655121e-03 0.0 
0.0 0.0 0.0 
-1.163218598181e-03 1.761912941541e-04 0.0 
1.761912941541e-04 7.597834426266e-03 0.0 
0.0 0.0 0.0 
4.157747253295e-04 -2.566362288109e-03 0.0 
-2.566362288109e-03 2.729401917212e-04 0.0 
0.0 0.0 0.0 
6.761823855932e-04 -2.538894870162e-03 0.0 
-2.538894870162e-03 2.682211626934e-04 0.0 
0.0 0.0 0.0 
-9.585592083708e-04 1.239345198031e-04 0.0 
1.239345198031e-04 8.400381412070e-03 0.0 
0.0 0.0 0.0 
1.150127376293e-03 2.108232226895e-03 0.0 
2.108232226895e-03 3.106500790387e-03 0.0 
0.0 0.0 0.0 
-1.689793699867e-03 7.846302103902e-04 0.0 
7.846302103902e-04 6.593654666950e-03 0.0 
0.0 0.0 0.0 
-1.195952836633e-03 4.992326160527e-05 0.0 
4.992326160527e-05 7.183722857584e-03 0.0 
0.0 0.0 0.0 
-1.187480997220e-03 7.921125010539e-05 0.0 
7.921125010539e-05 7.508000940991e-03 0.0 
0.0 0.0 0.0 
-1.236654079596e-03 1.426719165517e-04 0.0 
1.426719165517e-04 7.612103501020e-03 0.0 
0.0 0.0 0.0 
2.639362480239e-03 -1.785300092695e-03 0.0 
-1.785300092695e-03 -4.079077954281e-03 0.0 
0.0 0.0 0.0 
2.067963158894e-04 -2.417707920715e-03 0.0 
-2.417707920715e-03 7.345410763500e-04 0.0 
0.0 0.0 0.0 
-3.951119729437e-04 7.955581187469e-04 0.0 
7.955581187469e-04 9.548762492825e-03 0.0 
0.0 0.0 0.0 
-1.170180329345e-03 2.030205081248e-04 0.0 
2.030205081248e-04 7.976879956313e-03 0.0 
0.0 0.0 0.0 
4.910437892542e-04 1.666885527543e-03 0.0 
1.666885527543e-03 3.958612951799e-03 0.0 
0.0 0.0 0.0 
-4.600168528591e-04 2.460766342341e-03 0.0 
2.460766342341e-03 7.322820817082e-03 0.0 
0.0 0.0 0.0 
-6.416627178798e-04 2.462383098048e-03 0.0 
2.462383098048e-03 5.928870848749e-03 0.0 
0.0 0.0 0.0 
-6.681471208916e-04 1.328002334232e-03 0.0 
1.328002334232e-03 8.973908391549e-03 0.0 
0.0 0.0 0.0 
-1.376447938437e-03 -1.038033050261e-03 0.0 
-1.038033050261e-03 3.243216124753e-03 0.0 
0.0 0.0 0.0 
-1.310132248615e-03 -1.095269737198e-03 0.0 
-1.095269737198e-03 2.979563267382e-03 0.0 
0.0 0.0 0.0 
3.961191533643e-04 -6.252582501056e-04 0.0 
-6.252582501056e-04 3.680002659015e-03 0.0 
0.0 0.0 0.0 
6.185140276274e-04 -1.976077584514e-03 0.0 
-1.976077584514e-03 -3.786703412384e-03 0.0 
0.0 0.0 0.0 
-8.311154146006e-04 -1.924959102940e-04 0.0 
-1.924959102940e-04 2.423738811053e-03 0.0 
0.0 0.0 0.0 
0.0 2.492638308036e-03 0.0 
2.492638308036e-03 5.407459369510e-03 0.0 
0.0 0.0 0.0 
4.968189854864e-04 5.023599606302e-05 0.0 
5.023599606302e-05 8.632237153330e-04 0.0 
0.0 0.0 0.0 
-1.182856392676e-03 6.298992078946e-05 0.0 
6.298992078946e-05 7.194960723385e-03 0.0 
0.0 0.0 0.0 
1.238320594380e-03 5.368638175068e-04 0.0 
5.368638175068e-04 2.752145149572e-03 0.0 
0.0 0.0 0.0 
-2.174427034738e-04 -7.944216055114e-04 0.0 
-7.944216055114e-04 6.273401499424e-04 0.0 
0.0 0.0 0.0 
1.278733274276e-03 -3.811555337897e-04 0.0 
-3.811555337897e-04 -1.603293060554e-04 0.0 
0.0 0.0 0.0 
-2.431305039913e-04 1.158177759029e-03 0.0 
1.158177759029e-03 9.590620311058e-03 0.0 
0.0 0.0 0.0 
-1.383262801067e-03 2.093590758230e-04 0.0 
2.093590758230e-04 6.844650319122e-03 0.0 
0.0 0.0 0.0 
-4.048400076244e-04 1.048023086347e-03 0.0 
1.048023086347e-03 9.385859240099e-03 0.0 
0.0 0.0 0.0 
9.204038314345e-04 8.915331859509e-04 0.0 
8.915331859509e-04 2.755351005976e-03 0.0 
0.0 0.0 0.0 
-1.371550602174e-03 1.483375336818e-04 0.0 
1.483375336818e-04 6.854476433374e-03 0.0 
0.0 0.0 0.0 
-1.491213208153e-03 6.452346891997e-04 0.0 
6.452346891997e-04 -3.677262395255e-03 0.0 
0.0 0.0 0.0 
-2.210653193440e-04 1.880662946116e-04 0.0 
1.880662946116e-04 9.687556917300e-03 0.0 
0.0 0.0 0.0 
8.926682139654e-05 -4.840196730251e-04 0.0 
-4.840196730251e-04 1.056460231469e-03 0.0 
0.0 0.0 0.0 
-4.348220241434e-04 8.836343252610e-04 0.0 
8.836343252610e-04 9.299333688339e-03 0.0 
0.0 0.0 0.0 
0.0 -6.830148086784e-04 0.0 
-6.830148086784e-04 5.570167878210e-03 0.0 
0.0 0.0 0.0 
-5.147053480431e-04 2.168960945248e-03 0.0 
2.168960945248e-03 7.880639596274e-03 0.0 
0.0 0.0 0.0 
3.319540260762e-03 -1.533669856458e-03 0.0 
-1.533669856458e-03 -4.075185124730e-03 0.0 
0.0 0.0 0.0 
-1.573282964098e-03 8.862714755172e-04 0.0 
8.862714755172e-04 7.209484670103e-03 0.0 
0.0 0.0 0.0 
-1.515038008848e-03 -6.331997720600e-04 0.0 
-6.331997720600e-04 3.363631221687e-03 0.0 
0.0 0.0 0.0 
1.419518939238e-03 2.180878916625e-03 0.0 
2.180878916625e-03 2.489622616104e-03 0.0 
0.0 0.0 0.0 
3.741865055313e-04 1.826080900621e-03 0.0 
1.826080900621e-03 4.552853018516e-03 0.0 
0.0 0.0 0.0 
-8.527972495926e-04 1.465347121730e-04 0.0 
1.465347121730e-04 8.747489287530e-03 0.0 
0.0 0.0 0.0 
4.137309560681e-04 1.541388910528e-03 0.0 
1.541388910528e-03 4.325435486612e-03 0.0 
0.0 0.0 0.0 
1.774315347147e-03 -1.626294760498e-03 0.0 
-1.626294760498e-03 -4.601595071447e-03 0.0 
0.0 0.0 0.0 
-7.490541335731e-05 -8.203294063926e-04 0.0 
-8.203294063926e-04 5.035274007154e-03 0.0 
0.0 0.0 0.0 
3.043602848600e-03 -2.466091310680e-03 0.0 
-2.466091310680e-03 -2.820711443050e-03 0.0 
0.0 0.0 0.0 
2.972660911309e-04 -2.265065540213e-04 0.0 
-2.265065540213e-04 9.553295517448e-04 0.0 
0.0 0.0 0.0 
7.588946591630e-04 1.423446641118e-04 0.0 
1.423446641118e-04 3.451721871979e-03 0.0 
0.0 0.0 0.0 
-4.880536971624e-04 1.781073060407e-03 0.0 
1.781073060407e-03 8.882483408336e-03 0.0 
0.0 0.0 0.0 
-3.270555844229e-04 1.172695623804e-03 0.0 
1.172695623804e-03 9.389963395343e-03 0.0 
0.0 0.0 0.0 
-1.245181432125e-03 1.857373201087e-04 0.0 
1.857373201087e-04 7.165009399696e-03 0.0 
0.0 0.0 0.0 
-1.527189306281e-03 1.239204467631e-03 0.0 
1.239204467631e-03 6.960470104391e-03 0.0 
0.0 0.0 0.0 
-3.407769880814e-05 3.470622053223e-03 0.0 
3.470622053223e-03 1.272385474653e-03 0.0 
0.0 0.0 0.0 
-2.889803374827e-04 2.611825007277e-03 0.0 
2.611825007277e-03 7.453398039106e-03 0.0 
0.0 0.0 0.0 
-1.435411179604e-03 -5.780756255904e-04 0.0 
-5.780756255904e-04 3.098918129025e-03 0.0 
0.0 0.0 0.0 
1.025585420639e-03 3.640253817788e-03 0.0 
3.640253817788e-03 -1.164473281662e-03 0.0 
0.0 0.0 0.0 
1.365811136584e-03 2.122954110131e-03 0.0 
2.122954110131e-03 2.453649537406e-03 0.0 
0.0 0.0 0.0 
-1.256508675307e-03 7.815679497482e-05 0.0 
7.815679497482e-05 6.824041198941e-03 0.0 
0.0 0.0 0.0 
-4.540076141690e-04 1.729713406087e-03 0.0 
1.729713406087e-03 8.655080623896e-03 0.0 
0.0 0.0 0.0 
-1.740260690836e-04 -1.304657787532e-05 0.0 
-1.304657787532e-05 9.902742311699e-03 0.0 
0.0 0.0 0.0 
0.0 8.701303454155e-05 0.0 
8.701303454155e-05 9.928835467449e-03 0.0 
0.0 0.0 0.0 
2.717390196836e-03 8.183062942650e-05 0.0 
8.183062942650e-05 -9.665334595412e-04 0.0 
0.0 0.0 0.0 
2.188161561349e-03 -1.376106847609e-04 0.0 
-1.376106847609e-04 -8.761874524280e-04 0.0 
0.0 0.0 0.0 
-1.183491058680e-03 -2.117868632422e-05 0.0 
-2.117868632422e-05 6.876441554399e-03 0.0 
0.0 0.0 0.0 
-1.193312325545e-03 1.027051587136e-05 0.0 
1.027051587136e-05 6.823364416873e-03 0.0 
0.0 0.0 0.0 
0.0 -1.156294328039e-04 0.0 
-1.156294328039e-04 6.011009210571e-03 0.0 
0.0 0.0 0.0 
-2.312588656074e-04 2.757750911539e-06 0.0 
2.757750911539e-06 6.005493708748e-03 0.0 
0.0 0.0 0.0 
2.069184186784e-03 -5.377788584777e-05 0.0 
-5.377788584777e-05 -5.596345525277e-04 0.0 
0.0 0.0 0.0 
-1.536739256739e-03 -3.437262617484e-04 0.0 
-3.437262617484e-04 -4.455025524806e-03 0.0 
0.0 0.0 0.0 
-3.302391940629e-04 -5.670032104593e-04 0.0 
-5.670032104593e-04 5.253498305301e-03 0.0 
0.0 0.0 0.0 
5.914218021938e-04 2.533897434524e-03 0.0 
2.533897434524e-03 4.397679399150e-03 0.0 
0.0 0.0 0.0 
1.073618243199e-04 -5.131049951882e-04 0.0 
-5.131049951882e-04 1.227261980711e-03 0.0 
0.0 0.0 0.0 
1.114231463206e-05 -8.068555334821e-04 0.0 
-8.068555334821e-04 4.508398350279e-03 0.0 
0.0 0.0 0.0 
-1.397068427304e-03 -1.263341865926e-04 0.0 
-1.263341865926e-04 4.431466471915e-03 0.0 
0.0 0.0 0.0 
-1.597959917161e-03 -1.451888697124e-04 0.0 
-1.451888697124e-04 3.991978939627e-03 0.0 
0.0 0.0 0.0 
-1.103629554921e-03 1.963342075225e-04 0.0 
1.963342075225e-04 8.156087202824e-03 0.0 
0.0 0.0 0.0 
6.883920143845e-04 -3.122105938625e-03 0.0 
-3.122105938625e-03 -6.751949208924e-04 0.0 
0.0 0.0 0.0 
1.683423826368e-03 2.324364153432e-03 0.0 
2.324364153432e-03 1.886799020923e-03 0.0 
0.0 0.0 0.0 
4.048963910088e-04 -5.646197435765e-04 0.0 
-5.646197435765e-04 8.585517492308e-04 0.0 
0.0 0.0 0.0 
-1.448826178378e-03 -8.041182073069e-04 0.0 
-8.041182073069e-04 3.470721552740e-03 0.0 
0.0 0.0 0.0 
-2.229176346601e-04 2.487819491393e-03 0.0 
2.487819491393e-03 7.138967390163e-03 0.0 
0.0 0.0 0.0 
-5.502244860089e-04 -1.695928107782e-05 0.0 
-1.695928107782e-05 9.348190895621e-03 0.0 
0.0 0.0 0.0 
-1.571792706018e-03 -2.528469049364e-04 0.0 
-2.528469049364e-04 4.047870847750e-03 0.0 
0.0 0.0 0.0 
-1.149409898439e-03 5.647981435172e-05 0.0 
5.647981435172e-05 7.787840262066e-03 0.0 
0.0 0.0 0.0 
2.357357498017e-04 2.716999597771e-03 0.0 
2.716999597771e-03 5.398167137492e-03 0.0 
0.0 0.0 0.0 
-4.220518394541e-04 2.481375654762e-03 0.0 
2.481375654762e-03 6.461575897205e-03 0.0 
0.0 0.0 0.0 
-5.242719238544e-04 2.461950259990e-03 0.0 
2.461950259990e-03 6.181212089250e-03 0.0 
0.0 0.0 0.0 
-1.310588012384e-03 1.235183341173e-04 0.0 
1.235183341173e-04 6.854967302022e-03 0.0 
0.0 0.0 0.0 
2.075637518331e-03 2.218312792831e-03 0.0 
2.218312792831e-03 1.152406740295e-03 0.0 
0.0 0.0 0.0 
-4.350211051621e-04 1.954942478071e-03 0.0 
1.954942478071e-03 8.298346548664e-03 0.0 
0.0 0.0 0.0 
-1.042432672915e-03 -5.044802509610e-04 0.0 
-5.044802509610e-04 2.478298514033e-03 0.0 
0.0 0.0 0.0 
-1.007336045536e-04 -5.643379799954e-04 0.0 
-5.643379799954e-04 4.235010756124e-04 0.0 
0.0 0.0 0.0 
1.726456839879e-04 2.594724595559e-03 0.0 
2.594724595559e-03 5.309064186588e-03 0.0 
0.0 0.0 0.0 
1.774020374591e-03 9.066604324952e-04 0.0 
9.066604324952e-04 1.546417498966e-03 0.0 
0.0 0.0 0.0 
6.716871151460e-04 -3.174674861443e-03 0.0 
-3.174674861443e-03 -8.402262295408e-04 0.0 
0.0 0.0 0.0 
-1.021996255645e-03 9.510951092087e-05 0.0 
9.510951092087e-05 8.417805835115e-03 0.0 
0.0 0.0 0.0 
-1.869267996609e-04 -5.630738878568e-04 0.0 
-5.630738878568e-04 5.489466166731e-03 0.0 
0.0 0.0 0.0 
4.650188491024e-04 2.516765622969e-03 0.0 
2.516765622969e-03 4.465837680397e-03 0.0 
0.0 0.0 0.0 
3.948133672733e-04 2.640890648320e-03 0.0 
2.640890648320e-03 5.016937452901e-03 0.0 
0.0 0.0 0.0 
-1.271466770735e-03 -1.476808197687e-04 0.0 
-1.476808197687e-04 4.628227536383e-03 0.0 
0.0 0.0 0.0 
2.772187927835e-04 2.784999935553e-03 0.0 
2.784999935553e-03 -3.569030772351e-03 0.0 
0.0 0.0 0.0 
-7.629233099885e-04 1.676680037382e-03 0.0 
1.676680037382e-03 3.164756336947e-03 0.0 
0.0 0.0 0.0 
-3.972541004296e-04 3.015660317232e-03 0.0 
3.015660317232e-03 2.224343045985e-03 0.0 
0.0 0.0 0.0 
-1.525021558301e-03 9.085514342229e-04 0.0 
9.085514342229e-04 7.219495928622e-03 0.0 
0.0 0.0 0.0 
1.818616819935e-03 2.413335621704e-03 0.0 
2.413335621704e-03 1.129843692273e-03 0.0 
0.0 0.0 0.0 
-4.694528303977e-04 6.549900198514e-04 0.0 
6.549900198514e-04 9.413927681289e-03 0.0 
0.0 0.0 0.0 
5.278839335821e-04 1.125806241001e-03 0.0 
1.125806241001e-03 3.440116801200e-03 0.0 
0.0 0.0 0.0 
-8.379406266665e-04 -2.281426896204e-03 0.0 
-2.281426896204e-03 4.369870675820e-04 0.0 
0.0 0.0 0.0 
-4.806374264482e-04 -1.258064362012e-03 0.0 
-1.258064362012e-03 6.805729648303e-04 0.0 
0.0 0.0 0.0 
-7.367785502543e-04 1.831325815356e-03 0.0 
1.831325815356e-03 2.867105201269e-03 0.0 
0.0 0.0 0.0 
-9.321146491257e-04 2.591718934509e-04 0.0 
2.591718934509e-04 8.504375485031e-03 0.0 
0.0 0.0 0.0 
-1.164082537567e-03 -7.800698553075e-04 0.0 
-7.800698553075e-04 2.687212970998e-03 0.0 
0.0 0.0 0.0 
-5.489161135721e-04 1.479102218860e-03 0.0 
1.479102218860e-03 8.949561652385e-03 0.0 
0.0 0.0 0.0 
2.900140348427e-04 -2.325849988243e-04 0.0 
-2.325849988243e-04 1.162467352913e-03 0.0 
0.0 0.0 0.0 
1.032777484187e-03 1.135355907722e-03 0.0 
1.135355907722e-03 2.760441820859e-03 0.0 
0.0 0.0 0.0 
-1.353810642776e-03 4.654548982438e-04 0.0 
4.654548982438e-04 7.438493024737e-03 0.0 
0.0 0.0 0.0 
3.504195891262e-04 2.147731981281e-03 0.0 
2.147731981281e-03 4.439725601680e-03 0.0 
0.0 0.0 0.0 
1.114658287371e-03 2.299765852518e-03 0.0 
2.299765852518e-03 3.169544255156e-03 0.0 
0.0 0.0 0.0 
-1.586498460732e-03 1.039408947136e-03 0.0 
1.039408947136e-03 7.139134464299e-03 0.0 
0.0 0.0 0.0 
6.069575688277e-04 -3.253738957156e-04 0.0 
-3.253738957156e-04 3.698636509720e-03 0.0 
0.0 0.0 0.0 
-4.357825159907e-04 1.672160219291e-03 0.0 
1.672160219291e-03 9.006564708190e-03 0.0 
0.0 0.0 0.0 
-3.608227348235e-04 1.725406579402e-04 0.0 
1.725406579402e-04 9.702727320570e-03 0.0 
0.0 0.0 0.0 
-1.067349845305e-03 2.194200439108e-03 0.0 
2.194200439108e-03 2.486225258382e-03 0.0 
0.0 0.0 0.0 
-5.344703425921e-04 1.330234033002e-03 0.0 
1.330234033002e-03 8.973547650303e-03 0.0 
0.0 0.0 0.0 
3.305187066549e-05 2.659615875666e-03 0.0 
2.659615875666e-03 6.173215233906e-03 0.0 
0.0 0.0 0.0 
1.257212735242e-03 1.058912393414e-03 0.0 
1.058912393414e-03 2.782361905876e-03 0.0 
0.0 0.0 0.0 
1.084486274654e-03 2.243966496983e-03 0.0 
2.243966496983e-03 3.076034604807e-03 0.0 
0.0 0.0 0.0 
0.0 -7.630044701019e-04 0.0 
-7.630044701019e-04 4.998388422510e-03 0.0 
0.0 0.0 0.0 
-5.065657939490e-04 2.426775813417e-03 0.0 
2.426775813417e-03 6.185939729780e-03 0.0 
0.0 0.0 0.0 
-1.536845067799e-03 1.968134013811e-03 0.0 
1.968134013811e-03 -2.468302371757e-03 0.0 
0.0 0.0 0.0 
6.129314112449e-04 3.881375899444e-03 0.0 
3.881375899444e-03 -1.215618923964e-04 0.0 
0.0 0.0 0.0 
-4.576996136255e-04 2.452284616283e-03 0.0 
2.452284616283e-03 6.905858127678e-03 0.0 
0.0 0.0 0.0 
-1.428831372249e-03 9.491347500939e-04 0.0 
9.491347500939e-04 7.472567411368e-03 0.0 
0.0 0.0 0.0 
-5.118032610956e-04 -3.853197905887e-04 0.0 
-3.853197905887e-04 5.497734759557e-03 0.0 
0.0 0.0 0.0 
8.604268088657e-04 2.245177289567e-03 0.0 
2.245177289567e-03 3.724844954794e-03 0.0 
0.0 0.0 0.0 
3.174919654736e-05 -7.585049160041e-04 0.0 
-7.585049160041e-04 4.784706280820e-03 0.0 
0.0 0.0 0.0 
-8.102614831126e-04 3.020268916402e-04 0.0 
3.020268916402e-04 8.841169538043e-03 0.0 
0.0 0.0 0.0 
3.607124902989e-04 1.965539801553e-03 0.0 
1.965539801553e-03 4.192934035731e-03 0.0 
0.0 0.0 0.0 
5.873050884282e-04 -4.824425559317e-04 0.0 
-4.824425559317e-04 3.345938397326e-03 0.0 
0.0 0.0 0.0 
6.435221060226e-04 -3.635665575938e-04 0.0 
-3.635665575938e-04 3.335028743970e-03 0.0 
0.0 0.0 0.0 
-1.291633813359e-03 -5.468977530766e-04 0.0 
-5.468977530766e-04 2.914247110096e-03 0.0 
0.0 0.0 0.0 
-3.389806282539e-05 -8.439414639441e-04 0.0 
-8.439414639441e-04 5.282022750602e-03 0.0 
0.0 0.0 0.0 
-1.571263165525e-03 5.631812252545e-04 0.0 
5.631812252545e-04 7.034798218857e-03 0.0 
0.0 0.0 0.0 
-5.122089076279e-04 3.487586420425e-04 0.0 
3.487586420425e-04 9.427185507116e-03 0.0 
0.0 0.0 0.0 
-4.244121665334e-04 -1.434562915499e-03 0.0 
-1.434562915499e-03 8.746558176975e-04 0.0 
0.0 0.0 0.0 
-6.697872738258e-04 1.605487323684e-04 0.0 
1.605487323684e-04 9.242865760915e-03 0.0 
0.0 0.0 0.0 
-1.028705015657e-03 1.755220905828e-04 0.0 
1.755220905828e-04 8.432350554582e-03 0.0 
0.0 0.0 0.0 
1.297752713367e-03 9.845375212873e-05 0.0 
9.845375212873e-05 2.345871371856e-04 0.0 
0.0 0.0 0.0 
2.906022380529e-03 -1.938047125109e-03 0.0 
-1.938047125109e-03 -4.400103801388e-03 0.0 
0.0 0.0 0.0 
-3.212485113818e-04 2.524350817769e-03 0.0 
2.524350817769e-03 5.975896215923e-03 0.0 
0.0 0.0 0.0 
-2.550144075093e-04 9.252809798534e-04 0.0 
9.252809798534e-04 9.478158959741e-03 0.0 
0.0 0.0 0.0 
-4.806793637804e-04 1.648970476273e-04 0.0 
1.648970476273e-04 9.485565689723e-03 0.0 
0.0 0.0 0.0 
7.547765849869e-04 1.929869451104e-03 0.0 
1.929869451104e-03 3.837555291716e-03 0.0 
0.0 0.0 0.0 
-1.160140745072e-03 2.545396119754e-04 0.0 
2.545396119754e-04 7.772804325409e-03 0.0 
0.0 0.0 0.0 
6.276003557621e-04 -3.540197322678e-04 0.0 
-3.540197322678e-04 1.099141104315e-04 0.0 
0.0 0.0 0.0 
9.912346877181e-04 2.058984321186e-03 0.0 
2.058984321186e-03 -4.082252050383e-03 0.0 
0.0 0.0 0.0 
1.657301947038e-04 -5.107846490690e-04 0.0 
-5.107846490690e-04 2.913450115407e-04 0.0 
0.0 0.0 0.0 
-3.208906005729e-04 -1.567836097546e-03 0.0 
-1.567836097546e-03 8.564317224289e-04 0.0 
0.0 0.0 0.0 
-1.613216978417e-03 4.046381968033e-03 0.0 
4.046381968033e-03 -1.615283657630e-03 0.0 
0.0 0.0 0.0 
-1.517460613022e-03 -8.025729970165e-04 0.0 
-8.025729970165e-04 3.550980560700e-03 0.0 
0.0 0.0 0.0 
-4.880809497452e-04 -3.741570503785e-04 0.0 
-3.741570503785e-04 5.497494766098e-03 0.0 
0.0 0.0 0.0 
-4.432892060249e-04 2.208904936196e-03 0.0 
2.208904936196e-03 7.885943901284e-03 0.0 
0.0 0.0 0.0 
-1.591027802373e-03 1.264573678729e-03 0.0 
1.264573678729e-03 7.217672996128e-03 0.0 
0.0 0.0 0.0 
-1.264846569375e-03 -1.101486311477e-03 0.0 
-1.101486311477e-03 2.899757110689e-03 0.0 
0.0 0.0 0.0 
3.755095502425e-04 -7.389754140210e-04 0.0 
-7.389754140210e-04 3.719500014433e-03 0.0 
0.0 0.0 0.0 
1.201868663024e-03 2.749406888812e-04 0.0 
2.749406888812e-04 2.658353113864e-03 0.0 
0.0 0.0 0.0 
5.611568804043e-04 2.338920371626e-03 0.0 
2.338920371626e-03 4.565388214528e-03 0.0 
0.0 0.0 0.0 
9.829935042793e-05 2.580526295132e-03 0.0 
2.580526295132e-03 5.644945972926e-03 0.0 
0.0 0.0 0.0 
-2.148210720239e-04 2.554981179269e-03 0.0 
2.554981179269e-03 6.292362615568e-03 0.0 
0.0 0.0 0.0 
-4.834811661933e-04 -1.168780136923e-03 0.0 
-1.168780136923e-03 8.186890374575e-04 0.0 
0.0 0.0 0.0 
9.101228082702e-04 -1.754193138275e-03 0.0 
-1.754193138275e-03 -4.087456840848e-03 0.0 
0.0 0.0 0.0 
-4.089592210570e-04 -6.056894925383e-04 0.0 
-6.056894925383e-04 5.268045280628e-03 0.0 
0.0 0.0 0.0 
8.442215093221e-04 -8.497429855186e-05 0.0 
-8.497429855186e-05 3.781285467914e-04 0.0 
0.0 0.0 0.0 
8.828337661677e-04 -7.661139893905e-05 0.0 
-7.661139893905e-05 5.102462203281e-04 0.0 
0.0 0.0 0.0 
-6.021953398090e-04 3.624410004666e-03 0.0 
3.624410004666e-03 -6.096435683119e-04 0.0 
0.0 0.0 0.0 
1.816304010132e-04 -6.063991790609e-04 0.0 
-6.063991790609e-04 6.330373751788e-04 0.0 
0.0 0.0 0.0 
2.927194321742e-04 -3.626946830848e-04 0.0 
-3.626946830848e-04 3.787671010577e-03 0.0 
0.0 0.0 0.0 
-1.138407470227e-04 2.619982667284e-03 0.0 
2.619982667284e-03 6.968429139097e-03 0.0 
0.0 0.0 0.0 
-4.168268343592e-04 6.768862855666e-04 0.0 
6.768862855666e-04 9.415145791809e-03 0.0 
0.0 0.0 0.0 
2.585665484647e-04 2.314996608672e-03 0.0 
2.314996608672e-03 4.758990127014e-03 0.0 
0.0 0.0 0.0 
1.302074964398e-03 2.759461369684e-04 0.0 
2.759461369684e-04 2.207807094947e-03 0.0 
0.0 0.0 0.0 
-1.109916767486e-03 2.500357583008e-04 0.0 
2.500357583008e-04 7.981097052773e-03 0.0 
0.0 0.0 0.0 
0.0 1.225595037547e-03 0.0 
1.225595037547e-03 9.554921686243e-03 0.0 
0.0 0.0 0.0 
2.247812207716e-03 -3.084455930645e-03 0.0 
-3.084455930645e-03 -2.841621761878e-03 0.0 
0.0 0.0 0.0 
-1.373999846945e-03 1.847205994406e-04 0.0 
1.847205994406e-04 6.802434504099e-03 0.0 
0.0 0.0 0.0 
-3.482651011011e-04 -3.295265609615e-03 0.0 
-3.295265609615e-03 -5.646286590233e-05 0.0 
0.0 0.0 0.0 
8.168483351645e-04 -3.116200988130e-04 0.0 
-3.116200988130e-04 1.550738602196e-05 0.0 
0.0 0.0 0.0 
-1.451038362640e-04 -7.086249808905e-04 0.0 
-7.086249808905e-04 5.616846105926e-03 0.0 
0.0 0.0 0.0 
-1.727598752653e-03 9.779355587277e-04 0.0 
9.779355587277e-04 6.819129678559e-03 0.0 
0.0 0.0 0.0 
7.506279885656e-04 -2.623827591242e-04 0.0 
-2.623827591242e-04 7.033651032826e-04 0.0 
0.0 0.0 0.0 
-1.567698535476e-03 -5.779274444875e-04 0.0 
-5.779274444875e-04 3.616242640045e-03 0.0 
0.0 0.0 0.0 
-1.715122618892e-04 2.716383228257e-03 0.0 
2.716383228257e-03 7.123264279644e-03 0.0 
0.0 0.0 0.0 
-5.516923115791e-04 8.771391009701e-04 0.0 
8.771391009701e-04 9.304182858593e-03 0.0 
0.0 0.0 0.0 
-2.574526544604e-04 1.806149720248e-03 0.0 
1.806149720248e-03 8.806724671712e-03 0.0 
0.0 0.0 0.0 
-1.185027518319e-03 -2.621381662314e-04 0.0 
-2.621381662314e-04 2.816792989727e-03 0.0 
0.0 0.0 0.0 
1.164167138405e-03 2.538116683806e-04 0.0 
2.538116683806e-04 -4.609752004123e-03 0.0 
0.0 0.0 0.0 
7.423880592516e-05 -8.360564143993e-04 0.0 
-8.360564143993e-04 4.618377919577e-03 0.0 
0.0 0.0 0.0 
-1.888609993881e-04 1.335993273016e-04 0.0 
1.335993273016e-04 9.920034510346e-03 0.0 
0.0 0.0 0.0 
-2.501022940222e-04 -1.837110759221e-04 0.0 
-1.837110759221e-04 5.994677342601e-03 0.0 
0.0 0.0 0.0 
-1.178336003847e-03 3.199385694702e-05 0.0 
3.199385694702e-05 7.128503880865e-03 0.0 
0.0 0.0 0.0 
8.814425890282e-04 4.022019383720e-04 0.0 
4.022019383720e-04 2.737454337688e-03 0.0 
0.0 0.0 0.0 
2.788026876805e-04 -2.129685477951e-04 0.0 
-2.129685477951e-04 9.530436904581e-04 0.0 
0.0 0.0 0.0 
-4.617085491039e-04 1.489433309868e-03 0.0 
1.489433309868e-03 8.950253722426e-03 0.0 
0.0 0.0 0.0 
6.737259468452e-04 -3.367281131677e-04 0.0 
-3.367281131677e-04 7.218231238859e-05 0.0 
0.0 0.0 0.0 
3.815359965302e-04 4.517073582473e-05 0.0 
4.517073582473e-05 3.524238440644e-03 0.0 
0.0 0.0 0.0 
-4.332453669527e-04 1.964973245381e-03 0.0 
1.964973245381e-03 8.664772997796e-03 0.0 
0.0 0.0 0.0 
6.203200357733e-04 1.215451245463e-03 0.0 
1.215451245463e-03 -4.742105289273e-03 0.0 
0.0 0.0 0.0 
5.493450374963e-04 2.510698428089e-03 0.0 
2.510698428089e-03 4.465262484306e-03 0.0 
0.0 0.0 0.0 
-9.026902176589e-04 1.792782598608e-04 0.0 
1.792782598608e-04 8.689301651500e-03 0.0 
0.0 0.0 0.0 
-2.133898979864e-04 6.970011289294e-04 0.0 
6.970011289294e-04 9.594198592046e-03 0.0 
0.0 0.0 0.0 
0.0 1.625892100870e-03 0.0 
1.625892100870e-03 4.469459174796e-03 0.0 
0.0 0.0 0.0 
-1.025457232921e-03 1.811162698298e-05 0.0 
1.811162698298e-05 8.235295908745e-03 0.0 
0.0 0.0 0.0 
-1.140400270533e-04 2.579304632290e-03 0.0 
2.579304632290e-03 7.288476061593e-03 0.0 
0.0 0.0 0.0 
-5.770023099589e-04 1.746139141076e-03 0.0 
1.746139141076e-03 8.653089819856e-03 0.0 
0.0 0.0 0.0 
-9.264430021252e-04 1.421916132729e-04 0.0 
1.421916132729e-04 8.439753857422e-03 0.0 
0.0 0.0 0.0 
-1.939974677219e-04 2.529982941422e-03 0.0 
2.529982941422e-03 6.928989280955e-03 0.0 
0.0 0.0 0.0 
-1.444668987901e-03 -5.828602205593e-04 0.0 
-5.828602205593e-04 3.163406340817e-03 0.0 
0.0 0.0 0.0 
-1.242377646589e-03 5.688429578475e-05 0.0 
5.688429578475e-05 6.837806097534e-03 0.0 
0.0 0.0 0.0 
5.654589604698e-04 2.363429886232e-03 0.0 
2.363429886232e-03 4.332860194806e-03 0.0 
0.0 0.0 0.0 
-2.399348477747e-04 1.085096896992e-04 0.0 
1.085096896992e-04 9.730496335196e-03 0.0 
0.0 0.0 0.0 
2.083285100847e-03 -1.996207281545e-05 0.0 
-1.996207281545e-05 -8.070620554670e-04 0.0 
0.0 0.0 0.0 
-1.188160180677e-03 2.342305352009e-05 0.0 
2.342305352009e-05 6.832302486152e-03 0.0 
0.0 0.0 0.0 
-3.114335848154e-04 -1.346709614849e-04 0.0 
-1.346709614849e-04 5.853001510508e-03 0.0 
0.0 0.0 0.0 
-2.295394160836e-04 -7.271086771486e-04 0.0 
-7.271086771486e-04 1.336224635345e-03 0.0 
0.0 0.0 0.0 
1.275944319404e-03 8.008663600246e-04 0.0 
8.008663600246e-04 2.761154330811e-03 0.0 
0.0 0.0 0.0 
-6.078921019560e-04 1.999436445713e-03 0.0 
1.999436445713e-03 8.286979388908e-03 0.0 
0.0 0.0 0.0 
-4.001821727394e-04 6.219546256315e-04 0.0 
6.219546256315e-04 9.592102137018e-03 0.0 
0.0 0.0 0.0 
6.424801120763e-05 -4.797937646213e-04 0.0 
-4.797937646213e-04 1.243825101195e-03 0.0 
0.0 0.0 0.0 
6.654833126680e-04 4.389268300178e-03 0.0 
4.389268300178e-03 -2.150625265636e-03 0.0 
0.0 0.0 0.0 
-1.550740795236e-03 -5.797637292462e-05 0.0 
-5.797637292462e-05 4.128628653306e-03 0.0 
0.0 0.0 0.0 
-7.224435092340e-04 1.599850338316e-04 0.0 
1.599850338316e-04 9.024884934498e-03 0.0 
0.0 0.0 0.0 
-5.493849420481e-03 -2.834716887860e-04 0.0 
-2.834716887860e-04 -2.178201717260e-03 0.0 
0.0 0.0 0.0 
-2.419026334223e-04 1.534801054238e-03 0.0 
1.534801054238e-03 9.103288213903e-03 0.0 
0.0 0.0 0.0 
-1.016131493784e-03 1.080116061423e-04 0.0 
1.080116061423e-04 8.130032139295e-03 0.0 
0.0 0.0 0.0 
3.137762845375e-04 -3.172110803701e-03 0.0 
-3.172110803701e-03 -6.797664780266e-04 0.0 
0.0 0.0 0.0 
-1.106527168615e-03 1.582057102069e-04 0.0 
1.582057102069e-04 7.874184824113e-03 0.0 
0.0 0.0 0.0 
4.272126444267e-04 2.495405833525e-03 0.0 
2.495405833525e-03 4.938321060279e-03 0.0 
0.0 0.0 0.0 
-1.520202160922e-03 -1.150869278400e-04 0.0 
-1.150869278400e-04 4.224047993109e-03 0.0 
0.0 0.0 0.0 
-2.220902881536e-03 3.983847995401e-03 0.0 
3.983847995401e-03 2.225389910133e-04 0.0 
0.0 0.0 0.0 
-1.377046236814e-03 -7.447907349066e-04 0.0 
-7.447907349066e-04 2.975024884218e-03 0.0 
0.0 0.0 0.0 
-1.473940029520e-03 -7.573440613574e-04 0.0 
-7.573440613574e-04 3.790911181148e-03 0.0 
0.0 0.0 0.0 
-1.483601574674e-03 -3.901803482325e-05 0.0 
-3.901803482325e-05 4.343512176009e-03 0.0 
0.0 0.0 0.0 
8.087697722134e-04 1.953492276475e-03 0.0 
1.953492276475e-03 3.718867782902e-03 0.0 
0.0 0.0 0.0 
-1.578450568226e-03 -3.766684223975e-04 0.0 
-3.766684223975e-04 3.783896783278e-03 0.0 
0.0 0.0 0.0 
-1.531669335967e-03 -4.886112760263e-04 0.0 
-4.886112760263e-04 3.986564276812e-03 0.0 
0.0 0.0 0.0 
2.449881810935e-04 -6.091438129251e-04 0.0 
-6.091438129251e-04 4.682552368620e-04 0.0 
0.0 0.0 0.0 
4.777739334760e-05 -7.704852854303e-04 0.0 
-7.704852854303e-04 4.515955305743e-03 0.0 
0.0 0.0 0.0 
1.540668767765e-04 2.645448487188e-03 0.0 
2.645448487188e-03 5.314475359492e-03 0.0 
0.0 0.0 0.0 
1.407558081584e-03 3.727775593067e-03 0.0 
3.727775593067e-03 -2.647713480125e-03 0.0 
0.0 0.0 0.0 
-1.953668869200e-04 9.490591478842e-05 0.0 
9.490591478842e-05 9.722270218394e-03 0.0 
0.0 0.0 0.0 
-2.689380724979e-04 -1.208060320152e-04 0.0 
-1.208060320152e-04 5.847943811717e-03 0.0 
0.0 0.0 0.0 
-1.188936222970e-03 2.394323743017e-06 0.0 
2.394323743017e-06 7.144630813266e-03 0.0 
0.0 0.0 0.0 
-1.069756182083e-03 8.981546751347e-05 0.0 
8.981546751347e-05 8.124036421772e-03 0.0 
0.0 0.0 0.0 
-1.575006273814e-03 -5.659611712841e-04 0.0 
-5.659611712841e-04 3.805000762678e-03 0.0 
0.0 0.0 0.0 
-1.543269401544e-03 -5.678030674080e-04 0.0 
-5.678030674080e-04 3.702631120940e-03 0.0 
0.0 0.0 0.0 
-1.581805799513e-03 -3.727442120230e-04 0.0 
-3.727442120230e-04 3.913041197754e-03 0.0 
0.0 0.0 0.0 
1.361706653595e-03 9.398056694980e-04 0.0 
9.398056694980e-04 2.279305866060e-03 0.0 
0.0 0.0 0.0 
2.474770335903e-05 -2.815983125098e-03 0.0 
-2.815983125098e-03 4.480114471821e-04 0.0 
0.0 0.0 0.0 
6.270033941114e-05 2.697559765441e-03 0.0 
2.697559765441e-03 5.866663881489e-03 0.0 
0.0 0.0 0.0 
-1.143555882740e-03 8.142571789923e-05 0.0 
8.142571789923e-05 7.495956609137e-03 0.0 
0.0 0.0 0.0 
-4.700405647560e-04 1.466532784951e-03 0.0 
1.466532784951e-03 9.151104498822e-03 0.0 
0.0 0.0 0.0 
1.297017975019e-03 7.902018793669e-04 0.0 
7.902018793669e-04 2.260935733430e-03 0.0 
0.0 0.0 0.0 
-1.174578064615e-03 1.667986031803e-04 0.0 
1.667986031803e-04 7.873953641148e-03 0.0 
0.0 0.0 0.0 
-2.654573429594e-04 2.510259474186e-03 0.0 
2.510259474186e-03 6.722107172970e-03 0.0 
0.0 0.0 0.0 
7.282270248277e-04 2.007094912787e-03 0.0 
2.007094912787e-03 3.702379526022e-03 0.0 
0.0 0.0 0.0 
6.464268627151e-04 2.158794447229e-03 0.0 
2.158794447229e-03 4.310161490903e-03 0.0 
0.0 0.0 0.0 
-6.864544573839e-04 4.018036277084e-03 0.0 
4.018036277084e-03 -1.997479312484e-03 0.0 
0.0 0.0 0.0 
-3.156027871990e-04 2.520723772418e-03 0.0 
2.520723772418e-03 6.721100629555e-03 0.0 
0.0 0.0 0.0 
-1.750829688582e-04 2.669206041057e-03 0.0 
2.669206041057e-03 6.650540695493e-03 0.0 
0.0 0.0 0.0 
7.040359849948e-04 -4.893546041393e-04 0.0 
-4.893546041393e-04 3.685380082974e-04 0.0 
0.0 0.0 0.0 
-1.554777793012e-03 -5.822319213352e-04 0.0 
-5.822319213352e-04 3.598340568538e-03 0.0 
0.0 0.0 0.0 
-1.335921209561e-03 3.531482900464e-03 0.0 
3.531482900464e-03 -1.614575059020e-03 0.0 
0.0 0.0 0.0 
-3.303921619007e-04 2.588216666008e-03 0.0 
2.588216666008e-03 7.083179201351e-03 0.0 
0.0 0.0 0.0 
-7.641715332710e-04 -1.532844610787e-05 0.0 
-1.532844610787e-05 3.249303831395e-03 0.0 
0.0 0.0 0.0 
-6.739109432520e-04 -2.112533321571e-05 0.0 
-2.112533321571e-05 3.177000701922e-03 0.0 
0.0 0.0 0.0 
-7.218948936131e-04 -3.923305615966e-05 0.0 
-3.923305615966e-05 3.175678782333e-03 0.0 
0.0 0.0 0.0 
-6.516719265219e-04 -6.548905764016e-05 0.0 
-6.548905764016e-05 3.162807199327e-03 0.0 
0.0 0.0 0.0 
-7.091649141262e-04 -5.883590136571e-05 0.0 
-5.883590136571e-05 3.163766231001e-03 0.0 
0.0 0.0 0.0 
-6.297446352710e-04 -9.043674749642e-05 0.0 
-9.043674749642e-05 3.154434537729e-03 0.0 
0.0 0.0 0.0 
-6.942451692794e-04 -7.687937490892e-05 0.0 
-7.687937490892e-05 3.156901947321e-03 0.0 
0.0 0.0 0.0 
-6.017221545588e-04 -1.114035692256e-04 0.0 
-1.114035692256e-04 3.143725513256e-03 0.0 
0.0 0.0 0.0 
-6.742123343418e-04 -9.372536168944e-05 0.0 
-9.372536168944e-05 3.147795381010e-03 0.0 
0.0 0.0 0.0 
-5.670610773412e-04 -1.307836139033e-04 0.0 
-1.307836139033e-04 3.129509367238e-03 0.0 
0.0 0.0 0.0 
-6.487976468814e-04 -1.092827151509e-04 0.0 
-1.092827151509e-04 3.135559321866e-03 0.0 
0.0 0.0 0.0 
-5.229045687883e-04 -1.496418769644e-04 0.0 
-1.496418769644e-04 3.111131583007e-03 0.0 
0.0 0.0 0.0 
-6.180730610242e-04 -1.239792294507e-04 0.0 
-1.239792294507e-04 3.119765334300e-03 0.0 
0.0 0.0 0.0 
-4.681893710052e-04 -1.691698200777e-04 0.0 
-1.691698200777e-04 3.088928543914e-03 0.0 
0.0 0.0 0.0 
-5.827993197217e-04 -1.378379550046e-04 0.0 
-1.378379550046e-04 3.101281779283e-03 0.0 
0.0 0.0 0.0 
-4.054952268596e-04 -1.884467452307e-04 0.0 
-1.884467452307e-04 3.063740078893e-03 0.0 
0.0 0.0 0.0 
-5.438271230743e-04 -1.500889443043e-04 0.0 
-1.500889443043e-04 3.081161597100e-03 0.0 
0.0 0.0 0.0 
-3.345993372279e-04 -2.062081554220e-04 0.0 
-2.062081554220e-04 3.035322432850e-03 0.0 
0.0 0.0 0.0 
-5.016655701433e-04 -1.604161293573e-04 0.0 
-1.604161293573e-04 3.059113235498e-03 0.0 
0.0 0.0 0.0 
-2.548492009801e-04 -2.229138548474e-04 0.0 
-2.229138548474e-04 3.004228614510e-03 0.0 
0.0 0.0 0.0 
-8.541085388989e-04 1.193235786236e-03 0.0 
1.193235786236e-03 2.903197272385e-03 0.0 
0.0 0.0 0.0 
-4.578701952596e-04 -1.675997617590e-04 0.0 
-1.675997617590e-04 3.036715619963e-03 0.0 
0.0 0.0 0.0 
-1.664607090716e-04 -2.359221640453e-04 0.0 
-2.359221640453e-04 2.969395359428e-03 0.0 
0.0 0.0 0.0 
-4.131486998267e-04 -1.713856559237e-04 0.0 
-1.713856559237e-04 3.012318670348e-03 0.0 
0.0 0.0 0.0 
-4.251469791295e-04 9.014131455015e-04 0.0 
9.014131455015e-04 2.712110448778e-03 0.0 
0.0 0.0 0.0 
-7.311002893362e-05 -2.450263631616e-04 0.0 
-2.450263631616e-04 2.931507978783e-03 0.0 
0.0 0.0 0.0 
-3.700195874635e-04 -1.703270791353e-04 0.0 
-1.703270791353e-04 2.987414468167e-03 0.0 
0.0 0.0 0.0 
-9.359742056508e-04 1.063613282436e-03 0.0 
1.063613282436e-03 3.053286192873e-03 0.0 
0.0 0.0 0.0 
2.078463115640e-05 -2.479509107133e-04 0.0 
-2.479509107133e-04 2.892165980958e-03 0.0 
0.0 0.0 0.0 
-3.318329916852e-04 -1.625700806614e-04 0.0 
-1.625700806614e-04 2.963699835443e-03 0.0 
0.0 0.0 0.0 
1.091191290012e-04 -2.425062129738e-04 0.0 
-2.425062129738e-04 2.854206782116e-03 0.0 
0.0 0.0 0.0 
-3.030882464922e-04 -1.478611489497e-04 0.0 
-1.478611489497e-04 2.943109503736e-03 0.0 
0.0 0.0 0.0 
1.869256490110e-04 -2.266631316850e-04 0.0 
-2.266631316850e-04 2.817361210351e-03 0.0 
0.0 0.0 0.0 
-2.842936328469e-04 -1.231886868492e-04 0.0 
-1.231886868492e-04 2.925650268141e-03 0.0 
0.0 0.0 0.0 
2.464307309205e-04 -1.971258226298e-04 0.0 
-1.971258226298e-04 2.784745618933e-03 0.0 
0.0 0.0 0.0 
-2.796999461943e-04 -8.840865241732e-05 0.0 
-8.840865241732e-05 2.912062084369e-03 0.0 
0.0 0.0 0.0 
2.819225844786e-04 -1.530666045735e-04 0.0 
-1.530666045735e-04 2.756512851124e-03 0.0 
0.0 0.0 0.0 
-1.517577962098e-03 1.735583172084e-03 0.0 
1.735583172084e-03 3.323966501554e-03 0.0 
0.0 0.0 0.0 
-2.992068213943e-04 -3.981574167005e-05 0.0 
-3.981574167005e-05 2.904549664288e-03 0.0 
0.0 0.0 0.0 
2.890722359741e-04 -8.802512382005e-05 0.0 
-8.802512382005e-05 2.728816937223e-03 0.0 
0.0 0.0 0.0 
-3.124839124881e-04 2.516174782317e-05 0.0 
2.516174782317e-05 2.891841725651e-03 0.0 
0.0 0.0 0.0 
2.564802349212e-04 6.291064934879e-08 0.0 
6.291064934879e-08 2.707266889529e-03 0.0 
0.0 0.0 0.0 
1.754788903932e-04 1.148382700293e-04 0.0 
1.148382700293e-04 2.697733784312e-03 0.0 
0.0 0.0 0.0 
-3.413643382905e-04 1.135257228088e-04 0.0 
1.135257228088e-04 2.882984522122e-03 0.0 
0.0 0.0 0.0 
2.109449748122e-05 2.763404352601e-04 0.0 
2.763404352601e-04 2.706757560636e-03 0.0 
0.0 0.0 0.0 
-3.934659685385e-04 2.374790662945e-04 0.0 
2.374790662945e-04 2.889580005390e-03 0.0 
0.0 0.0 0.0 
-4.282677022571e-05 4.523425590691e-04 0.0 
4.523425590691e-04 2.699371028495e-03 0.0 
0.0 0.0 0.0 
-4.686438308863e-04 3.954822187499e-04 0.0 
3.954822187499e-04 2.895230101881e-03 0.0 
0.0 0.0 0.0 
-1.348569968123e-04 6.341563877673e-04 0.0 
6.341563877673e-04 2.712654334899e-03 0.0 
0.0 0.0 0.0 
-2.741853986545e-04 8.816284097753e-04 0.0 
8.816284097753e-04 2.725335500092e-03 0.0 
0.0 0.0 0.0 
-5.509054884709e-04 5.697573979136e-04 0.0 
5.697573979136e-04 2.902636537535e-03 0.0 
0.0 0.0 0.0 
-6.522662813270e-04 7.674113885381e-04 0.0 
7.674113885381e-04 2.945876313371e-03 0.0 
0.0 0.0 0.0 
-1.352484824422e-03 1.131501114660e-03 0.0 
1.131501114660e-03 3.564899050951e-03 0.0 
0.0 0.0 0.0 
-7.415374913065e-04 -5.000969671357e-05 0.0 
-5.000969671357e-05 3.193058087083e-03 0.0 
0.0 0.0 0.0 
-7.577067690054e-04 4.218672467061e-05 0.0 
4.218672467061e-05 3.251513562532e-03 0.0 
0.0 0.0 0.0 
-7.200149236042e-04 -1.302566711065e-05 0.0 
-1.302566711065e-05 3.099809754386e-03 0.0 
0.0 0.0 0.0 
-7.799683924996e-04 7.024346776258e-06 0.0 
7.024346776258e-06 3.341899559227e-03 0.0 
0.0 0.0 0.0 
-1.862333625466e-03 1.782881229863e-03 0.0 
1.782881229863e-03 3.040981136009e-03 0.0 
0.0 0.0 0.0 
-7.641715332710e-04 -3.165212860956e-05 0.0 
-3.165212860956e-05 3.617745402634e-03 0.0 
0.0 0.0 0.0 
-8.227338731671e-04 -4.342403232728e-05 0.0 
-4.342403232728e-05 3.649251301455e-03 0.0 
0.0 0.0 0.0 
-7.218948936131e-04 -4.133363820122e-05 0.0 
-4.133363820122e-05 3.648941331819e-03 0.0 
0.0 0.0 0.0 
-8.140073968693e-04 -8.687544346105e-05 0.0 
-8.687544346105e-05 3.644903269955e-03 0.0 
0.0 0.0 0.0 
-7.091649141262e-04 -7.261567338297e-05 0.0 
-7.261567338297e-05 3.642908953903e-03 0.0 
0.0 0.0 0.0 
-8.069777506041e-04 -1.195090022725e-04 0.0 
-1.195090022725e-04 3.639680136387e-03 0.0 
0.0 0.0 0.0 
-6.942451692794e-04 -1.010030984175e-04 0.0 
-1.010030984175e-04 3.636166017564e-03 0.0 
0.0 0.0 0.0 
-7.997794458344e-04 -1.499130289008e-04 0.0 
-1.499130289008e-04 3.633966859546e-03 0.0 
0.0 0.0 0.0 
-6.742123343418e-04 -1.262809502429e-04 0.0 
-1.262809502429e-04 3.628261290507e-03 0.0 
0.0 0.0 0.0 
-7.910020624249e-04 -1.788064132774e-04 0.0 
-1.788064132774e-04 3.626724770346e-03 0.0 
0.0 0.0 0.0 
-6.487976468814e-04 -1.495900031819e-04 0.0 
-1.495900031819e-04 3.618089267814e-03 0.0 
0.0 0.0 0.0 
-7.804701419638e-04 -2.065834967339e-04 0.0 
-2.065834967339e-04 3.618054967792e-03 0.0 
0.0 0.0 0.0 
-6.180730610242e-04 -1.713122279166e-04 0.0 
-1.713122279166e-04 3.605616010453e-03 0.0 
0.0 0.0 0.0 
-7.684330701965e-04 -2.332150207068e-04 0.0 
-2.332150207068e-04 3.608511645800e-03 0.0 
0.0 0.0 0.0 
-5.827993197217e-04 -1.908358424755e-04 0.0 
-1.908358424755e-04 3.591078200426e-03 0.0 
0.0 0.0 0.0 
-7.553484179793e-04 -2.578110613416e-04 0.0 
-2.578110613416e-04 3.598300872004e-03 0.0 
0.0 0.0 0.0 
-5.438271230743e-04 -2.074545223508e-04 0.0 
-2.074545223508e-04 3.574533510561e-03 0.0 
0.0 0.0 0.0 
-7.420767360652e-04 -2.793536105612e-04 0.0 
-2.793536105612e-04 3.587720307920e-03 0.0 
0.0 0.0 0.0 
-5.016655701433e-04 -2.204006119203e-04 0.0 
-2.204006119203e-04 3.556155132208e-03 0.0 
0.0 0.0 0.0 
-8.299456433304e-04 1.393501334761e-03 0.0 
1.393501334761e-03 3.071448070289e-03 0.0 
0.0 0.0 0.0 
-7.297669021288e-04 -2.966941802545e-04 0.0 
-2.966941802545e-04 3.577650163181e-03 0.0 
0.0 0.0 0.0 
-4.578701952596e-04 -2.274911319538e-04 0.0 
-2.274911319538e-04 3.536204975047e-03 0.0 
0.0 0.0 0.0 
-7.191384163000e-04 -3.075832950038e-04 0.0 
-3.075832950038e-04 3.567582843188e-03 0.0 
0.0 0.0 0.0 
-8.577048693429e-04 1.207896906651e-03 0.0 
1.207896906651e-03 3.248688442604e-03 0.0 
0.0 0.0 0.0 
-4.131486998267e-04 -2.265267386394e-04 0.0 
-2.265267386394e-04 3.513876814556e-03 0.0 
0.0 0.0 0.0 
-7.111051184937e-04 -3.093246896908e-04 0.0 
-3.093246896908e-04 3.557280373514e-03 0.0 
0.0 0.0 0.0 
-3.700195874635e-04 -2.152093138235e-04 0.0 
-2.152093138235e-04 3.488904839936e-03 0.0 
0.0 0.0 0.0 
-7.072875589229e-04 -2.983951751719e-04 0.0 
-2.983951751719e-04 3.547434583587e-03 0.0 
0.0 0.0 0.0 
-3.318329916852e-04 -1.909651983210e-04 0.0 
-1.909651983210e-04 3.462372770957e-03 0.0 
0.0 0.0 0.0 
-6.522662813270e-04 1.293926056599e-03 0.0 
1.293926056599e-03 2.946370484227e-03 0.0 
0.0 0.0 0.0 
-7.110150827930e-04 -2.710885369777e-04 0.0 
-2.710885369777e-04 3.540326053379e-03 0.0 
0.0 0.0 0.0 
-3.030882464922e-04 -1.536630052385e-04 0.0 
-1.536630052385e-04 3.438636938155e-03 0.0 
0.0 0.0 0.0 
-7.238668621742e-04 -2.305356332184e-04 0.0 
-2.305356332184e-04 3.533872872642e-03 0.0 
0.0 0.0 0.0 
-2.842936328469e-04 -1.001558612708e-04 0.0 
-1.001558612708e-04 3.412022766456e-03 0.0 
0.0 0.0 0.0 
-7.252334658120e-04 -1.671932521136e-04 0.0 
-1.671932521136e-04 3.521540219409e-03 0.0 
0.0 0.0 0.0 
-2.796999461943e-04 -2.198534361254e-05 0.0 
-2.198534361254e-05 3.378978544367e-03 0.0 
0.0 0.0 0.0 
-7.284751103274e-04 -7.241828198750e-05 0.0 
-7.241828198750e-05 3.504885800170e-03 0.0 
0.0 0.0 0.0 
-2.992068213943e-04 8.978363028080e-05 0.0 
8.978363028080e-05 3.341156175423e-03 0.0 
0.0 0.0 0.0 
-7.354412753143e-04 5.825633621145e-05 0.0 
5.825633621145e-05 3.476828382194e-03 0.0 
0.0 0.0 0.0 
-3.124839124881e-04 2.356346663206e-04 0.0 
2.356346663206e-04 3.290738445720e-03 0.0 
0.0 0.0 0.0 
-7.411402257735e-04 2.200518760907e-04 0.0 
2.200518760907e-04 3.433891011901e-03 0.0 
0.0 0.0 0.0 
-1.042497430431e-03 1.610980396860e-03 0.0 
1.610980396860e-03 3.237281067351e-03 0.0 
0.0 0.0 0.0 
-7.515272156404e-04 4.104060942139e-04 0.0 
4.104060942139e-04 3.384191338087e-03 0.0 
0.0 0.0 0.0 
-3.413643382905e-04 4.052604144452e-04 0.0 
4.052604144452e-04 3.232284460597e-03 0.0 
0.0 0.0 0.0 
-7.625588794188e-04 6.239411823099e-04 0.0 
6.239411823099e-04 3.316082703715e-03 0.0 
0.0 0.0 0.0 
-3.934659685385e-04 6.035949765815e-04 0.0 
6.035949765815e-04 3.169757340666e-03 0.0 
0.0 0.0 0.0 
-7.614830257096e-04 8.815133939511e-04 0.0 
8.815133939511e-04 3.264843482168e-03 0.0 
0.0 0.0 0.0 
-4.686438308863e-04 8.161379252910e-04 0.0 
8.161379252910e-04 3.100845635889e-03 0.0 
0.0 0.0 0.0 
-5.509054884709e-04 1.093287001304e-03 0.0 
1.093287001304e-03 3.036308724044e-03 0.0 
0.0 0.0 0.0 
-9.732767885675e-04 1.377291578967e-03 0.0 
1.377291578967e-03 3.276177376744e-03 0.0 
0.0 0.0 0.0 
-8.377514981451e-04 -6.069981596511e-05 0.0 
-6.069981596511e-05 3.693231535383e-03 0.0 
0.0 0.0 0.0 
-8.152897628141e-04 2.715674822903e-05 0.0 
2.715674822903e-05 3.615502427427e-03 0.0 
0.0 0.0 0.0 
-8.719616548900e-04 -2.886765980154e-05 0.0 
-2.886765980154e-05 3.788578567183e-03 0.0 
0.0 0.0 0.0 
-7.799683924996e-04 -2.465676561048e-06 0.0 
-2.465676561048e-06 3.523420983168e-03 0.0 
0.0 0.0 0.0 
-9.359742056508e-04 1.712497483275e-03 0.0 
1.712497483275e-03 2.958810429666e-03 0.0 
0.0 0.0 0.0 
-9.295872314858e-04 -3.584907627947e-05 0.0 
-3.584907627947e-05 4.200452860338e-03 0.0 
0.0 0.0 0.0 
-8.227338731671e-04 -5.368128902164e-05 0.0 
-5.368128902164e-05 4.136802905458e-03 0.0 
0.0 0.0 0.0 
-9.035915624268e-04 -5.869749569234e-05 0.0 
-5.869749569234e-05 4.136519563648e-03 0.0 
0.0 0.0 0.0 
-8.140073968693e-04 -9.542296466403e-05 0.0 
-9.542296466403e-05 4.126899919573e-03 0.0 
0.0 0.0 0.0 
-9.054629355968e-04 -8.587777707709e-05 0.0 
-8.587777707709e-05 4.128533932627e-03 0.0 
0.0 0.0 0.0 
-8.069777506041e-04 -1.278307087811e-04 0.0 
-1.278307087811e-04 4.123041617777e-03 0.0 
0.0 0.0 0.0 
-9.090113370718e-04 -1.143899303252e-04 0.0 
-1.143899303252e-04 4.126150664967e-03 0.0 
0.0 0.0 0.0 
-7.997794458344e-04 -1.593211645954e-04 0.0 
-1.593211645954e-04 4.119469099040e-03 0.0 
0.0 0.0 0.0 
-9.129428210936e-04 -1.421981818479e-04 0.0 
-1.421981818479e-04 4.124528482993e-03 0.0 
0.0 0.0 0.0 
-7.910020624249e-04 -1.896885780961e-04 0.0 
-1.896885780961e-04 4.114915744015e-03 0.0 
0.0 0.0 0.0 
-9.173623972054e-04 -1.684012032309e-04 0.0 
-1.684012032309e-04 4.122618769997e-03 0.0 
0.0 0.0 0.0 
-7.804701419638e-04 -2.185591888455e-04 0.0 
-2.185591888455e-04 4.109269872153e-03 0.0 
0.0 0.0 0.0 
-9.227948617602e-04 -1.925572591982e-04 0.0 
-1.925572591982e-04 4.120479302193e-03 0.0 
0.0 0.0 0.0 
-7.684330701965e-04 -2.452334760933e-04 0.0 
-2.452334760933e-04 4.102170052309e-03 0.0 
0.0 0.0 0.0 
-9.295188334273e-04 -2.134820427370e-04 0.0 
-2.134820427370e-04 4.118086188319e-03 0.0 
0.0 0.0 0.0 
-7.553484179793e-04 -2.682618370242e-04 0.0 
-2.682618370242e-04 4.093526226602e-03 0.0 
0.0 0.0 0.0 
-9.382698488520e-04 -2.297497242074e-04 0.0 
-2.297497242074e-04 4.115598374670e-03 0.0 
0.0 0.0 0.0 
-7.420767360652e-04 -2.861030209416e-04 0.0 
-2.861030209416e-04 4.083639889137e-03 0.0 
0.0 0.0 0.0 
-9.100427997638e-04 1.352396874216e-03 0.0 
1.352396874216e-03 3.379943663963e-03 0.0 
0.0 0.0 0.0 
-9.502130553966e-04 -2.401224046794e-04 0.0 
-2.401224046794e-04 4.113467771412e-03 0.0 
0.0 0.0 0.0 
-7.297669021288e-04 -2.968914661676e-04 0.0 
-2.968914661676e-04 4.072234236553e-03 0.0 
0.0 0.0 0.0 
-9.660042125982e-04 -2.428339366036e-04 0.0 
-2.428339366036e-04 4.111596681962e-03 0.0 
0.0 0.0 0.0 
-7.614830257096e-04 1.272367862946e-03 0.0 
1.272367862946e-03 3.245047303551e-03 0.0 
0.0 0.0 0.0 
-7.191384163000e-04 -2.980132751163e-04 0.0 
-2.980132751163e-04 4.058299947722e-03 0.0 
0.0 0.0 0.0 
-9.814840805893e-04 1.164471929282e-03 0.0 
1.164471929282e-03 3.585728929103e-03 0.0 
0.0 0.0 0.0 
-9.861453735217e-04 -2.353719558820e-04 0.0 
-2.353719558820e-04 4.109152980933e-03 0.0 
0.0 0.0 0.0 
-7.111051184937e-04 -2.861972451270e-04 0.0 
-2.861972451270e-04 4.040526676785e-03 0.0 
0.0 0.0 0.0 
-1.011132621378e-03 -2.140824609210e-04 0.0 
-2.140824609210e-04 4.105249706037e-03 0.0 
0.0 0.0 0.0 
-7.072875589229e-04 -2.574799409387e-04 0.0 
-2.574799409387e-04 4.018588475989e-03 0.0 
0.0 0.0 0.0 
-1.042025956965e-03 -1.743085521427e-04 0.0 
-1.743085521427e-04 4.100220552920e-03 0.0 
0.0 0.0 0.0 
-7.110150827930e-04 -2.072047455931e-04 0.0 
-2.072047455931e-04 3.994227402467e-03 0.0 
0.0 0.0 0.0 
-1.056195295395e-03 -1.165263579050e-04 0.0 
-1.165263579050e-04 4.090069426495e-03 0.0 
0.0 0.0 0.0 
-7.238668621742e-04 -1.268094540937e-04 0.0 
-1.268094540937e-04 3.962132638018e-03 0.0 
0.0 0.0 0.0 
-1.045756711021e-03 1.523170879634e-03 0.0 
1.523170879634e-03 3.504761111689e-03 0.0 
0.0 0.0 0.0 
-1.064954103121e-03 -2.971704993961e-05 0.0 
-2.971704993961e-05 4.070940933197e-03 0.0 
0.0 0.0 0.0 
-7.252334658120e-04 -1.385258253949e-05 0.0 
-1.385258253949e-05 3.915916616088e-03 0.0 
0.0 0.0 0.0 
-1.070910825516e-03 8.685055001090e-05 0.0 
8.685055001090e-05 4.037561444190e-03 0.0 
0.0 0.0 0.0 
-7.284751103274e-04 1.323702098555e-04 0.0 
1.323702098555e-04 3.855270213345e-03 0.0 
0.0 0.0 0.0 
-7.354412753143e-04 3.110337176334e-04 0.0 
3.110337176334e-04 3.778153178228e-03 0.0 
0.0 0.0 0.0 
-1.069432243735e-03 2.322807924076e-04 0.0 
2.322807924076e-04 3.985668150931e-03 0.0 
0.0 0.0 0.0 
-7.411402257735e-04 5.256545639759e-04 0.0 
5.256545639759e-04 3.685204327006e-03 0.0 
0.0 0.0 0.0 
-1.058362447606e-03 4.111692186062e-04 0.0 
4.111692186062e-04 3.915965748595e-03 0.0 
0.0 0.0 0.0 
-7.515272156404e-04 7.747594040625e-04 0.0 
7.747594040625e-04 3.563429623858e-03 0.0 
0.0 0.0 0.0 
-7.625588794188e-04 1.062500045169e-03 0.0 
1.062500045169e-03 3.438115086564e-03 0.0 
0.0 0.0 0.0 
-1.033929196259e-03 6.161500978000e-04 0.0 
6.161500978000e-04 3.819243727020e-03 0.0 
0.0 0.0 0.0 
-9.711868449167e-04 8.697994007447e-04 0.0 
8.697994007447e-04 3.695984997252e-03 0.0 
0.0 0.0 0.0 
-9.935938065418e-04 1.339873175898e-03 0.0 
1.339873175898e-03 3.473220478241e-03 0.0 
0.0 0.0 0.0 
-8.851139214689e-04 -6.033195670532e-05 0.0 
-6.033195670532e-05 4.131969650516e-03 0.0 
0.0 0.0 0.0 
-9.247565208349e-04 3.572648504253e-05 0.0 
3.572648504253e-05 4.203562558320e-03 0.0 
0.0 0.0 0.0 
-8.719616548900e-04 -1.852469911394e-05 0.0 
-1.852469911394e-05 4.037586197656e-03 0.0 
0.0 0.0 0.0 
-9.390820066572e-04 -3.701971435465e-06 0.0 
-3.701971435465e-06 4.294414599251e-03 0.0 
0.0 0.0 0.0 
-8.577048693429e-04 1.607786671622e-03 0.0 
1.607786671622e-03 3.171334748217e-03 0.0 
0.0 0.0 0.0 
-9.295872314858e-04 -3.714674871516e-05 0.0 
-3.714674871516e-05 4.567453149268e-03 0.0 
0.0 0.0 0.0 
-9.993911452744e-04 -4.571939880903e-05 0.0 
-4.571939880903e-05 4.614919259626e-03 0.0 
0.0 0.0 0.0 
-9.035915624268e-04 -4.260069234286e-05 0.0 
-4.260069234286e-05 4.614466972140e-03 0.0 
0.0 0.0 0.0 
-1.001258086746e-03 -8.704456713258e-05 0.0 
-8.704456713258e-05 4.616719067984e-03 0.0 
0.0 0.0 0.0 
-9.054629355968e-04 -7.370010703173e-05 0.0 
-7.370010703173e-05 4.614571039938e-03 0.0 
0.0 0.0 0.0 
-1.006741030788e-03 -1.187298079678e-04 0.0 
-1.187298079678e-04 4.616773211729e-03 0.0 
0.0 0.0 0.0 
-9.090113370718e-04 -1.033001587287e-04 0.0 
-1.033001587287e-04 4.613350817583e-03 0.0 
0.0 0.0 0.0 
-1.016863653618e-03 -1.488479217340e-04 0.0 
-1.488479217340e-04 4.617837387559e-03 0.0 
0.0 0.0 0.0 
-9.129428210936e-04 -1.299912876855e-04 0.0 
-1.299912876855e-04 4.612510321176e-03 0.0 
0.0 0.0 0.0 
-1.030951425114e-03 -1.772125074228e-04 0.0 
-1.772125074228e-04 4.619617919389e-03 0.0 
0.0 0.0 0.0 
-9.173623972054e-04 -1.536517652944e-04 0.0 
-1.536517652944e-04 4.611539122297e-03 0.0 
0.0 0.0 0.0 
-1.048174997568e-03 -2.029359280940e-04 0.0 
-2.029359280940e-04 4.621999608616e-03 0.0 
0.0 0.0 0.0 
-9.227948617602e-04 -1.739413144329e-04 0.0 
-1.739413144329e-04 4.610271745746e-03 0.0 
0.0 0.0 0.0 
-1.068296211966e-03 -2.255686839990e-04 0.0 
-2.255686839990e-04 4.624267334462e-03 0.0 
0.0 0.0 0.0 
-9.295188334273e-04 -1.892664909151e-04 0.0 
-1.892664909151e-04 4.607443059270e-03 0.0 
0.0 0.0 0.0 
-1.091817776090e-03 -2.427366852355e-04 0.0 
-2.427366852355e-04 4.626429217623e-03 0.0 
0.0 0.0 0.0 
-9.382698488520e-04 -1.978862808002e-04 0.0 
-1.978862808002e-04 4.603001279562e-03 0.0 
0.0 0.0 0.0 
-1.106309172753e-03 1.263096950405e-03 0.0 
1.263096950405e-03 3.850340078279e-03 0.0 
0.0 0.0 0.0 
-1.119558053525e-03 -2.522582146078e-04 0.0 
-2.522582146078e-04 4.628932124805e-03 0.0 
0.0 0.0 0.0 
-9.502130553966e-04 -1.982101579659e-04 0.0 
-1.982101579659e-04 4.597429898024e-03 0.0 
0.0 0.0 0.0 
-1.210818409768e-03 1.048502683776e-03 0.0 
1.048502683776e-03 4.068054963274e-03 0.0 
0.0 0.0 0.0 
-1.152094053706e-03 -2.527926462738e-04 0.0 
-2.527926462738e-04 4.631243041048e-03 0.0 
0.0 0.0 0.0 
-9.660042125982e-04 -1.878629661252e-04 0.0 
-1.878629661252e-04 4.589548472514e-03 0.0 
0.0 0.0 0.0 
-1.189843186482e-03 -2.417684963047e-04 0.0 
-2.417684963047e-04 4.632148356954e-03 0.0 
0.0 0.0 0.0 
-9.861453735217e-04 -1.636333583065e-04 0.0 
-1.636333583065e-04 4.577519965012e-03 0.0 
0.0 0.0 0.0 
-1.233267631481e-03 -2.156811011282e-04 0.0 
-2.156811011282e-04 4.630024308952e-03 0.0 
0.0 0.0 0.0 
-9.711868449167e-04 1.206233043751e-03 0.0 
1.206233043751e-03 3.698607592306e-03 0.0 
0.0 0.0 0.0 
-1.011132621378e-03 -1.213232512903e-04 0.0 
-1.213232512903e-04 4.558950204488e-03 0.0 
0.0 0.0 0.0 
-1.282567061993e-03 -1.689798413313e-04 0.0 
-1.689798413313e-04 4.624001180940e-03 0.0 
0.0 0.0 0.0 
-1.042025956965e-03 -5.594171206982e-05 0.0 
-5.594171206982e-05 4.532914618082e-03 0.0 
0.0 0.0 0.0 
-1.306320997718e-03 -9.218992561719e-05 0.0 
-9.218992561719e-05 4.604090246237e-03 0.0 
0.0 0.0 0.0 
-1.056195295395e-03 3.981883531873e-05 0.0 
3.981883531873e-05 4.491401034018e-03 0.0 
0.0 0.0 0.0 
-1.321012225338e-03 1.272084897171e-05 0.0 
1.272084897171e-05 4.568690634524e-03 0.0 
0.0 0.0 0.0 
-1.064954103121e-03 1.634304367380e-04 0.0 
1.634304367380e-04 4.432870505775e-03 0.0 
0.0 0.0 0.0 
-1.327531300669e-03 1.478687494231e-04 0.0 
1.478687494231e-04 4.517610033852e-03 0.0 
0.0 0.0 0.0 
-1.070910825516e-03 3.207711539736e-04 0.0 
3.207711539736e-04 4.354763777705e-03 0.0 
0.0 0.0 0.0 
-1.322863897472e-03 3.189255172057e-04 0.0 
3.189255172057e-04 4.445868148270e-03 0.0 
0.0 0.0 0.0 
-1.191542628774e-03 1.392793729435e-03 0.0 
1.392793729435e-03 3.944930101710e-03 0.0 
0.0 0.0 0.0 
-1.300088284816e-03 5.163948622062e-04 0.0 
5.163948622062e-04 4.342807818589e-03 0.0 
0.0 0.0 0.0 
-1.069432243735e-03 5.108641425048e-04 0.0 
5.108641425048e-04 4.256850086221e-03 0.0 
0.0 0.0 0.0 
-1.231811976063e-03 7.670998803893e-04 0.0 
7.670998803893e-04 4.209065098549e-03 0.0 
0.0 0.0 0.0 
-1.058362447606e-03 7.368477252764e-04 0.0 
7.368477252764e-04 4.119454967987e-03 0.0 
0.0 0.0 0.0 
-1.033929196259e-03 1.003091798398e-03 0.0 
1.003091798398e-03 3.966447782361e-03 0.0 
0.0 0.0 0.0 
-1.143249585595e-03 1.239616082034e-03 0.0 
1.239616082034e-03 3.859622732878e-03 0.0 
0.0 0.0 0.0 
-9.960626578803e-04 -6.234743849284e-05 0.0 
-6.234743849284e-05 4.642784590921e-03 0.0 
0.0 0.0 0.0 
-9.526429455702e-04 3.317446152170e-05 0.0 
3.317446152170e-05 4.564406601242e-03 0.0 
0.0 0.0 0.0 
-1.008384886985e-03 -2.154281843891e-05 0.0 
-2.154281843891e-05 4.734412020486e-03 0.0 
0.0 0.0 0.0 
-9.390820066572e-04 -5.175509170005e-06 0.0 
-5.175509170005e-06 4.476396308254e-03 0.0 
0.0 0.0 0.0 
-9.814840805893e-04 1.502567726234e-03 0.0 
1.502567726234e-03 3.585822560713e-03 0.0 
0.0 0.0 0.0 
-1.071244320946e-03 -3.267232938921e-05 0.0 
-3.267232938921e-05 5.141691149791e-03 0.0 
0.0 0.0 0.0 
-9.993911452744e-04 -4.233649633047e-05 0.0 
-4.233649633047e-05 5.095205575934e-03 0.0 
0.0 0.0 0.0 
-1.078658698005e-03 -4.007789507802e-05 0.0 
-4.007789507802e-05 5.095629604941e-03 0.0 
0.0 0.0 0.0 
-1.001258086746e-03 -7.371005235961e-05 0.0 
-7.371005235961e-05 5.091623197901e-03 0.0 
0.0 0.0 0.0 
-1.089463605927e-03 -6.040512318913e-05 0.0 
-6.040512318913e-05 5.094115093320e-03 0.0 
0.0 0.0 0.0 
-1.006741030788e-03 -9.656875189463e-05 0.0 
-9.656875189463e-05 5.092204339124e-03 0.0 
0.0 0.0 0.0 
-1.106025021061e-03 -8.051494692068e-05 0.0 
-8.051494692068e-05 5.096407940018e-03 0.0 
0.0 0.0 0.0 
-1.016863653618e-03 -1.183454269816e-04 0.0 
-1.183454269816e-04 5.094347108171e-03 0.0 
0.0 0.0 0.0 
-1.129258564184e-03 -9.907021165059e-05 0.0 
-9.907021165059e-05 5.100922082476e-03 0.0 
0.0 0.0 0.0 
-1.030951425114e-03 -1.385592686470e-04 0.0 
-1.385592686470e-04 5.097026571385e-03 0.0 
0.0 0.0 0.0 
-1.157790906507e-03 -1.158123677922e-04 0.0 
-1.158123677922e-04 5.106704529965e-03 0.0 
0.0 0.0 0.0 
-1.048174997568e-03 -1.561510652321e-04 0.0 
-1.561510652321e-04 5.098656052710e-03 0.0 
0.0 0.0 0.0 
-1.187001336213e-03 -1.296656840897e-04 0.0 
-1.296656840897e-04 5.112177492720e-03 0.0 
0.0 0.0 0.0 
-1.068296211966e-03 -1.687749987431e-04 0.0 
-1.687749987431e-04 5.098781116634e-03 0.0 
0.0 0.0 0.0 
-1.222295971754e-03 -1.376147473008e-04 0.0 
-1.376147473008e-04 5.117405207587e-03 0.0 
0.0 0.0 0.0 
-1.091817776090e-03 -1.745632777884e-04 0.0 
-1.745632777884e-04 5.096306963555e-03 0.0 
0.0 0.0 0.0 
-1.341060643545e-03 1.110814063565e-03 0.0 
1.110814063565e-03 4.406786514857e-03 0.0 
0.0 0.0 0.0 
-1.261954718026e-03 -1.372070021718e-04 0.0 
-1.372070021718e-04 5.121730470247e-03 0.0 
0.0 0.0 0.0 
-1.119558053525e-03 -1.706641067327e-04 0.0 
-1.706641067327e-04 5.091818003285e-03 0.0 
0.0 0.0 0.0 
-1.231811976063e-03 1.067041920653e-03 0.0 
1.067041920653e-03 4.258324347675e-03 0.0 
0.0 0.0 0.0 
-1.304799493185e-03 -1.271036390825e-04 0.0 
-1.271036390825e-04 5.125175827061e-03 0.0 
0.0 0.0 0.0 
-1.152094053706e-03 -1.544998214439e-04 0.0 
-1.544998214439e-04 5.084634494832e-03 0.0 
0.0 0.0 0.0 
-1.437777061494e-03 9.249787740752e-04 0.0 
9.249787740752e-04 4.616800908837e-03 0.0 
0.0 0.0 0.0 
-1.353049010341e-03 -1.053079693628e-04 0.0 
-1.053079693628e-04 5.126887232039e-03 0.0 
0.0 0.0 0.0 
-1.189843186482e-03 -1.232560450069e-04 0.0 
-1.232560450069e-04 5.072043684220e-03 0.0 
0.0 0.0 0.0 
-1.405756687522e-03 -6.840810606558e-05 0.0 
-6.840810606558e-05 5.124384662645e-03 0.0 
0.0 0.0 0.0 
-1.233267631481e-03 -7.255977195809e-05 0.0 
-7.255977195809e-05 5.051399085410e-03 0.0 
0.0 0.0 0.0 
-1.462136221307e-03 -1.265408298551e-05 0.0 
-1.265408298551e-05 5.114512028010e-03 0.0 
0.0 0.0 0.0 
-1.282567061993e-03 4.390987297338e-06 0.0 
4.390987297338e-06 5.016485466800e-03 0.0 
0.0 0.0 0.0 
-1.410080992391e-03 1.229293187587e-03 0.0 
1.229293187587e-03 4.490746907432e-03 0.0 
0.0 0.0 0.0 
-1.501069812118e-03 6.885276247881e-05 0.0 
6.885276247881e-05 5.088375296288e-03 0.0 
0.0 0.0 0.0 
-1.306320997718e-03 1.077439360869e-04 0.0 
1.077439360869e-04 4.963687573620e-03 0.0 
0.0 0.0 0.0 
-1.514299963205e-03 1.741220823070e-04 0.0 
1.741220823070e-04 5.042718225282e-03 0.0 
0.0 0.0 0.0 
-1.321012225338e-03 2.428070445174e-04 0.0 
2.428070445174e-04 4.890712684965e-03 0.0 
0.0 0.0 0.0 
-1.327531300669e-03 4.110377048043e-04 0.0 
4.110377048043e-04 4.799985291845e-03 0.0 
0.0 0.0 0.0 
-1.518124473320e-03 3.116351338960e-04 0.0 
3.116351338960e-04 4.977313116126e-03 0.0 
0.0 0.0 0.0 
-1.322863897472e-03 6.170232968574e-04 0.0 
6.170232968574e-04 4.668303472793e-03 0.0 
0.0 0.0 0.0 
-1.507814398964e-03 4.716973070176e-04 0.0 
4.716973070176e-04 4.884109588343e-03 0.0 
0.0 0.0 0.0 
-1.300088284816e-03 8.634968512359e-04 0.0 
8.634968512359e-04 4.527327051907e-03 0.0 
0.0 0.0 0.0 
-1.450646830984e-03 6.854553309513e-04 0.0 
6.854553309513e-04 4.755768347506e-03 0.0 
0.0 0.0 0.0 
-1.373361615335e-03 1.105537995863e-03 0.0 
1.105537995863e-03 4.393506463916e-03 0.0 
0.0 0.0 0.0 
-1.017112323556e-03 -6.187480740259e-05 0.0 
-6.187480740259e-05 5.068506555713e-03 0.0 
0.0 0.0 0.0 
-1.059556078133e-03 3.546025028716e-05 0.0 
3.546025028716e-05 5.145090473621e-03 0.0 
0.0 0.0 0.0 
-1.008384886985e-03 -1.977026648794e-05 0.0 
-1.977026648794e-05 4.978106181539e-03 0.0 
0.0 0.0 0.0 
-1.069595596528e-03 -3.916041708123e-06 0.0 
-3.916041708123e-06 5.231418060186e-03 0.0 
0.0 0.0 0.0 
-1.210818409768e-03 1.346349697468e-03 0.0 
1.346349697468e-03 4.112058960915e-03 0.0 
0.0 0.0 0.0 
-1.071244320946e-03 -2.973803440707e-05 0.0 
-2.973803440707e-05 5.505460692510e-03 0.0 
0.0 0.0 0.0 
-1.129900378058e-03 -3.012827766978e-05 0.0 
-3.012827766978e-05 5.557656321854e-03 0.0 
0.0 0.0 0.0 
-1.078658698005e-03 -3.017432196355e-05 0.0 
-3.017432196355e-05 5.557532822084e-03 0.0 
0.0 0.0 0.0 
-1.140039472280e-03 -5.513419359113e-05 0.0 
-5.513419359113e-05 5.563875984561e-03 0.0 
0.0 0.0 0.0 
-1.089463605927e-03 -4.168126348896e-05 0.0 
-4.168126348896e-05 5.561573555798e-03 0.0 
0.0 0.0 0.0 
-1.156753098599e-03 -6.837702826624e-05 0.0 
-6.837702826624e-05 5.568025668263e-03 0.0 
0.0 0.0 0.0 
-1.106025021061e-03 -5.241840447511e-05 0.0 
-5.241840447511e-05 5.564326662730e-03 0.0 
0.0 0.0 0.0 
-1.178944939205e-03 -7.912231879088e-05 0.0 
-7.912231879088e-05 5.573424125007e-03 0.0 
0.0 0.0 0.0 
-1.129258564184e-03 -5.994875166710e-05 0.0 
-5.994875166710e-05 5.567854383617e-03 0.0 
0.0 0.0 0.0 
-1.209325656242e-03 -8.642138422669e-05 0.0 
-8.642138422669e-05 5.580699382278e-03 0.0 
0.0 0.0 0.0 
-1.157790906507e-03 -6.329103295616e-05 0.0 
-6.329103295616e-05 5.572600745028e-03 0.0 
0.0 0.0 0.0 
-1.245281852146e-03 -9.019497318552e-05 0.0 
-9.019497318552e-05 5.587757768526e-03 0.0 
0.0 0.0 0.0 
-1.187001336213e-03 -6.097004240787e-05 0.0 
-6.097004240787e-05 5.575744201954e-03 0.0 
0.0 0.0 0.0 
-1.290045180779e-03 -9.006796809385e-05 0.0 
-9.006796809385e-05 5.595135581380e-03 0.0 
0.0 0.0 0.0 
-1.222295971754e-03 -5.402953867333e-05 0.0 
-5.402953867333e-05 5.578010241251e-03 0.0 
0.0 0.0 0.0 
-1.552623747362e-03 9.836984625462e-04 0.0 
9.836984625462e-04 5.000078033700e-03 0.0 
0.0 0.0 0.0 
-1.342496261093e-03 -8.573701914237e-05 0.0 
-8.573701914237e-05 5.601058945310e-03 0.0 
0.0 0.0 0.0 
-1.615086390348e-03 8.099339323615e-04 0.0 
8.099339323615e-04 5.169114796061e-03 0.0 
0.0 0.0 0.0 
-1.261954718026e-03 -3.955962247436e-05 0.0 
-3.955962247436e-05 5.576201701193e-03 0.0 
0.0 0.0 0.0 
-1.392011878603e-03 -7.070140475224e-05 0.0 
-7.070140475224e-05 5.602646180603e-03 0.0 
0.0 0.0 0.0 
-1.304799493185e-03 -1.257531363791e-05 0.0 
-1.257531363791e-05 5.568132360959e-03 0.0 
0.0 0.0 0.0 
-1.444384879537e-03 -4.052720743379e-05 0.0 
-4.052720743379e-05 5.600971683658e-03 0.0 
0.0 0.0 0.0 
-1.353049010341e-03 2.904899985956e-05 0.0 
2.904899985956e-05 5.555797494542e-03 0.0 
0.0 0.0 0.0 
-1.500980231763e-03 4.052934600354e-06 0.0 
4.052934600354e-06 5.593289301678e-03 0.0 
0.0 0.0 0.0 
-1.450646830984e-03 9.570956214921e-04 0.0 
9.570956214921e-04 4.837514958015e-03 0.0 
0.0 0.0 0.0 
-1.405756687522e-03 8.939846752697e-05 0.0 
8.939846752697e-05 5.533511862944e-03 0.0 
0.0 0.0 0.0 
-1.560341690091e-03 6.889247717074e-05 0.0 
6.889247717074e-05 5.576261567762e-03 0.0 
0.0 0.0 0.0 
-1.462136221307e-03 1.724278658208e-04 0.0 
1.724278658208e-04 5.498590612504e-03 0.0 
0.0 0.0 0.0 
-1.618381333131e-03 1.544882992205e-04 0.0 
1.544882992205e-04 5.541282735672e-03 0.0 
0.0 0.0 0.0 
-1.501069812118e-03 2.792234918130e-04 0.0 
2.792234918130e-04 5.439597439539e-03 0.0 
0.0 0.0 0.0 
-1.646952683533e-03 2.706698452537e-04 0.0 
2.706698452537e-04 5.485890877990e-03 0.0 
0.0 0.0 0.0 
-1.514299963205e-03 4.138870897924e-04 0.0 
4.138870897924e-04 5.359823655797e-03 0.0 
0.0 0.0 0.0 
-1.647312557185e-03 4.085107998256e-04 0.0 
4.085107998256e-04 5.401256641673e-03 0.0 
0.0 0.0 0.0 
-1.613578816278e-03 5.980935254185e-04 0.0 
5.980935254185e-04 5.289780675623e-03 0.0 
0.0 0.0 0.0 
-1.518124473320e-03 5.830675173726e-04 0.0 
5.830675173726e-04 5.240941174227e-03 0.0 
0.0 0.0 0.0 
-1.600016484986e-03 1.076522665098e-03 0.0 
1.076522665098e-03 5.066453906166e-03 0.0 
0.0 0.0 0.0 
-1.507814398964e-03 7.863173237417e-04 0.0 
7.863173237417e-04 5.110686749182e-03 0.0 
0.0 0.0 0.0 
-1.564310150192e-03 9.701506668490e-04 0.0 
9.701506668490e-04 4.931237108537e-03 0.0 
0.0 0.0 0.0 
-1.117214720462e-03 -5.932482360642e-05 0.0 
-5.932482360642e-05 5.571699587501e-03 0.0 
0.0 0.0 0.0 
-1.078591506490e-03 3.932689739489e-05 0.0 
3.932689739489e-05 5.502012037911e-03 0.0 
0.0 0.0 0.0 
-1.125020152326e-03 -1.584793964948e-05 0.0 
-1.584793964948e-05 5.663899549883e-03 0.0 
0.0 0.0 0.0 
-1.069595596528e-03 -1.544769052428e-06 0.0 
-1.544769052428e-06 5.413760551430e-03 0.0 
0.0 0.0 0.0 
-1.437777061494e-03 1.194882028532e-03 0.0 
1.194882028532e-03 4.703355932579e-03 0.0 
0.0 0.0 0.0 
-1.173067935446e-03 -1.857212151804e-05 0.0 
-1.857212151804e-05 6.057047132255e-03 0.0 
0.0 0.0 0.0 
-1.129900378058e-03 -1.539998433808e-05 0.0 
-1.539998433808e-05 6.012837660565e-03 0.0 
0.0 0.0 0.0 
-1.180322156163e-03 -1.333766739908e-05 0.0 
-1.333766739908e-05 6.013254755907e-03 0.0 
0.0 0.0 0.0 
-1.140039472280e-03 -3.058340834163e-05 0.0 
-3.058340834163e-05 6.011215277267e-03 0.0 
0.0 0.0 0.0 
-1.199890278800e-03 -1.425773256586e-05 0.0 
-1.425773256586e-05 6.014562245359e-03 0.0 
0.0 0.0 0.0 
-1.156753098599e-03 -3.332096199628e-05 0.0 
-3.332096199628e-05 6.014618928623e-03 0.0 
0.0 0.0 0.0 
-1.225582332257e-03 -1.593676503169e-05 0.0 
-1.593676503169e-05 6.019661981658e-03 0.0 
0.0 0.0 0.0 
-1.178944939205e-03 -3.356563935424e-05 0.0 
-3.356563935424e-05 6.015805660379e-03 0.0 
0.0 0.0 0.0 
-1.254280290235e-03 -1.084482562775e-05 0.0 
-1.084482562775e-05 6.024117477364e-03 0.0 
0.0 0.0 0.0 
-1.209325656242e-03 -2.778088791625e-05 0.0 
-2.778088791625e-05 6.021523904303e-03 0.0 
0.0 0.0 0.0 
-1.294128200388e-03 -4.927567758387e-06 0.0 
-4.927567758387e-06 6.032230691675e-03 0.0 
0.0 0.0 0.0 
-1.245281852146e-03 -1.847680655874e-05 0.0 
-1.847680655874e-05 6.022946448215e-03 0.0 
0.0 0.0 0.0 
-1.337075860051e-03 1.089304212614e-05 0.0 
1.089304212614e-05 6.038930837787e-03 0.0 
0.0 0.0 0.0 
-1.701927139939e-03 8.674738816533e-04 0.0 
8.674738816533e-04 5.587036273309e-03 0.0 
0.0 0.0 0.0 
-1.290045180779e-03 5.355797945876e-07 0.0 
5.355797945876e-07 6.027269292981e-03 0.0 
0.0 0.0 0.0 
-1.391479061891e-03 3.059799538917e-05 0.0 
3.059799538917e-05 6.047032028668e-03 0.0 
0.0 0.0 0.0 
-1.613578816278e-03 8.452981847292e-04 0.0 
8.452981847292e-04 5.423783188694e-03 0.0 
0.0 0.0 0.0 
-1.342496261093e-03 2.827728134796e-05 0.0 
2.827728134796e-05 6.023961927766e-03 0.0 
0.0 0.0 0.0 
-1.447801739691e-03 6.328858844797e-05 0.0 
6.328858844797e-05 6.049875996700e-03 0.0 
0.0 0.0 0.0 
-1.728887412147e-03 7.398286857923e-04 0.0 
7.398286857923e-04 5.721421537222e-03 0.0 
0.0 0.0 0.0 
-1.392011878603e-03 6.751722553287e-05 0.0 
6.751722553287e-05 6.016107747804e-03 0.0 
0.0 0.0 0.0 
-1.514341485879e-03 1.050482788257e-04 0.0 
1.050482788257e-04 6.048766983913e-03 0.0 
0.0 0.0 0.0 
-1.444384879537e-03 1.175412321354e-04 0.0 
1.175412321354e-04 5.999851738456e-03 0.0 
0.0 0.0 0.0 
-1.566981980588e-03 1.557518758365e-04 0.0 
1.557518758365e-04 6.037408668121e-03 0.0 
0.0 0.0 0.0 
-1.500980231763e-03 1.852705927205e-04 0.0 
1.852705927205e-04 5.971574025468e-03 0.0 
0.0 0.0 0.0 
-1.743648560376e-03 9.562655924201e-04 0.0 
9.562655924201e-04 5.648909784150e-03 0.0 
0.0 0.0 0.0 
-1.624334900993e-03 2.259532205799e-04 0.0 
2.259532205799e-04 6.015657154086e-03 0.0 
0.0 0.0 0.0 
-1.560341690091e-03 2.750350250086e-04 0.0 
2.750350250086e-04 5.930614054822e-03 0.0 
0.0 0.0 0.0 
-1.618381333131e-03 3.876656778213e-04 0.0 
3.876656778213e-04 5.873284234457e-03 0.0 
0.0 0.0 0.0 
-1.677329925562e-03 3.154596420736e-04 0.0 
3.154596420736e-04 5.978629948648e-03 0.0 
0.0 0.0 0.0 
-1.646952683533e-03 5.268730501398e-04 0.0 
5.268730501398e-04 5.773908400953e-03 0.0 
0.0 0.0 0.0 
-1.723627320646e-03 4.197640699669e-04 0.0 
4.197640699669e-04 5.917562679842e-03 0.0 
0.0 0.0 0.0 
-1.647312557185e-03 7.005200013242e-04 0.0 
7.005200013242e-04 5.666360108530e-03 0.0 
0.0 0.0 0.0 
-1.706845079215e-03 5.687762543879e-04 0.0 
5.687762543879e-04 5.822539073405e-03 0.0 
0.0 0.0 0.0 
-1.714705110716e-03 8.633521726568e-04 0.0 
8.633521726568e-04 5.506330807349e-03 0.0 
0.0 0.0 0.0 
-1.123871575312e-03 -5.608256367293e-05 0.0 
-5.608256367293e-05 5.985463370114e-03 0.0 
0.0 0.0 0.0 
-1.165743493545e-03 4.567920708001e-05 0.0 
4.567920708001e-05 6.060820286147e-03 0.0 
0.0 0.0 0.0 
-1.125020152326e-03 -1.148539394676e-05 0.0 
-1.148539394676e-05 5.899974400825e-03 0.0 
0.0 0.0 0.0 
-1.165828957173e-03 4.048338631845e-06 0.0 
4.048338631845e-06 6.141713658717e-03 0.0 
0.0 0.0 0.0 
-1.615086390348e-03 1.046669341621e-03 0.0 
1.046669341621e-03 5.298108958293e-03 0.0 
0.0 0.0 0.0 
-1.173067935446e-03 -1.169649215541e-05 0.0 
-1.169649215541e-05 6.418509781883e-03 0.0 
0.0 0.0 0.0 
-1.185048102169e-03 -7.440577615456e-07 0.0 
-7.440577615456e-07 6.449738318187e-03 0.0 
0.0 0.0 0.0 
-1.180322156163e-03 9.558376161881e-06 0.0 
9.558376161881e-06 6.448509914383e-03 0.0 
0.0 0.0 0.0 
-1.205735474527e-03 2.763717720420e-06 0.0 
2.763717720420e-06 6.457246124553e-03 0.0 
0.0 0.0 0.0 
-1.199890278800e-03 1.779959280939e-05 0.0 
1.779959280939e-05 6.454547227254e-03 0.0 
0.0 0.0 0.0 
-1.228562929672e-03 1.014379726266e-05 0.0 
1.014379726266e-05 6.463359997906e-03 0.0 
0.0 0.0 0.0 
-1.225582332257e-03 2.637541953011e-05 0.0 
2.637541953011e-05 6.459499538725e-03 0.0 
0.0 0.0 0.0 
-1.256508675307e-03 1.611178513176e-05 0.0 
1.611178513176e-05 6.464490168030e-03 0.0 
0.0 0.0 0.0 
-1.254280290235e-03 4.354317186966e-05 0.0 
4.354317186966e-05 6.456373921394e-03 0.0 
0.0 0.0 0.0 
-1.286047477541e-03 3.909341254226e-05 0.0 
3.909341254226e-05 6.470589434452e-03 0.0 
0.0 0.0 0.0 
-1.294128200388e-03 6.308613722226e-05 0.0 
6.308613722226e-05 6.462373062791e-03 0.0 
0.0 0.0 0.0 
-1.331095477338e-03 5.516153303560e-05 0.0 
5.516153303560e-05 6.473099335816e-03 0.0 
0.0 0.0 0.0 
-1.788828578159e-03 8.056690872946e-04 0.0 
8.056690872946e-04 6.144087160283e-03 0.0 
0.0 0.0 0.0 
-1.337075860051e-03 9.368844797188e-05 0.0 
9.368844797188e-05 6.457488805760e-03 0.0 
0.0 0.0 0.0 
-1.754779416822e-03 6.898058292564e-04 0.0 
6.898058292564e-04 6.239692231121e-03 0.0 
0.0 0.0 0.0 
-1.373999846945e-03 9.227465911718e-05 0.0 
9.227465911718e-05 6.476918768092e-03 0.0 
0.0 0.0 0.0 
-1.391479061891e-03 1.312475007889e-04 0.0 
1.312475007889e-04 6.459546314719e-03 0.0 
0.0 0.0 0.0 
-1.433732737735e-03 1.259519424711e-04 0.0 
1.259519424711e-04 6.474603493155e-03 0.0 
0.0 0.0 0.0 
-1.447801739691e-03 1.822116004385e-04 0.0 
1.822116004385e-04 6.445804772137e-03 0.0 
0.0 0.0 0.0 
-1.495149606802e-03 1.826056746267e-04 0.0 
1.826056746267e-04 6.469953129007e-03 0.0 
0.0 0.0 0.0 
-1.514341485879e-03 2.477628013792e-04 0.0 
2.477628013792e-04 6.433285604558e-03 0.0 
0.0 0.0 0.0 
-1.554094537377e-03 2.504308234549e-04 0.0 
2.504308234549e-04 6.455086773050e-03 0.0 
0.0 0.0 0.0 
-1.706845079215e-03 7.978176628017e-04 0.0 
7.978176628017e-04 5.974935670023e-03 0.0 
0.0 0.0 0.0 
-1.566981980588e-03 3.305989240937e-04 0.0 
3.305989240937e-04 6.404562241366e-03 0.0 
0.0 0.0 0.0 
-1.620953056433e-03 3.321051318226e-04 0.0 
3.321051318226e-04 6.429108337802e-03 0.0 
0.0 0.0 0.0 
-1.624334900993e-03 4.270578125228e-04 0.0 
4.270578125228e-04 6.362504183985e-03 0.0 
0.0 0.0 0.0 
-1.674084026932e-03 4.294097971928e-04 0.0 
4.294097971928e-04 6.384388265866e-03 0.0 
0.0 0.0 0.0 
-1.714311937283e-03 5.519977561066e-04 0.0 
5.519977561066e-04 6.319539507281e-03 0.0 
0.0 0.0 0.0 
-1.677329925562e-03 5.439490800052e-04 0.0 
5.439490800052e-04 6.297273932721e-03 0.0 
0.0 0.0 0.0 
-1.723627320646e-03 6.783004315208e-04 0.0 
6.783004315208e-04 6.217104964169e-03 0.0 
0.0 0.0 0.0 
-1.820478141493e-03 8.806380537087e-04 0.0 
8.806380537087e-04 6.197129021485e-03 0.0 
0.0 0.0 0.0 
-1.791846452260e-03 8.009737737278e-04 0.0 
8.009737737278e-04 6.035981896348e-03 0.0 
0.0 0.0 0.0 
-1.191311316528e-03 -4.552194592651e-05 0.0 
-4.552194592651e-05 6.455288195915e-03 0.0 
0.0 0.0 0.0 
-1.168579447347e-03 5.953377959576e-05 0.0 
5.953377959576e-05 6.414315883125e-03 0.0 
0.0 0.0 0.0 
-1.193312325545e-03 4.388804532991e-06 0.0 
4.388804532991e-06 6.554058803920e-03 0.0 
0.0 0.0 0.0 
-1.165828957173e-03 1.204357014237e-05 0.0 
1.204357014237e-05 6.319537929998e-03 0.0 
0.0 0.0 0.0 
-1.728887412147e-03 9.554608625225e-04 0.0 
9.554608625225e-04 5.887415620761e-03 0.0 
0.0 0.0 0.0 

TENSORS element_materi_strain_plasti float
-1.278716781713e-04 2.317088785895e-03 0.0 
2.317088785895e-03 1.725589617193e-03 0.0 
0.0 0.0 -6.847362595807e-04 
-1.156199042648e-04 2.024353748068e-03 0.0 
2.024353748068e-03 1.515455915080e-03 0.0 
0.0 0.0 -5.999297189210e-04 
-1.399419419615e-03 2.869344170324e-03 0.0 
2.869344170324e-03 7.127002349296e-03 0.0 
0.0 0.0 -1.278236581085e-03 
-1.499770292198e-03 1.938127459123e-04 0.0 
1.938127459123e-04 8.462485561252e-03 0.0 
0.0 0.0 -1.255598393855e-03 
-1.590286579790e-03 5.866412250785e-04 0.0 
5.866412250785e-04 5.570411940462e-03 0.0 
0.0 0.0 -7.961861350945e-04 
9.753052699299e-04 2.049730811989e-03 0.0 
2.049730811989e-03 -7.410546550660e-04 0.0 
0.0 0.0 -1.003931206560e-04 
-1.532722360608e-03 5.037005669365e-04 0.0 
5.037005669365e-04 5.548158926813e-03 0.0 
0.0 0.0 -8.011023898636e-04 
6.217083316277e-05 2.386622999709e-03 0.0 
2.386622999709e-03 1.415043626867e-03 0.0 
0.0 0.0 -6.330919114413e-04 
-1.605315258057e-03 4.380832637377e-06 0.0 
4.380832637377e-06 5.621376957900e-03 0.0 
0.0 0.0 -7.977904104816e-04 
-1.475813289088e-03 8.034655794974e-04 0.0 
8.034655794974e-04 8.366055234102e-03 0.0 
0.0 0.0 -1.253060141438e-03 
-1.723349006480e-03 -4.463465104632e-04 0.0 
-4.463465104632e-04 5.097851564140e-03 0.0 
0.0 0.0 -1.066978692879e-03 
5.108532101026e-06 1.964113970332e-03 0.0 
1.964113970332e-03 1.245831196254e-03 0.0 
0.0 0.0 -5.361170264378e-04 
-1.727294747470e-03 -3.711696677191e-04 0.0 
-3.711696677191e-04 6.945132129710e-03 0.0 
0.0 0.0 -1.259187713256e-03 
-1.707478703098e-03 1.059006860170e-03 0.0 
1.059006860170e-03 5.791719022601e-03 0.0 
0.0 0.0 -8.526168115438e-04 
-1.560262196776e-03 -9.393570101401e-04 0.0 
-9.393570101401e-04 6.928774089182e-03 0.0 
0.0 0.0 -1.289538875031e-03 
-1.440818830272e-03 6.754770737443e-04 0.0 
6.754770737443e-04 8.548838696717e-03 0.0 
0.0 0.0 -1.285984941237e-03 
-1.662616207287e-03 5.344607310422e-04 0.0 
5.344607310422e-04 5.529033418926e-03 0.0 
0.0 0.0 -7.740676797406e-04 
7.357046437425e-05 6.570695833459e-05 0.0 
6.570695833459e-05 -7.357046437425e-05 0.0 
0.0 0.0 0.0 
-6.149932217399e-04 -2.296531181353e-04 0.0 
-2.296531181353e-04 1.902161440616e-03 0.0 
0.0 0.0 -2.776016825098e-04 
-5.498585393581e-04 -2.166839192677e-04 0.0 
-2.166839192677e-04 1.738279106343e-03 0.0 
0.0 0.0 -4.484512109716e-04 
-1.512957112042e-03 4.043623184242e-04 0.0 
4.043623184242e-04 8.437324312554e-03 0.0 
0.0 0.0 -1.250388265701e-03 
-3.873012428043e-04 2.129273940428e-03 0.0 
2.129273940428e-03 2.185606563766e-03 0.0 
0.0 0.0 -7.707022804121e-04 
-4.415956435739e-04 2.226005795527e-03 0.0 
2.226005795527e-03 2.374460708771e-03 0.0 
0.0 0.0 -8.283707422273e-04 
-4.392711161920e-04 -9.745966439417e-04 0.0 
-9.745966439417e-04 3.836297522503e-03 0.0 
0.0 0.0 -1.210372970477e-03 
-1.729903628601e-03 1.506745383258e-03 0.0 
1.506745383258e-03 5.975665893657e-03 0.0 
0.0 0.0 -9.130988374533e-04 
-1.810671457854e-03 -7.476421640110e-04 0.0 
-7.476421640110e-04 5.330964071115e-03 0.0 
0.0 0.0 -1.080045423496e-03 
-1.736477005164e-03 1.109495533801e-03 0.0 
1.109495533801e-03 4.957414051106e-03 0.0 
0.0 0.0 -7.148082707961e-04 
-9.553018808659e-04 3.102749138761e-03 0.0 
3.102749138761e-03 5.566273317297e-03 0.0 
0.0 0.0 -1.266047838742e-03 
-1.821356794347e-03 1.188786638151e-03 0.0 
1.188786638151e-03 6.013421513739e-03 0.0 
0.0 0.0 -9.113908267906e-04 
-6.554257296263e-04 -8.444129216472e-04 0.0 
-8.444129216472e-04 4.294151155513e-03 0.0 
0.0 0.0 -1.237914324842e-03 
1.345111965206e-03 -2.563071370678e-03 0.0 
-2.563071370678e-03 -3.409519374557e-04 0.0 
0.0 0.0 -4.303542976074e-04 
3.575551772738e-04 -9.432915107626e-04 0.0 
-9.432915107626e-04 3.359353657627e-04 0.0 
0.0 0.0 -1.059755802940e-04 
-1.524187206040e-03 3.047553797097e-03 0.0 
3.047553797097e-03 7.492448074924e-03 0.0 
0.0 0.0 -1.261301343383e-03 
-2.126259398598e-03 -4.008249318176e-04 0.0 
-4.008249318176e-04 6.245433906960e-03 0.0 
0.0 0.0 -1.090200430068e-03 
-1.168924377092e-03 -2.135391167217e-03 0.0 
-2.135391167217e-03 5.528728836968e-03 0.0 
0.0 0.0 -1.254989870190e-03 
-1.506183274607e-03 -1.403999252581e-03 0.0 
-1.403999252581e-03 6.695784423920e-03 0.0 
0.0 0.0 -1.314886350686e-03 
-1.405965625827e-03 -2.094418066157e-03 0.0 
-2.094418066157e-03 6.677666447639e-03 0.0 
0.0 0.0 -1.314653105918e-03 
-6.328504155879e-04 1.260189016710e-03 0.0 
1.260189016710e-03 4.185986138576e-03 0.0 
0.0 0.0 -1.264739017786e-03 
-1.486815579568e-03 -1.990720886798e-04 0.0 
-1.990720886798e-04 5.107008468447e-03 0.0 
0.0 0.0 -7.380763454961e-04 
-1.448070308282e-03 4.493602178438e-04 0.0 
4.493602178438e-04 5.173305882684e-03 0.0 
0.0 0.0 -7.371174501546e-04 
-8.280494050984e-04 2.109474212237e-03 0.0 
2.109474212237e-03 3.158688487348e-03 0.0 
0.0 0.0 -8.774464902234e-04 
-1.113239206738e-03 -1.655283581889e-03 0.0 
-1.655283581889e-03 5.115282801902e-03 0.0 
0.0 0.0 -1.280756488215e-03 
3.008174076713e-04 2.119260517804e-03 0.0 
2.119260517804e-03 8.825314744810e-04 0.0 
0.0 0.0 -5.071495209224e-04 
-1.653413400617e-03 1.159238962241e-03 0.0 
1.159238962241e-03 4.683778627350e-03 0.0 
0.0 0.0 -7.557105610435e-04 
-1.547330050851e-03 3.671214089611e-05 0.0 
3.671214089611e-05 8.340609894927e-03 0.0 
0.0 0.0 -1.212858513926e-03 
3.049695683184e-04 2.191509382836e-03 0.0 
2.191509382836e-03 9.207765491606e-04 0.0 
0.0 0.0 -5.253197646338e-04 
1.207574275293e-03 -2.365696291912e-03 0.0 
-2.365696291912e-03 -7.132596237324e-04 0.0 
0.0 0.0 -2.118491363831e-04 
-1.445646034229e-03 2.633500934319e-04 0.0 
2.633500934319e-04 8.137788974429e-03 0.0 
0.0 0.0 -1.234743356787e-03 
1.908988241954e-04 -8.061125310431e-04 0.0 
-8.061125310431e-04 -1.579045808258e-05 0.0 
0.0 0.0 -7.504644261978e-05 
-1.740092141895e-03 6.147961927965e-04 0.0 
6.147961927965e-04 5.664008038323e-03 0.0 
0.0 0.0 -8.229436299569e-04 
-6.078592580179e-04 2.220023986171e-03 0.0 
2.220023986171e-03 2.788765867991e-03 0.0 
0.0 0.0 -9.296584868968e-04 
-8.623973456416e-04 -2.162048895284e-04 0.0 
-2.162048895284e-04 2.432076766193e-03 0.0 
0.0 0.0 -4.150917825895e-04 
2.292279279293e-03 -2.762669743217e-03 0.0 
-2.762669743217e-03 -9.405005062222e-04 0.0 
0.0 0.0 -5.793337598876e-04 
-6.898259874441e-04 2.091701766161e-03 0.0 
2.091701766161e-03 2.855891423984e-03 0.0 
0.0 0.0 -8.656335400463e-04 
-1.445100174427e-03 2.379194139466e-03 0.0 
2.379194139466e-03 7.706829156199e-03 0.0 
0.0 0.0 -1.282189168212e-03 
-9.586804568965e-04 -6.913799780171e-04 0.0 
-6.913799780171e-04 2.989840683449e-03 0.0 
0.0 0.0 -7.128710764410e-04 
-6.997308059935e-04 -2.320910788817e-04 0.0 
-2.320910788817e-04 2.233925226019e-03 0.0 
0.0 0.0 -5.951090654820e-04 
-2.130460140960e-03 -2.340494849444e-04 0.0 
-2.340494849444e-04 6.282260078053e-03 0.0 
0.0 0.0 -1.087734043503e-03 
1.076454852669e-04 -7.426368379909e-04 0.0 
-7.426368379909e-04 1.194913348537e-03 0.0 
0.0 0.0 -3.122055485762e-04 
-1.457512378927e-03 3.071898754378e-04 0.0 
3.071898754378e-04 8.560769857503e-03 0.0 
0.0 0.0 -1.285320035817e-03 
0.0 0.0 0.0 
0.0 0.0 0.0 
0.0 0.0 0.0 
-5.387044635242e-04 2.656482396914e-03 0.0 
2.656482396914e-03 4.203857407929e-03 0.0 
0.0 0.0 -1.210824713543e-03 
3.439414593790e-04 2.794168595655e-03 0.0 
2.794168595655e-03 1.235314347192e-03 0.0 
0.0 0.0 -6.768239171020e-04 
2.349935129578e-03 -2.770680198001e-03 0.0 
-2.770680198001e-03 -6.796113691984e-04 0.0 
0.0 0.0 -7.158530401625e-04 
-1.671429738175e-03 -1.210022446990e-03 0.0 
-1.210022446990e-03 6.777156017205e-03 0.0 
0.0 0.0 -1.257478522087e-03 
-5.278364963199e-04 2.118194625541e-03 0.0 
2.118194625541e-03 2.531471725177e-03 0.0 
0.0 0.0 -8.587008123673e-04 
0.0 0.0 0.0 
0.0 0.0 0.0 
0.0 0.0 0.0 
-1.493925828084e-03 3.040545355870e-03 0.0 
3.040545355870e-03 7.302395090943e-03 0.0 
0.0 0.0 -1.261660853087e-03 
4.867824217369e-04 -2.505859056628e-03 0.0 
-2.505859056628e-03 8.835287678333e-04 0.0 
0.0 0.0 -5.872762241015e-04 
-1.271990412820e-03 3.214687538356e-03 0.0 
3.214687538356e-03 6.250345422673e-03 0.0 
0.0 0.0 -1.282376455277e-03 
-1.831786578585e-03 -1.075910520083e-03 0.0 
-1.075910520083e-03 5.407233681497e-03 0.0 
0.0 0.0 -1.080053202689e-03 
-1.338499280800e-03 1.682976327997e-03 0.0 
1.682976327997e-03 8.399936015446e-03 0.0 
0.0 0.0 -1.338499280800e-03 
-9.312572041143e-04 2.894697176184e-03 0.0 
2.894697176184e-03 4.910832013066e-03 0.0 
0.0 0.0 -1.232909111256e-03 
1.433784453303e-03 -9.093882019497e-05 0.0 
-9.093882019497e-05 -5.456392549777e-05 0.0 
0.0 0.0 -2.878745769087e-04 
-9.147252279940e-04 -5.669281210358e-04 0.0 
-5.669281210358e-04 2.973437083954e-03 0.0 
0.0 0.0 -8.116687730804e-04 
-1.536993954654e-03 1.126957410002e-03 0.0 
1.126957410002e-03 8.303326713538e-03 0.0 
0.0 0.0 -1.262626981217e-03 
-1.574019976009e-03 2.576738749078e-03 0.0 
2.576738749078e-03 7.875617774672e-03 0.0 
0.0 0.0 -1.265352048664e-03 
4.720058723338e-04 2.134723574062e-03 0.0 
2.134723574062e-03 6.830651359346e-04 0.0 
0.0 0.0 -4.950304321150e-04 
-3.200456338227e-04 -3.352696368382e-04 0.0 
-3.352696368382e-04 1.110105412521e-03 0.0 
0.0 0.0 -3.374836250442e-04 
5.206675697946e-04 2.217090668705e-03 0.0 
2.217090668705e-03 6.763455683265e-04 0.0 
0.0 0.0 -5.130056306233e-04 
4.804782057485e-04 -2.508358039830e-03 0.0 
-2.508358039830e-03 8.916054330170e-04 0.0 
0.0 0.0 -5.880358451852e-04 
-1.625607394925e-03 4.831506481737e-04 0.0 
4.831506481737e-04 5.291976980867e-03 0.0 
0.0 0.0 -7.918363975426e-04 
-2.908848742719e-04 2.252062443166e-03 0.0 
2.252062443166e-03 2.033636756898e-03 0.0 
0.0 0.0 -7.468936639825e-04 
-2.599695243754e-04 1.891700121758e-03 0.0 
1.891700121758e-03 1.743771242898e-03 0.0 
0.0 0.0 -6.359150222241e-04 
-1.678000531135e-03 1.594922248822e-04 0.0 
1.594922248822e-04 5.821879659601e-03 0.0 
0.0 0.0 -8.336771054075e-04 
-1.596383286677e-03 5.670740920774e-04 0.0 
5.670740920774e-04 5.789976808295e-03 0.0 
0.0 0.0 -8.358076868167e-04 
-1.951624680642e-03 -7.308270384445e-04 0.0 
-7.308270384445e-04 5.657668243585e-03 0.0 
0.0 0.0 -1.080533843704e-03 
-2.196082702137e-03 8.354918695911e-05 0.0 
8.354918695911e-05 6.184278536814e-03 0.0 
0.0 0.0 -1.059807920279e-03 
-1.525646772161e-03 2.625569910847e-03 0.0 
2.625569910847e-03 6.112973773832e-03 0.0 
0.0 0.0 -1.085941371602e-03 
-1.648645582224e-03 1.246285648401e-04 0.0 
1.246285648401e-04 5.489793155500e-03 0.0 
0.0 0.0 -7.983229688164e-04 
-1.123057724715e-05 -5.872900984588e-04 0.0 
-5.872900984588e-04 3.960725969021e-04 0.0 
0.0 0.0 -1.649322941379e-04 
-1.757846623502e-03 1.222419041867e-03 0.0 
1.222419041867e-03 5.122536551657e-03 0.0 
0.0 0.0 -7.928983479555e-04 
-1.578530100158e-03 5.920453420347e-05 0.0 
5.920453420347e-05 7.247400490716e-03 0.0 
0.0 0.0 -1.069439317440e-03 
-1.600676841679e-03 3.339381263473e-04 0.0 
3.339381263473e-04 7.321452075562e-03 0.0 
0.0 0.0 -1.046447409317e-03 
-1.502072334268e-03 1.832498170444e-03 0.0 
1.832498170444e-03 8.633609047693e-03 0.0 
0.0 0.0 -1.319970921405e-03 
-9.007094055422e-04 1.223013959388e-03 0.0 
1.223013959388e-03 4.725884480151e-03 0.0 
0.0 0.0 -1.294194962782e-03 
-1.674253522828e-03 4.484898109266e-04 0.0 
4.484898109266e-04 5.280548957068e-03 0.0 
0.0 0.0 -7.889745663688e-04 
-1.078149223135e-03 -1.912876176720e-03 0.0 
-1.912876176720e-03 5.515902141362e-03 0.0 
0.0 0.0 -1.263183913703e-03 
-1.546584036688e-03 -9.624953365827e-05 0.0 
-9.624953365827e-05 6.233353762451e-03 0.0 
0.0 0.0 -9.040008563810e-04 
1.411194399049e-04 2.915371637598e-03 0.0 
2.915371637598e-03 1.618838156256e-03 0.0 
0.0 0.0 -7.542675412120e-04 
-1.587713497171e-03 1.272120189302e-04 0.0 
1.272120189302e-04 5.375209747655e-03 0.0 
0.0 0.0 -7.643292725053e-04 
-1.604005809179e-03 -6.682657737697e-04 0.0 
-6.682657737697e-04 6.948639054056e-03 0.0 
0.0 0.0 -1.287517816355e-03 
3.542986660605e-04 2.115271012738e-03 0.0 
2.115271012738e-03 2.453989176071e-03 0.0 
0.0 0.0 -1.043751955586e-03 
-5.121197440995e-04 2.106847301720e-03 0.0 
2.106847301720e-03 4.264562002622e-03 0.0 
0.0 0.0 -1.209599240962e-03 
8.414669120651e-04 2.750323762399e-03 0.0 
2.750323762399e-03 6.433152604662e-04 0.0 
0.0 0.0 -6.363352167991e-04 
5.516999887664e-04 -2.796976242529e-03 0.0 
-2.796976242529e-03 1.148224010342e-04 0.0 
0.0 0.0 -2.856524527717e-04 
-1.904299824368e-03 -6.917450604687e-04 0.0 
-6.917450604687e-04 6.641778035438e-03 0.0 
0.0 0.0 -1.189902873528e-03 
-1.601708388107e-03 3.286250233117e-04 0.0 
3.286250233117e-04 7.722816405099e-03 0.0 
0.0 0.0 -1.108790581071e-03 
3.810766207412e-05 -6.205157488134e-04 0.0 
-6.205157488134e-04 -3.810766207412e-05 0.0 
0.0 0.0 0.0 
-1.434793545909e-03 -1.524718547292e-03 0.0 
-1.524718547292e-03 6.503522325473e-03 0.0 
0.0 0.0 -1.285127980003e-03 
-1.436465131336e-03 2.957908754166e-03 0.0 
2.957908754166e-03 5.615958785865e-03 0.0 
0.0 0.0 -1.051491716222e-03 
2.107685358584e-03 1.966346604052e-04 0.0 
1.966346604052e-04 -5.019158565474e-04 0.0 
0.0 0.0 -2.190510374322e-04 
1.208695653732e-03 2.926354061763e-03 0.0 
2.926354061763e-03 1.261066979529e-04 0.0 
0.0 0.0 -5.720581507223e-04 
-1.531499204645e-03 1.574438431832e-03 0.0 
1.574438431832e-03 4.499656748010e-03 0.0 
0.0 0.0 -7.914135736088e-04 
-9.815222315618e-04 -1.138374471426e-03 0.0 
-1.138374471426e-03 3.347141370850e-03 0.0 
0.0 0.0 -9.587991763485e-04 
2.655737035557e-04 2.419593458192e-03 0.0 
2.419593458192e-03 1.115288623384e-03 0.0 
0.0 0.0 -5.917981401168e-04 
3.744529332960e-04 2.946102748991e-03 0.0 
2.946102748991e-03 1.286129190467e-03 0.0 
0.0 0.0 -7.116780530414e-04 
-1.321847859094e-03 -1.772500593240e-03 0.0 
-1.772500593240e-03 5.826707907603e-03 0.0 
0.0 0.0 -1.283833066805e-03 
-1.525040410968e-03 2.578190730368e-04 0.0 
2.578190730368e-04 6.156621214154e-03 0.0 
0.0 0.0 -8.766975940251e-04 
5.363756903500e-04 2.629255494055e-03 0.0 
2.629255494055e-03 8.922896369145e-04 0.0 
0.0 0.0 -6.122851402562e-04 
1.683483209039e-04 -2.096310185990e-03 0.0 
-2.096310185990e-03 1.080312045122e-03 0.0 
0.0 0.0 -5.351401568681e-04 
-1.746303579404e-03 1.473532537081e-03 0.0 
1.473532537081e-03 5.178940412439e-03 0.0 
0.0 0.0 -7.744920945421e-04 
-1.517476482960e-03 1.097936493812e-04 0.0 
1.097936493812e-04 7.545801257606e-03 0.0 
0.0 0.0 -1.129288753466e-03 
5.838877050126e-04 2.764835075281e-03 0.0 
2.764835075281e-03 9.155423273699e-04 0.0 
0.0 0.0 -6.426128710211e-04 
3.893622582553e-04 1.575203385168e-03 0.0 
1.575203385168e-03 3.980592224466e-04 0.0 
0.0 0.0 -3.374663488723e-04 
-1.195366450636e-03 1.829833708586e-03 0.0 
1.829833708586e-03 3.827762851113e-03 0.0 
0.0 0.0 -8.233021825037e-04 
-1.094193203907e-03 -1.066143348073e-03 0.0 
-1.066143348073e-03 3.532112380788e-03 0.0 
0.0 0.0 -8.981558865158e-04 
-1.046482062160e-03 1.913988030913e-03 0.0 
1.913988030913e-03 3.510208918747e-03 0.0 
0.0 0.0 -8.113141688877e-04 
-1.442225258082e-03 1.605824937381e-03 0.0 
1.605824937381e-03 8.359073722744e-03 0.0 
0.0 0.0 -1.290671971449e-03 
1.101065632512e-03 2.933128537393e-03 0.0 
2.933128537393e-03 9.745442457705e-05 0.0 
0.0 0.0 -5.136514530381e-04 
-1.801548102835e-03 -7.282038970032e-04 0.0 
-7.282038970032e-04 5.288878918754e-03 0.0 
0.0 0.0 -1.060402641786e-03 
-1.486141105577e-03 5.585996661944e-04 0.0 
5.585996661944e-04 8.452622925900e-03 0.0 
0.0 0.0 -1.256690274141e-03 
-3.198454740031e-04 3.015481670953e-03 0.0 
3.015481670953e-03 2.568097898378e-03 0.0 
0.0 0.0 -9.635367533037e-04 
-1.021958554670e-03 1.956756434106e-03 0.0 
1.956756434106e-03 3.500404682426e-03 0.0 
0.0 0.0 -8.457158960689e-04 
-1.158957625686e-03 -1.674495574427e-03 0.0 
-1.674495574427e-03 5.533719249484e-03 0.0 
0.0 0.0 -1.254964138299e-03 
-1.718729624033e-03 -7.379037217155e-04 0.0 
-7.379037217155e-04 6.953664324138e-03 0.0 
0.0 0.0 -1.261070974318e-03 
-1.967620110819e-03 -6.331696876036e-04 0.0 
-6.331696876036e-04 5.669647458342e-03 0.0 
0.0 0.0 -1.061066130071e-03 
-6.061740370739e-04 3.049979969874e-03 0.0 
3.049979969874e-03 3.089302566165e-03 0.0 
0.0 0.0 -9.441827087005e-04 
-7.851765230129e-04 -1.170373150230e-03 0.0 
-1.170373150230e-03 4.916146318737e-03 0.0 
0.0 0.0 -1.270330610962e-03 
-5.043578746139e-04 2.747041251980e-03 0.0 
2.747041251980e-03 2.809200300211e-03 0.0 
0.0 0.0 -9.719555150774e-04 
-1.411040385942e-03 9.892815171228e-04 0.0 
9.892815171228e-04 8.317615504874e-03 0.0 
0.0 0.0 -1.283174495648e-03 
-1.289076372121e-03 3.481935391156e-03 0.0 
3.481935391156e-03 6.606253020577e-03 0.0 
0.0 0.0 -1.267437373369e-03 
-1.784736589840e-03 7.085096522011e-04 0.0 
7.085096522011e-04 5.733057783552e-03 0.0 
0.0 0.0 -8.543707170918e-04 
-1.586571893561e-03 5.026260166066e-04 0.0 
5.026260166066e-04 6.801986481939e-03 0.0 
0.0 0.0 -9.817831382938e-04 
-5.156399995052e-04 2.841155344974e-03 0.0 
2.841155344974e-03 2.858892473080e-03 0.0 
0.0 0.0 -9.645491798066e-04 
-8.623176927628e-04 1.998107917208e-03 0.0 
1.998107917208e-03 3.164246376073e-03 0.0 
0.0 0.0 -8.398345356346e-04 
-3.881715109885e-04 3.210536691478e-03 0.0 
3.210536691478e-03 2.805390491743e-03 0.0 
0.0 0.0 -1.009766620266e-03 
9.302504035183e-04 2.952397877038e-03 0.0 
2.952397877038e-03 6.425944529841e-04 0.0 
0.0 0.0 -6.740763670724e-04 
-1.542505755946e-03 1.216931962656e-05 0.0 
1.216931962656e-05 5.518918282905e-03 0.0 
0.0 0.0 -7.693993191400e-04 
1.440386328935e-03 3.141679147944e-03 0.0 
3.141679147944e-03 1.287757348394e-04 0.0 
0.0 0.0 -6.724980273319e-04 
1.173568897977e-04 -7.192653952147e-04 0.0 
-7.192653952147e-04 2.932653952173e-04 0.0 
0.0 0.0 -1.759809792922e-04 
-1.513364044801e-03 4.633102658988e-05 0.0 
4.633102658988e-05 5.921965621168e-03 0.0 
0.0 0.0 -8.171079392438e-04 
-4.255541535768e-04 -1.657123349734e-04 0.0 
-1.657123349734e-04 1.278602330907e-03 0.0 
0.0 0.0 -2.802839825148e-04 
-1.368206188634e-03 1.704449020245e-03 0.0 
1.704449020245e-03 4.168743630605e-03 0.0 
0.0 0.0 -8.053258742841e-04 
-1.010207907769e-03 -1.246817911064e-03 0.0 
-1.246817911064e-03 4.735746548095e-03 0.0 
0.0 0.0 -1.284796145094e-03 
7.390568671829e-04 2.553228098249e-03 0.0 
2.553228098249e-03 5.918003010214e-04 0.0 
0.0 0.0 -5.703673578019e-04 
-2.093082199977e-03 -2.605836003403e-04 0.0 
-2.605836003403e-04 5.949086090445e-03 0.0 
0.0 0.0 -1.062413871926e-03 
1.655520854684e-04 2.161371362285e-03 0.0 
2.161371362285e-03 1.103022204114e-03 0.0 
0.0 0.0 -5.436746955351e-04 
2.242015872536e-04 2.776975076431e-03 0.0 
2.776975076431e-03 2.408189383906e-03 0.0 
0.0 0.0 -1.044905595188e-03 
-1.509926535812e-03 9.806530388370e-05 0.0 
9.806530388370e-05 5.368363465218e-03 0.0 
0.0 0.0 -7.899655494116e-04 
1.682599579449e-03 2.941445331381e-03 0.0 
2.941445331381e-03 -2.715371857708e-04 0.0 
0.0 0.0 -6.047410258623e-04 
-2.057240178145e-03 -7.296543458156e-04 0.0 
-7.296543458156e-04 6.353419805029e-03 0.0 
0.0 0.0 -1.120963572432e-03 
7.939550842651e-05 -1.701837783695e-03 0.0 
-1.701837783695e-03 9.541700722220e-04 0.0 
0.0 0.0 -4.429566774208e-04 
-1.888286542342e-03 -4.078361496187e-04 0.0 
-4.078361496187e-04 6.637817436663e-03 0.0 
0.0 0.0 -1.189111243166e-03 
-1.407485654430e-03 2.291313923690e-03 0.0 
2.291313923690e-03 4.423118315057e-03 0.0 
0.0 0.0 -8.496092609019e-04 
-1.655956820216e-03 -1.430755689950e-03 0.0 
-1.430755689950e-03 6.808595235967e-03 0.0 
0.0 0.0 -1.265987209193e-03 
-1.479137566383e-03 6.125436213776e-05 0.0 
6.125436213776e-05 5.372221524286e-03 0.0 
0.0 0.0 -7.842605076999e-04 
1.138347058752e-03 2.740886700746e-03 0.0 
2.740886700746e-03 1.338850972854e-04 0.0 
0.0 0.0 -5.452423525874e-04 
-1.371065394049e-03 1.713545049238e-03 0.0 
1.713545049238e-03 4.152463321133e-03 0.0 
0.0 0.0 -7.801847948469e-04 
-1.782923268792e-03 -4.744584193542e-04 0.0 
-4.744584193542e-04 5.239530130494e-03 0.0 
0.0 0.0 -1.068702715777e-03 
1.574789883305e-04 2.145072666255e-03 0.0 
2.145072666255e-03 1.105288466408e-03 0.0 
0.0 0.0 -5.411860520308e-04 
1.917158204157e-03 2.902714119045e-03 0.0 
2.902714119045e-03 -2.818191306246e-04 0.0 
0.0 0.0 -7.008596029424e-04 
-1.624113157274e-03 6.876053139899e-05 0.0 
6.876053139899e-05 7.048361475913e-03 0.0 
0.0 0.0 -1.016465148841e-03 
-1.496185645618e-03 2.597795714976e-04 0.0 
2.597795714976e-04 5.580042956141e-03 0.0 
0.0 0.0 -7.680022369673e-04 
1.209193990119e-03 2.857448575399e-03 0.0 
2.857448575399e-03 6.945453600021e-05 0.0 
0.0 0.0 -5.479922254795e-04 
-1.208481437465e-03 1.793019710120e-03 0.0 
1.793019710120e-03 3.824789842828e-03 0.0 
0.0 0.0 -7.984459790235e-04 
-1.152184433486e-03 3.335097296693e-03 0.0 
3.335097296693e-03 5.424015752646e-03 0.0 
0.0 0.0 -1.136725521675e-03 
-1.147448492341e-03 -1.324005404889e-03 0.0 
-1.324005404889e-03 3.757906895843e-03 0.0 
0.0 0.0 -9.635001610743e-04 
-1.057040178935e-03 2.860292126594e-03 0.0 
2.860292126594e-03 5.175691718835e-03 0.0 
0.0 0.0 -1.285202198870e-03 
-1.235950081423e-03 3.387647794385e-03 0.0 
3.387647794385e-03 6.387700415222e-03 0.0 
0.0 0.0 -1.265486236287e-03 
9.281696803103e-05 2.658900655702e-03 0.0 
2.658900655702e-03 1.536267417270e-03 0.0 
0.0 0.0 -6.981790222718e-04 
-1.143109251794e-03 -9.968271358534e-04 0.0 
-9.968271358534e-04 3.727905850470e-03 0.0 
0.0 0.0 -9.933498913217e-04 
8.375618411632e-06 -4.309904929494e-04 0.0 
-4.309904929494e-04 3.045007785971e-03 0.0 
0.0 0.0 -1.152822474774e-03 
-6.877546197814e-04 2.505636337626e-03 0.0 
2.505636337626e-03 3.038701524841e-03 0.0 
0.0 0.0 -9.245708556394e-04 
1.703115487889e-04 2.091650289530e-03 0.0 
2.091650289530e-03 1.051916456575e-03 0.0 
0.0 0.0 -5.238120022987e-04 
-1.475392442541e-03 1.965496358724e-03 0.0 
1.965496358724e-03 4.467421796523e-03 0.0 
0.0 0.0 -8.137754052845e-04 
9.749921592096e-04 3.123149167265e-03 0.0 
3.123149167265e-03 7.036965901565e-04 0.0 
0.0 0.0 -7.194380354427e-04 
-1.431612767918e-03 8.458326217491e-04 0.0 
8.458326217491e-04 8.384155646033e-03 0.0 
0.0 0.0 -1.279059907835e-03 
-1.564281029058e-03 2.665406032541e-03 0.0 
2.665406032541e-03 6.081997352065e-03 0.0 
0.0 0.0 -1.060691896764e-03 
-1.994493389840e-03 -1.486147162618e-04 0.0 
-1.486147162618e-04 6.559276794178e-03 0.0 
0.0 0.0 -1.155968210243e-03 
4.093528604226e-04 2.208508467563e-03 0.0 
2.208508467563e-03 7.981291822907e-04 0.0 
0.0 0.0 -5.174923040200e-04 
2.334418016396e-03 2.579116851284e-03 0.0 
2.579116851284e-03 -5.999483228990e-04 0.0 
0.0 0.0 -7.433441543560e-04 
-1.484568773685e-03 2.868377484862e-03 0.0 
2.868377484862e-03 6.031945958818e-03 0.0 
0.0 0.0 -1.089453766084e-03 
0.0 0.0 0.0 
0.0 0.0 0.0 
0.0 0.0 0.0 
-6.877179378264e-04 2.407578529618e-03 0.0 
2.407578529618e-03 2.994584755227e-03 0.0 
0.0 0.0 -9.117638418509e-04 
1.701472924961e-04 -1.416553182353e-03 0.0 
-1.416553182353e-03 2.527445138619e-03 0.0 
0.0 0.0 -1.080675545910e-03 
7.614101656211e-04 -9.306526935755e-04 0.0 
-9.306526935755e-04 6.714955075901e-04 0.0 
0.0 0.0 -3.004177607877e-04 
-1.466695883915e-03 2.895664536321e-03 0.0 
2.895664536321e-03 7.498365973997e-03 0.0 
0.0 0.0 -1.257517519450e-03 
-1.714163728762e-03 1.976135659385e-03 0.0 
1.976135659385e-03 6.108584287411e-03 0.0 
0.0 0.0 -9.749624431058e-04 
4.925108656531e-04 -3.055158529449e-03 0.0 
-3.055158529449e-03 1.195571453177e-03 0.0 
0.0 0.0 -7.234638509273e-04 
2.687278214662e-04 -6.810653139458e-04 0.0 
-6.810653139458e-04 2.481884598028e-03 0.0 
0.0 0.0 -1.082135573043e-03 
-1.799351909415e-03 1.409259675503e-03 0.0 
1.409259675503e-03 5.578155389814e-03 0.0 
0.0 0.0 -8.259898420369e-04 
-1.801064707900e-03 1.064269352962e-03 0.0 
1.064269352962e-03 5.991738140388e-03 0.0 
0.0 0.0 -8.838609275114e-04 
-6.913788155709e-04 -1.227574140941e-03 0.0 
-1.227574140941e-03 4.246435019945e-03 0.0 
0.0 0.0 -1.237791025003e-03 
1.617016974438e-05 -2.476429670131e-03 0.0 
-2.476429670131e-03 1.553276678470e-03 0.0 
0.0 0.0 -6.726200778060e-04 
-1.931314796257e-04 3.392233640780e-03 0.0 
3.392233640780e-03 2.538226820427e-03 0.0 
0.0 0.0 -1.005040860343e-03 
-1.319730188756e-03 2.601972306617e-03 0.0 
2.601972306617e-03 4.340655659079e-03 0.0 
0.0 0.0 -8.816854262052e-04 
-1.791217628275e-03 1.648610109221e-03 0.0 
1.648610109221e-03 6.470941124492e-03 0.0 
0.0 0.0 -1.008548823165e-03 
-1.624650418518e-03 2.058268446018e-03 0.0 
2.058268446018e-03 4.841940123608e-03 0.0 
0.0 0.0 -8.379792476443e-04 
-1.489577849007e-03 1.897054155513e-03 0.0 
1.897054155513e-03 4.494677002446e-03 0.0 
0.0 0.0 -8.233332215064e-04 
9.144592983676e-04 2.103723640953e-03 0.0 
2.103723640953e-03 1.164621970286e-03 0.0 
0.0 0.0 -8.910348294228e-04 
-1.234709836901e-03 2.936622841749e-03 0.0 
2.936622841749e-03 5.525011386670e-03 0.0 
0.0 0.0 -1.105110859848e-03 
0.0 0.0 0.0 
0.0 0.0 0.0 
0.0 0.0 0.0 
5.533753092925e-05 2.321065575708e-03 0.0 
2.321065575708e-03 1.385026181291e-03 0.0 
0.0 0.0 -6.172987338087e-04 
9.775337925356e-05 2.647350784272e-03 0.0 
2.647350784272e-03 1.520581698043e-03 0.0 
0.0 0.0 -6.935721759841e-04 
-4.200121646643e-04 3.335963278249e-03 0.0 
3.335963278249e-03 2.868206010904e-03 0.0 
0.0 0.0 -9.575728814879e-04 
-1.648855317221e-03 2.317084043405e-03 0.0 
2.317084043405e-03 6.523041636329e-03 0.0 
0.0 0.0 -1.095076276885e-03 
2.058287304795e-03 2.313329836799e-03 0.0 
2.313329836799e-03 -1.214980310369e-03 0.0 
0.0 0.0 -3.614172833254e-04 
1.621278099486e-04 -1.894393997341e-03 0.0 
-1.894393997341e-03 2.355296152545e-03 0.0 
0.0 0.0 -1.043355442177e-03 
-1.517251520276e-03 -1.088769506638e-04 0.0 
-1.088769506638e-04 5.367725382565e-03 0.0 
0.0 0.0 -7.763349569542e-04 
2.071225716726e-03 2.817742222964e-03 0.0 
2.817742222964e-03 -5.830940965428e-04 0.0 
0.0 0.0 -6.377706943641e-04 
8.701785889744e-05 -2.378886716450e-03 0.0 
-2.378886716450e-03 2.268431335651e-03 0.0 
0.0 0.0 -1.006238978475e-03 
6.688501451719e-04 -8.570105726374e-04 0.0 
-8.570105726374e-04 2.508766139633e-04 0.0 
0.0 0.0 -2.227849532966e-04 
-1.684683593515e-03 2.138149817611e-03 0.0 
2.138149817611e-03 6.451465524737e-03 0.0 
0.0 0.0 -1.040010908530e-03 
1.085799585697e-03 -9.338136306232e-04 0.0 
-9.338136306232e-04 4.841625588175e-05 0.0 
0.0 0.0 -1.827119720807e-04 
1.032861128012e-04 -6.271925775052e-04 0.0 
-6.271925775052e-04 6.433353347809e-04 0.0 
0.0 0.0 -2.890002659678e-04 
4.284292636794e-04 2.188011980544e-03 0.0 
2.188011980544e-03 7.634628543711e-04 0.0 
0.0 0.0 -5.108109077359e-04 
5.217682496460e-06 -2.221552624950e-03 0.0 
-2.221552624950e-03 1.410136832977e-03 0.0 
0.0 0.0 -6.065805066316e-04 
-1.756426844714e-03 1.797081824779e-03 0.0 
1.797081824779e-03 6.815040634103e-03 0.0 
0.0 0.0 -1.073797489760e-03 
1.622101319788e-04 -2.264597495009e-03 0.0 
-2.264597495009e-03 1.173181540105e-03 0.0 
0.0 0.0 -5.723107166073e-04 
1.082074594484e-03 2.640607073619e-03 0.0 
2.640607073619e-03 2.626720583109e-04 0.0 
0.0 0.0 -5.763199940550e-04 
1.605964786137e-03 -3.583242349909e-03 0.0 
-3.583242349909e-03 -7.906667844752e-05 0.0 
0.0 0.0 -6.543849032956e-04 
-3.494454807525e-05 -1.610984925714e-03 0.0 
-1.610984925714e-03 1.099950761190e-03 0.0 
0.0 0.0 -4.564312341920e-04 
1.739023189569e-04 -2.645147422265e-04 0.0 
-2.645147422265e-04 2.696870324371e-03 0.0 
0.0 0.0 -1.117524173959e-03 
-1.429083730494e-03 2.211537082543e-03 0.0 
2.211537082543e-03 4.453302943283e-03 0.0 
0.0 0.0 -8.507820156577e-04 
-1.682802659426e-03 -8.879633472863e-04 0.0 
-8.879633472863e-04 6.796328964063e-03 0.0 
0.0 0.0 -1.256743614961e-03 
0.0 0.0 0.0 
0.0 0.0 0.0 
0.0 0.0 0.0 
1.341168508293e-03 2.860330611598e-03 0.0 
2.860330611598e-03 7.949426344501e-05 0.0 
0.0 0.0 -6.088554736019e-04 
2.068683241690e-03 2.743594093827e-03 0.0 
2.743594093827e-03 -6.076247593681e-04 0.0 
0.0 0.0 -6.261679209952e-04 
-4.650783933680e-04 2.487333802040e-03 0.0 
2.487333802040e-03 2.583809885183e-03 0.0 
0.0 0.0 -9.080277822064e-04 
3.082871487027e-04 -1.189402361213e-03 0.0 
-1.189402361213e-03 2.304624928689e-03 0.0 
0.0 0.0 -1.045235091131e-03 
-1.579554839483e-03 -1.394031692893e-03 0.0 
-1.394031692893e-03 6.678028948098e-03 0.0 
0.0 0.0 -1.275930989368e-03 
-1.684299046229e-03 2.211375405385e-03 0.0 
2.211375405385e-03 6.180161065170e-03 0.0 
0.0 0.0 -1.029499106509e-03 
2.603806802799e-03 2.336705660835e-03 0.0 
2.336705660835e-03 -7.411156882784e-04 0.0 
0.0 0.0 -7.982961919374e-04 
1.043592575535e-04 -8.852470439530e-04 0.0 
-8.852470439530e-04 2.718008520162e-03 0.0 
0.0 0.0 -1.116166892424e-03 
-1.922924089839e-03 -2.680134474821e-04 0.0 
-2.680134474821e-04 5.558845052998e-03 0.0 
0.0 0.0 -1.068822925414e-03 
-7.222094777076e-04 3.206300168432e-03 0.0 
3.206300168432e-03 3.349356457826e-03 0.0 
0.0 0.0 -9.235973587808e-04 
-1.677093997722e-03 2.220083154297e-03 0.0 
2.220083154297e-03 6.117933896180e-03 0.0 
0.0 0.0 -1.003200534345e-03 
-7.865873312168e-04 2.395249233040e-03 0.0 
2.395249233040e-03 4.693437656803e-03 0.0 
0.0 0.0 -1.239730878702e-03 
2.351260119446e-03 2.575200545511e-03 0.0 
2.575200545511e-03 -6.504486438349e-04 0.0 
0.0 0.0 -7.289192038335e-04 
9.551102574568e-04 2.654829682591e-03 0.0 
2.654829682591e-03 4.928673923672e-04 0.0 
0.0 0.0 -6.205618499245e-04 
-1.702788092325e-03 2.198389791733e-03 0.0 
2.198389791733e-03 5.173682012494e-03 0.0 
0.0 0.0 -8.662621843288e-04 
-1.465090691244e-03 1.772844143032e-03 0.0 
1.772844143032e-03 8.679771669805e-03 0.0 
0.0 0.0 -1.323568725688e-03 
-2.196076664333e-04 3.542355712652e-03 0.0 
3.542355712652e-03 2.609169075547e-03 0.0 
0.0 0.0 -9.604425725471e-04 
2.156116458846e-03 1.930277635860e-03 0.0 
1.930277635860e-03 -8.514533959833e-04 0.0 
0.0 0.0 -5.591413126556e-04 
-1.551301896676e-03 9.806982104899e-05 0.0 
9.806982104899e-05 6.010438701821e-03 0.0 
0.0 0.0 -8.293613651800e-04 
5.856186318512e-04 -2.658816906517e-03 0.0 
-2.658816906517e-03 8.548743103245e-04 0.0 
0.0 0.0 -6.173541180753e-04 
-1.598852307231e-03 2.167741205054e-03 0.0 
2.167741205054e-03 4.803959338789e-03 0.0 
0.0 0.0 -8.353017157004e-04 
2.274495282906e-03 2.779935450298e-03 0.0 
2.779935450298e-03 -7.589577722122e-04 0.0 
0.0 0.0 -6.495160760114e-04 
2.298330951285e-03 2.091471460167e-03 0.0 
2.091471460167e-03 -1.204105301713e-03 0.0 
0.0 0.0 -4.689538498166e-04 
2.194832401766e-03 -2.977249775004e-03 0.0 
-2.977249775004e-03 -1.184035248941e-03 0.0 
0.0 0.0 -4.331987797821e-04 
-1.681597496447e-03 2.058302471615e-03 0.0 
2.058302471615e-03 6.767260745606e-03 0.0 
0.0 0.0 -1.075985979751e-03 
-1.563333733845e-03 2.379244648904e-03 0.0 
2.379244648904e-03 4.793451180047e-03 0.0 
0.0 0.0 -8.585603458244e-04 
7.771067329277e-04 2.601388271392e-03 0.0 
2.601388271392e-03 5.653213737160e-04 0.0 
0.0 0.0 -5.753263314187e-04 
-1.744996038836e-03 1.710273158382e-03 0.0 
1.710273158382e-03 7.117718959599e-03 0.0 
0.0 0.0 -1.109763131677e-03 
-1.606390224900e-03 2.419672085247e-03 0.0 
2.419672085247e-03 6.148327333334e-03 0.0 
0.0 0.0 -1.057773507355e-03 
-9.992751282894e-04 3.042009890222e-03 0.0 
3.042009890222e-03 3.819168416919e-03 0.0 
0.0 0.0 -9.009204134090e-04 
-1.375955048470e-03 -1.683400062222e-03 0.0 
-1.683400062222e-03 6.152421885777e-03 0.0 
0.0 0.0 -1.288412101370e-03 
1.944327134549e-03 1.768812360803e-03 0.0 
1.768812360803e-03 -8.136324325899e-04 0.0 
0.0 0.0 -4.845834436969e-04 
-1.254552424136e-03 2.860314366234e-03 0.0 
2.860314366234e-03 4.275922517579e-03 0.0 
0.0 0.0 -8.847105569873e-04 
9.718205800213e-04 3.231436175948e-03 0.0 
3.231436175948e-03 7.715228841926e-04 0.0 
0.0 0.0 -7.471471989488e-04 
1.727666947234e-03 1.978971680572e-03 0.0 
1.978971680572e-03 -4.287431573860e-04 0.0 
0.0 0.0 -5.566816242204e-04 
2.636933750934e-03 1.964049691199e-03 0.0 
1.964049691199e-03 -1.267164226969e-03 0.0 
0.0 0.0 -5.870440816995e-04 
-1.756261579278e-03 1.027223545009e-03 0.0 
1.027223545009e-03 5.150592098184e-03 0.0 
0.0 0.0 -7.898058234521e-04 
2.669142654027e-03 2.047008583083e-03 0.0 
2.047008583083e-03 -9.582484116816e-04 0.0 
0.0 0.0 -7.332403895767e-04 
2.689606729154e-03 -1.689602510838e-03 0.0 
-1.689602510838e-03 -1.205625742808e-03 0.0 
0.0 0.0 -6.359918512911e-04 
-1.629595190705e-03 2.449686769187e-03 0.0 
2.449686769187e-03 6.117601231972e-03 0.0 
0.0 0.0 -1.032318248600e-03 
0.0 0.0 0.0 
0.0 0.0 0.0 
0.0 0.0 0.0 
-1.769475386321e-03 1.897454184282e-03 0.0 
1.897454184282e-03 5.196794091963e-03 0.0 
0.0 0.0 -8.386390795737e-04 
2.679831450569e-03 2.298078295471e-03 0.0 
2.298078295471e-03 -1.117110075304e-03 0.0 
0.0 0.0 -6.697377322564e-04 
1.525405513799e-03 2.895304825734e-03 0.0 
2.895304825734e-03 1.054559655311e-04 0.0 
0.0 0.0 -6.989406339984e-04 
2.631491351563e-03 9.404993485972e-04 0.0 
9.404993485972e-04 -1.150887457296e-03 0.0 
0.0 0.0 -6.345445261146e-04 
-1.595995973144e-03 2.618038279511e-03 0.0 
2.618038279511e-03 5.071323653385e-03 0.0 
0.0 0.0 -8.965110541436e-04 
1.511841627677e-04 -1.773057166612e-03 0.0 
-1.773057166612e-03 8.535234281834e-04 0.0 
0.0 0.0 -3.901044503889e-04 
-9.397222903950e-05 2.775799572976e-03 0.0 
2.775799572976e-03 1.950195750929e-03 0.0 
0.0 0.0 -7.955243665241e-04 
1.510533742235e-03 1.893368219128e-03 0.0 
1.893368219128e-03 -3.333023352097e-04 0.0 
0.0 0.0 -5.045277458680e-04 
-1.529633938128e-03 2.472556152499e-03 0.0 
2.472556152499e-03 4.747231259560e-03 0.0 
0.0 0.0 -8.651285257930e-04 
-1.800570073848e-03 1.187623183650e-03 0.0 
1.187623183650e-03 5.684872286068e-03 0.0 
0.0 0.0 -8.301023967811e-04 
9.558821828944e-04 1.012922103067e-03 0.0 
1.012922103067e-03 -8.983468077863e-04 0.0 
0.0 0.0 -2.465801790350e-05 
2.929345942082e-03 -7.362875197769e-04 0.0 
-7.362875197769e-04 -1.325012703078e-03 0.0 
0.0 0.0 -6.875713881444e-04 
2.465820499106e-03 -2.486373233668e-03 0.0 
-2.486373233668e-03 -9.885187097241e-04 0.0 
0.0 0.0 -6.331293383067e-04 
-1.000270138248e-04 2.665501899130e-03 0.0 
2.665501899130e-03 1.891739969722e-03 0.0 
0.0 0.0 -7.678769810987e-04 
-1.745645462288e-03 1.969965136157e-03 0.0 
1.969965136157e-03 6.177510406470e-03 0.0 
0.0 0.0 -1.000663671924e-03 
-6.743676206497e-05 2.958894746749e-03 0.0 
2.958894746749e-03 2.016036742517e-03 0.0 
0.0 0.0 -8.351142773366e-04 
2.740866472437e-03 2.036102310260e-03 0.0 
2.036102310260e-03 -1.186449683482e-03 0.0 
0.0 0.0 -6.661786238380e-04 
2.465496107494e-03 2.525824601177e-03 0.0 
2.525824601177e-03 -9.322172367962e-04 0.0 
0.0 0.0 -6.571195160133e-04 
1.273787981714e-03 8.615297331710e-04 0.0 
8.615297331710e-04 -7.497623681705e-04 0.0 
0.0 0.0 -2.245824058045e-04 
1.142131131016e-03 2.936542087170e-03 0.0 
2.936542087170e-03 2.802751358821e-04 0.0 
0.0 0.0 -6.096026858133e-04 
8.727535464249e-04 2.453256376776e-03 0.0 
2.453256376776e-03 4.670237874706e-04 0.0 
0.0 0.0 -5.741902859552e-04 
-1.475760748405e-03 2.695142501196e-03 0.0 
2.695142501196e-03 8.197923622285e-03 0.0 
0.0 0.0 -1.321446319728e-03 
-1.492107186378e-03 3.030650340964e-03 0.0 
3.030650340964e-03 7.905007360297e-03 0.0 
0.0 0.0 -1.318029376683e-03 
-1.178085073701e-05 3.500120593452e-03 0.0 
3.500120593452e-03 2.258084084144e-03 0.0 
0.0 0.0 -9.627013857460e-04 
2.548877331085e-03 2.529452683065e-03 0.0 
2.529452683065e-03 -1.024625724028e-03 0.0 
0.0 0.0 -6.532506887387e-04 
1.850654072594e-03 2.843628912083e-03 0.0 
2.843628912083e-03 -1.310735320691e-04 0.0 
0.0 0.0 -7.369630887965e-04 
-1.088841516862e-03 3.167027765780e-03 0.0 
3.167027765780e-03 4.070335559596e-03 0.0 
0.0 0.0 -9.333628341409e-04 
2.340427504556e-03 2.434956062557e-03 0.0 
2.434956062557e-03 -5.727957500432e-04 0.0 
0.0 0.0 -7.575564662197e-04 
2.682095355776e-03 -1.550453496673e-03 0.0 
-1.550453496673e-03 -1.096738406614e-03 0.0 
0.0 0.0 -6.794386924979e-04 
-6.843102871119e-04 3.138323977980e-03 0.0 
3.138323977980e-03 3.288670793621e-03 0.0 
0.0 0.0 -9.652881140700e-04 
-1.560571318974e-03 1.068024078019e-03 0.0 
1.068024078019e-03 8.561491499252e-03 0.0 
0.0 0.0 -1.266640259566e-03 
2.402271625794e-03 2.610626999267e-03 0.0 
2.610626999267e-03 -8.722989033853e-04 0.0 
0.0 0.0 -6.557025953181e-04 
6.813860835502e-04 2.812347985425e-03 0.0 
2.812347985425e-03 1.059490988612e-03 0.0 
0.0 0.0 -7.460901737839e-04 
1.236363456041e-03 2.703241249809e-03 0.0 
2.703241249809e-03 7.838624202410e-05 0.0 
0.0 0.0 -5.634641563138e-04 
-9.652389989340e-04 -6.720183629338e-04 0.0 
-6.720183629338e-04 5.271242622276e-03 0.0 
0.0 0.0 -1.322863172658e-03 
2.098067576592e-03 2.923737740925e-03 0.0 
2.923737740925e-03 -6.205768400508e-04 0.0 
0.0 0.0 -6.332103156605e-04 
-5.055876985533e-04 3.367364034790e-03 0.0 
3.367364034790e-03 3.063510178626e-03 0.0 
0.0 0.0 -9.919420460789e-04 
1.879903345484e-03 1.255087970799e-03 0.0 
1.255087970799e-03 -1.207356077200e-03 0.0 
0.0 0.0 -2.882345435504e-04 
1.114970489587e-03 -6.571475029199e-04 0.0 
-6.571475029199e-04 3.550721468189e-04 0.0 
0.0 0.0 -6.300182727452e-04 
2.369471702773e-03 2.352310472614e-03 0.0 
2.352310472614e-03 -9.003050297677e-04 0.0 
0.0 0.0 -6.296428598595e-04 
2.511210871122e-03 -2.213592529972e-03 0.0 
-2.213592529972e-03 -7.926901794877e-04 0.0 
0.0 0.0 -7.365088678434e-04 
-1.351376459572e-03 2.550480813182e-03 0.0 
2.550480813182e-03 4.385207787700e-03 0.0 
0.0 0.0 -8.710486452961e-04 
-1.397658873592e-03 3.467085405935e-03 0.0 
3.467085405935e-03 7.331557043367e-03 0.0 
0.0 0.0 -1.324865334549e-03 
2.762976518654e-03 2.129275318385e-03 0.0 
2.129275318385e-03 -1.188719051590e-03 0.0 
0.0 0.0 -6.746817715991e-04 
1.650992187785e-03 1.271809720393e-03 0.0 
1.271809720393e-03 -3.513789338484e-04 0.0 
0.0 0.0 -5.569771088299e-04 
1.383242402169e-03 2.669272504238e-03 0.0 
2.669272504238e-03 1.108605796806e-04 0.0 
0.0 0.0 -6.403298493639e-04 
-1.712702943967e-03 1.199021659258e-03 0.0 
1.199021659258e-03 6.429834953111e-03 0.0 
0.0 0.0 -9.576894438039e-04 
2.851085176734e-04 -1.709536430844e-03 0.0 
-1.709536430844e-03 2.195876444368e-03 0.0 
0.0 0.0 -1.008345180213e-03 
7.579314461175e-04 2.705809604616e-03 0.0 
2.705809604616e-03 6.993839864940e-04 0.0 
0.0 0.0 -6.245637568335e-04 
-1.777734376668e-03 7.086825961679e-04 0.0 
7.086825961679e-04 6.354608604567e-03 0.0 
0.0 0.0 -9.257128893455e-04 
-1.277191206466e-03 3.589282529004e-03 0.0 
3.589282529004e-03 6.665823351058e-03 0.0 
0.0 0.0 -1.322580803729e-03 
1.403185707495e-06 -1.439264409054e-03 0.0 
-1.439264409054e-03 2.848558759865e-03 0.0 
0.0 0.0 -1.075861678316e-03 
-1.430658668499e-03 3.358596416292e-03 0.0 
3.358596416292e-03 7.549163922134e-03 0.0 
0.0 0.0 -1.322091174222e-03 
-1.793445118784e-03 9.356262614995e-04 0.0 
9.356262614995e-04 6.204769543778e-03 0.0 
0.0 0.0 -9.196498359204e-04 
-1.442068331431e-03 2.746821175537e-03 0.0 
2.746821175537e-03 5.682562585269e-03 0.0 
0.0 0.0 -1.048263655743e-03 
5.998084775859e-04 2.508005665207e-03 0.0 
2.508005665207e-03 7.531788584781e-04 0.0 
0.0 0.0 -5.798517154560e-04 
-1.223045542115e-03 2.387086346015e-03 0.0 
2.387086346015e-03 4.064515837256e-03 0.0 
0.0 0.0 -8.681697709544e-04 
-1.209389184573e-03 2.902758957536e-03 0.0 
2.902758957536e-03 4.217242041572e-03 0.0 
0.0 0.0 -9.102795160361e-04 
-1.488840206319e-03 2.679198250696e-03 0.0 
2.679198250696e-03 4.716368235080e-03 0.0 
0.0 0.0 -8.732807453983e-04 
1.119499660130e-04 3.567291341735e-03 0.0 
3.567291341735e-03 2.082472498151e-03 0.0 
0.0 0.0 -9.404667703562e-04 
-1.189299144518e-03 3.334584496646e-03 0.0 
3.334584496646e-03 6.217817091132e-03 0.0 
0.0 0.0 -1.322334986692e-03 
-1.743738005580e-03 1.571409251216e-03 0.0 
1.571409251216e-03 5.783273679231e-03 0.0 
0.0 0.0 -8.810748613436e-04 
-1.668503733379e-03 1.747174983457e-03 0.0 
1.747174983457e-03 4.858766838357e-03 0.0 
0.0 0.0 -8.123974380148e-04 
2.689502468919e-03 2.075432867186e-03 0.0 
2.075432867186e-03 -9.257907609435e-04 0.0 
0.0 0.0 -7.558764462751e-04 
-2.431074983303e-05 -1.913003925140e-03 0.0 
-1.913003925140e-03 1.267148434552e-03 0.0 
0.0 0.0 -5.326447220222e-04 
-1.300250353668e-03 2.028546891134e-03 0.0 
2.028546891134e-03 4.120204910714e-03 0.0 
0.0 0.0 -8.415228793236e-04 
1.029960534553e-03 2.697834854064e-03 0.0 
2.697834854064e-03 2.742713854926e-04 0.0 
0.0 0.0 -5.589565371624e-04 
-1.478386704748e-03 4.206789908739e-05 0.0 
4.206789908739e-05 5.616715806328e-03 0.0 
0.0 0.0 -7.696142143080e-04 
2.082223251132e-03 -2.739881630323e-03 0.0 
-2.739881630323e-03 -6.915223042800e-04 0.0 
0.0 0.0 -5.960146915079e-04 
2.687145576905e-03 2.150944824992e-03 0.0 
2.150944824992e-03 -8.619858571997e-04 0.0 
0.0 0.0 -7.822113084450e-04 
-1.642192723937e-03 2.370627921536e-03 0.0 
2.370627921536e-03 6.463774212935e-03 0.0 
0.0 0.0 -1.069052450572e-03 
1.210732016110e-03 2.901093481449e-03 0.0 
2.901093481449e-03 3.403089247521e-04 0.0 
0.0 0.0 -6.647318317980e-04 
-1.090838761359e-03 2.744646813510e-03 0.0 
2.744646813510e-03 3.916911857046e-03 0.0 
0.0 0.0 -9.030726692333e-04 
1.373131851669e-03 1.385595291722e-03 0.0 
1.385595291722e-03 -2.069114301952e-04 0.0 
0.0 0.0 -4.998087520603e-04 
5.484712090762e-04 -3.075676285272e-03 0.0 
-3.075676285272e-03 1.137788810983e-03 0.0 
0.0 0.0 -7.226828657397e-04 
-1.016387097360e-03 2.517297286892e-03 0.0 
2.517297286892e-03 5.594754578216e-03 0.0 
0.0 0.0 -1.324762665914e-03 
-9.072903591933e-04 2.355207703591e-03 0.0 
2.355207703591e-03 3.405907050817e-03 0.0 
0.0 0.0 -8.881387192877e-04 
2.946142820410e-03 1.617684650386e-04 0.0 
1.617684650386e-04 -1.452636572549e-03 0.0 
0.0 0.0 -6.400741062262e-04 
6.309307785542e-04 -2.673296576986e-03 0.0 
-2.673296576986e-03 8.118285156915e-04 0.0 
0.0 0.0 -6.183254118196e-04 
2.654857369397e-04 2.566176722282e-03 0.0 
2.566176722282e-03 1.206224560431e-03 0.0 
0.0 0.0 -6.307329845874e-04 
6.292944620548e-04 2.356029893105e-03 0.0 
2.356029893105e-03 6.393485700988e-04 0.0 
0.0 0.0 -5.437041566372e-04 
-1.573343830476e-03 2.521088319541e-03 0.0 
2.521088319541e-03 6.487888532466e-03 0.0 
0.0 0.0 -1.123886314723e-03 
-8.643744592464e-04 3.301393799564e-03 0.0 
3.301393799564e-03 3.642299074364e-03 0.0 
0.0 0.0 -9.055216267950e-04 
-4.630807398905e-04 2.550759047776e-03 0.0 
2.550759047776e-03 2.616100997212e-03 0.0 
0.0 0.0 -9.227229674235e-04 
-9.883417377340e-04 2.554278731018e-03 0.0 
2.554278731018e-03 3.636783780997e-03 0.0 
0.0 0.0 -8.916891917129e-04 
-9.188251607234e-04 7.915048635257e-04 0.0 
7.915048635257e-04 5.164894119245e-03 0.0 
0.0 0.0 -1.320675234999e-03 
-5.234519663279e-04 8.018217957374e-04 0.0 
8.018217957374e-04 4.358356351167e-03 0.0 
0.0 0.0 -1.258064670439e-03 
-1.519847497081e-03 2.784288839478e-03 0.0 
2.784288839478e-03 6.420730520918e-03 0.0 
0.0 0.0 -1.126590436115e-03 
-1.758421539440e-03 1.881967215149e-03 0.0 
1.881967215149e-03 6.509172932200e-03 0.0 
0.0 0.0 -1.037522200811e-03 
7.328240466091e-04 -2.682401726123e-03 0.0 
-2.682401726123e-03 7.115913620792e-04 0.0 
0.0 0.0 -6.190351751521e-04 
1.760096404851e-04 3.185483329578e-03 0.0 
3.185483329578e-03 1.733233248228e-03 0.0 
0.0 0.0 -8.182469523055e-04 
2.700024770010e-03 1.747528214601e-03 0.0 
1.747528214601e-03 -9.576266826323e-04 0.0 
0.0 0.0 -7.467420374474e-04 
2.935361494200e-03 1.596241168019e-03 0.0 
1.596241168019e-03 -1.073012164550e-03 0.0 
0.0 0.0 -7.981497127072e-04 
-5.548455542571e-04 3.454533405249e-03 0.0 
3.454533405249e-03 3.132006875912e-03 0.0 
0.0 0.0 -9.270064166112e-04 
1.279127165458e-03 -9.870557535994e-04 0.0 
-9.870557535994e-04 -3.854326390959e-05 0.0 
0.0 0.0 -5.316788149495e-04 
-4.227815079073e-04 -2.784371059583e-03 0.0 
-2.784371059583e-03 2.659310912429e-03 0.0 
0.0 0.0 -9.585126019377e-04 
-1.599277265462e-03 2.517332469059e-03 0.0 
2.517332469059e-03 6.812542085539e-03 0.0 
0.0 0.0 -1.134236807130e-03 
2.838543821024e-03 -9.388703813827e-04 0.0 
-9.388703813827e-04 -1.339013732820e-03 0.0 
0.0 0.0 -6.426557520871e-04 
4.165970448057e-04 3.486050932692e-03 0.0 
3.486050932692e-03 1.558675942698e-03 0.0 
0.0 0.0 -8.465455660731e-04 
-9.570428297717e-04 3.028568391790e-03 0.0 
3.028568391790e-03 3.758744006407e-03 0.0 
0.0 0.0 -9.331417602438e-04 
4.382192218767e-04 3.304842555304e-03 0.0 
3.304842555304e-03 1.417845423766e-03 0.0 
0.0 0.0 -7.954562767040e-04 
-1.443236035943e-03 3.221098478814e-03 0.0 
3.221098478814e-03 7.736365815094e-03 0.0 
0.0 0.0 -1.320088186226e-03 
-1.483693740833e-03 2.932428243371e-03 0.0 
2.932428243371e-03 8.049345893719e-03 0.0 
0.0 0.0 -1.318462653075e-03 
-1.548932721531e-03 2.525807133433e-03 0.0 
2.525807133433e-03 7.540510939249e-03 0.0 
0.0 0.0 -1.256494544188e-03 
5.199835747165e-04 -2.886590158864e-03 0.0 
-2.886590158864e-03 1.061442334883e-03 0.0 
0.0 0.0 -6.777539612569e-04 
-1.663138327388e-03 1.991577787862e-03 0.0 
1.991577787862e-03 7.067165816428e-03 0.0 
0.0 0.0 -1.112065035246e-03 
8.530770766536e-04 2.505748462956e-03 0.0 
2.505748462956e-03 4.288710739428e-04 0.0 
0.0 0.0 -5.494063502556e-04 
2.976026969438e-03 1.471613804293e-03 0.0 
1.471613804293e-03 -1.145802400427e-03 0.0 
0.0 0.0 -7.843819581477e-04 
2.176227096681e-03 9.823823306462e-04 0.0 
9.823823306462e-04 -1.042597419614e-03 0.0 
0.0 0.0 -4.858412901716e-04 
-2.813268701102e-04 2.910442502919e-03 0.0 
2.910442502919e-03 2.419195128745e-03 0.0 
0.0 0.0 -9.162292537005e-04 
-1.720195429854e-03 7.985877951349e-04 0.0 
7.985877951349e-04 5.205169340213e-03 0.0 
0.0 0.0 -7.914980036671e-04 
-1.719905413863e-03 1.237364143320e-03 0.0 
1.237364143320e-03 6.165155044144e-03 0.0 
0.0 0.0 -9.214502702889e-04 
-6.210179595173e-04 -4.728660276610e-04 0.0 
-4.728660276610e-04 4.588006840987e-03 0.0 
0.0 0.0 -1.265403586923e-03 
-1.395878555712e-03 3.050861695832e-03 0.0 
3.050861695832e-03 5.954496201824e-03 0.0 
0.0 0.0 -1.117224974728e-03 
-1.665465805844e-03 2.334336493253e-03 0.0 
2.334336493253e-03 5.128095132681e-03 0.0 
0.0 0.0 -8.687609488834e-04 
-1.346991783092e-03 3.039323733030e-03 0.0 
3.039323733030e-03 4.548648496957e-03 0.0 
0.0 0.0 -9.141259787764e-04 
2.498396854009e-03 1.198516088911e-03 0.0 
1.198516088911e-03 -1.399925765526e-03 0.0 
0.0 0.0 -4.707733236356e-04 
1.968831457284e-04 -1.841720632066e-03 0.0 
-1.841720632066e-03 8.576900148433e-04 0.0 
0.0 0.0 -4.519599259593e-04 
1.596184388708e-03 2.912527136814e-03 0.0 
2.912527136814e-03 -2.859190939001e-04 0.0 
0.0 0.0 -5.615422692032e-04 
3.342051080177e-04 3.634224831363e-03 0.0 
3.634224831363e-03 1.769838707620e-03 0.0 
0.0 0.0 -9.017330638447e-04 
1.350991084574e-03 3.130179827696e-03 0.0 
3.130179827696e-03 2.729672728852e-04 0.0 
0.0 0.0 -6.959821531966e-04 
5.181840272175e-04 1.740426048580e-03 0.0 
1.740426048580e-03 4.204450595975e-04 0.0 
0.0 0.0 -4.022696086350e-04 
-1.537623298193e-03 1.946789295788e-04 0.0 
1.946789295788e-04 5.729068901156e-03 0.0 
0.0 0.0 -8.462285223656e-04 
1.561759615532e-04 -2.189651726713e-03 0.0 
-2.189651726713e-03 1.146850025796e-03 0.0 
0.0 0.0 -5.584397088639e-04 
1.820241129970e-03 2.972056139581e-03 0.0 
2.972056139581e-03 -3.351854464419e-04 0.0 
0.0 0.0 -6.364524357979e-04 
-1.341153861134e-03 -4.057244270456e-04 0.0 
-4.057244270456e-04 4.982459086358e-03 0.0 
0.0 0.0 -1.341153861134e-03 
9.256271036625e-04 1.500053370618e-03 0.0 
1.500053370618e-03 1.273019829082e-03 0.0 
0.0 0.0 -9.422772568906e-04 
-1.647307264160e-03 1.862922357847e-03 0.0 
1.862922357847e-03 4.824359254377e-03 0.0 
0.0 0.0 -8.054468608743e-04 
2.951539872400e-04 -9.116816188897e-05 0.0 
-9.116816188897e-05 1.187821972232e-03 0.0 
0.0 0.0 -3.103042898065e-04 
7.971140923122e-05 3.343947047482e-03 0.0 
3.343947047482e-03 1.995422628245e-03 0.0 
0.0 0.0 -8.893431589182e-04 
1.873943254827e-03 2.954249127679e-03 0.0 
2.954249127679e-03 -3.006422023954e-04 0.0 
0.0 0.0 -6.742718796133e-04 
-1.609808059559e-03 2.466698786463e-03 0.0 
2.466698786463e-03 5.115271177997e-03 0.0 
0.0 0.0 -8.940630110299e-04 
-1.355176868643e-03 3.602829940139e-03 0.0 
3.602829940139e-03 7.115897601981e-03 0.0 
0.0 0.0 -1.323832587333e-03 
-1.204260933556e-03 2.429327504665e-03 0.0 
2.429327504665e-03 4.034179858945e-03 0.0 
0.0 0.0 -8.669777983973e-04 
-1.147063666963e-03 3.130382852526e-03 0.0 
3.130382852526e-03 4.139734973133e-03 0.0 
0.0 0.0 -8.917420716958e-04 
-4.014841504774e-04 -2.920877032072e-03 0.0 
-2.920877032072e-03 2.692647303736e-03 0.0 
0.0 0.0 -9.819270656821e-04 
-1.644216929044e-03 2.295172595936e-03 0.0 
2.295172595936e-03 6.800207970354e-03 0.0 
0.0 0.0 -1.105258581891e-03 
2.154052283226e-04 -3.118779152528e-03 0.0 
-3.118779152528e-03 1.628210503259e-03 0.0 
0.0 0.0 -7.901210278208e-04 
-1.316497550801e-03 3.592083674646e-03 0.0 
3.592083674646e-03 6.907418394644e-03 0.0 
0.0 0.0 -1.322174839672e-03 
-1.340103718614e-03 3.152086803121e-03 0.0 
3.152086803121e-03 7.377926064128e-03 0.0 
0.0 0.0 -1.340103718614e-03 
-1.341028575724e-03 2.465513317577e-03 0.0 
2.465513317577e-03 8.006817596930e-03 0.0 
0.0 0.0 -1.341028575724e-03 
-1.338044909071e-03 2.820900205836e-03 0.0 
2.820900205836e-03 7.687427743330e-03 0.0 
0.0 0.0 -1.338044909071e-03 
-1.502118998928e-03 2.871852761975e-03 0.0 
2.871852761975e-03 4.986656915824e-03 0.0 
0.0 0.0 -9.244680137507e-04 
-1.717961893973e-03 2.025609505479e-03 0.0 
2.025609505479e-03 6.849693926195e-03 0.0 
0.0 0.0 -1.103002250422e-03 
-1.441498127645e-03 2.997575274703e-03 0.0 
2.997575274703e-03 6.385826432379e-03 0.0 
0.0 0.0 -1.155914796392e-03 
3.567381933021e-04 2.998203481649e-03 0.0 
2.998203481649e-03 1.342739046541e-03 0.0 
0.0 0.0 -7.283473885043e-04 
1.335922643098e-04 2.946545576970e-03 0.0 
2.946545576970e-03 1.651048719616e-03 0.0 
0.0 0.0 -7.648461359682e-04 
-5.579616973433e-04 -2.537817501247e-03 0.0 
-2.537817501247e-03 2.842838828880e-03 0.0 
0.0 0.0 -9.792330563728e-04 
-1.668326353393e-03 2.237680070997e-03 0.0 
2.237680070997e-03 6.867008378533e-03 0.0 
0.0 0.0 -1.131852245309e-03 
-1.231232325275e-03 3.483829197783e-03 0.0 
3.483829197783e-03 6.428087696954e-03 0.0 
0.0 0.0 -1.322440284024e-03 
-1.629405615007e-03 2.216510426988e-03 0.0 
2.216510426988e-03 7.107180567101e-03 0.0 
0.0 0.0 -1.141180801552e-03 
1.287843860462e-03 1.762496620991e-03 0.0 
1.762496620991e-03 4.118181214961e-04 0.0 
0.0 0.0 -7.284265636965e-04 
-1.709232452093e-03 1.946096254963e-03 0.0 
1.946096254963e-03 7.158440520652e-03 0.0 
0.0 0.0 -1.138864741757e-03 
-2.474149681312e-04 3.241320627208e-03 0.0 
3.241320627208e-03 3.249866169459e-03 0.0 
0.0 0.0 -9.903545940741e-04 
5.390850837396e-04 3.135204886366e-03 0.0 
3.135204886366e-03 1.184502769340e-03 0.0 
0.0 0.0 -7.386805084625e-04 
-2.903565977667e-04 2.791530756056e-03 0.0 
2.791530756056e-03 2.364850385229e-03 0.0 
0.0 0.0 -8.890687660554e-04 
1.802555558832e-03 3.001147534895e-03 0.0 
3.001147534895e-03 -4.575658841899e-04 0.0 
0.0 0.0 -5.764241462752e-04 
-1.445725615323e-03 1.812858751269e-03 0.0 
1.812858751269e-03 8.104070872614e-03 0.0 
0.0 0.0 -1.282213402295e-03 
5.637528850199e-04 2.798374850836e-03 0.0 
2.798374850836e-03 9.579403324455e-04 0.0 
0.0 0.0 -6.521542360566e-04 
-9.878773185600e-04 3.005495027809e-03 0.0 
3.005495027809e-03 5.183572772416e-03 0.0 
0.0 0.0 -1.230767059693e-03 
-5.402829230253e-04 -2.645980312191e-03 0.0 
-2.645980312191e-03 2.860421160958e-03 0.0 
0.0 0.0 -9.943449591140e-04 
1.769669881029e-03 -3.137855469582e-03 0.0 
-3.137855469582e-03 -3.291852005029e-04 0.0 
0.0 0.0 -6.173505773685e-04 
-9.286667060019e-04 -5.578005299265e-04 0.0 
-5.578005299265e-04 4.405534968834e-03 0.0 
0.0 0.0 -1.284312900220e-03 
1.520178245233e-03 2.880262458528e-03 0.0 
2.880262458528e-03 -9.597643010145e-05 0.0 
0.0 0.0 -6.103722064851e-04 
-1.341987455608e-03 3.278682198062e-03 0.0 
3.278682198062e-03 7.180670491988e-03 0.0 
0.0 0.0 -1.341987455608e-03 
-1.479381738464e-03 2.518547494800e-03 0.0 
2.518547494800e-03 7.585721855360e-03 0.0 
0.0 0.0 -1.282654109251e-03 
-6.562251040144e-04 3.476488520305e-03 0.0 
3.476488520305e-03 3.368345711390e-03 0.0 
0.0 0.0 -9.747411499392e-04 
2.825665296399e-05 -9.471346053823e-04 0.0 
-9.471346053823e-04 5.562669983103e-04 0.0 
0.0 0.0 -2.505101362604e-04 
-1.340954708392e-03 3.409829937737e-03 0.0 
3.409829937737e-03 6.752010148723e-03 0.0 
0.0 0.0 -1.340954708391e-03 
-8.893530910468e-04 2.080039302171e-04 0.0 
2.080039302171e-04 4.249386795326e-03 0.0 
0.0 0.0 -1.284661450484e-03 
2.094151919582e-03 -2.710389235349e-03 0.0 
-2.710389235349e-03 -4.177516275291e-04 0.0 
0.0 0.0 -7.184572680229e-04 
1.187697048236e-03 1.044937454993e-03 0.0 
1.044937454993e-03 6.336881744863e-04 0.0 
0.0 0.0 -7.805936668811e-04 
-1.022563228378e-03 2.126685754851e-03 0.0 
2.126685754851e-03 5.450229037892e-03 0.0 
0.0 0.0 -1.323014926434e-03 
0.0 0.0 0.0 
0.0 0.0 0.0 
0.0 0.0 0.0 
5.629949439262e-04 2.943398902906e-03 0.0 
2.943398902906e-03 1.042834511407e-03 0.0 
0.0 0.0 -6.882126237144e-04 
-9.611236283513e-04 3.382262119005e-03 0.0 
3.382262119005e-03 3.900518768528e-03 0.0 
0.0 0.0 -9.507003520820e-04 
-3.264045535917e-04 3.528503760233e-03 0.0 
3.528503760233e-03 2.824189618732e-03 0.0 
0.0 0.0 -1.009382277479e-03 
-8.072349097140e-04 3.285348527428e-03 0.0 
3.285348527428e-03 3.572080463846e-03 0.0 
0.0 0.0 -9.583016177293e-04 
1.577973122007e-03 2.940745778594e-03 0.0 
2.940745778594e-03 -1.562631387263e-04 0.0 
0.0 0.0 -6.093042785491e-04 
-1.341360672448e-03 3.349227255108e-03 0.0 
3.349227255108e-03 6.276206882279e-03 0.0 
0.0 0.0 -1.341360672448e-03 
2.936452016240e-03 1.405586798284e-03 0.0 
1.405586798284e-03 -1.170886952934e-03 0.0 
0.0 0.0 -7.566707414170e-04 
6.010236317608e-04 7.677500863631e-05 0.0 
7.677500863631e-05 -6.010236317608e-04 0.0 
0.0 0.0 0.0 
-1.410674428243e-03 -1.887614969753e-03 0.0 
-1.887614969753e-03 6.271959657533e-03 0.0 
0.0 0.0 -1.272354826527e-03 
6.614899321087e-05 -1.031236819356e-03 0.0 
-1.031236819356e-03 5.476349804252e-04 0.0 
0.0 0.0 -2.630502744155e-04 
-7.579795143834e-04 2.669538043242e-03 0.0 
2.669538043242e-03 3.232540244350e-03 0.0 
0.0 0.0 -9.235262116470e-04 
1.408180871100e-03 -2.447837261249e-03 0.0 
-2.447837261249e-03 -4.054811993359e-04 0.0 
0.0 0.0 -4.297284307560e-04 
-1.289231145457e-03 2.085970842819e-03 0.0 
2.085970842819e-03 4.096251684655e-03 0.0 
0.0 0.0 -8.281323822960e-04 
-9.265632325981e-04 2.208084020548e-04 0.0 
2.208084020548e-04 5.136068338207e-03 0.0 
0.0 0.0 -1.321823097425e-03 
-1.341255375116e-03 3.077672806554e-03 0.0 
3.077672806554e-03 5.842647393183e-03 0.0 
0.0 0.0 -1.341255375116e-03 
-1.444220396543e-03 2.772557237900e-03 0.0 
2.772557237900e-03 4.661509496866e-03 0.0 
0.0 0.0 -8.916520742786e-04 
1.049542071535e-03 -2.597397009894e-03 0.0 
-2.597397009894e-03 2.940040078369e-04 0.0 
0.0 0.0 -5.758054625880e-04 
3.025347595527e-04 1.047283111649e-04 0.0 
1.047283111649e-04 -3.025347595527e-04 0.0 
0.0 0.0 0.0 
1.083086267670e-03 -3.284229385575e-03 0.0 
-3.284229385575e-03 2.814197768567e-04 0.0 
0.0 0.0 -5.847883047970e-04 
-1.038610003698e-03 -2.337728934242e-03 0.0 
-2.337728934242e-03 4.541183857773e-03 0.0 
0.0 0.0 -1.121833217354e-03 
-1.742165347554e-03 9.878882661806e-04 0.0 
9.878882661806e-04 5.401825771171e-03 0.0 
0.0 0.0 -7.704300227928e-04 
-1.803256776378e-03 1.584392787159e-03 0.0 
1.584392787159e-03 5.170803389825e-03 0.0 
0.0 0.0 -8.109332722942e-04 
-1.342502730507e-03 2.572106331239e-03 0.0 
2.572106331239e-03 5.434857979280e-03 0.0 
0.0 0.0 -1.342502730507e-03 
-1.732554351108e-03 7.529304742537e-04 0.0 
7.529304742537e-04 5.461566678014e-03 0.0 
0.0 0.0 -7.720444664677e-04 
-1.484252812585e-03 2.496905312066e-03 0.0 
2.496905312066e-03 8.327686936920e-03 0.0 
0.0 0.0 -1.322852565091e-03 
-2.616390310425e-04 3.420254192840e-03 0.0 
3.420254192840e-03 3.046539849901e-03 0.0 
0.0 0.0 -1.020998643257e-03 
-1.702171015059e-03 1.025221701453e-03 0.0 
1.025221701453e-03 6.037527275999e-03 0.0 
0.0 0.0 -8.907448815977e-04 
4.435059004645e-04 2.367634267758e-03 0.0 
2.367634267758e-03 8.500300084059e-04 0.0 
0.0 0.0 -5.543725323730e-04 
9.902971440261e-04 1.854120232773e-03 0.0 
1.854120232773e-03 5.282487487715e-04 0.0 
0.0 0.0 -6.508053826275e-04 
2.181030243503e-03 2.087940198003e-03 0.0 
2.087940198003e-03 -6.964523607222e-04 0.0 
0.0 0.0 -6.362476640488e-04 
-1.340754991027e-03 1.822804665951e-03 0.0 
1.822804665951e-03 5.126572871134e-03 0.0 
0.0 0.0 -1.340754991027e-03 
-1.339984467612e-03 3.017885242806e-03 0.0 
3.017885242806e-03 7.530573259310e-03 0.0 
0.0 0.0 -1.339984467612e-03 
-1.340417744004e-03 2.627800699396e-03 0.0 
2.627800699396e-03 7.874468285687e-03 0.0 
0.0 0.0 -1.340417744004e-03 
1.663950741528e-04 -3.102222571978e-03 0.0 
-3.102222571978e-03 1.696065106834e-03 0.0 
0.0 0.0 -7.981972204228e-04 
-6.783966376360e-04 -2.229795002151e-03 0.0 
-2.229795002151e-03 2.989937542639e-03 0.0 
0.0 0.0 -9.906603878584e-04 
6.633751209167e-04 3.479464549828e-03 0.0 
3.479464549828e-03 1.235326207863e-03 0.0 
0.0 0.0 -8.137291409057e-04 
-1.800452847873e-04 -3.089059520932e-03 0.0 
-3.089059520932e-03 2.334973482046e-03 0.0 
0.0 0.0 -8.981573260837e-04 
-1.339627896631e-03 1.005258068188e-03 0.0 
1.005258068188e-03 4.944567484942e-03 0.0 
0.0 0.0 -1.339627896631e-03 
2.106481318219e-03 2.804312139354e-03 0.0 
2.804312139354e-03 -3.247815718152e-04 0.0 
0.0 0.0 -7.635856056017e-04 
2.753925008266e-03 -1.471183718442e-03 0.0 
-1.471183718442e-03 -1.118113294929e-03 0.0 
0.0 0.0 -7.010621628588e-04 
2.411027346534e-03 -2.022185411865e-03 0.0 
-2.022185411865e-03 -8.248269265831e-04 0.0 
0.0 0.0 -6.798001799788e-04 
-1.695040583491e-03 9.943495357559e-04 0.0 
9.943495357559e-04 6.306677945551e-03 0.0 
0.0 0.0 -9.279583942086e-04 
-1.067283559268e-03 -1.131551148477e-03 0.0 
-1.131551148477e-03 5.382018527302e-03 0.0 
0.0 0.0 -1.323537156312e-03 
4.718253126561e-04 -2.654545060497e-03 0.0 
-2.654545060497e-03 7.297491663584e-04 0.0 
0.0 0.0 -5.149604910062e-04 
-1.340775759057e-03 3.168705887179e-05 0.0 
3.168705887179e-05 4.893000414627e-03 0.0 
0.0 0.0 -1.340775759057e-03 
2.068072739009e-03 -2.533209175997e-03 0.0 
-2.533209175997e-03 -4.905385770438e-04 0.0 
0.0 0.0 -6.760860694135e-04 
-1.342877878941e-03 3.371101462632e-03 0.0 
3.371101462632e-03 6.986301559429e-03 0.0 
0.0 0.0 -1.342877878941e-03 
-1.502505102679e-03 2.723409331035e-03 0.0 
2.723409331035e-03 6.453774250835e-03 0.0 
0.0 0.0 -1.152765850879e-03 
4.995410750134e-04 -2.508167894462e-04 0.0 
-2.508167894462e-04 1.439641133543e-04 0.0 
0.0 0.0 -1.045622396246e-04 
7.611624550475e-04 2.811491361200e-03 0.0 
2.811491361200e-03 7.486160262995e-04 0.0 
0.0 0.0 -6.470479205773e-04 
-1.718973478826e-03 1.632227495642e-03 0.0 
1.632227495642e-03 7.402026443868e-03 0.0 
0.0 0.0 -1.146019594970e-03 
-1.341220131281e-03 3.403196875767e-03 0.0 
3.403196875767e-03 6.531514611794e-03 0.0 
0.0 0.0 -1.341220131281e-03 
-1.493257815958e-03 2.709508550359e-03 0.0 
2.709508550359e-03 5.031766487179e-03 0.0 
0.0 0.0 -9.220067723808e-04 
-1.371432860580e-04 3.167005571068e-03 0.0 
3.167005571068e-03 2.958438968348e-03 0.0 
0.0 0.0 -1.049000704964e-03 
1.363417131051e-03 2.771598718083e-03 0.0 
2.771598718083e-03 -2.175926074803e-04 0.0 
0.0 0.0 -4.910676529589e-04 
-4.822149847462e-04 -8.933705669701e-06 0.0 
-8.933705669701e-06 3.680115228026e-03 0.0 
0.0 0.0 -1.228682347183e-03 
1.589016691459e-03 -2.728398742501e-03 0.0 
-2.728398742501e-03 -1.477483424757e-04 0.0 
0.0 0.0 -6.176864352786e-04 
2.014961445712e-03 -2.490489286961e-03 0.0 
-2.490489286961e-03 -7.248651286365e-04 0.0 
0.0 0.0 -5.528984216039e-04 
6.740675851827e-05 -1.946268609011e-03 0.0 
-1.946268609011e-03 5.144006658537e-04 0.0 
0.0 0.0 -2.493460390166e-04 
-1.341079611575e-03 3.240452696934e-03 0.0 
3.240452696934e-03 6.054614633037e-03 0.0 
0.0 0.0 -1.341079611575e-03 
2.419438568119e-03 1.848358171578e-03 0.0 
1.848358171578e-03 -8.324259170898e-04 0.0 
0.0 0.0 -6.801482790127e-04 
-1.052268534162e-04 -1.626163501332e-03 0.0 
-1.626163501332e-03 3.065488155398e-03 0.0 
0.0 0.0 -1.110501492391e-03 
-1.743720672030e-03 5.076947702062e-04 0.0 
5.076947702062e-04 5.915487175230e-03 0.0 
0.0 0.0 -8.555322119248e-04 
6.419311454372e-04 -2.457777299007e-03 0.0 
-2.457777299007e-03 6.816602911272e-04 0.0 
0.0 0.0 -5.672534728133e-04 
2.432948694747e-03 -2.224719869907e-03 0.0 
-2.224719869907e-03 -1.006521097821e-03 0.0 
0.0 0.0 -6.113261129685e-04 
-1.391571865871e-03 2.947954310513e-03 0.0 
2.947954310513e-03 4.611783904251e-03 0.0 
0.0 0.0 -8.867075537039e-04 
-1.342259935407e-03 2.196586378398e-03 0.0 
2.196586378398e-03 5.267748778168e-03 0.0 
0.0 0.0 -1.342259935407e-03 
-8.685003091139e-04 -2.019621362732e-03 0.0 
-2.019621362732e-03 3.358195832711e-03 0.0 
0.0 0.0 -1.026543027222e-03 
-6.279763244927e-05 -2.831980191268e-03 0.0 
-2.831980191268e-03 2.234263021353e-03 0.0 
0.0 0.0 -9.306280238158e-04 
1.626113199364e-04 3.532469173109e-03 0.0 
3.532469173109e-03 1.975304410449e-03 0.0 
0.0 0.0 -9.162495987365e-04 
9.545056478258e-04 -2.197984859117e-03 0.0 
-2.197984859117e-03 2.830222850847e-04 0.0 
0.0 0.0 -5.303691141045e-04 
2.741947853495e-03 -1.576053757195e-03 0.0 
-1.576053757195e-03 -1.238751484203e-03 0.0 
0.0 0.0 -6.442270154112e-04 
2.055993336022e-04 -3.019147266732e-03 0.0 
-3.019147266732e-03 1.580796400243e-03 0.0 
0.0 0.0 -7.655981716482e-04 
-1.735594457478e-05 3.684409886977e-03 0.0 
3.684409886977e-03 2.338058889169e-03 0.0 
0.0 0.0 -9.525257740877e-04 
-6.815819430518e-04 3.271309776104e-03 0.0 
3.271309776104e-03 3.991806398053e-03 0.0 
0.0 0.0 -9.982497011217e-04 
7.359468455794e-04 1.655488137203e-03 0.0 
1.655488137203e-03 1.311171725172e-03 0.0 
0.0 0.0 -8.773365303219e-04 
4.616179257589e-04 3.326983553877e-03 0.0 
3.326983553877e-03 1.399682897410e-03 0.0 
0.0 0.0 -7.977003527865e-04 
-1.068767707281e-04 -3.106568222755e-03 0.0 
-3.106568222755e-03 2.185893574205e-03 0.0 
0.0 0.0 -8.910072014901e-04 
1.770168940932e-03 2.939268167283e-03 0.0 
2.939268167283e-03 -7.940642901587e-05 0.0 
0.0 0.0 -7.246125051071e-04 
-6.590777518814e-04 -2.312052235482e-03 0.0 
-2.312052235482e-03 2.981136073477e-03 0.0 
0.0 0.0 -9.951678521122e-04 
-9.129757635956e-05 3.002240536259e-03 0.0 
3.002240536259e-03 3.121089298537e-03 0.0 
0.0 0.0 -1.018204129641e-03 
1.890566440799e-03 1.226789186906e-03 0.0 
1.226789186906e-03 -8.288946358717e-04 0.0 
0.0 0.0 -4.550022021117e-04 
-9.478871216341e-04 -2.661712448175e-04 0.0 
-2.661712448175e-04 5.203816778040e-03 0.0 
0.0 0.0 -1.321929620191e-03 
-1.684709762555e-03 1.865268109453e-03 0.0 
1.865268109453e-03 7.458111656375e-03 0.0 
0.0 0.0 -1.174325249119e-03 
4.942655387039e-04 -2.660349188538e-03 0.0 
-2.660349188538e-03 9.600175774831e-04 0.0 
0.0 0.0 -6.232641926516e-04 
-1.341047338368e-03 5.012584263436e-04 0.0 
5.012584263436e-04 4.843287135669e-03 0.0 
0.0 0.0 -1.341047338368e-03 
-5.199572059754e-04 -1.240456273397e-05 0.0 
-1.240456273397e-05 4.514719369705e-03 0.0 
0.0 0.0 -1.266414110344e-03 
1.456677627038e-03 2.847158529750e-03 0.0 
2.847158529750e-03 -1.224358696167e-04 0.0 
0.0 0.0 -5.718178960378e-04 
3.073160228107e-04 -2.142796274570e-03 0.0 
-2.142796274570e-03 8.896681783000e-04 0.0 
0.0 0.0 -5.129932290474e-04 
-1.050487114865e-03 -1.427509562772e-03 0.0 
-1.427509562772e-03 5.540080609798e-03 0.0 
0.0 0.0 -1.323469717371e-03 
-1.667087300368e-03 2.181750680949e-03 0.0 
2.181750680949e-03 7.186411773731e-03 0.0 
0.0 0.0 -1.167157861819e-03 
1.716323073858e-03 -2.955825605783e-03 0.0 
-2.955825605783e-03 -9.287262183541e-05 0.0 
0.0 0.0 -6.957644794382e-04 
-1.341709311524e-03 -8.333733019742e-04 0.0 
-8.333733019742e-04 5.041051645130e-03 0.0 
0.0 0.0 -1.341709311524e-03 
-1.554347035982e-04 -3.091276428888e-03 0.0 
-3.091276428888e-03 2.271745765848e-03 0.0 
0.0 0.0 -9.069904552498e-04 
-8.856300375338e-05 3.015707065978e-03 0.0 
3.015707065978e-03 2.092630915718e-03 0.0 
0.0 0.0 -8.588862479847e-04 
-1.708652242928e-03 2.038029542744e-03 0.0 
2.038029542744e-03 5.155213329433e-03 0.0 
0.0 0.0 -8.408860858065e-04 
2.150251675539e-03 1.246957804337e-03 0.0 
1.246957804337e-03 -9.518176328646e-04 0.0 
0.0 0.0 -5.136145897175e-04 
4.280369650893e-04 -2.993089053083e-03 0.0 
-2.993089053083e-03 1.242185283195e-03 0.0 
0.0 0.0 -7.158095349792e-04 
1.005063584136e-03 -1.534038141676e-03 0.0 
-1.534038141676e-03 4.706218155617e-04 0.0 
0.0 0.0 -6.324365998706e-04 
-1.787330646013e-03 1.744437882435e-03 0.0 
1.744437882435e-03 6.165539261386e-03 0.0 
0.0 0.0 -9.721028620036e-04 
-5.830614128886e-04 2.963568587990e-03 0.0 
2.963568587990e-03 3.036456168777e-03 0.0 
0.0 0.0 -9.703272795031e-04 
5.013338592635e-04 2.022867758426e-03 0.0 
2.022867758426e-03 1.903789761340e-03 0.0 
0.0 0.0 -1.030767265973e-03 
-1.583428582628e-03 1.234393199571e-04 0.0 
1.234393199571e-04 6.348909220080e-03 0.0 
0.0 0.0 -8.839498032872e-04 
-1.538973880155e-04 -2.905891545860e-03 0.0 
-2.905891545860e-03 2.151085361499e-03 0.0 
0.0 0.0 -8.559377029216e-04 
9.606550472545e-04 1.198365472328e-03 0.0 
1.198365472328e-03 7.584169667693e-04 0.0 
0.0 0.0 -7.367451488674e-04 
1.240241290569e-03 -2.615402293113e-03 0.0 
-2.615402293113e-03 9.801779930633e-06 0.0 
0.0 0.0 -5.357327444998e-04 
-1.264139912559e-03 -2.295922563033e-03 0.0 
-2.295922563033e-03 4.258611210865e-03 0.0 
0.0 0.0 -1.003470032316e-03 
4.779492527782e-04 -1.976862769587e-04 0.0 
-1.976862769587e-04 3.079286874380e-05 0.0 
0.0 0.0 -9.731995102935e-05 
1.375001823881e-03 3.007557583602e-03 0.0 
3.007557583602e-03 2.077996425490e-04 0.0 
0.0 0.0 -6.783434856127e-04 
1.686675147585e-03 -2.826451651131e-03 0.0 
-2.826451651131e-03 -3.979102607463e-04 0.0 
0.0 0.0 -5.523278086452e-04 
-6.775751599431e-04 -2.656016194715e-03 0.0 
-2.656016194715e-03 3.173617743200e-03 0.0 
0.0 0.0 -1.041231529553e-03 
9.547448531119e-04 2.912205143476e-03 0.0 
2.912205143476e-03 5.651456179382e-04 0.0 
0.0 0.0 -6.513816304500e-04 
3.545197186364e-05 -2.683422917804e-03 0.0 
-2.683422917804e-03 2.222563700784e-03 0.0 
0.0 0.0 -9.350600278798e-04 
-1.737561363205e-03 5.251994903431e-04 0.0 
5.251994903431e-04 6.205644374021e-03 0.0 
0.0 0.0 -8.962969588583e-04 
1.356254452431e-03 -2.984093401581e-03 0.0 
-2.984093401581e-03 -2.215529665071e-05 0.0 
0.0 0.0 -5.717567810488e-04 
-1.341827844788e-03 -1.146584425421e-03 0.0 
-1.146584425421e-03 5.213236186647e-03 0.0 
0.0 0.0 -1.341827844788e-03 
-1.032358392854e-03 3.358744228303e-03 0.0 
3.358744228303e-03 3.981695232776e-03 0.0 
0.0 0.0 -8.921909746423e-04 
-9.403772787457e-04 -2.333509821859e-03 0.0 
-2.333509821859e-03 3.602948163807e-03 0.0 
0.0 0.0 -1.032584340947e-03 
-7.230784000767e-04 3.517969959091e-03 0.0 
3.517969959091e-03 3.446928309249e-03 0.0 
0.0 0.0 -9.025917034692e-04 
-6.743760556383e-04 -2.567033021564e-03 0.0 
-2.567033021564e-03 3.158224002336e-03 0.0 
0.0 0.0 -1.064506262870e-03 
0.0 0.0 0.0 
0.0 0.0 0.0 
0.0 0.0 0.0 
-1.792312889487e-03 1.741412585942e-03 0.0 
1.741412585942e-03 5.511837739733e-03 0.0 
0.0 0.0 -8.733545218784e-04 
-1.159018419121e-03 -6.757248724201e-04 0.0 
-6.757248724201e-04 3.679422689167e-03 0.0 
0.0 0.0 -9.437415894182e-04 
1.526598219851e-03 -2.022984547481e-04 0.0 
-2.022984547481e-04 -5.806947110268e-04 0.0 
0.0 0.0 -1.518789559795e-04 
-1.008983259281e-03 -2.022851433489e-03 0.0 
-2.022851433489e-03 3.664714944016e-03 0.0 
0.0 0.0 -1.031099917346e-03 
-1.552203916554e-04 -2.266492036209e-03 0.0 
-2.266492036209e-03 2.794636645768e-03 0.0 
0.0 0.0 -1.001254648526e-03 
-1.559997350991e-03 7.763984245468e-04 0.0 
7.763984245468e-04 7.736769108545e-03 0.0 
0.0 0.0 -1.146946825052e-03 
1.304436411006e-03 -1.537118457164e-03 0.0 
-1.537118457164e-03 -1.929375046108e-04 0.0 
0.0 0.0 -4.763566741695e-04 
1.141009119650e-03 -1.409930863555e-03 0.0 
-1.409930863555e-03 1.287642799873e-04 0.0 
0.0 0.0 -5.441885998444e-04 
-1.689284059370e-03 1.450746420627e-03 0.0 
1.450746420627e-03 4.831311448006e-03 0.0 
0.0 0.0 -7.833574767318e-04 
-1.686952509024e-03 5.790488882109e-04 0.0 
5.790488882109e-04 4.855993105087e-03 0.0 
0.0 0.0 -7.312625299844e-04 
-1.435530838734e-03 2.039856500826e-03 0.0 
2.039856500826e-03 7.934174766789e-03 0.0 
0.0 0.0 -1.286111585339e-03 
-3.846383815358e-04 3.631348853507e-03 0.0 
3.631348853507e-03 2.894402056622e-03 0.0 
0.0 0.0 -9.211198782815e-04 
2.563042352686e-03 -3.462434059620e-04 0.0 
-3.462434059620e-04 -8.334153675030e-04 0.0 
0.0 0.0 -9.050770260813e-05 
-2.801224181591e-06 -1.851492159178e-03 0.0 
-1.851492159178e-03 1.218501688618e-03 0.0 
0.0 0.0 -5.210144847585e-04 
8.331805258011e-05 -1.317049816552e-03 0.0 
-1.317049816552e-03 7.003703442878e-04 0.0 
0.0 0.0 -3.358664558005e-04 
1.821034446314e-04 -2.408967732496e-03 0.0 
-2.408967732496e-03 1.233113086777e-03 0.0 
0.0 0.0 -6.065213706036e-04 
-1.138435434649e-03 2.989604430891e-03 0.0 
2.989604430891e-03 5.462421315605e-03 0.0 
0.0 0.0 -1.134523071099e-03 
-1.613429135808e-03 4.247551468927e-04 0.0 
4.247551468927e-04 7.790174225159e-03 0.0 
0.0 0.0 -1.144649651339e-03 
-1.027154245499e-03 -2.035960934847e-03 0.0 
-2.035960934847e-03 4.492443968240e-03 0.0 
0.0 0.0 -1.087427768671e-03 
-2.215897922679e-04 -2.343741531637e-03 0.0 
-2.343741531637e-03 1.937473062545e-03 0.0 
0.0 0.0 -7.353785444044e-04 
-1.224434476437e-03 -2.373415610936e-03 0.0 
-2.373415610936e-03 4.259607832395e-03 0.0 
0.0 0.0 -1.074887456883e-03 
-2.765309671832e-04 -1.235730925308e-03 0.0 
-1.235730925308e-03 3.492398506195e-03 0.0 
0.0 0.0 -1.142106164841e-03 
1.609002123108e-03 9.641353836346e-05 0.0 
9.641353836346e-05 -1.014383706755e-03 0.0 
0.0 0.0 -2.548364641514e-04 
-1.185520630974e-03 -6.216129085547e-04 0.0 
-6.216129085547e-04 3.715832065426e-03 0.0 
0.0 0.0 -9.234434510542e-04 
-9.870309350746e-04 -2.949408640791e-04 0.0 
-2.949408640791e-04 3.127712701104e-03 0.0 
0.0 0.0 -8.176025220169e-04 
-1.158159835052e-03 -1.705545964426e-03 0.0 
-1.705545964426e-03 5.701758529228e-03 0.0 
0.0 0.0 -1.322396863610e-03 
-1.341641872583e-03 -1.478861783549e-03 0.0 
-1.478861783549e-03 5.355371918508e-03 0.0 
0.0 0.0 -1.341641872583e-03 
-1.283076775259e-03 -6.373143896461e-04 0.0 
-6.373143896461e-04 4.006265140635e-03 0.0 
0.0 0.0 -9.869148323457e-04 
-9.252167440016e-04 -2.284187084932e-03 0.0 
-2.284187084932e-03 3.604049524323e-03 0.0 
0.0 0.0 -1.082955583678e-03 
1.424947381447e-04 -3.218131506232e-03 0.0 
-3.218131506232e-03 1.808876759913e-03 0.0 
0.0 0.0 -8.363020705961e-04 
-2.858765317582e-04 -8.912097981478e-04 0.0 
-8.912097981478e-04 3.661087959600e-03 0.0 
0.0 0.0 -1.177278300149e-03 
-1.642185562706e-04 -1.468912040377e-03 0.0 
-1.468912040377e-03 1.269461247680e-03 0.0 
0.0 0.0 -4.736754391754e-04 
-2.865195494759e-04 -1.594101584254e-03 0.0 
-1.594101584254e-03 3.398007437901e-03 0.0 
0.0 0.0 -1.104707344597e-03 
9.194713961983e-04 -6.793234433339e-04 0.0 
-6.793234433339e-04 6.261768049846e-04 0.0 
0.0 0.0 -3.206774383567e-04 
-7.790564292393e-04 -2.283470906283e-03 0.0 
-2.283470906283e-03 3.292851518803e-03 0.0 
0.0 0.0 -1.077340752670e-03 
-5.608514076299e-04 -2.798496030794e-03 0.0 
-2.798496030794e-03 2.999147072071e-03 0.0 
0.0 0.0 -1.044983856189e-03 
1.138912068891e-03 -3.473598627530e-04 0.0 
-3.473598627530e-04 -1.413469007123e-04 0.0 
0.0 0.0 -2.684313900889e-04 
-1.253955737825e-03 -3.715260469387e-04 0.0 
-3.715260469387e-04 3.888476539148e-03 0.0 
0.0 0.0 -9.536442305595e-04 
-1.602308644549e-03 2.138646014206e-03 0.0 
2.138646014206e-03 7.398169050205e-03 0.0 
0.0 0.0 -1.176862138969e-03 
2.761299412783e-03 -2.184006917307e-04 0.0 
-2.184006917307e-04 -8.957163604378e-04 0.0 
0.0 0.0 -9.160000506328e-05 
-1.698158774402e-03 7.543543168281e-04 0.0 
7.543543168281e-04 4.798515189366e-03 0.0 
0.0 0.0 -7.322753781719e-04 
-1.694678419912e-03 8.983255451051e-04 0.0 
8.983255451051e-04 4.996965617242e-03 0.0 
0.0 0.0 -7.130472889423e-04 
9.905782610910e-04 -8.253624912090e-04 0.0 
-8.253624912090e-04 7.976802919736e-04 0.0 
0.0 0.0 -7.663965227419e-04 
-1.039035016572e-03 -2.144348817903e-04 0.0 
-2.144348817903e-04 3.210973696896e-03 0.0 
0.0 0.0 -7.829545016062e-04 
1.212299874062e-03 -2.903037830351e-03 0.0 
-2.903037830351e-03 2.395213764874e-04 0.0 
0.0 0.0 -6.222091073784e-04 
1.174115903652e-03 2.662474741674e-03 0.0 
2.662474741674e-03 2.969730930284e-04 0.0 
0.0 0.0 -6.304667128631e-04 
-1.289472189001e-03 -1.746360051319e-03 0.0 
-1.746360051319e-03 5.399223758463e-03 0.0 
0.0 0.0 -1.180895453064e-03 
-1.199251439186e-03 3.128969763373e-03 0.0 
3.128969763373e-03 5.740281679720e-03 0.0 
0.0 0.0 -1.286194385238e-03 
-1.685234284086e-03 7.030718583631e-04 0.0 
7.030718583631e-04 7.477737434154e-03 0.0 
0.0 0.0 -1.101088927253e-03 
5.511702260285e-04 2.711119680311e-03 0.0 
2.711119680311e-03 9.222763951361e-04 0.0 
0.0 0.0 -6.314771233563e-04 
-3.649363196540e-05 -1.210836942261e-03 0.0 
-1.210836942261e-03 8.486569891216e-04 0.0 
0.0 0.0 -3.480700102098e-04 
-1.004741383637e-03 2.553626350246e-03 0.0 
2.553626350246e-03 3.669626505377e-03 0.0 
0.0 0.0 -8.905302458185e-04 
-1.568290103670e-03 2.798930321494e-04 0.0 
2.798930321494e-04 4.936656992355e-03 0.0 
0.0 0.0 -7.345111139194e-04 
-1.542599483069e-03 2.307996019665e-04 0.0 
2.307996019665e-04 5.186209951631e-03 0.0 
0.0 0.0 -7.144802219086e-04 
1.697260921232e-03 -1.822504204338e-04 0.0 
-1.822504204338e-04 -6.526688675189e-04 0.0 
0.0 0.0 -1.584708362264e-04 
9.885439547911e-04 -4.650217645265e-04 0.0 
-4.650217645265e-04 -7.811083121430e-05 0.0 
0.0 0.0 -2.719350994485e-04 
3.764836072069e-04 -3.171144431772e-04 0.0 
-3.171144431772e-04 5.254813268562e-04 0.0 
0.0 0.0 -2.992029258896e-04 
-3.222613347251e-04 -1.717475984859e-03 0.0 
-1.717475984859e-03 1.786840537745e-03 0.0 
0.0 0.0 -6.276768012942e-04 
1.995445303676e-03 -3.544912217161e-04 0.0 
-3.544912217161e-04 -1.783707534186e-04 0.0 
0.0 0.0 -2.505695937184e-04 
-1.385796394707e-03 -3.802460944882e-04 0.0 
-3.802460944882e-04 4.246303149623e-03 0.0 
0.0 0.0 -1.004230634435e-03 
0.0 0.0 0.0 
0.0 0.0 0.0 
0.0 0.0 0.0 
-3.537348662354e-04 -2.028219451660e-03 0.0 
-2.028219451660e-03 2.045322960423e-03 0.0 
0.0 0.0 -7.249663260806e-04 
-1.566153664312e-03 2.377992970035e-04 0.0 
2.377992970035e-04 6.488131571459e-03 0.0 
0.0 0.0 -9.582560723523e-04 
-1.634454558496e-03 5.707793053276e-04 0.0 
5.707793053276e-04 5.108535752511e-03 0.0 
0.0 0.0 -7.120344407548e-04 
-1.255391157734e-03 2.956292385131e-03 0.0 
2.956292385131e-03 5.913112370001e-03 0.0 
0.0 0.0 -1.169483110168e-03 
-3.211066572615e-04 -2.624140315591e-03 0.0 
-2.624140315591e-03 2.858415319154e-03 0.0 
0.0 0.0 -9.641449249716e-04 
-1.553469395463e-03 1.980732768992e-04 0.0 
1.980732768992e-04 6.108450087988e-03 0.0 
0.0 0.0 -8.988447104697e-04 
-1.086829048493e-03 -4.298554506639e-05 0.0 
-4.298554506639e-05 3.376551179836e-03 0.0 
0.0 0.0 -8.404787427002e-04 
1.157325761144e-03 -4.144839602351e-04 0.0 
-4.144839602351e-04 5.556060787113e-04 0.0 
0.0 0.0 -3.489577299251e-04 
-1.340974968048e-03 1.141125960794e-03 0.0 
1.141125960794e-03 8.560634098268e-03 0.0 
0.0 0.0 -1.340974968048e-03 
-1.479514720207e-03 1.290754629394e-03 0.0 
1.290754629394e-03 8.817356864728e-03 0.0 
0.0 0.0 -1.320295381545e-03 
-1.658748233041e-03 8.637494445187e-04 0.0 
8.637494445187e-04 5.855760830743e-03 0.0 
0.0 0.0 -8.588387843224e-04 
-1.626246500550e-03 3.507062076516e-04 0.0 
3.507062076516e-04 4.917310602464e-03 0.0 
0.0 0.0 -7.326073368542e-04 
-1.101733211462e-03 -4.903419461906e-04 0.0 
-4.903419461906e-04 3.425201513199e-03 0.0 
0.0 0.0 -8.368382630048e-04 
-1.457935752510e-03 9.072104527732e-04 0.0 
9.072104527732e-04 8.880607743519e-03 0.0 
0.0 0.0 -1.322576402756e-03 
-2.087604691238e-04 -2.081308369903e-03 0.0 
-2.081308369903e-03 1.746392936312e-03 0.0 
0.0 0.0 -6.589853430805e-04 
-1.662826015092e-03 7.083533780780e-04 0.0 
7.083533780780e-04 5.042251775661e-03 0.0 
0.0 0.0 -7.125614225629e-04 
-1.628165374516e-03 4.707510309731e-04 0.0 
4.707510309731e-04 4.889560536843e-03 0.0 
0.0 0.0 -7.312775522649e-04 
-1.109436790681e-03 2.207974280543e-03 0.0 
2.207974280543e-03 3.753226225228e-03 0.0 
0.0 0.0 -8.460010047089e-04 
-1.341823989366e-03 2.274932854254e-03 0.0 
2.274932854254e-03 8.137856468635e-03 0.0 
0.0 0.0 -1.341823989366e-03 
-1.447499776368e-03 1.123885033130e-03 0.0 
1.123885033130e-03 8.849685221172e-03 0.0 
0.0 0.0 -1.322582685247e-03 
1.858413942134e-03 -4.468674671497e-04 0.0 
-4.468674671497e-04 -1.442261551490e-04 0.0 
0.0 0.0 -2.523401230232e-04 
1.933225188622e-03 -1.733881547272e-04 0.0 
-1.733881547272e-04 -7.561870514403e-04 0.0 
0.0 0.0 -1.563839533901e-04 
-1.406822219416e-04 -1.124602410666e-03 0.0 
-1.124602410666e-03 1.005262349108e-03 0.0 
0.0 0.0 -3.705343402141e-04 
-5.636260726475e-04 -2.890778252910e-03 0.0 
-2.890778252910e-03 3.024028366260e-03 0.0 
0.0 0.0 -1.029090130247e-03 
-1.836231348186e-03 -1.061046282737e-04 0.0 
-1.061046282737e-04 6.851957631603e-03 0.0 
0.0 0.0 -1.224669017856e-03 
0.0 0.0 0.0 
0.0 0.0 0.0 
0.0 0.0 0.0 
-1.578428037932e-03 -1.076945805976e-04 0.0 
-1.076945805976e-04 7.488341038297e-03 0.0 
0.0 0.0 -1.092518628634e-03 
-1.550925910831e-05 -1.170234142814e-04 0.0 
-1.170234142814e-04 1.067621659097e-04 0.0 
0.0 0.0 -3.910838862915e-05 
8.665365973905e-04 -1.142786771002e-03 0.0 
-1.142786771002e-03 9.419164366956e-04 0.0 
0.0 0.0 -7.750513003226e-04 
2.093383490481e-04 -3.500473738276e-04 0.0 
-3.500473738276e-04 8.081195732960e-06 0.0 
0.0 0.0 -9.317980490615e-05 
0.0 0.0 0.0 
0.0 0.0 0.0 
0.0 0.0 0.0 
8.379829542950e-04 -1.828387007204e-03 0.0 
-1.828387007204e-03 8.061078686980e-04 0.0 
0.0 0.0 -7.046103527113e-04 
-1.789860880868e-03 -9.343042948716e-04 0.0 
-9.343042948716e-04 6.450275194502e-03 0.0 
0.0 0.0 -1.192963836147e-03 
-1.590104708056e-03 6.107842018535e-05 0.0 
6.107842018535e-05 6.703688956183e-03 0.0 
0.0 0.0 -9.361271490834e-04 
-8.759783829009e-04 2.898559650342e-03 0.0 
2.898559650342e-03 3.532916901786e-03 0.0 
0.0 0.0 -9.106555839008e-04 
1.248462822196e-03 -2.813829483536e-04 0.0 
-2.813829483536e-04 -1.929931588244e-04 0.0 
0.0 0.0 -2.625419092021e-04 
-1.459678414727e-03 -2.058426133646e-03 0.0 
-2.058426133646e-03 4.704925736718e-03 0.0 
0.0 0.0 -1.075952622059e-03 
-1.337797817327e-03 3.504757910850e-04 0.0 
3.504757910850e-04 8.685617780919e-03 0.0 
0.0 0.0 -1.337797817327e-03 
-1.451734133111e-03 3.024014936646e-04 0.0 
3.024014936646e-04 8.945645325804e-03 0.0 
0.0 0.0 -1.322354755130e-03 
-1.599337559302e-03 4.517969448523e-04 0.0 
4.517969448523e-04 5.137060814106e-03 0.0 
0.0 0.0 -7.125764448434e-04 
8.243811469618e-04 -5.070143029738e-04 0.0 
-5.070143029738e-04 1.170642242664e-03 0.0 
0.0 0.0 -8.550100241253e-04 
-1.341607717199e-03 9.922961128721e-04 0.0 
9.922961128721e-04 8.617013640237e-03 0.0 
0.0 0.0 -1.341607717199e-03 
1.651597580356e-05 2.683416658655e-03 0.0 
2.683416658655e-03 3.024822145470e-03 0.0 
0.0 0.0 -1.046710270629e-03 
1.210451057929e-03 -1.943692124057e-04 0.0 
-1.943692124057e-04 4.706046126820e-04 0.0 
0.0 0.0 -3.531810144492e-04 
2.099767295814e-03 -2.484083841165e-04 0.0 
-2.484083841165e-04 -2.289154150212e-04 0.0 
0.0 0.0 -2.475227046456e-04 
1.335233375907e-03 -9.196830328825e-05 0.0 
-9.196830328825e-05 -2.038367509550e-04 0.0 
0.0 0.0 -2.481890828467e-04 
-1.206645058523e-03 -4.413417753443e-05 0.0 
-4.413417753443e-05 3.734312456454e-03 0.0 
0.0 0.0 -9.186759157619e-04 
-1.554661254855e-03 -1.173104092863e-03 0.0 
-1.173104092863e-03 7.206653129246e-03 0.0 
0.0 0.0 -1.322828574513e-03 
-1.468378470940e-03 -2.055954314762e-04 0.0 
-2.055954314762e-04 8.477100898234e-03 0.0 
0.0 0.0 -1.258329778789e-03 
2.187416576026e-03 -1.653808446854e-04 0.0 
-1.653808446854e-04 -8.676741714944e-04 0.0 
0.0 0.0 -1.587067154099e-04 
-1.371588137901e-03 -3.169762198632e-04 0.0 
-3.169762198632e-04 4.214800910036e-03 0.0 
0.0 0.0 -1.008438243783e-03 
-1.344798314370e-03 -8.279531255943e-04 0.0 
-8.279531255943e-04 7.026886665436e-03 0.0 
0.0 0.0 -1.344798314369e-03 
-1.564884777426e-03 -1.287545985866e-03 0.0 
-1.287545985866e-03 7.147060172158e-03 0.0 
0.0 0.0 -1.318785251170e-03 
-1.158469832793e-03 -1.923166980148e-03 0.0 
-1.923166980148e-03 5.883371209853e-03 0.0 
0.0 0.0 -1.321151187552e-03 
-1.585912391543e-03 2.691560132111e-04 0.0 
2.691560132111e-04 7.090908885405e-03 0.0 
0.0 0.0 -1.027148381742e-03 
-1.555187588006e-03 -1.971572702211e-04 0.0 
-1.971572702211e-04 7.705246922455e-03 0.0 
0.0 0.0 -1.125709525796e-03 
-1.338030260144e-03 -1.094386398329e-03 0.0 
-1.094386398329e-03 6.909148412757e-03 0.0 
0.0 0.0 -1.338030260144e-03 
-1.340754991027e-03 -1.372687681983e-03 0.0 
-1.372687681983e-03 6.806607219922e-03 0.0 
0.0 0.0 -1.340754991027e-03 
-1.561602649575e-03 2.480043620058e-04 0.0 
2.480043620058e-04 7.494608831512e-03 0.0 
0.0 0.0 -1.092518628634e-03 
3.307271248664e-03 4.314548185695e-05 0.0 
4.314548185695e-05 -1.214475185733e-03 0.0 
0.0 0.0 -8.755379438333e-05 
-1.478032168390e-03 1.489804673206e-04 0.0 
1.489804673206e-04 5.167022187345e-03 0.0 
0.0 0.0 -7.139539158865e-04 
-1.574977551316e-03 3.717997235828e-04 0.0 
3.717997235828e-04 5.188881553203e-03 0.0 
0.0 0.0 -7.133642253441e-04 
2.078295521971e-03 -1.511499007421e-04 0.0 
-1.511499007421e-04 -8.199563945998e-04 0.0 
0.0 0.0 -1.576675707606e-04 
-1.342313591240e-03 -1.872687525586e-03 0.0 
-1.872687525586e-03 6.355359522584e-03 0.0 
0.0 0.0 -1.342313591240e-03 
-1.269922737054e-03 -2.029167704155e-03 0.0 
-2.029167704155e-03 6.094262192879e-03 0.0 
0.0 0.0 -1.318355947622e-03 
-1.337959751097e-03 -1.908784167046e-03 0.0 
-1.908784167046e-03 5.900685640896e-03 0.0 
0.0 0.0 -1.337959751097e-03 
3.106621107953e-03 -1.497773368645e-04 0.0 
-1.497773368645e-04 -1.029211139497e-03 0.0 
0.0 0.0 -9.540963664560e-05 
2.941822019467e-03 -1.767432348869e-04 0.0 
-1.767432348869e-04 -9.568393427299e-04 0.0 
0.0 0.0 -9.747405510327e-05 
-1.340754991027e-03 -1.672627381109e-03 0.0 
-1.672627381109e-03 5.518495974516e-03 0.0 
0.0 0.0 -1.340754991027e-03 
-1.340396196526e-03 -1.852966983193e-03 0.0 
-1.852966983193e-03 5.697134399037e-03 0.0 
0.0 0.0 -1.340396196526e-03 
-1.600296610560e-03 -2.152006829150e-04 0.0 
-2.152006829150e-04 6.887323541576e-03 0.0 
0.0 0.0 -9.936726122374e-04 
-1.422222177314e-03 8.859389962602e-05 0.0 
8.859389962602e-05 5.179295465595e-03 0.0 
0.0 0.0 -7.124851972278e-04 
-1.571159218797e-03 -2.082021183410e-04 0.0 
-2.082021183410e-04 7.291178693471e-03 0.0 
0.0 0.0 -1.060142436171e-03 
-1.552782223510e-03 -2.129194587244e-04 0.0 
-2.129194587244e-04 6.002253842572e-03 0.0 
0.0 0.0 -8.626607521899e-04 
-1.382122713210e-03 3.570213775188e-05 0.0 
3.570213775188e-05 5.182667103943e-03 0.0 
0.0 0.0 -7.121912678902e-04 
2.259827960221e-03 -3.791885520061e-04 0.0 
-3.791885520061e-04 -6.773411335669e-04 0.0 
0.0 0.0 -9.442328267794e-05 
1.489465085535e-03 -3.873061726619e-04 0.0 
-3.873061726619e-04 -3.302723319640e-04 0.0 
0.0 0.0 -4.591167563965e-05 
1.195706273835e-03 -4.439423179226e-04 0.0 
-4.439423179226e-04 -2.457069974477e-04 0.0 
0.0 0.0 -4.589015575604e-05 
7.928883186884e-04 -4.308369996379e-04 0.0 
-4.308369996379e-04 -1.962835067220e-05 0.0 
0.0 0.0 -4.556578909549e-05 
-1.455576565641e-03 5.369324781881e-06 0.0 
5.369324781881e-06 4.421569252006e-03 0.0 
0.0 0.0 -1.025222297049e-03 
-1.326853145310e-03 -3.193870868211e-05 0.0 
-3.193870868211e-05 4.074529080795e-03 0.0 
0.0 0.0 -9.784754570978e-04 
3.643447720584e-04 -2.807478551813e-04 0.0 
-2.807478551813e-04 -8.302826669459e-05 0.0 
0.0 0.0 -1.159392125903e-04 
-1.882114812679e-03 5.257899597366e-05 0.0 
5.257899597366e-05 5.463849854237e-03 0.0 
0.0 0.0 -1.072123180932e-03 
1.624781745822e-04 -2.648253394118e-04 0.0 
-2.648253394118e-04 3.767456551543e-06 0.0 
0.0 0.0 -7.124812762874e-05 
-1.341471640605e-03 1.902532918980e-03 0.0 
1.902532918980e-03 8.304452194875e-03 0.0 
0.0 0.0 -1.341471640605e-03 
-1.340968685557e-03 8.342263842268e-04 0.0 
8.342263842268e-04 8.620360450522e-03 0.0 
0.0 0.0 -1.340968685557e-03 
-1.339320413496e-03 1.336323062728e-03 0.0 
1.336323062728e-03 8.515855351859e-03 0.0 
0.0 0.0 -1.339320413496e-03 
-5.175251243654e-04 1.147272255642e-05 0.0 
1.147272255642e-05 1.550881351190e-03 0.0 
0.0 0.0 -2.599136149544e-04 
-9.633323041400e-04 -3.549644401783e-05 0.0 
-3.549644401783e-05 2.981977788141e-03 0.0 
0.0 0.0 -7.340959586659e-04 
-1.337132911908e-03 6.510662741128e-04 0.0 
6.510662741128e-04 8.656607653519e-03 0.0 
0.0 0.0 -1.337132911908e-03 
-2.083032595708e-03 9.922266011855e-05 0.0 
9.922266011855e-05 6.472696883650e-03 0.0 
0.0 0.0 -1.124956933753e-03 
-1.344556937803e-03 5.003882733929e-04 0.0 
5.003882733929e-04 8.710429521741e-03 0.0 
0.0 0.0 -1.344556937803e-03 
-1.932677962729e-03 1.288201926386e-04 0.0 
1.288201926386e-04 6.746175248938e-03 0.0 
0.0 0.0 -1.192538251246e-03 
-1.740079752366e-03 1.547682996820e-04 0.0 
1.547682996820e-04 7.002368902305e-03 0.0 
0.0 0.0 -1.259905836238e-03 
-1.256318881540e-03 -3.058147318078e-04 0.0 
-3.058147318078e-04 3.889569585195e-03 0.0 
0.0 0.0 -9.521061186879e-04 
-1.479483252636e-03 7.231400883548e-04 0.0 
7.231400883548e-04 8.931379513718e-03 0.0 
0.0 0.0 -1.318101597465e-03 
-1.454407492241e-03 7.329644933787e-04 0.0 
7.329644933787e-04 8.932547234701e-03 0.0 
0.0 0.0 -1.321689849711e-03 
-1.996720130669e-03 -4.240856891719e-04 0.0 
-4.240856891719e-04 6.546271744836e-03 0.0 
0.0 0.0 -1.157495185000e-03 
-1.833092771074e-03 -4.338479580684e-04 0.0 
-4.338479580684e-04 6.845712330688e-03 0.0 
0.0 0.0 -1.225777420818e-03 
-1.841879665554e-03 -1.392809369192e-03 0.0 
-1.392809369192e-03 5.462425115064e-03 0.0 
0.0 0.0 -1.076967794221e-03 
0.0 0.0 0.0 
0.0 0.0 0.0 
0.0 0.0 0.0 
-8.795889895974e-04 -1.952925740306e-03 0.0 
-1.952925740306e-03 3.376145193665e-03 0.0 
0.0 0.0 -1.039304039601e-03 
1.660434101197e-03 -6.141622579472e-04 0.0 
-6.141622579472e-04 -6.719522836332e-05 0.0 
0.0 0.0 -2.442944474907e-04 
-1.378694188408e-03 -2.097012646119e-03 0.0 
-2.097012646119e-03 5.460269496084e-03 0.0 
0.0 0.0 -1.177819030284e-03 
-7.813950936845e-04 -2.358745935075e-03 0.0 
-2.358745935075e-03 3.287112188259e-03 0.0 
0.0 0.0 -1.040987640873e-03 
-1.809630590335e-03 -1.291578548695e-03 0.0 
-1.291578548695e-03 5.821414157847e-03 0.0 
0.0 0.0 -1.099016898379e-03 
-2.060296257065e-04 -1.796631504213e-03 0.0 
-1.796631504213e-03 1.564117229874e-03 0.0 
0.0 0.0 -5.820375446434e-04 
4.475341314438e-05 -9.010547106959e-04 0.0 
-9.010547106959e-04 6.723802247933e-04 0.0 
0.0 0.0 -2.733874678612e-04 
-1.819661686397e-03 -1.463949205523e-03 0.0 
-1.463949205523e-03 6.215728401457e-03 0.0 
0.0 0.0 -1.161668299909e-03 
-1.009350816753e-03 -1.981157607315e-03 0.0 
-1.981157607315e-03 3.679610224835e-03 0.0 
0.0 0.0 -1.056886766371e-03 
-1.124597673924e-03 -3.416283390981e-04 0.0 
-3.416283390981e-04 3.530274889455e-03 0.0 
0.0 0.0 -8.978673291013e-04 
-1.908614693689e-03 -1.553426855284e-03 0.0 
-1.553426855284e-03 5.883638228136e-03 0.0 
0.0 0.0 -1.096102707776e-03 
-1.506564574904e-03 4.784902240182e-04 0.0 
4.784902240182e-04 7.990398295391e-03 0.0 
0.0 0.0 -1.188907866872e-03 
-1.145966443117e-03 -2.688887835076e-04 0.0 
-2.688887835076e-04 3.559257817850e-03 0.0 
0.0 0.0 -8.802182425544e-04 
-2.343808151550e-04 -2.448482601409e-03 0.0 
-2.448482601409e-03 2.867036480139e-03 0.0 
0.0 0.0 -1.035646790376e-03 
-9.500506080825e-04 -2.724089328098e-03 0.0 
-2.724089328098e-03 3.674446532369e-03 0.0 
0.0 0.0 -9.625389225288e-04 
-1.856114660532e-03 -1.247587492440e-03 0.0 
-1.247587492440e-03 5.444374226428e-03 0.0 
0.0 0.0 -1.042884296030e-03 
-2.003615679542e-03 -9.107189773551e-04 0.0 
-9.107189773551e-04 5.760788445208e-03 0.0 
0.0 0.0 -1.050199500156e-03 
3.015162384708e-03 1.478491521065e-03 0.0 
1.478491521065e-03 -1.420788746949e-03 0.0 
0.0 0.0 -6.833029876111e-04 
-7.703338813803e-04 2.711642704622e-03 0.0 
2.711642704622e-03 3.268676482316e-03 0.0 
0.0 0.0 -9.206815977879e-04 
8.952220710028e-04 3.337500451005e-03 0.0 
3.337500451005e-03 9.018971507738e-04 0.0 
0.0 0.0 -7.701939521900e-04 
-1.492273682533e-03 -1.948749897048e-03 0.0 
-1.948749897048e-03 4.700056634630e-03 0.0 
0.0 0.0 -1.018483763552e-03 
-1.953152701418e-03 -1.266064436280e-03 0.0 
-1.266064436280e-03 6.190905664489e-03 0.0 
0.0 0.0 -1.125100902632e-03 
-2.130434678919e-03 -5.674193057818e-04 0.0 
-5.674193057818e-04 6.039060582820e-03 0.0 
0.0 0.0 -1.053755873404e-03 
1.981272582958e-04 -2.339075750409e-03 0.0 
-2.339075750409e-03 1.164667172993e-03 0.0 
0.0 0.0 -5.840547562666e-04 
-1.516698384373e-03 7.243684231909e-04 0.0 
7.243684231909e-04 7.963201592157e-03 0.0 
0.0 0.0 -1.183514100502e-03 
-1.571889609711e-03 6.492262438020e-04 0.0 
6.492262438020e-04 7.577660240319e-03 0.0 
0.0 0.0 -1.117084069417e-03 
-1.526943038589e-03 4.067391407097e-04 0.0 
4.067391407097e-04 5.686565415721e-03 0.0 
0.0 0.0 -8.110481619253e-04 
-1.474195239190e-03 -2.107699134124e-03 0.0 
-2.107699134124e-03 4.674985602820e-03 0.0 
0.0 0.0 -1.001070066037e-03 
-1.687869148980e-03 -1.597447162641e-03 0.0 
-1.597447162641e-03 5.094192157887e-03 0.0 
0.0 0.0 -1.032102790996e-03 
-1.559878786953e-03 1.186239496982e-04 0.0 
1.186239496982e-04 8.091883647163e-03 0.0 
0.0 0.0 -1.185362187646e-03 
-1.553576411269e-03 5.639076835034e-04 0.0 
5.639076835034e-04 7.828849217298e-03 0.0 
0.0 0.0 -1.150972777267e-03 
-5.736846005059e-04 -3.010470759541e-03 0.0 
-3.010470759541e-03 3.112745496219e-03 0.0 
0.0 0.0 -1.058777908313e-03 
-1.827264969184e-03 -1.207689843267e-03 0.0 
-1.207689843267e-03 6.491929530035e-03 0.0 
0.0 0.0 -1.190872049285e-03 
-1.617401302618e-03 1.036699389917e-03 0.0 
1.036699389917e-03 7.425262889637e-03 0.0 
0.0 0.0 -1.103416240745e-03 
-2.113993614968e-03 -7.222808743220e-04 0.0 
-7.222808743220e-04 6.023476369147e-03 0.0 
0.0 0.0 -1.069496670503e-03 
-1.471914821471e-03 -1.998353424490e-03 0.0 
-1.998353424490e-03 5.883536090439e-03 0.0 
0.0 0.0 -1.210017230578e-03 
-1.575272729869e-03 3.494544289054e-04 0.0 
3.494544289054e-04 8.019533452472e-03 0.0 
0.0 0.0 -1.181737430652e-03 
-1.652502708926e-03 2.520535947120e-04 0.0 
2.520535947120e-04 7.001595806507e-03 0.0 
0.0 0.0 -1.011817915138e-03 
-3.838894113269e-04 -2.804191833148e-03 0.0 
-2.804191833148e-03 2.874279057775e-03 0.0 
0.0 0.0 -9.985655989919e-04 
-6.304965187655e-04 -7.604202958905e-04 0.0 
-7.604202958905e-04 2.203620271365e-03 0.0 
0.0 0.0 -6.656342390725e-04 
4.047615641515e-04 -2.474054827037e-03 0.0 
-2.474054827037e-03 9.613198754716e-04 0.0 
0.0 0.0 -5.854634741242e-04 
2.836227978939e-05 -1.580599960261e-03 0.0 
-1.580599960261e-03 9.832792497712e-04 0.0 
0.0 0.0 -4.149592254337e-04 
1.034548557929e-04 -1.227500156599e-03 0.0 
-1.227500156599e-03 6.126727267546e-04 0.0 
0.0 0.0 -3.069118210918e-04 
-1.577352812428e-03 2.114313367924e-04 0.0 
2.114313367924e-04 7.845695102100e-03 0.0 
0.0 0.0 -1.150998037120e-03 
-1.900941556448e-03 -7.041406832224e-04 0.0 
-7.041406832224e-04 6.386638876857e-03 0.0 
0.0 0.0 -1.156839719840e-03 
6.843292428348e-05 -1.144232504345e-03 0.0 
-1.144232504345e-03 6.143886100226e-04 0.0 
0.0 0.0 -2.926378004169e-04 
-1.601987702258e-03 2.442990824200e-03 0.0 
2.442990824200e-03 6.852419756780e-03 0.0 
0.0 0.0 -1.160298666437e-03 
-1.543111448516e-03 4.596328783708e-04 0.0 
4.596328783708e-04 5.853297686999e-03 0.0 
0.0 0.0 -8.436798659344e-04 
-1.824750470194e-03 -1.859013687658e-03 0.0 
-1.859013687658e-03 5.532595994557e-03 0.0 
0.0 0.0 -1.067477449466e-03 
-2.006499161308e-03 -7.976010001953e-04 0.0 
-7.976010001953e-04 6.083504909474e-03 0.0 
0.0 0.0 -1.090430023688e-03 
7.833829666557e-04 -2.711290744461e-03 0.0 
-2.711290744461e-03 6.776524641225e-04 0.0 
0.0 0.0 -6.261580417621e-04 
-2.076799610215e-03 -1.031710463461e-03 0.0 
-1.031710463461e-03 6.135351760274e-03 0.0 
0.0 0.0 -1.087955833448e-03 
-1.557514890525e-03 -6.173462151110e-05 0.0 
-6.173462151110e-05 5.695796094032e-03 0.0 
0.0 0.0 -8.100176300978e-04 
8.750615862245e-04 9.176848780839e-04 0.0 
9.176848780839e-04 1.438408062181e-03 0.0 
0.0 0.0 -9.914869921737e-04 
-1.497791782641e-03 -1.444847597853e-03 0.0 
-1.444847597853e-03 6.204442023908e-03 0.0 
0.0 0.0 -1.242964905849e-03 
-6.875629852487e-04 -4.240155203853e-04 0.0 
-4.240155203853e-04 2.190912803371e-03 0.0 
0.0 0.0 -5.658909553065e-04 
-1.268098618658e-03 -2.126035490962e-03 0.0 
-2.126035490962e-03 5.495926708526e-03 0.0 
0.0 0.0 -1.215045542354e-03 
-1.631557581403e-03 2.235766335083e-04 0.0 
2.235766335083e-04 7.237605270102e-03 0.0 
0.0 0.0 -1.048288725887e-03 
-7.383595785151e-04 -6.377031037024e-04 0.0 
-6.377031037024e-04 2.446869421887e-03 0.0 
0.0 0.0 -6.818911139857e-04 
3.993077738021e-04 -2.419206884214e-03 0.0 
-2.419206884214e-03 9.348823657586e-04 0.0 
0.0 0.0 -5.717957740974e-04 
-1.500476059484e-03 -8.906484908892e-04 0.0 
-8.906484908892e-04 4.589149281530e-03 0.0 
0.0 0.0 -1.044847128380e-03 
-1.630418366467e-03 6.661053165545e-04 0.0 
6.661053165545e-04 6.481746764143e-03 0.0 
0.0 0.0 -9.409807611877e-04 
-5.756498552716e-04 -2.159817615522e-03 0.0 
-2.159817615522e-03 2.678873720584e-03 0.0 
0.0 0.0 -9.013816565627e-04 
-1.610525300296e-03 1.600914995101e-04 0.0 
1.600914995101e-04 7.460282061065e-03 0.0 
0.0 0.0 -1.085119818393e-03 
-1.626505474320e-03 1.193898643633e-04 0.0 
1.193898643633e-04 6.796479922044e-03 0.0 
0.0 0.0 -9.816794289629e-04 
-1.168002604940e-03 -1.979309092588e-03 0.0 
-1.979309092588e-03 4.001814082530e-03 0.0 
0.0 0.0 -1.032510638845e-03 
-1.993224441762e-03 -1.056137829821e-03 0.0 
-1.056137829821e-03 5.774090597717e-03 0.0 
0.0 0.0 -1.075584385303e-03 
-2.021709392423e-03 -1.349459280440e-03 0.0 
-1.349459280440e-03 5.860171390496e-03 0.0 
0.0 0.0 -1.066391945090e-03 
-1.595291763312e-03 5.874023300959e-04 0.0 
5.874023300959e-04 7.178060268656e-03 0.0 
0.0 0.0 -1.050681058959e-03 
-5.082515002275e-04 -8.941420093747e-04 0.0 
-8.941420093747e-04 1.798316205834e-03 0.0 
0.0 0.0 -5.009000172756e-04 
-1.206852124203e-03 -1.671075112969e-03 0.0 
-1.671075112969e-03 4.019505130445e-03 0.0 
0.0 0.0 -1.029746919386e-03 
-5.152753143587e-05 2.170825683475e-03 0.0 
2.170825683475e-03 3.140726951459e-03 0.0 
0.0 0.0 -1.141128458404e-03 
-1.641668485544e-03 3.431501301840e-04 0.0 
3.431501301840e-04 7.404941610079e-03 0.0 
0.0 0.0 -1.078198857115e-03 
-1.057951637287e-03 -1.671343146736e-03 0.0 
-1.671343146736e-03 3.677031607098e-03 0.0 
0.0 0.0 -1.017599913258e-03 
-8.954401304147e-04 -2.800206404235e-03 0.0 
-2.800206404235e-03 3.674164100142e-03 0.0 
0.0 0.0 -1.058318663232e-03 
-1.115312546428e-03 -2.189534952593e-03 0.0 
-2.189534952593e-03 5.045014028914e-03 0.0 
0.0 0.0 -1.187586327529e-03 
-1.596801678993e-03 6.045917028781e-04 0.0 
6.045917028781e-04 6.950727632054e-03 0.0 
0.0 0.0 -1.013969106439e-03 
2.322873706387e-04 -1.368679716301e-04 0.0 
-1.368679716301e-04 -2.322873706387e-04 0.0 
0.0 0.0 0.0 
4.726741315202e-05 -1.330898926681e-03 0.0 
-1.330898926681e-03 8.674614564573e-04 0.0 
0.0 0.0 -2.916872467244e-04 
2.273358372470e-03 1.445761220817e-05 0.0 
1.445761220817e-05 -1.234043607805e-03 0.0 
0.0 0.0 -4.454206134279e-04 
-1.880676767284e-03 -9.969975945957e-04 0.0 
-9.969975945957e-04 6.131847364448e-03 0.0 
0.0 0.0 -1.127837695838e-03 
-1.619604464873e-03 6.374782176385e-04 0.0 
6.374782176385e-04 6.719807393941e-03 0.0 
0.0 0.0 -9.775003154318e-04 
-1.665473239862e-03 -8.814240019008e-04 0.0 
-8.814240019008e-04 4.990171794499e-03 0.0 
0.0 0.0 -1.065326950858e-03 
-1.596762474986e-03 5.442334346395e-04 0.0 
5.442334346395e-04 6.065464133813e-03 0.0 
0.0 0.0 -8.745614812816e-04 
-3.748877525410e-04 -1.800985621523e-03 0.0 
-1.800985621523e-03 3.574605346147e-03 0.0 
0.0 0.0 -1.139196670502e-03 
-1.359206623324e-03 -1.598338811102e-03 0.0 
-1.598338811102e-03 4.356288718259e-03 0.0 
0.0 0.0 -1.038619054332e-03 
-1.952425401121e-03 -1.122489104774e-03 0.0 
-1.122489104774e-03 5.808139918506e-03 0.0 
0.0 0.0 -1.061632825506e-03 
-7.352512267089e-04 -7.174892847169e-04 0.0 
-7.174892847169e-04 2.324934696345e-03 0.0 
0.0 0.0 -5.540246046759e-04 
-1.437645385880e-03 -1.599317358972e-03 0.0 
-1.599317358972e-03 5.870614125847e-03 0.0 
0.0 0.0 -1.211531131004e-03 
-1.154210490817e-03 -1.954082935906e-03 0.0 
-1.954082935906e-03 4.005717739264e-03 0.0 
0.0 0.0 -1.074148950826e-03 
-8.379192553434e-04 -5.906240485017e-04 0.0 
-5.906240485017e-04 2.576604047046e-03 0.0 
0.0 0.0 -5.876558844704e-04 
-1.197102623790e-03 -1.637680359765e-03 0.0 
-1.637680359765e-03 4.017415051808e-03 0.0 
0.0 0.0 -1.056762485630e-03 
-7.509293429896e-04 -1.933738058068e-03 0.0 
-1.933738058068e-03 3.044668356527e-03 0.0 
0.0 0.0 -9.830310058020e-04 
-3.848069222800e-04 -1.987035085230e-03 0.0 
-1.987035085230e-03 2.096507399408e-03 0.0 
0.0 0.0 -7.335859187690e-04 
-1.641529108376e-03 -8.260601691015e-04 0.0 
-8.260601691015e-04 4.922455749525e-03 0.0 
0.0 0.0 -1.057704792895e-03 
1.274028603033e-03 -1.869459937269e-04 0.0 
-1.869459937269e-04 -4.728594485301e-04 0.0 
0.0 0.0 -1.484808277242e-04 
8.391344234421e-04 -3.183235339587e-04 0.0 
-3.183235339587e-04 -2.967630892776e-04 0.0 
0.0 0.0 -1.070543391422e-04 
-1.665019363331e-03 -1.732448119605e-03 0.0 
-1.732448119605e-03 5.107282910853e-03 0.0 
0.0 0.0 -1.076850574752e-03 
-6.443609575616e-04 -8.027982188953e-04 0.0 
-8.027982188953e-04 2.093114862673e-03 0.0 
0.0 0.0 -5.127475950200e-04 
-1.433152566994e-03 -2.256582062865e-03 0.0 
-2.256582062865e-03 4.678524487026e-03 0.0 
0.0 0.0 -1.065643708224e-03 
-1.181624258185e-03 -2.541209283503e-03 0.0 
-2.541209283503e-03 4.198630913141e-03 0.0 
0.0 0.0 -1.061543848411e-03 
-2.864899867882e-04 -2.872572545388e-03 0.0 
-2.872572545388e-03 2.406784440249e-03 0.0 
0.0 0.0 -9.086976229117e-04 
1.281208818910e-03 -3.086935772070e-03 0.0 
-3.086935772070e-03 3.369465702636e-04 0.0 
0.0 0.0 -6.934951667886e-04 
-1.645375116221e-03 6.411920099951e-04 0.0 
6.411920099951e-04 7.711017833911e-03 0.0 
0.0 0.0 -1.137719822027e-03 
1.154207816654e-03 1.867319367673e-03 0.0 
1.867319367673e-03 -6.876363112737e-04 0.0 
0.0 0.0 -1.999592165914e-04 
-9.249733248304e-04 -1.654130041636e-03 0.0 
-1.654130041636e-03 3.362873241434e-03 0.0 
0.0 0.0 -9.992710862841e-04 
-3.877098979375e-04 -1.380494157509e-03 0.0 
-1.380494157509e-03 3.663297430763e-03 0.0 
0.0 0.0 -1.175533656463e-03 
-5.174404311479e-04 -5.539878075327e-04 0.0 
-5.539878075327e-04 1.742776399261e-03 0.0 
0.0 0.0 -4.908139796285e-04 
-1.654366313170e-03 2.025707585884e-04 0.0 
2.025707585884e-04 6.355277344232e-03 0.0 
0.0 0.0 -9.088859120638e-04 
-1.608026372927e-03 7.066471578212e-05 0.0 
7.066471578212e-05 5.908321987661e-03 0.0 
0.0 0.0 -8.416286270284e-04 
-1.832935889570e-04 -1.554120033244e-03 0.0 
-1.554120033244e-03 1.379295739965e-03 0.0 
0.0 0.0 -5.125723504322e-04 
-9.249495539582e-04 -2.182927448984e-03 0.0 
-2.182927448984e-03 4.540217093715e-03 0.0 
0.0 0.0 -1.158722036769e-03 
-1.708983070523e-03 5.831805314674e-04 0.0 
5.831805314674e-04 7.093076428562e-03 0.0 
0.0 0.0 -1.034898561726e-03 
-5.347835094169e-04 -8.712026877687e-04 0.0 
-8.712026877687e-04 1.955284966163e-03 0.0 
0.0 0.0 -6.087863386054e-04 
-1.641053002078e-03 8.278210871732e-04 0.0 
8.278210871732e-04 7.844844353227e-03 0.0 
0.0 0.0 -1.166520446339e-03 
-1.573669309360e-03 1.135775076811e-03 0.0 
1.135775076811e-03 7.785651679837e-03 0.0 
0.0 0.0 -1.169001632583e-03 
-5.801197933913e-04 -1.186925299187e-03 0.0 
-1.186925299187e-03 2.194197512368e-03 0.0 
0.0 0.0 -6.784273028471e-04 
3.325860372313e-04 2.756630050232e-03 0.0 
2.756630050232e-03 1.228114910237e-03 0.0 
0.0 0.0 -6.688718346291e-04 
-3.593200341485e-04 -1.692198470874e-03 0.0 
-1.692198470874e-03 1.863660251544e-03 0.0 
0.0 0.0 -6.447172360267e-04 
-1.851327153153e-03 -1.651837749691e-03 0.0 
-1.651837749691e-03 5.510234686298e-03 0.0 
0.0 0.0 -1.068438311093e-03 
-1.517049278155e-03 -1.208152311661e-03 0.0 
-1.208152311661e-03 4.665351215207e-03 0.0 
0.0 0.0 -1.047608655120e-03 
-1.588271255534e-03 2.440442444252e-03 0.0 
2.440442444252e-03 7.130284191767e-03 0.0 
0.0 0.0 -1.169529464977e-03 
-1.586290284398e-03 9.796528348583e-04 0.0 
9.796528348583e-04 7.658587432112e-03 0.0 
0.0 0.0 -1.140030709108e-03 
-1.655646109898e-03 -1.957177626158e-03 0.0 
-1.957177626158e-03 5.116194479746e-03 0.0 
0.0 0.0 -1.068248785331e-03 
-1.685997880852e-03 -1.784608356716e-03 0.0 
-1.784608356716e-03 5.105111501202e-03 0.0 
0.0 0.0 -1.017402529519e-03 
-2.876771207717e-04 -1.389411797297e-03 0.0 
-1.389411797297e-03 1.511875759344e-03 0.0 
0.0 0.0 -5.246565593881e-04 
-1.860731135260e-03 -1.457489852606e-03 0.0 
-1.457489852606e-03 5.487326218288e-03 0.0 
0.0 0.0 -1.032853941699e-03 
-1.642797758815e-03 9.181312676492e-04 0.0 
9.181312676492e-04 7.041840567815e-03 0.0 
0.0 0.0 -1.037144748481e-03 
-1.515109443870e-03 -1.227447560286e-03 0.0 
-1.227447560286e-03 4.684685552436e-03 0.0 
0.0 0.0 -1.069204617036e-03 
-1.671620005891e-03 2.929392441870e-04 0.0 
2.929392441870e-04 6.771202525829e-03 0.0 
0.0 0.0 -9.752741834902e-04 
-1.678948556331e-03 5.367956015661e-04 0.0 
5.367956015661e-04 7.330127940856e-03 0.0 
0.0 0.0 -1.071415751597e-03 
2.313268375330e-03 1.796314023182e-03 0.0 
1.796314023182e-03 -1.074261141593e-03 0.0 
0.0 0.0 -5.310031001729e-04 
-1.592584348350e-03 8.322792606474e-04 0.0 
8.322792606474e-04 7.512035850087e-03 0.0 
0.0 0.0 -1.110258267496e-03 
-1.248028584087e-03 -1.336863044777e-03 0.0 
-1.336863044777e-03 4.037984938667e-03 0.0 
0.0 0.0 -1.014964823884e-03 
-1.349668852610e-03 -1.596461481346e-03 0.0 
-1.596461481346e-03 4.366516516387e-03 0.0 
0.0 0.0 -1.071455489612e-03 
-8.215746796524e-04 -1.528227033612e-03 0.0 
-1.528227033612e-03 3.070718427055e-03 0.0 
0.0 0.0 -9.608678829247e-04 
1.835549677296e-04 -2.809528380429e-03 0.0 
-2.809528380429e-03 1.483313829287e-03 0.0 
0.0 0.0 -7.143723415785e-04 
-1.633555633710e-03 7.702002767988e-04 0.0 
7.702002767988e-04 6.885994191198e-03 0.0 
0.0 0.0 -1.007339817349e-03 
3.076530191659e-04 -3.054269635980e-03 0.0 
-3.054269635980e-03 1.447807107602e-03 0.0 
0.0 0.0 -7.523400543291e-04 
-5.051265774841e-04 -1.582649049219e-03 0.0 
-1.582649049219e-03 2.186388830496e-03 0.0 
0.0 0.0 -7.205409655765e-04 
-1.167533049478e-04 -1.421228658134e-03 0.0 
-1.421228658134e-03 1.178987498042e-03 0.0 
0.0 0.0 -4.201231086673e-04 
-1.691347074083e-03 4.318386709728e-04 0.0 
4.318386709728e-04 6.937090811669e-03 0.0 
0.0 0.0 -1.005115000480e-03 
-4.635122803593e-04 -1.604799167025e-03 0.0 
-1.604799167025e-03 2.085354868508e-03 0.0 
0.0 0.0 -6.950753949209e-04 
-1.191515342284e-03 -1.717007076640e-03 0.0 
-1.717007076640e-03 5.423834924642e-03 0.0 
0.0 0.0 -1.218716866995e-03 
-1.611990725284e-03 7.358230951730e-04 0.0 
7.358230951730e-04 7.120198208464e-03 0.0 
0.0 0.0 -1.043883448597e-03 
-1.702982719558e-03 -1.584997506959e-03 0.0 
-1.584997506959e-03 5.470541578607e-03 0.0 
0.0 0.0 -1.070373463590e-03 
-9.109045738307e-04 -2.286339166372e-04 0.0 
-2.286339166372e-04 4.268441463060e-03 0.0 
0.0 0.0 -1.284729618418e-03 
-1.071268175159e-03 -1.648454023553e-03 0.0 
-1.648454023553e-03 3.707169372543e-03 0.0 
0.0 0.0 -1.023311028316e-03 
-5.174967158518e-04 -1.184771327579e-03 0.0 
-1.184771327579e-03 2.030619627748e-03 0.0 
0.0 0.0 -6.484812479557e-04 
-2.326317737538e-04 -1.038651026586e-03 0.0 
-1.038651026586e-03 1.174275035768e-03 0.0 
0.0 0.0 -4.035613980062e-04 
-1.410090236189e-03 -2.406400776569e-03 0.0 
-2.406400776569e-03 4.648410275236e-03 0.0 
0.0 0.0 -1.051259780966e-03 
-1.600848466290e-03 5.345976904083e-04 0.0 
5.345976904083e-04 6.550294708413e-03 0.0 
0.0 0.0 -9.473489374553e-04 
-8.717253142324e-05 -9.933700925620e-04 0.0 
-9.933700925620e-04 8.344671106644e-04 0.0 
0.0 0.0 -3.202691053891e-04 
-6.027995719924e-04 -2.107392599842e-03 0.0 
-2.107392599842e-03 2.722751826872e-03 0.0 
0.0 0.0 -9.085509663768e-04 
-7.199860598078e-04 -4.341095348245e-04 0.0 
-4.341095348245e-04 2.121552428607e-03 0.0 
0.0 0.0 -4.196057652059e-04 
-1.682938822042e-03 3.318724932828e-04 0.0 
3.318724932828e-04 6.532037136807e-03 0.0 
0.0 0.0 -9.387834224271e-04 
-7.776326742692e-04 -1.884645157224e-03 0.0 
-1.884645157224e-03 3.094899202807e-03 0.0 
0.0 0.0 -9.909213861921e-04 
-1.231039957355e-03 -2.426325464904e-03 0.0 
-2.426325464904e-03 4.199347214172e-03 0.0 
0.0 0.0 -9.819879942351e-04 
-8.554599545912e-04 -1.459966539243e-03 0.0 
-1.459966539243e-03 3.093994812612e-03 0.0 
0.0 0.0 -9.237817853494e-04 
-1.614515104562e-03 2.789174945577e-04 0.0 
2.789174945577e-04 7.633843682432e-03 0.0 
0.0 0.0 -1.114809527198e-03 
-5.165996464755e-04 -1.902435422896e-03 0.0 
-1.902435422896e-03 2.384778332934e-03 0.0 
0.0 0.0 -8.006480084822e-04 
-1.128557246388e-03 -2.713813412197e-03 0.0 
-2.713813412197e-03 4.096504171839e-03 0.0 
0.0 0.0 -1.021386065992e-03 
3.769531236008e-04 -2.410295298791e-03 0.0 
-2.410295298791e-03 9.611755011410e-04 0.0 
0.0 0.0 -5.734836963179e-04 
-1.146759310470e-03 -2.656955500371e-03 0.0 
-2.656955500371e-03 4.139056916818e-03 0.0 
0.0 0.0 -1.043150860743e-03 
-1.375457983811e-03 -1.244246825682e-03 0.0 
-1.244246825682e-03 4.353109699875e-03 0.0 
0.0 0.0 -1.054662228279e-03 
-1.554003148348e-03 -1.878419659560e-03 0.0 
-1.878419659560e-03 5.069341272683e-03 0.0 
0.0 0.0 -1.041555045145e-03 
3.002499616426e-03 -7.287809856288e-04 0.0 
-7.287809856288e-04 -1.352929250409e-03 0.0 
0.0 0.0 -7.069587282928e-04 
-6.177242885591e-04 -4.890935474393e-04 0.0 
-4.890935474393e-04 2.000133674606e-03 0.0 
0.0 0.0 -5.285791946032e-04 
-1.609261505607e-03 9.637114852810e-05 0.0 
9.637114852810e-05 6.165456359686e-03 0.0 
0.0 0.0 -8.787268422831e-04 
6.987156508361e-04 -1.946712657170e-03 0.0 
-1.946712657170e-03 1.033985256572e-03 0.0 
0.0 0.0 -7.425861031749e-04 
3.405430775163e-04 3.191948666083e-03 0.0 
3.191948666083e-03 1.485409776068e-03 0.0 
0.0 0.0 -7.825512229649e-04 
-1.644262011324e-03 1.659911649759e-04 0.0 
1.659911649759e-04 6.584724351472e-03 0.0 
0.0 0.0 -9.453210152248e-04 
6.455202986104e-04 -2.635854245695e-03 0.0 
-2.635854245695e-03 6.894465372206e-04 0.0 
0.0 0.0 -5.721286439276e-04 
-1.681255032869e-03 9.721382689111e-04 0.0 
9.721382689111e-04 6.557103597372e-03 0.0 
0.0 0.0 -9.642804585795e-04 
-6.124308423891e-04 -5.450173225678e-04 0.0 
-5.450173225678e-04 1.850421424375e-03 0.0 
0.0 0.0 -3.816933993452e-04 
-1.231036729784e-03 -2.253664933021e-03 0.0 
-2.253664933021e-03 5.042416419642e-03 0.0 
0.0 0.0 -1.150402778756e-03 
7.350617248358e-04 -1.287476273638e-03 0.0 
-1.287476273638e-03 1.272883254993e-03 0.0 
0.0 0.0 -8.605478484981e-04 
6.223710608225e-04 1.356379083397e-03 0.0 
1.356379083397e-03 1.985099964088e-03 0.0 
0.0 0.0 -1.037051012011e-03 
-1.598102879927e-03 7.448720335872e-04 0.0 
7.448720335872e-04 8.095744984387e-03 0.0 
0.0 0.0 -1.204463612412e-03 
8.919152436734e-05 -3.143989424638e-03 0.0 
-3.143989424638e-03 1.851557330956e-03 0.0 
0.0 0.0 -8.317495094241e-04 
-4.309306607764e-04 -9.183848167176e-04 0.0 
-9.183848167176e-04 1.661245254261e-03 0.0 
0.0 0.0 -5.272776829218e-04 
-5.215676815475e-04 -3.050968300431e-03 0.0 
-3.050968300431e-03 3.002352665044e-03 0.0 
0.0 0.0 -1.027200950222e-03 
-1.049023862644e-03 -1.741518653201e-03 0.0 
-1.741518653201e-03 4.976635689622e-03 0.0 
0.0 0.0 -1.189963100592e-03 
9.320234363391e-04 -2.596047537173e-03 0.0 
-2.596047537173e-03 3.625727901238e-04 0.0 
0.0 0.0 -5.548269541984e-04 
-1.645253786717e-03 -2.142300707641e-03 0.0 
-2.142300707641e-03 5.116342603387e-03 0.0 
0.0 0.0 -1.056575865346e-03 
-1.668373394945e-03 3.866502142135e-04 0.0 
3.866502142135e-04 7.172333763355e-03 0.0 
0.0 0.0 -1.041631482750e-03 
1.707610751817e-03 -3.111302323773e-03 0.0 
-3.111302323773e-03 2.006678016111e-05 0.0 
0.0 0.0 -7.404332279907e-04 
-8.518987020310e-04 -2.879189791171e-03 0.0 
-2.879189791171e-03 3.589652711545e-03 0.0 
0.0 0.0 -1.034177093206e-03 
-1.689258382171e-03 3.631400807220e-04 0.0 
3.631400807220e-04 6.026727173804e-03 0.0 
0.0 0.0 -8.663127257150e-04 
-8.305596344540e-04 -9.136388392921e-04 0.0 
-9.136388392921e-04 2.720781083118e-03 0.0 
0.0 0.0 -7.057144296542e-04 
-4.174774710502e-04 -2.264727665933e-03 0.0 
-2.264727665933e-03 2.338052704739e-03 0.0 
0.0 0.0 -8.231036715810e-04 
1.803968687695e-04 3.742029911528e-03 0.0 
3.742029911528e-03 2.055326787370e-03 0.0 
0.0 0.0 -9.358934819731e-04 
-1.362318107691e-03 -2.168484734475e-03 0.0 
-2.168484734475e-03 4.618346883937e-03 0.0 
0.0 0.0 -1.012809740122e-03 
-6.445707195621e-05 3.204089462648e-03 0.0 
3.204089462648e-03 2.166873657449e-03 0.0 
0.0 0.0 -9.010356794969e-04 
5.513709198924e-04 3.609450072054e-03 0.0 
3.609450072054e-03 1.451733722049e-03 0.0 
0.0 0.0 -8.584734179747e-04 
-1.663785911262e-03 9.479908707512e-04 0.0 
9.479908707512e-04 6.801753296704e-03 0.0 
0.0 0.0 -1.000670320419e-03 
-1.603261119446e-03 5.580378966873e-04 0.0 
5.580378966873e-04 6.304876685805e-03 0.0 
0.0 0.0 -9.110000341593e-04 
-1.665053571431e-03 8.222814637678e-04 0.0 
8.222814637678e-04 6.156291516455e-03 0.0 
0.0 0.0 -8.984003255416e-04 
-1.378097458895e-03 -1.307048665384e-03 0.0 
-1.307048665384e-03 4.348190678149e-03 0.0 
0.0 0.0 -1.034446146726e-03 
-6.901682956972e-04 -2.185652284413e-03 0.0 
-2.185652284413e-03 4.019713840668e-03 0.0 
0.0 0.0 -1.130631056169e-03 
-1.834308716731e-04 -3.140526153133e-03 0.0 
-3.140526153133e-03 2.359250978041e-03 0.0 
0.0 0.0 -9.324943313006e-04 
-1.664409897791e-03 2.283299940873e-04 0.0 
2.283299940873e-04 6.118881933301e-03 0.0 
0.0 0.0 -8.720525204519e-04 
-1.540055594527e-03 2.603535571495e-03 0.0 
2.603535571495e-03 6.865325717395e-03 0.0 
0.0 0.0 -1.193584144721e-03 
3.472050528190e-04 1.692564590117e-03 0.0 
1.692564590117e-03 2.541247573186e-03 0.0 
0.0 0.0 -1.073433710836e-03 
-1.128039575521e-03 -2.445102979842e-03 0.0 
-2.445102979842e-03 4.119062361786e-03 0.0 
0.0 0.0 -9.841343610905e-04 
-1.618130106290e-03 8.767059940841e-04 0.0 
8.767059940841e-04 7.278368023729e-03 0.0 
0.0 0.0 -1.073677668998e-03 
-6.910390954278e-05 -2.799918663238e-03 0.0 
-2.799918663238e-03 1.917780934052e-03 0.0 
0.0 0.0 -7.922901533612e-04 
-2.515921695526e-04 -2.585539987467e-03 0.0 
-2.585539987467e-03 2.152735873912e-03 0.0 
0.0 0.0 -8.147758732969e-04 
-3.310614028043e-04 -1.379924337061e-03 0.0 
-1.379924337061e-03 1.616149347076e-03 0.0 
0.0 0.0 -5.507519761165e-04 
-5.011752582021e-04 -3.030712813107e-03 0.0 
-3.030712813107e-03 2.924383664169e-03 0.0 
0.0 0.0 -9.894786617912e-04 
-4.694395913292e-04 -2.445221033123e-03 0.0 
-2.445221033123e-03 2.569902493715e-03 0.0 
0.0 0.0 -9.001983867369e-04 
-1.710187933828e-03 4.633984892961e-04 0.0 
4.633984892961e-04 6.694041267773e-03 0.0 
0.0 0.0 -9.686535345556e-04 
-1.726289188827e-03 4.896054940225e-04 0.0 
4.896054940225e-04 6.449117765340e-03 0.0 
0.0 0.0 -9.322463471790e-04 
2.416944889244e-03 5.439879453653e-04 0.0 
5.439879453653e-04 -1.208818724836e-03 0.0 
0.0 0.0 -5.177683561747e-04 
-1.928901237433e-04 -2.408049599402e-03 0.0 
-2.408049599402e-03 1.916746904624e-03 0.0 
0.0 0.0 -7.387957632348e-04 
2.990366271950e-03 1.613745370932e-03 0.0 
1.613745370932e-03 -1.371577636674e-03 0.0 
0.0 0.0 -6.937665579755e-04 
-3.910486537431e-04 -2.315216698545e-03 0.0 
-2.315216698545e-03 2.304304739270e-03 0.0 
0.0 0.0 -8.199668937971e-04 
-2.230223782308e-04 -2.682222528879e-03 0.0 
-2.682222528879e-03 2.152181418268e-03 0.0 
0.0 0.0 -8.267824457303e-04 
-4.073029906979e-04 -1.294483440297e-03 0.0 
-1.294483440297e-03 1.772331589387e-03 0.0 
0.0 0.0 -5.850122565809e-04 
-4.258807302887e-04 -2.144389728424e-03 0.0 
-2.144389728424e-03 3.478718025925e-03 0.0 
0.0 0.0 -1.101849228969e-03 
4.193172772845e-04 -3.233569204744e-03 0.0 
-3.233569204744e-03 1.400177349689e-03 0.0 
0.0 0.0 -7.797834115600e-04 
-1.646879822787e-03 4.813878958504e-04 0.0 
4.813878958504e-04 7.564621706005e-03 0.0 
0.0 0.0 -1.107989045227e-03 
6.164328486864e-04 -3.141645067701e-03 0.0 
-3.141645067701e-03 1.094713369857e-03 0.0 
0.0 0.0 -7.333483793757e-04 
-5.352671715167e-04 -2.920481306985e-03 0.0 
-2.920481306985e-03 2.976534494236e-03 0.0 
0.0 0.0 -9.268471029391e-04 
3.090740504692e-05 -3.263078096127e-03 0.0 
-3.263078096127e-03 2.029516789361e-03 0.0 
0.0 0.0 -8.830389404604e-04 
1.224821345307e-03 3.216271527602e-03 0.0 
3.216271527602e-03 4.534564749945e-04 0.0 
0.0 0.0 -7.192619229864e-04 
-4.591680976874e-04 -1.267727629031e-03 0.0 
-1.267727629031e-03 1.902437159688e-03 0.0 
0.0 0.0 -6.185438837147e-04 
-8.295759423418e-04 -1.747729159177e-03 0.0 
-1.747729159177e-03 4.457598420488e-03 0.0 
0.0 0.0 -1.161691925552e-03 
-8.640451209017e-04 -2.074084677624e-03 0.0 
-2.074084677624e-03 4.658509439049e-03 0.0 
0.0 0.0 -1.198716319349e-03 
-6.013355258858e-04 3.714306523016e-03 0.0 
3.714306523016e-03 3.360817493125e-03 0.0 
0.0 0.0 -9.650368815299e-04 
-1.923559704037e-05 -2.994572033542e-03 0.0 
-2.994572033542e-03 1.948727475502e-03 0.0 
0.0 0.0 -8.269250907692e-04 
-2.503696762219e-04 -3.166835997765e-03 0.0 
-3.166835997765e-03 2.485701371906e-03 0.0 
0.0 0.0 -9.354962741733e-04 
-1.647815013080e-03 8.021683468908e-04 0.0 
8.021683468908e-04 6.643407279142e-03 0.0 
0.0 0.0 -9.708520278613e-04 
-3.181114656463e-04 -2.713015915343e-03 0.0 
-2.713015915343e-03 2.377429006136e-03 0.0 
0.0 0.0 -8.825646602100e-04 
7.116670481849e-04 3.351796189116e-03 0.0 
3.351796189116e-03 1.105566406541e-03 0.0 
0.0 0.0 -7.788143377395e-04 
-5.501781971430e-04 -1.884487968291e-03 0.0 
-1.884487968291e-03 2.464549120431e-03 0.0 
0.0 0.0 -8.204446814089e-04 
9.957483789486e-04 -2.931560812442e-03 0.0 
-2.931560812442e-03 3.486105119444e-04 0.0 
0.0 0.0 -5.761538103827e-04 
1.170702144068e-04 -2.917551374595e-03 0.0 
-2.917551374595e-03 1.660101911363e-03 0.0 
0.0 0.0 -7.616451967584e-04 
-5.960830469200e-04 -1.478493121431e-03 0.0 
-1.478493121431e-03 2.390521820873e-03 0.0 
0.0 0.0 -7.690451888369e-04 
-7.193147455851e-04 -1.069003876046e-03 0.0 
-1.069003876046e-03 2.479314286133e-03 0.0 
0.0 0.0 -6.849754419779e-04 
-1.850126680382e-05 -3.140240111362e-03 0.0 
-3.140240111362e-03 2.040450553655e-03 0.0 
0.0 0.0 -8.665496943648e-04 
-8.517286139436e-04 -2.699031265188e-03 0.0 
-2.699031265188e-03 3.572094775893e-03 0.0 
0.0 0.0 -9.554846610150e-04 
-9.258628841067e-04 3.334973100130e-03 0.0 
3.334973100130e-03 4.800766489173e-03 0.0 
0.0 0.0 -1.128610778606e-03 
1.795476015728e-03 -3.745896555992e-04 0.0 
-3.745896555992e-04 -4.681407310308e-04 0.0 
0.0 0.0 -1.007271482096e-04 
1.477477984760e-03 -2.160820890410e-03 0.0 
-2.160820890410e-03 -1.640262078733e-04 0.0 
0.0 0.0 -5.629079043802e-04 
9.457248714060e-04 -2.859194649623e-03 0.0 
-2.859194649623e-03 6.047505636496e-04 0.0 
0.0 0.0 -6.644894721667e-04 
2.064739481844e-04 -3.194226446081e-03 0.0 
-3.194226446081e-03 1.689929388459e-03 0.0 
0.0 0.0 -8.127442871328e-04 
-1.656928892650e-03 8.151295774597e-04 0.0 
8.151295774597e-04 6.399838907814e-03 0.0 
0.0 0.0 -9.344164207832e-04 
2.545948249673e-04 -3.270064507394e-03 0.0 
-3.270064507394e-03 1.662466157556e-03 0.0 
0.0 0.0 -8.215975639385e-04 
-6.717590179400e-04 -1.743398916895e-03 0.0 
-1.743398916895e-03 2.730040439290e-03 0.0 
0.0 0.0 -8.821206091502e-04 
2.940147133768e-04 -2.953116785718e-03 0.0 
-2.953116785718e-03 1.404914365559e-03 0.0 
0.0 0.0 -7.281124624012e-04 
-1.597640344519e-03 6.950049643667e-04 0.0 
6.950049643667e-04 7.352823299798e-03 0.0 
0.0 0.0 -1.080452943103e-03 
-7.063133806754e-04 -1.717335593378e-03 0.0 
-1.717335593378e-03 2.816704678048e-03 0.0 
0.0 0.0 -9.044534131596e-04 
-1.993759384210e-04 -8.715145545495e-04 0.0 
-8.715145545495e-04 1.025473523807e-03 0.0 
0.0 0.0 -3.540418223084e-04 
-3.396899465816e-04 -1.001666654583e-03 0.0 
-1.001666654583e-03 1.438762041900e-03 0.0 
0.0 0.0 -4.710308979937e-04 
8.199892085620e-04 -2.799788621547e-03 0.0 
-2.799788621547e-03 6.522727846800e-04 0.0 
0.0 0.0 -6.309694256751e-04 
9.078868863827e-06 -2.738074417405e-03 0.0 
-2.738074417405e-03 1.733216879781e-03 0.0 
0.0 0.0 -7.466981779905e-04 
1.103409613190e-03 -2.545332485906e-03 0.0 
-2.545332485906e-03 3.291592924430e-04 0.0 
0.0 0.0 -6.139581024141e-04 
4.609298661722e-04 -2.917080397583e-03 0.0 
-2.917080397583e-03 1.153463791195e-03 0.0 
0.0 0.0 -6.918829960147e-04 
6.174604848126e-04 -2.601794133831e-03 0.0 
-2.601794133831e-03 7.903429974379e-04 0.0 
0.0 0.0 -6.033443495359e-04 
-4.149645807323e-04 -9.518115957764e-04 0.0 
-9.518115957764e-04 1.570452979312e-03 0.0 
0.0 0.0 -4.579617190245e-04 
-1.800428115941e-03 6.964731656622e-04 0.0 
6.964731656622e-04 6.067707299324e-03 0.0 
0.0 0.0 -8.885078876198e-04 
-6.431842488821e-04 -1.481881899324e-03 0.0 
-1.481881899324e-03 2.527966751562e-03 0.0 
0.0 0.0 -8.077639297199e-04 
-3.542476587942e-04 -1.933324559496e-03 0.0 
-1.933324559496e-03 3.366073220136e-03 0.0 
0.0 0.0 -1.067401112627e-03 
-7.301428169590e-04 3.365159558875e-03 0.0 
3.365159558875e-03 4.241956460408e-03 0.0 
0.0 0.0 -1.093380752811e-03 
-1.742519381031e-03 2.013539484841e-03 0.0 
2.013539484841e-03 5.514346305573e-03 0.0 
0.0 0.0 -9.013836717722e-04 
-1.638703746775e-03 1.447396884762e-03 0.0 
1.447396884762e-03 7.437681461836e-03 0.0 
0.0 0.0 -1.126084317643e-03 
-1.069717058735e-03 3.316002143618e-03 0.0 
3.316002143618e-03 5.313047036020e-03 0.0 
0.0 0.0 -1.164310864388e-03 
2.494431731371e-03 1.270414999422e-03 0.0 
1.270414999422e-03 -1.135062232485e-03 0.0 
0.0 0.0 -5.825869280942e-04 
-6.518857880869e-04 3.512796865886e-03 0.0 
3.512796865886e-03 3.785510000148e-03 0.0 
0.0 0.0 -1.029042339204e-03 
9.845026743479e-04 -3.000223110364e-03 0.0 
-3.000223110364e-03 4.820355227438e-04 0.0 
0.0 0.0 -6.285163701822e-04 
9.169108146699e-06 -3.021931346183e-03 0.0 
-3.021931346183e-03 1.914436153364e-03 0.0 
0.0 0.0 -8.244022549332e-04 
1.935620549985e-03 2.666280335606e-03 0.0 
2.666280335606e-03 -6.114645168814e-04 0.0 
0.0 0.0 -5.674954427585e-04 
2.434658683002e-03 -2.349214516508e-03 0.0 
-2.349214516508e-03 -7.291186468832e-04 0.0 
0.0 0.0 -7.309457297651e-04 
8.115117363057e-04 -2.741951264447e-03 0.0 
-2.741951264447e-03 6.655581968644e-04 0.0 
0.0 0.0 -6.330299713586e-04 
-4.450599208505e-04 -2.552111804523e-03 0.0 
-2.552111804523e-03 2.573524769895e-03 0.0 
0.0 0.0 -9.121992210190e-04 
7.181167573208e-04 -2.648058741041e-03 0.0 
-2.648058741041e-03 7.077719066917e-04 0.0 
0.0 0.0 -6.110951417196e-04 
8.603807904587e-04 -2.481932762305e-03 0.0 
-2.481932762305e-03 4.907815371097e-04 0.0 
0.0 0.0 -5.790695689579e-04 
-7.220048660239e-04 -1.343093892557e-03 0.0 
-1.343093892557e-03 2.702939106315e-03 0.0 
0.0 0.0 -8.489718172674e-04 
4.166245934909e-04 -3.209488587121e-03 0.0 
-3.209488587121e-03 1.389160896237e-03 0.0 
0.0 0.0 -7.739080670262e-04 
1.094305293400e-03 -2.135240774913e-03 0.0 
-2.135240774913e-03 1.298780956037e-04 0.0 
0.0 0.0 -5.246500238586e-04 
1.735397459642e-03 -1.790668401916e-03 0.0 
-1.790668401916e-03 -5.241960348096e-04 0.0 
0.0 0.0 -5.190863249281e-04 
-2.953118235534e-05 -2.621242279383e-03 0.0 
-2.621242279383e-03 1.729246141722e-03 0.0 
0.0 0.0 -7.284492682998e-04 
9.068086297483e-04 -1.885631159827e-04 0.0 
-1.885631159827e-04 1.202081875786e-03 0.0 
0.0 0.0 -9.038102166577e-04 
-1.735518635242e-03 6.223275928078e-04 0.0 
6.223275928078e-04 6.851645939463e-03 0.0 
0.0 0.0 -9.984673180476e-04 
2.290762220203e-03 -1.318712250617e-03 0.0 
-1.318712250617e-03 -1.027744525883e-03 0.0 
0.0 0.0 -5.412932975660e-04 
-5.654229652914e-04 -1.684995955007e-03 0.0 
-1.684995955007e-03 3.940963543082e-03 0.0 
0.0 0.0 -1.133495712197e-03 
1.398246767020e-03 -3.216441844472e-03 0.0 
-3.216441844472e-03 9.154783719246e-05 0.0 
0.0 0.0 -6.384834018056e-04 
-5.648051924757e-04 -1.107091868774e-03 0.0 
-1.107091868774e-03 4.182104582450e-03 0.0 
0.0 0.0 -1.208505026952e-03 
7.869283801720e-04 -2.957311971993e-03 0.0 
-2.957311971993e-03 8.055017795032e-04 0.0 
0.0 0.0 -6.824700684322e-04 
-1.163518298392e-03 3.423968427013e-03 0.0 
3.423968427013e-03 5.864548636599e-03 0.0 
0.0 0.0 -1.203459118631e-03 
-1.226888468028e-03 3.131439724330e-03 0.0 
3.131439724330e-03 4.473148429932e-03 0.0 
0.0 0.0 -9.144069900286e-04 
8.146311757364e-04 -2.866044643526e-03 0.0 
-2.866044643526e-03 7.279520038073e-04 0.0 
0.0 0.0 -6.611070769473e-04 
-1.669436221743e-03 2.273068641771e-03 0.0 
2.273068641771e-03 5.485810747731e-03 0.0 
0.0 0.0 -9.292863832265e-04 
-1.634774651159e-03 1.926043724267e-03 0.0 
1.926043724267e-03 7.350223961808e-03 0.0 
0.0 0.0 -1.148369591821e-03 
9.266283371582e-04 -2.700818447501e-03 0.0 
-2.700818447501e-03 5.423083712425e-04 0.0 
0.0 0.0 -6.295443036003e-04 
1.446287545932e-03 3.073556646394e-03 0.0 
3.073556646394e-03 1.275065551695e-04 0.0 
0.0 0.0 -6.744831861864e-04 
-1.574055992192e-03 2.506613091125e-03 0.0 
2.506613091125e-03 5.429733742182e-03 0.0 
0.0 0.0 -9.572423940436e-04 
2.774777350088e-04 3.373231360525e-03 0.0 
3.373231360525e-03 1.692140773898e-03 0.0 
0.0 0.0 -8.441222181028e-04 
6.686313295052e-04 -2.714647588195e-03 0.0 
-2.714647588195e-03 7.978373867195e-04 0.0 
0.0 0.0 -6.284865926677e-04 
-1.493705396886e-03 1.751261100369e-03 0.0 
1.751261100369e-03 8.145178326217e-03 0.0 
0.0 0.0 -1.259077240559e-03 
2.909241618845e-04 -2.201062680806e-03 0.0 
-2.201062680806e-03 9.491865650592e-04 0.0 
0.0 0.0 -5.314760258330e-04 
-1.393014638960e-04 7.789838351986e-04 0.0 
7.789838351986e-04 3.592179503210e-03 0.0 
0.0 0.0 -1.194426649262e-03 
-1.554233915862e-03 9.163364700516e-04 0.0 
9.163364700516e-04 7.887220632938e-03 0.0 
0.0 0.0 -1.175981821618e-03 
7.026255322913e-04 -6.834983021250e-04 0.0 
-6.834983021250e-04 1.598542050998e-03 0.0 
0.0 0.0 -9.862146785524e-04 
-1.631602720906e-03 6.968439340323e-04 0.0 
6.968439340323e-04 6.226177705545e-03 0.0 
0.0 0.0 -9.041796124736e-04 
-1.724067531766e-03 9.331717393615e-04 0.0 
9.331717393615e-04 7.373782435820e-03 0.0 
0.0 0.0 -1.094228678348e-03 
1.385482593825e-03 -2.030831099799e-03 0.0 
-2.030831099799e-03 -2.112692183438e-04 0.0 
0.0 0.0 -5.032343037776e-04 
1.999660538583e-03 5.238969397191e-04 0.0 
5.238969397191e-04 -8.881969286874e-04 0.0 
0.0 0.0 -4.763415470983e-04 
-1.569811974871e-03 1.587727422304e-03 0.0 
1.587727422304e-03 7.784527269149e-03 0.0 
0.0 0.0 -1.191782302182e-03 
-9.330696091187e-04 -2.330125100931e-03 0.0 
-2.330125100931e-03 4.026828994110e-03 0.0 
0.0 0.0 -1.021464098896e-03 
-1.750430558126e-03 7.997395592586e-04 0.0 
7.997395592586e-04 6.994945578504e-03 0.0 
0.0 0.0 -1.028225029406e-03 
5.898974709842e-04 -1.490603234069e-03 0.0 
-1.490603234069e-03 1.573546015772e-03 0.0 
0.0 0.0 -9.271900657525e-04 
1.226199290364e-03 -3.133713578343e-03 0.0 
-3.133713578343e-03 4.720804484946e-04 0.0 
0.0 0.0 -7.278341737966e-04 
-1.755813224466e-03 9.900590192067e-04 0.0 
9.900590192067e-04 7.121505765451e-03 0.0 
0.0 0.0 -1.057861461704e-03 
-1.020230912339e-03 3.255501544884e-03 0.0 
3.255501544884e-03 5.845285965923e-03 0.0 
0.0 0.0 -1.268085107495e-03 
-8.098027228146e-04 -1.517662878241e-03 0.0 
-1.517662878241e-03 4.547334409745e-03 0.0 
0.0 0.0 -1.202195648613e-03 
7.610076650519e-05 -3.235453866840e-03 0.0 
-3.235453866840e-03 1.932455716982e-03 0.0 
0.0 0.0 -8.608099214947e-04 
-1.689275270792e-03 3.359122450795e-04 0.0 
3.359122450795e-04 6.273459191033e-03 0.0 
0.0 0.0 -9.020111041354e-04 
-1.632588233776e-03 6.974904632293e-04 0.0 
6.974904632293e-04 5.987209936235e-03 0.0 
0.0 0.0 -8.677534307045e-04 
6.088392128265e-04 -2.822537476632e-03 0.0 
-2.822537476632e-03 9.202084504230e-04 0.0 
0.0 0.0 -6.553061413926e-04 
-6.443122983676e-04 -2.499706879338e-03 0.0 
-2.499706879338e-03 3.462729029903e-03 0.0 
0.0 0.0 -9.927925938929e-04 
-4.755079025855e-04 -2.238751106190e-03 0.0 
-2.238751106190e-03 3.389731406328e-03 0.0 
0.0 0.0 -1.030113165296e-03 
-2.437047899643e-04 -1.231397142334e-03 0.0 
-1.231397142334e-03 1.345917923955e-03 0.0 
0.0 0.0 -4.426674065645e-04 
2.847402133071e-03 1.832321194303e-03 0.0 
1.832321194303e-03 -1.311219245011e-03 0.0 
0.0 0.0 -6.583640948828e-04 
2.391065633377e-03 -7.030644689003e-04 0.0 
-7.030644689003e-04 -1.190042454993e-03 0.0 
0.0 0.0 -5.147242193072e-04 
1.968235762107e-03 -1.858343853594e-03 0.0 
-1.858343853594e-03 -8.473461408074e-04 0.0 
0.0 0.0 -4.803812662710e-04 
7.235144373202e-04 3.006853977664e-03 0.0 
3.006853977664e-03 8.982936940798e-04 0.0 
0.0 0.0 -6.950606277428e-04 
-1.594047644543e-03 1.198778980109e-03 0.0 
1.198778980109e-03 8.076345274144e-03 0.0 
0.0 0.0 -1.225426844749e-03 
-1.544957883650e-03 2.714187828761e-03 0.0 
2.714187828761e-03 6.803087963728e-03 0.0 
0.0 0.0 -1.162686153705e-03 
-1.603786220280e-03 5.743670581703e-04 0.0 
5.743670581703e-04 7.933574954986e-03 0.0 
0.0 0.0 -1.173632101657e-03 
-3.176362262569e-04 3.157680560962e-03 0.0 
3.157680560962e-03 2.644961507973e-03 0.0 
0.0 0.0 -9.922833334649e-04 
-1.686655624371e-03 1.762581410411e-03 0.0 
1.762581410411e-03 7.001695775819e-03 0.0 
0.0 0.0 -1.082713561900e-03 
-8.312311815285e-04 -2.893135141048e-03 0.0 
-2.893135141048e-03 3.527094208899e-03 0.0 
0.0 0.0 -1.005652543148e-03 
-1.566323459329e-03 1.337573114455e-03 0.0 
1.337573114455e-03 7.933955714899e-03 0.0 
0.0 0.0 -1.198415070424e-03 
-1.781797660459e-03 1.042297273604e-03 0.0 
1.042297273604e-03 6.860193468522e-03 0.0 
0.0 0.0 -1.021631336281e-03 
1.651541321597e-04 -3.069309819670e-03 0.0 
-3.069309819670e-03 1.677218775847e-03 0.0 
0.0 0.0 -7.895883891459e-04 
2.729895556258e-03 -3.816222067231e-05 0.0 
-3.816222067231e-05 -1.329892949249e-03 0.0 
0.0 0.0 -6.000011172896e-04 
-1.678629276342e-03 1.301261135869e-03 0.0 
1.301261135869e-03 7.071604861536e-03 0.0 
0.0 0.0 -1.060111126929e-03 
-1.674561038714e-03 1.060445620383e-03 0.0 
1.060445620383e-03 7.740408073351e-03 0.0 
0.0 0.0 -1.160283895044e-03 
-1.648358362413e-03 1.080960708592e-03 0.0 
1.080960708592e-03 7.188263314287e-03 0.0 
0.0 0.0 -1.066842251349e-03 
-1.675485628863e-03 1.117801916471e-03 0.0 
1.117801916471e-03 6.945334177936e-03 0.0 
0.0 0.0 -1.030428295937e-03 
-9.047694827226e-04 -1.891564198184e-03 0.0 
-1.891564198184e-03 4.463027696646e-03 0.0 
0.0 0.0 -1.124756152480e-03 
-3.636288725448e-05 1.185092302766e-03 0.0 
1.185092302766e-03 3.361330425582e-03 0.0 
0.0 0.0 -1.167530213646e-03 
-6.417903686716e-04 -1.936633603608e-03 0.0 
-1.936633603608e-03 3.924941189051e-03 0.0 
0.0 0.0 -1.096139997395e-03 
-6.252750457425e-04 -2.981929184320e-03 0.0 
-2.981929184320e-03 3.101913023538e-03 0.0 
0.0 0.0 -9.455690924112e-04 
-9.133871784712e-04 2.307173197510e-03 0.0 
2.307173197510e-03 3.388339270904e-03 0.0 
0.0 0.0 -8.706649152390e-04 
5.857890875911e-04 -1.165024071922e-04 0.0 
-1.165024071922e-04 1.961403903997e-03 0.0 
0.0 0.0 -1.057160997780e-03 
-1.717096850446e-03 1.897490647652e-03 0.0 
1.897490647652e-03 6.421227655064e-03 0.0 
0.0 0.0 -1.010795753303e-03 
-6.313703935137e-04 -1.096821766549e-03 0.0 
-1.096821766549e-03 2.333660856895e-03 0.0 
0.0 0.0 -7.295530557346e-04 
2.168606455157e-03 -1.381490462849e-03 0.0 
-1.381490462849e-03 -1.049895932277e-03 0.0 
0.0 0.0 -4.794473669488e-04 
1.521212506514e-03 -1.320220071534e-03 0.0 
-1.320220071534e-03 -4.274634539344e-04 0.0 
0.0 0.0 -4.687495939627e-04 
1.466355838383e-03 4.602651966615e-04 0.0 
4.602651966615e-04 -3.624189179881e-05 0.0 
0.0 0.0 -6.129059771076e-04 
2.718390450017e-03 -6.950340879152e-04 0.0 
-6.950340879152e-04 -1.327258381844e-03 0.0 
0.0 0.0 -5.961994577885e-04 
2.586833026508e-03 -8.035069926998e-04 0.0 
-8.035069926998e-04 -1.237368745637e-03 0.0 
0.0 0.0 -5.783418346592e-04 
1.064335855091e-03 3.871345564871e-04 0.0 
3.871345564871e-04 8.878223967010e-04 0.0 
0.0 0.0 -8.366392507678e-04 
-8.479776809358e-04 2.867626528881e-03 0.0 
2.867626528881e-03 3.485177703647e-03 0.0 
0.0 0.0 -9.312627088267e-04 
-1.048673303190e-04 -3.229543423404e-03 0.0 
-3.229543423404e-03 2.260338218225e-03 0.0 
0.0 0.0 -9.237732376742e-04 
-1.787010102696e-03 8.860662194747e-04 0.0 
8.860662194747e-04 6.472161902549e-03 0.0 
0.0 0.0 -9.556638187253e-04 
-1.534511977861e-03 4.226734842399e-04 0.0 
4.226734842399e-04 5.386267654424e-03 0.0 
0.0 0.0 -7.638029664831e-04 
2.694004404959e-04 1.692225150283e-03 0.0 
1.692225150283e-03 6.665564429896e-04 0.0 
0.0 0.0 -4.011243786367e-04 
-2.485044760616e-04 -3.138222606519e-03 0.0 
-3.138222606519e-03 2.491915244985e-03 0.0 
0.0 0.0 -9.614617581102e-04 
5.241395104488e-04 -3.820643100564e-04 0.0 
-3.820643100564e-04 1.948070463321e-03 0.0 
0.0 0.0 -1.051835763028e-03 
-1.541512456067e-03 2.665389691955e-03 0.0 
2.665389691955e-03 7.146978989113e-03 0.0 
0.0 0.0 -1.196871286280e-03 
2.182111420875e-03 6.070828475979e-04 0.0 
6.070828475979e-04 -1.164368423359e-03 0.0 
0.0 0.0 -4.361755703639e-04 
-3.379696423289e-04 -3.147707957552e-03 0.0 
-3.147707957552e-03 2.662191701970e-03 0.0 
0.0 0.0 -9.747355338013e-04 
-1.758283285419e-03 6.606645787397e-04 0.0 
6.606645787397e-04 6.605527542412e-03 0.0 
0.0 0.0 -9.620958722924e-04 
2.572595780151e-04 1.907531255629e-03 0.0 
1.907531255629e-03 8.125007966373e-04 0.0 
0.0 0.0 -4.584687319938e-04 
7.215561543483e-04 7.088538436549e-05 0.0 
7.088538436549e-05 1.489224739350e-03 0.0 
0.0 0.0 -9.474775258706e-04 
1.699588376700e-03 -2.701395224992e-04 0.0 
-2.701395224992e-04 -6.431195081869e-04 0.0 
0.0 0.0 -4.527723722201e-04 
-1.123050040693e-03 2.722320328238e-03 0.0 
2.722320328238e-03 3.963607121214e-03 0.0 
0.0 0.0 -8.880452441696e-04 
-6.861996964778e-04 -2.718033399413e-03 0.0 
-2.718033399413e-03 3.467552900927e-03 0.0 
0.0 0.0 -1.027225276160e-03 
2.084513055480e-03 -2.969236307345e-03 0.0 
-2.969236307345e-03 -6.426223811324e-04 0.0 
0.0 0.0 -6.179531461491e-04 
-5.320903479306e-04 -2.451811030805e-03 0.0 
-2.451811030805e-03 3.446359028726e-03 0.0 
0.0 0.0 -1.064556537081e-03 
-5.475761825290e-04 -1.405154027486e-03 0.0 
-1.405154027486e-03 4.014926747039e-03 0.0 
0.0 0.0 -1.170878753521e-03 
8.694157167214e-04 5.959603823475e-04 0.0 
5.959603823475e-04 1.083517633446e-03 0.0 
0.0 0.0 -8.369714357860e-04 
-1.720938074938e-03 7.528205405103e-04 0.0 
7.528205405103e-04 7.239876321155e-03 0.0 
0.0 0.0 -1.064574987933e-03 
-2.581275539260e-04 2.774157829489e-03 0.0 
2.774157829489e-03 3.637568838645e-03 0.0 
0.0 0.0 -1.082686220397e-03 
-6.278749381159e-04 -1.931446236287e-03 0.0 
-1.931446236287e-03 4.088424354687e-03 0.0 
0.0 0.0 -1.168035910845e-03 
7.662032872175e-05 1.799978139758e-03 0.0 
1.799978139758e-03 1.016865245771e-03 0.0 
0.0 0.0 -4.686366747828e-04 
-1.772766923136e-03 8.481702159287e-04 0.0 
8.481702159287e-04 6.740907635403e-03 0.0 
0.0 0.0 -9.919185416031e-04 
-2.292199257427e-04 1.889849914101e-03 0.0 
1.889849914101e-03 3.718845686110e-03 0.0 
0.0 0.0 -1.173906618061e-03 
-1.648981142695e-03 1.259232254070e-03 0.0 
1.259232254070e-03 7.322595481216e-03 0.0 
0.0 0.0 -1.096489272820e-03 
1.160861635041e-03 6.400460397782e-04 0.0 
6.400460397782e-04 2.605650516831e-04 0.0 
0.0 0.0 -6.091828657389e-04 
2.574979574883e-03 -1.390903072999e-04 0.0 
-1.390903072999e-04 -1.282434716650e-03 0.0 
0.0 0.0 -5.539477963855e-04 
-1.116067155649e-03 -2.250326754200e-03 0.0 
-2.250326754200e-03 3.947993630682e-03 0.0 
0.0 0.0 -1.025516461270e-03 
1.249937303602e-03 3.552940721610e-04 0.0 
3.552940721610e-04 -1.039148958258e-03 0.0 
0.0 0.0 -9.033786229011e-05 
-1.613458135025e-03 1.210057674443e-03 0.0 
1.210057674443e-03 7.562124248112e-03 0.0 
0.0 0.0 -1.132911322290e-03 
-7.377235371559e-04 -9.591054036843e-04 0.0 
-9.591054036843e-04 2.612387194917e-03 0.0 
0.0 0.0 -8.013069569330e-04 
-1.500810255742e-04 1.675008285432e-03 0.0 
1.675008285432e-03 1.366929482546e-03 0.0 
0.0 0.0 -5.215064815592e-04 
-3.658200529699e-04 3.020199158602e-03 0.0 
3.020199158602e-03 3.713742958922e-03 0.0 
0.0 0.0 -1.054483161448e-03 
-1.538001914897e-03 1.084053552084e-03 0.0 
1.084053552084e-03 8.041309965801e-03 0.0 
0.0 0.0 -1.206783194404e-03 
1.727844094968e-03 -3.343181964838e-03 0.0 
-3.343181964838e-03 -2.401420928011e-04 0.0 
0.0 0.0 -6.375865723574e-04 
-2.167964077171e-04 3.747756050696e-03 0.0 
3.747756050696e-03 2.648111889763e-03 0.0 
0.0 0.0 -9.072936044704e-04 
-1.701887886532e-03 1.344630388867e-03 0.0 
1.344630388867e-03 6.812020791196e-03 0.0 
0.0 0.0 -1.023814440555e-03 
-4.458873681724e-04 -2.966430795108e-03 0.0 
-2.966430795108e-03 2.822625691825e-03 0.0 
0.0 0.0 -1.018602138708e-03 
2.635787731545e-03 -1.799593391660e-03 0.0 
-1.799593391660e-03 -1.225014149329e-03 0.0 
0.0 0.0 -6.046172495213e-04 
1.631098457746e-03 2.876803562451e-03 0.0 
2.876803562451e-03 -2.192512757881e-04 0.0 
0.0 0.0 -6.050773636963e-04 
9.159182720240e-04 -2.840057079041e-03 0.0 
-2.840057079041e-03 6.236111220924e-04 0.0 
0.0 0.0 -6.597983117642e-04 
1.988952410622e-03 -2.773207495313e-03 0.0 
-2.773207495313e-03 -3.142881963505e-04 0.0 
0.0 0.0 -7.177132346876e-04 
1.648220485470e-03 -3.321848158051e-03 0.0 
-3.321848158051e-03 2.024080431041e-04 0.0 
0.0 0.0 -7.931265122462e-04 
1.705098340266e-03 6.558868029328e-04 0.0 
6.558868029328e-04 -6.969008095806e-04 0.0 
0.0 0.0 -4.320846560080e-04 
-1.468520801646e-03 2.285525207987e-03 0.0 
2.285525207987e-03 8.442456052557e-03 0.0 
0.0 0.0 -1.324146187826e-03 
-3.956257745020e-04 1.730887625779e-03 0.0 
1.730887625779e-03 1.977050055323e-03 0.0 
0.0 0.0 -6.777532632091e-04 
-1.125863067977e-03 -1.827974217199e-03 0.0 
-1.827974217199e-03 4.964930907455e-03 0.0 
0.0 0.0 -1.153422328581e-03 
2.868285214674e-03 1.352379803766e-03 0.0 
1.352379803766e-03 -1.299848991907e-03 0.0 
0.0 0.0 -6.721869526143e-04 
-1.802402553613e-03 1.096854962503e-03 0.0 
1.096854962503e-03 6.595527473872e-03 0.0 
0.0 0.0 -9.856407671940e-04 
1.971085959338e-03 3.239399902758e-04 0.0 
3.239399902758e-04 -1.217941390756e-03 0.0 
0.0 0.0 -3.227762436777e-04 
-6.307118357170e-04 -1.642290149673e-03 0.0 
-1.642290149673e-03 4.191316448183e-03 0.0 
0.0 0.0 -1.206759618350e-03 
1.281188306004e-03 -3.309115169896e-03 0.0 
-3.309115169896e-03 2.482805933930e-04 0.0 
0.0 0.0 -6.554866711701e-04 
-8.580919722625e-04 -1.141606507875e-03 0.0 
-1.141606507875e-03 3.004910753851e-03 0.0 
0.0 0.0 -8.925927511852e-04 
6.775973206905e-04 1.090261256499e-03 0.0 
1.090261256499e-03 1.554850184539e-03 0.0 
0.0 0.0 -9.567632165269e-04 
9.810193940895e-04 -2.270636417532e-03 0.0 
-2.270636417532e-03 2.960510298287e-04 0.0 
0.0 0.0 -5.473158959649e-04 
3.899080625909e-05 1.591876067608e-03 0.0 
1.591876067608e-03 3.206945282166e-03 0.0 
0.0 0.0 -1.139062866688e-03 
6.623861865506e-04 3.094490503078e-03 0.0 
3.094490503078e-03 1.014638708619e-03 0.0 
0.0 0.0 -7.187249550728e-04 
-1.786253758345e-03 1.560633333520e-03 0.0 
1.560633333520e-03 6.766601134335e-03 0.0 
0.0 0.0 -1.044446328659e-03 
-2.152386475275e-04 1.351101504798e-03 0.0 
1.351101504798e-03 3.486323150058e-03 0.0 
0.0 0.0 -1.198892520503e-03 
-1.697142570711e-03 1.154161816812e-03 0.0 
1.154161816812e-03 6.693519511439e-03 0.0 
0.0 0.0 -9.940794652285e-04 
-1.618144651602e-03 2.389450829648e-03 0.0 
2.389450829648e-03 7.197343605865e-03 0.0 
0.0 0.0 -1.194784139986e-03 
-1.753520328123e-03 1.193661618907e-03 0.0 
1.193661618907e-03 7.230580119665e-03 0.0 
0.0 0.0 -1.087318097122e-03 
-1.742396685637e-03 1.406428765971e-03 0.0 
1.406428765971e-03 7.327343743658e-03 0.0 
0.0 0.0 -1.116677092124e-03 
2.275785242891e-03 2.632435729676e-03 0.0 
2.632435729676e-03 -9.199828087608e-04 0.0 
0.0 0.0 -5.810581860557e-04 
-1.241644556097e-03 -1.898381689041e-03 0.0 
-1.898381689041e-03 4.975895501890e-03 0.0 
0.0 0.0 -1.115908039155e-03 
-1.698919862003e-03 1.546534393052e-03 0.0 
1.546534393052e-03 6.917732160494e-03 0.0 
0.0 0.0 -1.053364550114e-03 
1.868987763194e-03 2.227953552638e-03 0.0 
2.227953552638e-03 -6.775743179747e-04 0.0 
0.0 0.0 -5.106057622367e-04 
-6.587012442941e-04 1.777273701504e-03 0.0 
1.777273701504e-03 2.655555522869e-03 0.0 
0.0 0.0 -8.209451439681e-04 
-3.975005523331e-04 1.166939029163e-03 0.0 
1.166939029163e-03 4.024011475053e-03 0.0 
0.0 0.0 -1.232292820449e-03 
2.869313435600e-03 1.110657499061e-03 0.0 
1.110657499061e-03 -1.453214644336e-03 0.0 
0.0 0.0 -6.068994819702e-04 
-7.856974671747e-04 -1.309919738143e-03 0.0 
-1.309919738143e-03 2.807619278170e-03 0.0 
0.0 0.0 -8.201145810434e-04 
1.968962910781e-04 1.862464300239e-03 0.0 
1.862464300239e-03 2.595514694035e-03 0.0 
0.0 0.0 -1.105063927110e-03 
-7.017846764740e-04 -1.435456886112e-05 0.0 
-1.435456886112e-05 1.960630528106e-03 0.0 
0.0 0.0 -3.231071520192e-04 
7.474966936510e-04 3.481240265895e-03 0.0 
3.481240265895e-03 1.138823329650e-03 0.0 
0.0 0.0 -8.084228671290e-04 
5.678040040528e-04 5.673257875062e-04 0.0 
5.673257875062e-04 1.874262662432e-03 0.0 
0.0 0.0 -1.046599999922e-03 
-1.677286885825e-03 1.562425953110e-03 0.0 
1.562425953110e-03 7.659770185164e-03 0.0 
0.0 0.0 -1.181155146799e-03 
-1.652320647354e-03 1.808826218554e-03 0.0 
1.808826218554e-03 7.744329424571e-03 0.0 
0.0 0.0 -1.210943746944e-03 
7.584470326040e-04 3.628423669224e-04 0.0 
3.628423669224e-04 1.668047544981e-03 0.0 
0.0 0.0 -1.028825005900e-03 
-1.718024774256e-03 1.129889074764e-03 0.0 
1.129889074764e-03 7.489751701523e-03 0.0 
0.0 0.0 -1.123737208958e-03 
2.593889195352e-03 1.856767809109e-03 0.0 
1.856767809109e-03 -1.126153271608e-03 0.0 
0.0 0.0 -6.290296816044e-04 
-7.519765885532e-04 3.109043581873e-03 0.0 
3.109043581873e-03 4.411738950076e-03 0.0 
0.0 0.0 -1.062452857821e-03 
-9.715076255527e-04 1.639125050494e-03 0.0 
1.639125050494e-03 3.248586274010e-03 0.0 
0.0 0.0 -7.769695025612e-04 
-1.390466882155e-03 3.112822277327e-03 0.0 
3.112822277327e-03 6.316045090648e-03 0.0 
0.0 0.0 -1.181751882508e-03 
-1.269001708520e-03 1.478688136927e-03 0.0 
1.478688136927e-03 3.854232216412e-03 0.0 
0.0 0.0 -7.538120163098e-04 
-1.420223830458e-03 1.391784125232e-03 0.0 
1.391784125232e-03 4.161040048690e-03 0.0 
0.0 0.0 -7.332406657776e-04 
2.298674918512e-03 1.220061250636e-03 0.0 
1.220061250636e-03 -1.173783310071e-03 0.0 
0.0 0.0 -4.820964036177e-04 
-1.557422700527e-03 1.363360327043e-03 0.0 
1.363360327043e-03 4.471575651466e-03 0.0 
0.0 0.0 -7.361032999402e-04 
6.913968744153e-04 3.249644441005e-03 0.0 
3.249644441005e-03 1.296623038176e-03 0.0 
0.0 0.0 -8.520085339679e-04 
1.718973007646e-03 2.924390266821e-03 0.0 
2.924390266821e-03 -1.924867080382e-04 0.0 
0.0 0.0 -6.542084141176e-04 
2.210348991445e-03 -8.088378780929e-04 0.0 
-8.088378780929e-04 -1.123482344713e-03 0.0 
0.0 0.0 -4.657999914567e-04 
2.497491272241e-03 -1.532773257142e-03 0.0 
-1.532773257142e-03 -1.081083643723e-03 0.0 
0.0 0.0 -6.070318407937e-04 
2.586887755130e-03 6.094796342036e-04 0.0 
6.094796342036e-04 -1.311719394663e-03 0.0 
0.0 0.0 -5.465007259145e-04 
-1.601167176657e-03 1.396089815657e-03 0.0 
1.396089815657e-03 7.688892179250e-03 0.0 
0.0 0.0 -1.162517914204e-03 
-1.471528092625e-03 3.001207936412e-03 0.0 
3.001207936412e-03 6.831752371077e-03 0.0 
0.0 0.0 -1.195263893373e-03 
-1.182311321110e-03 -2.133379308242e-03 0.0 
-2.133379308242e-03 4.544787139884e-03 0.0 
0.0 0.0 -1.050100468764e-03 
-1.223721568856e-04 1.745261046552e-03 0.0 
1.745261046552e-03 3.281782845900e-03 0.0 
0.0 0.0 -1.170266998156e-03 
1.214604030940e-03 -2.155562007462e-03 0.0 
-2.155562007462e-03 9.364629533618e-05 0.0 
0.0 0.0 -5.606787112612e-04 
-1.656719624483e-03 1.711448335042e-03 0.0 
1.711448335042e-03 7.275839845738e-03 0.0 
0.0 0.0 -1.119019617531e-03 
2.359890878457e-03 -4.267964440931e-05 0.0 
-4.267964440931e-05 -1.248439169515e-03 0.0 
0.0 0.0 -4.763364466896e-04 
-1.407406798469e-03 -1.723847992245e-03 0.0 
-1.723847992245e-03 5.419782439974e-03 0.0 
0.0 0.0 -1.144395376583e-03 
-1.671654625585e-03 1.497806515934e-03 0.0 
1.497806515934e-03 7.180003972529e-03 0.0 
0.0 0.0 -1.089631904438e-03 
-1.769810542863e-03 1.479525562214e-03 0.0 
1.479525562214e-03 7.051291447038e-03 0.0 
0.0 0.0 -1.080451501872e-03 
1.020279383885e-03 1.759819708792e-05 0.0 
1.759819708792e-05 6.806225927368e-04 0.0 
0.0 0.0 -7.289579899807e-04 
2.670406423032e-03 1.253518595181e-03 0.0 
1.253518595181e-03 -1.265788156022e-03 0.0 
0.0 0.0 -6.019792572901e-04 
-8.493845713370e-04 3.018177913519e-03 0.0 
3.018177913519e-03 4.847344094450e-03 0.0 
0.0 0.0 -1.126038590206e-03 
-1.241437732375e-03 3.272568664608e-03 0.0 
3.272568664608e-03 4.414773958175e-03 0.0 
0.0 0.0 -9.324202963083e-04 
2.392506853527e-03 -2.638222039722e-03 0.0 
-2.638222039722e-03 -9.888506330534e-04 0.0 
0.0 0.0 -6.015669516317e-04 
2.802892214258e-03 -1.137304662585e-05 0.0 
-1.137304662585e-05 -1.333498735436e-03 0.0 
0.0 0.0 -6.297400623524e-04 
7.949185057269e-04 2.716848624173e-03 0.0 
2.716848624173e-03 6.207904953631e-04 0.0 
0.0 0.0 -6.067324290386e-04 
-1.563287978713e-04 3.620132007229e-03 0.0 
3.620132007229e-03 2.581411168791e-03 0.0 
0.0 0.0 -1.015946800258e-03 
-1.534351365184e-03 -1.516799222336e-03 0.0 
-1.516799222336e-03 5.828494836448e-03 0.0 
0.0 0.0 -1.173545322487e-03 
-1.782237154873e-03 1.254534813549e-03 0.0 
1.254534813549e-03 6.967044995053e-03 0.0 
0.0 0.0 -1.051102540299e-03 
2.754613032243e-03 5.835371394657e-04 0.0 
5.835371394657e-04 -1.282545286099e-03 0.0 
0.0 0.0 -6.308861769187e-04 
-6.435068013720e-04 3.480233123954e-03 0.0 
3.480233123954e-03 3.600985193807e-03 0.0 
0.0 0.0 -9.344940742331e-04 
3.980809440766e-04 1.365381173478e-04 0.0 
1.365381173478e-04 2.266784517746e-03 0.0 
0.0 0.0 -1.088599101970e-03 
-1.685240832100e-03 8.774447861184e-04 0.0 
8.774447861184e-04 7.615424303421e-03 0.0 
0.0 0.0 -1.130578931274e-03 
-1.056611405718e-03 3.085021790290e-03 0.0 
3.085021790290e-03 5.374856941272e-03 0.0 
0.0 0.0 -1.160781586281e-03 
-1.731537587415e-03 1.425159992310e-03 0.0 
1.425159992310e-03 6.282505969900e-03 0.0 
0.0 0.0 -9.517943393003e-04 
-1.629224858150e-05 -1.008868814593e-03 0.0 
-1.008868814593e-03 2.976796140904e-03 0.0 
0.0 0.0 -1.113435711030e-03 
2.175710495241e-03 -1.797462906061e-04 0.0 
-1.797462906061e-04 -1.087187483949e-03 0.0 
0.0 0.0 -4.665098619825e-04 
3.691792219411e-04 -5.499254361333e-04 0.0 
-5.499254361333e-04 2.333255494325e-03 0.0 
0.0 0.0 -1.086118700983e-03 
6.267430188437e-04 3.216016004345e-03 0.0 
3.216016004345e-03 1.125673463038e-03 0.0 
0.0 0.0 -7.510356350920e-04 
-1.659468944553e-03 1.282087032836e-03 0.0 
1.282087032836e-03 7.843512833905e-03 0.0 
0.0 0.0 -1.188704642750e-03 
-1.184759635984e-03 3.039469531493e-03 0.0 
3.039469531493e-03 5.917915895918e-03 0.0 
0.0 0.0 -1.200489323427e-03 
1.397717749359e-03 -3.084135371350e-05 0.0 
-3.084135371350e-05 -2.483823730722e-04 0.0 
0.0 0.0 -4.925723041230e-04 
2.632145634489e-03 2.594608975648e-04 0.0 
2.594608975648e-04 -1.433557919304e-03 0.0 
0.0 0.0 -5.136804493649e-04 
-3.195071874589e-04 2.949770132737e-03 0.0 
2.949770132737e-03 3.519559910753e-03 0.0 
0.0 0.0 -1.113685640909e-03 
5.151939740245e-04 3.610223291188e-03 0.0 
3.610223291188e-03 1.499767463066e-03 0.0 
0.0 0.0 -8.635549016102e-04 
2.789061016644e-03 1.329285031073e-03 0.0 
1.329285031073e-03 -1.174648499198e-03 0.0 
0.0 0.0 -6.918910789057e-04 
1.203480951529e-03 -2.452700069764e-04 0.0 
-2.452700069764e-04 3.890277914199e-04 0.0 
0.0 0.0 -6.825037469782e-04 
-1.401752245562e-04 -2.049705526548e-03 0.0 
-2.049705526548e-03 2.929158581755e-03 0.0 
0.0 0.0 -1.072977024862e-03 
2.580288745065e-03 -9.059416529247e-04 0.0 
-9.059416529247e-04 -1.319309692526e-03 0.0 
0.0 0.0 -5.404195939453e-04 
1.923073746863e-03 -4.525221159698e-05 0.0 
-4.525221159698e-05 -9.232494801660e-04 0.0 
0.0 0.0 -4.284961142987e-04 
-1.564398244357e-03 2.691343570358e-03 0.0 
2.691343570358e-03 5.384100406286e-03 0.0 
0.0 0.0 -9.596127204057e-04 
-1.615413359891e-03 -1.869412921893e-03 0.0 
-1.869412921893e-03 5.891470981236e-03 0.0 
0.0 0.0 -1.170838755190e-03 
-1.469366754309e-03 2.906743993666e-03 0.0 
2.906743993666e-03 5.300260062947e-03 0.0 
0.0 0.0 -9.876491701490e-04 
-3.947067001148e-04 3.217756852044e-03 0.0 
3.217756852044e-03 3.568382132428e-03 0.0 
0.0 0.0 -1.085374163265e-03 
-1.640677092253e-03 2.445403796559e-03 0.0 
2.445403796559e-03 5.441088956569e-03 0.0 
0.0 0.0 -9.316602363005e-04 
-1.740388366318e-03 1.924888427331e-03 0.0 
1.924888427331e-03 5.465143202308e-03 0.0 
0.0 0.0 -8.756372412555e-04 
-1.133390563237e-03 3.456670762875e-03 0.0 
3.456670762875e-03 4.264491800942e-03 0.0 
0.0 0.0 -9.452931837154e-04 
1.258865816682e-04 1.427076262396e-03 0.0 
1.427076262396e-03 2.787339061218e-03 0.0 
0.0 0.0 -1.133505030480e-03 
-1.184151913809e-03 -2.442035502192e-03 0.0 
-2.442035502192e-03 4.566403913145e-03 0.0 
0.0 0.0 -1.084522140297e-03 
-1.719906891250e-03 1.595024504340e-03 0.0 
1.595024504340e-03 6.646342255881e-03 0.0 
0.0 0.0 -1.017300281410e-03 
-1.572744207127e-03 2.077724400643e-03 0.0 
2.077724400643e-03 7.699948884985e-03 0.0 
0.0 0.0 -1.212886757924e-03 
-1.697994519952e-03 2.183604815945e-03 0.0 
2.183604815945e-03 5.469670954577e-03 0.0 
0.0 0.0 -9.037302385344e-04 
3.109518991990e-03 7.142103845853e-04 0.0 
7.142103845853e-04 -1.355577660133e-03 0.0 
0.0 0.0 -7.516891422245e-04 
-4.615783183021e-04 2.634115171252e-03 0.0 
2.634115171252e-03 4.171995570701e-03 0.0 
0.0 0.0 -1.146733564437e-03 
-1.623397737588e-03 9.830618757014e-04 0.0 
9.830618757014e-04 7.977997106224e-03 0.0 
0.0 0.0 -1.196744929305e-03 
1.210285564886e-03 2.794819533997e-03 0.0 
2.794819533997e-03 2.142507881916e-04 0.0 
0.0 0.0 -6.105155798904e-04 
7.664634744893e-04 3.055447408668e-03 0.0 
3.055447408668e-03 8.799111198642e-04 0.0 
0.0 0.0 -7.055891118658e-04 
3.026285545234e-03 6.479754984524e-04 0.0 
6.479754984524e-04 -1.309294928286e-03 0.0 
0.0 0.0 -7.358531215491e-04 
-1.707025994169e-03 1.825045050910e-03 0.0 
1.825045050910e-03 6.718430060264e-03 0.0 
0.0 0.0 -1.046609947212e-03 
1.285120213061e-04 3.160317099540e-03 0.0 
3.160317099540e-03 1.795393702842e-03 0.0 
0.0 0.0 -8.245310246350e-04 
6.213466678406e-04 3.150191375349e-03 0.0 
3.150191375349e-03 1.093887972575e-03 0.0 
0.0 0.0 -7.351005601782e-04 
1.723951590445e-04 3.402388421843e-03 0.0 
3.402388421843e-03 1.876640106691e-03 0.0 
0.0 0.0 -8.781579710297e-04 
4.568820957443e-04 1.515113560259e-03 0.0 
1.515113560259e-03 2.072520192967e-03 0.0 
0.0 0.0 -1.068254633495e-03 
-7.126619732765e-04 2.634214240334e-03 0.0 
2.634214240334e-03 4.664743447894e-03 0.0 
0.0 0.0 -1.211228670573e-03 
2.874495408011e-03 -1.147543994212e-04 0.0 
-1.147543994212e-04 -1.321663854737e-03 0.0 
0.0 0.0 -6.654992371173e-04 
1.333222057608e-03 -6.083160362555e-04 0.0 
-6.083160362555e-04 -1.046303648964e-03 0.0 
0.0 0.0 -1.229650322759e-04 
-1.560287505520e-03 2.397443585750e-03 0.0 
2.397443585750e-03 7.445606798375e-03 0.0 
0.0 0.0 -1.207184308065e-03 
-1.227743039735e-04 3.216961996269e-03 0.0 
3.216961996269e-03 2.287126095753e-03 0.0 
0.0 0.0 -9.275793393341e-04 
1.407399929741e-03 -1.790726840241e-03 0.0 
-1.790726840241e-03 -2.123508212015e-04 0.0 
0.0 0.0 -5.121639036598e-04 
-5.005943122338e-04 2.854917982027e-03 0.0 
2.854917982027e-03 4.092431792890e-03 0.0 
0.0 0.0 -1.177925372349e-03 
-1.802105864534e-03 1.325377431051e-03 0.0 
1.325377431051e-03 6.693893706785e-03 0.0 
0.0 0.0 -1.015069748350e-03 
-9.552400268193e-04 -2.590206578427e-03 0.0 
-2.590206578427e-03 4.033946220946e-03 0.0 
0.0 0.0 -1.055879354346e-03 
2.213755167184e-03 2.540569608467e-03 0.0 
2.540569608467e-03 -6.561328527755e-04 0.0 
0.0 0.0 -6.675524204610e-04 
8.596589765025e-04 -2.241190996513e-04 0.0 
-2.241190996513e-04 -8.596589765025e-04 0.0 
0.0 0.0 0.0 
-1.695761363760e-03 -1.692827267884e-03 0.0 
-1.692827267884e-03 6.306533924159e-03 0.0 
0.0 0.0 -1.202131160132e-03 
-2.109701725836e-06 3.652134540712e-03 0.0 
3.652134540712e-03 2.337584034461e-03 0.0 
0.0 0.0 -1.000917571172e-03 
6.440987285096e-04 1.846403855810e-03 0.0 
1.846403855810e-03 1.851485320469e-03 0.0 
0.0 0.0 -1.007142642412e-03 
-8.363103258721e-04 3.298399834443e-03 0.0 
3.298399834443e-03 4.744308506763e-03 0.0 
0.0 0.0 -1.157822513452e-03 
0.0 0.0 0.0 
0.0 0.0 0.0 
0.0 0.0 0.0 
-7.671375815713e-04 -2.153381723597e-03 0.0 
-2.153381723597e-03 3.958636255064e-03 0.0 
0.0 0.0 -1.058763633038e-03 
2.277342632696e-03 2.678034488429e-03 0.0 
2.678034488429e-03 -4.950023667951e-04 0.0 
0.0 0.0 -7.638601139576e-04 
-1.817865112225e-03 1.160846124058e-03 0.0 
1.160846124058e-03 6.325027627169e-03 0.0 
0.0 0.0 -9.498437721210e-04 
-6.483445776371e-04 -2.910728448364e-03 0.0 
-2.910728448364e-03 3.240421631363e-03 0.0 
0.0 0.0 -1.081826897668e-03 
2.882336660409e-03 6.507094583248e-04 0.0 
6.507094583248e-04 -1.354897536976e-03 0.0 
0.0 0.0 -6.546167671857e-04 
-1.512905320875e-03 -2.064322058959e-03 0.0 
-2.064322058959e-03 5.485314435598e-03 0.0 
0.0 0.0 -1.141635569211e-03 
5.629634582603e-04 3.291314317230e-03 0.0 
3.291314317230e-03 1.247171813043e-03 0.0 
0.0 0.0 -7.757722591300e-04 
3.097498388755e-03 7.515594805802e-04 0.0 
7.515594805802e-04 -1.504351798864e-03 0.0 
0.0 0.0 -6.827771099535e-04 
-3.950988348044e-04 3.677355835862e-03 0.0 
3.677355835862e-03 3.018937195948e-03 0.0 
0.0 0.0 -8.989548790023e-04 
1.227636575782e-03 -1.512351808794e-03 0.0 
-1.512351808794e-03 -1.085715777594e-03 0.0 
0.0 0.0 -6.082319922330e-05 
-5.120566939223e-04 3.175912523353e-03 0.0 
3.175912523353e-03 3.844622698218e-03 0.0 
0.0 0.0 -1.026417656363e-03 
5.399418997976e-04 8.396772710701e-04 0.0 
8.396772710701e-04 2.161243029461e-03 0.0 
0.0 0.0 -1.065496432940e-03 
-1.316213487934e-03 3.030027547422e-03 0.0 
3.030027547422e-03 6.243260056489e-03 0.0 
0.0 0.0 -1.233600908384e-03 
-6.242951805065e-04 3.006743678072e-03 0.0 
3.006743678072e-03 4.303063931573e-03 0.0 
0.0 0.0 -1.090749533212e-03 
3.026627229701e-03 -6.016138979488e-05 0.0 
-6.016138979488e-05 -1.354975115356e-03 0.0 
0.0 0.0 -7.164223347191e-04 
-1.354858739815e-03 -2.484739121398e-03 0.0 
-2.484739121398e-03 4.613680447839e-03 0.0 
0.0 0.0 -1.047231727503e-03 
-1.514361396418e-03 1.521820591863e-03 0.0 
1.521820591863e-03 8.031763007479e-03 0.0 
0.0 0.0 -1.228155452712e-03 
-7.050516080877e-04 1.545847486976e-03 0.0 
1.545847486976e-03 4.498069063216e-03 0.0 
0.0 0.0 -1.267145247477e-03 
2.943450069451e-04 1.256402020470e-03 0.0 
1.256402020470e-03 2.679722888331e-03 0.0 
0.0 0.0 -1.102242875413e-03 
2.428652697383e-03 1.957638321578e-03 0.0 
1.957638321578e-03 -9.445444981417e-04 0.0 
0.0 0.0 -6.360463711034e-04 
-4.362885790871e-04 3.400866484877e-03 0.0 
3.400866484877e-03 3.416922100764e-03 0.0 
0.0 0.0 -9.624716764950e-04 
-1.751273191057e-03 -1.178364827428e-03 0.0 
-1.178364827428e-03 6.153449964232e-03 0.0 
0.0 0.0 -1.164316760544e-03 
-1.510592316959e-03 -9.050842607301e-04 0.0 
-9.050842607301e-04 4.622892738446e-03 0.0 
0.0 0.0 -1.053897668350e-03 
-5.098353463404e-04 3.384769362386e-03 0.0 
3.384769362386e-03 3.650364032255e-03 0.0 
0.0 0.0 -1.057196955382e-03 
-1.719373888211e-03 1.382981273232e-03 0.0 
1.382981273232e-03 6.550039956498e-03 0.0 
0.0 0.0 -9.877098122505e-04 
-1.368682583039e-03 -2.262414624365e-03 0.0 
-2.262414624365e-03 5.045630347078e-03 0.0 
0.0 0.0 -1.112977059762e-03 
-8.018931633473e-04 -2.405053121667e-03 0.0 
-2.405053121667e-03 4.002834443873e-03 0.0 
0.0 0.0 -1.093234982489e-03 
-1.439791436846e-03 3.326807682738e-05 0.0 
3.326807682738e-05 4.943594407769e-03 0.0 
0.0 0.0 -7.313513689239e-04 
-1.427152505588e-03 6.033982237060e-05 0.0 
6.033982237060e-05 4.941916582327e-03 0.0 
0.0 0.0 -7.310574395863e-04 
-1.640756721107e-03 2.340459270020e-03 0.0 
2.340459270020e-03 5.815255979654e-03 0.0 
0.0 0.0 -9.927888931629e-04 
-4.210846566685e-04 3.601854565047e-03 0.0 
3.601854565047e-03 3.185506434217e-03 0.0 
0.0 0.0 -9.930598132463e-04 
-9.560102716365e-04 -2.664544190492e-03 0.0 
-2.664544190492e-03 3.772312719303e-03 0.0 
0.0 0.0 -1.075560717398e-03 
-1.206510850392e-03 3.047967158976e-03 0.0 
3.047967158976e-03 4.800933324251e-03 0.0 
0.0 0.0 -9.775429604617e-04 
9.349897265997e-04 2.908831422528e-03 0.0 
2.908831422528e-03 6.057047016785e-04 0.0 
0.0 0.0 -6.602976121192e-04 
-2.228664070200e-04 -2.583623366081e-04 0.0 
-2.583623366081e-04 3.335250712245e-03 0.0 
0.0 0.0 -1.180288150054e-03 
2.187201504106e-03 2.288354873068e-03 0.0 
2.288354873068e-03 -8.791309691096e-04 0.0 
0.0 0.0 -5.606016578557e-04 
-1.487430872272e-03 2.032395386043e-03 0.0 
2.032395386043e-03 8.531052034659e-03 0.0 
0.0 0.0 -1.323793839065e-03 
-1.724651487443e-03 1.733577269253e-03 0.0 
1.733577269253e-03 5.152685708698e-03 0.0 
0.0 0.0 -8.119939454945e-04 
9.559001502051e-04 3.301449321883e-03 0.0 
3.301449321883e-03 8.023167039533e-04 0.0 
0.0 0.0 -7.535215089251e-04 
-6.923989162598e-04 -2.921867110632e-03 0.0 
-2.921867110632e-03 3.238107663680e-03 0.0 
0.0 0.0 -9.778014170610e-04 
2.952487269304e-03 8.767188776773e-04 0.0 
8.767188776773e-04 -1.231732878316e-03 0.0 
0.0 0.0 -7.374661675664e-04 
-1.449260709310e-04 -3.081657457247e-03 0.0 
-3.081657457247e-03 2.244720614764e-03 0.0 
0.0 0.0 -8.999119473571e-04 
-2.467797576170e-04 3.715212164584e-03 0.0 
3.715212164584e-03 2.738719973416e-03 0.0 
0.0 0.0 -9.758126512751e-04 
-5.058945486498e-04 3.618733188483e-03 0.0 
3.618733188483e-03 3.154888480052e-03 0.0 
0.0 0.0 -9.833357802921e-04 
-1.733759676165e-03 1.654794489536e-03 0.0 
1.654794489536e-03 6.367451579884e-03 0.0 
0.0 0.0 -9.814596669550e-04 
-1.124005872780e-03 3.379084100680e-03 0.0 
3.379084100680e-03 4.616783585522e-03 0.0 
0.0 0.0 -1.008022096355e-03 
-1.207720735867e-03 2.984451381318e-03 0.0 
2.984451381318e-03 5.147076662744e-03 0.0 
0.0 0.0 -1.040850218070e-03 
2.462504755941e-04 -3.466601191775e-04 0.0 
-3.466601191775e-04 1.225957598323e-03 0.0 
0.0 0.0 -3.048810613884e-04 
-2.528363505661e-04 -3.115888982409e-03 0.0 
-3.115888982409e-03 2.486992936593e-03 0.0 
0.0 0.0 -9.574956797260e-04 
-1.072167557266e-04 3.402438706717e-03 0.0 
3.402438706717e-03 2.375040834749e-03 0.0 
0.0 0.0 -9.719246052952e-04 
-1.390405142798e-03 3.085939311603e-03 0.0 
3.085939311603e-03 4.874750960273e-03 0.0 
0.0 0.0 -9.521954671713e-04 
-1.463685875107e-03 2.723658434378e-03 0.0 
2.723658434378e-03 5.354618705334e-03 0.0 
0.0 0.0 -9.850634846466e-04 
6.151608619465e-06 9.602693822456e-04 0.0 
9.602693822456e-04 3.003172333009e-03 0.0 
0.0 0.0 -1.160108757481e-03 
-7.116028528234e-04 -3.542186094007e-05 0.0 
-3.542186094007e-05 2.109496799795e-03 0.0 
0.0 0.0 -4.489418961951e-04 
2.420991236615e-03 -1.793290854156e-03 0.0 
-1.793290854156e-03 -1.206914640352e-03 0.0 
0.0 0.0 -5.203185412556e-04 
3.220195077698e-04 3.501557464345e-03 0.0 
3.501557464345e-03 1.705209014718e-03 0.0 
0.0 0.0 -8.688122239235e-04 
-2.823129498517e-04 -2.964277233818e-03 0.0 
-2.964277233818e-03 2.454860756862e-03 0.0 
0.0 0.0 -9.310919172903e-04 
-1.415275034250e-03 1.292164494452e-03 0.0 
1.292164494452e-03 4.167269738145e-03 0.0 
0.0 0.0 -7.665650418521e-04 
-1.567864091306e-03 1.226683465556e-03 0.0 
1.226683465556e-03 4.493286725470e-03 0.0 
0.0 0.0 -7.530137074853e-04 
-1.810136366687e-03 1.412997826384e-03 0.0 
1.412997826384e-03 6.411444835685e-03 0.0 
0.0 0.0 -9.793492904611e-04 
2.087664328359e-03 2.568536785539e-03 0.0 
2.568536785539e-03 -3.889452908062e-04 0.0 
0.0 0.0 -7.280224446656e-04 
-7.741376345699e-04 -2.792621548151e-03 0.0 
-2.792621548151e-03 3.378364177398e-03 0.0 
0.0 0.0 -1.004244986112e-03 
4.531124457367e-04 -1.076750210340e-03 0.0 
-1.076750210340e-03 2.037967656610e-03 0.0 
0.0 0.0 -1.049209916622e-03 
2.297209205504e-03 -5.483206442365e-04 0.0 
-5.483206442365e-04 -1.311033635610e-03 0.0 
0.0 0.0 -4.226466728115e-04 
-1.149618319309e-03 2.959992214286e-03 0.0 
2.959992214286e-03 5.456359281312e-03 0.0 
0.0 0.0 -1.285586381397e-03 
-1.702357103576e-03 1.352649744862e-03 0.0 
1.352649744862e-03 7.576949821791e-03 0.0 
0.0 0.0 -1.152455342817e-03 
-8.320143767109e-04 -2.543685297260e-03 0.0 
-2.543685297260e-03 3.497707295059e-03 0.0 
0.0 0.0 -1.095064427584e-03 
-1.386779618523e-03 -1.910481505052e-03 0.0 
-1.910481505052e-03 5.018049845752e-03 0.0 
0.0 0.0 -1.078722419643e-03 
2.229975894309e-04 -4.489617714331e-04 0.0 
-4.489617714331e-04 5.979694486616e-04 0.0 
0.0 0.0 -2.949115613585e-04 
4.540170595140e-04 -1.645489130381e-03 0.0 
-1.645489130381e-03 1.801582255490e-03 0.0 
0.0 0.0 -9.666854207159e-04 
-6.035540888641e-05 3.789347029411e-03 0.0 
3.789347029411e-03 2.399475313532e-03 0.0 
0.0 0.0 -8.867106850074e-04 
4.160484422948e-04 -3.622442174599e-04 0.0 
-3.622442174599e-04 5.441875866839e-04 0.0 
0.0 0.0 -3.067690066256e-04 
-1.619412582140e-03 1.641534764462e-03 0.0 
1.641534764462e-03 7.530266774085e-03 0.0 
0.0 0.0 -1.154859126927e-03 
1.948099663815e-03 -7.569421743857e-04 0.0 
-7.569421743857e-04 -1.147440738389e-03 0.0 
0.0 0.0 -3.431395394681e-04 
-1.356737557429e-03 2.911706860265e-03 0.0 
2.911706860265e-03 4.923580709307e-03 0.0 
0.0 0.0 -9.496453321265e-04 
-5.843331771905e-04 3.664260117298e-03 0.0 
3.664260117298e-03 3.237703376181e-03 0.0 
0.0 0.0 -8.924259012440e-04 
1.585702125321e-03 -1.745985882028e-03 0.0 
-1.745985882028e-03 -4.551642142343e-04 0.0 
0.0 0.0 -4.845162476086e-04 
3.886198775371e-04 -2.656776709997e-03 0.0 
-2.656776709997e-03 1.521016158266e-03 0.0 
0.0 0.0 -8.184154439158e-04 
-1.604458387616e-03 1.854152015569e-03 0.0 
1.854152015569e-03 7.626319442818e-03 0.0 
0.0 0.0 -1.182898372388e-03 
1.911502030331e-04 -2.214449408558e-03 0.0 
-2.214449408558e-03 2.167051973238e-03 0.0 
0.0 0.0 -9.716005391690e-04 
4.578213256305e-04 3.411459955915e-03 0.0 
3.411459955915e-03 1.456160682634e-03 0.0 
0.0 0.0 -8.202780035418e-04 
3.627077773465e-04 3.714478666179e-03 0.0 
3.714478666179e-03 1.773296424289e-03 0.0 
0.0 0.0 -9.111404029742e-04 
1.874131474266e-04 1.317598379107e-03 0.0 
1.317598379107e-03 5.481764939296e-04 0.0 
0.0 0.0 -3.152527034384e-04 
1.643748758810e-03 -4.204231761426e-04 0.0 
-4.204231761426e-04 -1.117599327178e-03 0.0 
0.0 0.0 -2.254926135565e-04 
-5.203694144565e-04 2.878386602619e-03 0.0 
2.878386602619e-03 4.197902991695e-03 0.0 
0.0 0.0 -1.118331045454e-03 
-1.809983628728e-03 1.593568509076e-03 0.0 
1.593568509076e-03 5.817131701425e-03 0.0 
0.0 0.0 -9.085367473448e-04 
-5.577334774043e-04 3.082426156906e-03 0.0 
3.082426156906e-03 4.104685153811e-03 0.0 
0.0 0.0 -1.148691026115e-03 
1.974680470733e-03 2.873021825660e-03 0.0 
2.873021825660e-03 -4.940617528099e-04 0.0 
0.0 0.0 -6.345508791099e-04 
-1.588961869452e-03 2.584393938582e-03 0.0 
2.584393938582e-03 6.455891274831e-03 0.0 
0.0 0.0 -1.097950598811e-03 
-7.723714131083e-04 2.927319470345e-03 0.0 
2.927319470345e-03 4.791549148204e-03 0.0 
0.0 0.0 -1.155407764312e-03 
-1.528620740983e-03 1.641090201076e-03 0.0 
1.641090201076e-03 4.483124494598e-03 0.0 
0.0 0.0 -7.696970057192e-04 
-6.364037100851e-04 3.205127351833e-03 0.0 
3.205127351833e-03 4.133031580390e-03 0.0 
0.0 0.0 -1.120992621467e-03 
-1.531289715330e-03 -2.235814658200e-03 0.0 
-2.235814658200e-03 5.083560864057e-03 0.0 
0.0 0.0 -1.075946734593e-03 
-1.542078502361e-04 3.681831680089e-03 0.0 
3.681831680089e-03 2.560354402538e-03 0.0 
0.0 0.0 -9.606735922745e-04 
-4.462082875552e-04 -3.056851139717e-03 0.0 
-3.056851139717e-03 2.847631123845e-03 0.0 
0.0 0.0 -1.006543408955e-03 
-3.390473984761e-04 -3.081268501996e-03 0.0 
-3.081268501996e-03 2.650937052075e-03 0.0 
0.0 0.0 -9.908098515424e-04 
-1.654766843293e-03 2.110154288789e-03 0.0 
2.110154288789e-03 7.526175185133e-03 0.0 
0.0 0.0 -1.204704583718e-03 
6.478121330843e-04 -2.891464683005e-03 0.0 
-2.891464683005e-03 9.158033438756e-04 0.0 
0.0 0.0 -6.701209186971e-04 
-3.674328541616e-04 3.694790859021e-03 0.0 
3.694790859021e-03 2.941360548218e-03 0.0 
0.0 0.0 -9.833476869619e-04 
1.512914527637e-03 2.270095044354e-03 0.0 
2.270095044354e-03 -2.495167818894e-04 0.0 
0.0 0.0 -5.414561767490e-04 
-4.689248235342e-05 -1.859495784931e-03 0.0 
-1.859495784931e-03 2.784842397477e-03 0.0 
0.0 0.0 -1.038364586984e-03 
1.508518420493e-03 2.943740230317e-03 0.0 
2.943740230317e-03 4.760392635737e-05 0.0 
0.0 0.0 -6.669095772216e-04 
3.102345530720e-03 7.378269526544e-05 0.0 
7.378269526544e-05 -1.464469892876e-03 0.0 
0.0 0.0 -7.019467019332e-04 
1.507578771505e-03 -7.604032194635e-04 0.0 
-7.604032194635e-04 -4.928220476776e-04 0.0 
0.0 0.0 -4.348957387830e-04 
3.148975456484e-03 8.306636056168e-04 0.0 
8.306636056168e-04 -1.496370463473e-03 0.0 
0.0 0.0 -7.082592827190e-04 
-1.261991141926e-03 3.267444165813e-03 0.0 
3.267444165813e-03 4.752384958846e-03 0.0 
0.0 0.0 -9.799122972177e-04 
3.123536661893e-03 -9.721135346994e-05 0.0 
-9.721135346994e-05 -1.405927083563e-03 0.0 
0.0 0.0 -7.361183907127e-04 
-1.047249439091e-03 3.250277679615e-03 0.0 
3.250277679615e-03 4.315763371752e-03 0.0 
0.0 0.0 -9.420580210740e-04 
1.883489007768e-04 8.010579783403e-04 0.0 
8.010579783403e-04 2.876523535355e-03 0.0 
0.0 0.0 -1.130549445556e-03 
3.588863471818e-04 1.014874640691e-03 0.0 
1.014874640691e-03 2.306525440664e-03 0.0 
0.0 0.0 -1.096529089934e-03 
1.700464822711e-03 2.598856322658e-03 0.0 
2.598856322658e-03 -4.407098144151e-04 0.0 
0.0 0.0 -5.398950035552e-04 
-1.732708782740e-03 1.731245879395e-03 0.0 
1.731245879395e-03 6.071080868846e-03 0.0 
0.0 0.0 -9.460253849645e-04 
-1.548270655095e-03 -1.671057713006e-03 0.0 
-1.671057713006e-03 5.446327602559e-03 0.0 
0.0 0.0 -1.107441567342e-03 
-1.667313564664e-03 -1.981097125204e-03 0.0 
-1.981097125204e-03 5.509726630970e-03 0.0 
0.0 0.0 -1.104747680386e-03 
1.318532451431e-03 2.199681040646e-03 0.0 
2.199681040646e-03 -1.454539841179e-04 0.0 
0.0 0.0 -5.027479145627e-04 
-9.715008187727e-04 3.547635970715e-03 0.0 
3.547635970715e-03 4.097719530490e-03 0.0 
0.0 0.0 -9.724793438395e-04 
-1.624312607657e-03 -1.275879739373e-03 0.0 
-1.275879739373e-03 6.206545711786e-03 0.0 
0.0 0.0 -1.205818386895e-03 
-2.985133365854e-04 2.525233875689e-03 0.0 
2.525233875689e-03 2.218258876373e-03 0.0 
0.0 0.0 -8.227480884806e-04 
-1.021411894397e-03 -2.472960565398e-03 0.0 
-2.472960565398e-03 3.861949643739e-03 0.0 
0.0 0.0 -1.085013296808e-03 
1.242793848756e-04 1.186515148645e-03 0.0 
1.186515148645e-03 5.554989300674e-04 0.0 
0.0 0.0 -2.913335635470e-04 
-1.667346094177e-03 -1.424810251550e-03 0.0 
-1.424810251550e-03 5.825346578498e-03 0.0 
0.0 0.0 -1.136235114959e-03 
3.019668846566e-03 9.582089678435e-04 0.0 
9.582089678435e-04 -1.448201355488e-03 0.0 
0.0 0.0 -6.734860676048e-04 
-1.578302787965e-03 -5.539699262797e-04 0.0 
-5.539699262797e-04 4.756261434844e-03 0.0 
0.0 0.0 -1.057437106069e-03 
4.911868189057e-04 2.542757255714e-03 0.0 
2.542757255714e-03 1.777357060087e-03 0.0 
0.0 0.0 -9.722330909969e-04 
-1.811529723315e-03 1.498050121893e-03 0.0 
1.498050121893e-03 6.116522056800e-03 0.0 
0.0 0.0 -9.438854677472e-04 
-1.729248363348e-03 1.804686593249e-03 0.0 
1.804686593249e-03 5.771244996451e-03 0.0 
0.0 0.0 -9.108073647308e-04 
1.218753398279e-04 3.628872757319e-03 0.0 
3.628872757319e-03 2.104833384723e-03 0.0 
0.0 0.0 -9.543037390934e-04 
-1.106695794268e-03 1.517581520969e-03 0.0 
1.517581520969e-03 3.539684992285e-03 0.0 
0.0 0.0 -7.963586959451e-04 
-1.268797780777e-03 1.437345509075e-03 0.0 
1.437345509075e-03 3.867869279896e-03 0.0 
0.0 0.0 -7.758011671882e-04 
-1.764900971931e-03 -1.718354051601e-03 0.0 
-1.718354051601e-03 5.889801463908e-03 0.0 
0.0 0.0 -1.133400347077e-03 
2.569249843707e-04 -2.786570784076e-03 0.0 
-2.786570784076e-03 1.556740733674e-03 0.0 
0.0 0.0 -7.772853077335e-04 
1.174175751745e-03 -1.803885435246e-03 0.0 
-1.803885435246e-03 -1.174563587325e-05 0.0 
0.0 0.0 -4.981843353734e-04 
5.912929398665e-04 -9.060768193030e-04 0.0 
-9.060768193030e-04 1.727113514221e-03 0.0 
0.0 0.0 -9.936027660373e-04 
2.016096735556e-03 -6.850330429382e-04 0.0 
-6.850330429382e-04 -9.758089702167e-04 0.0 
0.0 0.0 -4.458376137168e-04 
3.081197548797e-03 7.466969370712e-04 0.0 
7.466969370712e-04 -1.300129295292e-03 0.0 
0.0 0.0 -7.633149657881e-04 
-1.128831614242e-03 1.542551351037e-03 0.0 
1.542551351037e-03 3.551129300523e-03 0.0 
0.0 0.0 -7.520787537531e-04 
-1.821423928511e-03 1.474632635918e-03 0.0 
1.474632635918e-03 5.487726439764e-03 0.0 
0.0 0.0 -8.442294783838e-04 
-1.409406014707e-03 4.528826506854e-05 0.0 
4.528826506854e-05 5.214877225355e-03 0.0 
0.0 0.0 -7.121995050294e-04 
4.077287179479e-04 3.674953038794e-04 0.0 
3.674953038794e-04 2.393170375530e-03 0.0 
0.0 0.0 -1.093598669875e-03 
1.997342351340e-03 2.504018622736e-03 0.0 
2.504018622736e-03 -5.807467309884e-04 0.0 
0.0 0.0 -6.071124087219e-04 
-4.482284720357e-04 1.652414080391e-03 0.0 
1.652414080391e-03 3.958656300163e-03 0.0 
0.0 0.0 -1.233571955743e-03 
-2.022662331208e-03 -4.627058437959e-04 0.0 
-4.627058437959e-04 6.332672682848e-03 0.0 
0.0 0.0 -1.121177773779e-03 
1.798099945912e-03 -8.661440026173e-04 0.0 
-8.661440026173e-04 -7.288088564904e-04 0.0 
0.0 0.0 -4.582676097521e-04 
-1.524985310237e-03 -1.822620195545e-03 0.0 
-1.822620195545e-03 6.245562815238e-03 0.0 
0.0 0.0 -1.241472629463e-03 
3.003131752772e-03 -8.623198735716e-04 0.0 
-8.623198735716e-04 -1.396381984480e-03 0.0 
0.0 0.0 -6.886070435536e-04 
-3.779034990216e-04 2.052169755275e-03 0.0 
2.052169755275e-03 3.788846745744e-03 0.0 
0.0 0.0 -1.204482468497e-03 
1.415534273829e-04 3.636591431357e-03 0.0 
3.636591431357e-03 2.169944347150e-03 0.0 
0.0 0.0 -8.910665706739e-04 
8.940143763444e-06 3.422262264522e-03 0.0 
3.422262264522e-03 2.416052284656e-03 0.0 
0.0 0.0 -9.848034212814e-04 
-1.370477965762e-04 -1.170123439274e-03 0.0 
-1.170123439274e-03 3.214973093205e-03 0.0 
0.0 0.0 -1.146785027167e-03 
3.884013163081e-04 -2.855323367017e-03 0.0 
-2.855323367017e-03 1.211719834243e-03 0.0 
0.0 0.0 -6.857662073788e-04 
-7.129927410741e-04 3.670079492291e-03 0.0 
3.670079492291e-03 3.538541594785e-03 0.0 
0.0 0.0 -9.649174008510e-04 
1.717035050200e-03 -1.344860437860e-03 0.0 
-1.344860437860e-03 -6.217055712217e-04 0.0 
0.0 0.0 -4.694269195620e-04 
-8.587679122771e-04 3.481313587749e-03 0.0 
3.481313587749e-03 3.794469535060e-03 0.0 
0.0 0.0 -9.065670216064e-04 
1.889810402813e-03 2.899509189946e-03 0.0 
2.899509189946e-03 -2.152817456685e-04 0.0 
0.0 0.0 -7.176551387762e-04 
1.428912843794e-04 3.126816861625e-03 0.0 
3.126816861625e-03 2.356543378173e-03 0.0 
0.0 0.0 -1.013229387512e-03 
1.943775632291e-03 -1.286497408609e-03 0.0 
-1.286497408609e-03 -8.334086717492e-04 0.0 
0.0 0.0 -4.758715545177e-04 
-1.000337791729e-03 -2.628959420428e-03 0.0 
-2.628959420428e-03 3.773462867951e-03 0.0 
0.0 0.0 -9.886579807222e-04 
-8.325357311160e-04 3.547635505547e-03 0.0 
3.547635505547e-03 3.716995785029e-03 0.0 
0.0 0.0 -9.612835620876e-04 
2.687167972919e-04 1.795311194676e-03 0.0 
1.795311194676e-03 1.563575924244e-04 0.0 
0.0 0.0 -1.821747384498e-04 
1.057813883420e-03 2.534506278338e-03 0.0 
2.534506278338e-03 3.175156107454e-04 0.0 
0.0 0.0 -5.894269260710e-04 
4.651919044669e-04 1.924261843739e-03 0.0 
1.924261843739e-03 5.725607713308e-04 0.0 
0.0 0.0 -4.447511467704e-04 
-3.371303889653e-04 -7.500919376923e-04 0.0 
-7.500919376923e-04 1.299829984783e-03 0.0 
0.0 0.0 -4.040777003935e-04 
-1.056371726126e-03 -2.468497531733e-03 0.0 
-2.468497531733e-03 3.865104933196e-03 0.0 
0.0 0.0 -1.010653628765e-03 
-9.607789536056e-04 3.048565223821e-03 0.0 
3.048565223821e-03 4.940644900743e-03 0.0 
0.0 0.0 -1.098354823938e-03 
-1.707850550320e-03 2.055402839425e-03 0.0 
2.055402839425e-03 5.786469608898e-03 0.0 
0.0 0.0 -9.387552692591e-04 
-7.756723233026e-04 1.730094175383e-03 0.0 
1.730094175383e-03 2.916527936956e-03 0.0 
0.0 0.0 -8.497951325312e-04 
-1.342322198460e-03 2.098270725376e-03 0.0 
2.098270725376e-03 8.248661573518e-03 0.0 
0.0 0.0 -1.342322198460e-03 
-3.659353486808e-05 7.532774864697e-04 0.0 
7.532774864697e-04 1.168157902099e-04 0.0 
0.0 0.0 -3.438096657507e-05 
-9.510393810217e-04 1.672687846132e-03 0.0 
1.672687846132e-03 3.246503304730e-03 0.0 
0.0 0.0 -8.134098498104e-04 
1.098475143763e-03 -2.031876221816e-03 0.0 
-2.031876221816e-03 1.166483383452e-04 0.0 
0.0 0.0 -5.207672066180e-04 
-1.089976521784e-03 -2.234801732660e-03 0.0 
-2.234801732660e-03 3.943897982090e-03 0.0 
0.0 0.0 -1.084767721667e-03 
-1.111038172895e-03 2.200189741588e-03 0.0 
2.200189741588e-03 3.768833115442e-03 0.0 
0.0 0.0 -8.610308207870e-04 
2.262464148868e-03 -1.945012542063e-03 0.0 
-1.945012542063e-03 -8.191237484730e-04 0.0 
0.0 0.0 -6.185744573122e-04 
5.761048584873e-04 -2.775225325336e-03 0.0 
-2.775225325336e-03 9.303736926873e-04 0.0 
0.0 0.0 -6.456336647891e-04 
-1.625181255020e-04 3.528619970826e-03 0.0 
3.528619970826e-03 2.809301514261e-03 0.0 
0.0 0.0 -9.266779469803e-04 
7.488835648315e-04 2.251240740231e-03 0.0 
2.251240740231e-03 1.162555029076e-03 0.0 
0.0 0.0 -8.191879688175e-04 
-1.329752805185e-03 3.181517598016e-03 0.0 
3.181517598016e-03 5.907007101231e-03 0.0 
0.0 0.0 -1.144302277022e-03 
1.946489244002e-03 2.821542424935e-03 0.0 
2.821542424935e-03 -8.035545710095e-04 0.0 
0.0 0.0 -4.898291455683e-04 
-8.586335344055e-04 -2.592060326530e-03 0.0 
-2.592060326530e-03 3.501562453949e-03 0.0 
0.0 0.0 -1.023226067289e-03 
-1.335563518602e-03 -1.880041070522e-03 0.0 
-1.880041070522e-03 4.351195601973e-03 0.0 
0.0 0.0 -1.033071644556e-03 
-2.022124363338e-05 -2.395587679301e-03 0.0 
-2.395587679301e-03 1.567846091858e-03 0.0 
0.0 0.0 -6.632677920962e-04 
-1.674900766220e-03 1.599025443535e-03 0.0 
1.599025443535e-03 4.804084785627e-03 0.0 
0.0 0.0 -7.663799295492e-04 
-1.769874274313e-03 1.858383186956e-03 0.0 
1.858383186956e-03 5.835930784600e-03 0.0 
0.0 0.0 -9.362314798257e-04 
-2.069835677089e-03 -4.002455476683e-04 0.0 
-4.002455476683e-04 5.909495734486e-03 0.0 
0.0 0.0 -1.073191215027e-03 
1.059197299257e-03 -5.440939611188e-04 0.0 
-5.440939611188e-04 5.670737881280e-04 0.0 
0.0 0.0 -3.365581251930e-04 
0.0 0.0 0.0 
0.0 0.0 0.0 
0.0 0.0 0.0 
-4.602170046064e-05 -1.936536183988e-03 0.0 
-1.936536183988e-03 1.323038368316e-03 0.0 
0.0 0.0 -5.472928576524e-04 
-1.313750205869e-03 -1.893362186714e-03 0.0 
-1.893362186714e-03 4.351424993746e-03 0.0 
0.0 0.0 -1.080662880999e-03 
2.816321063082e-03 -8.334388727588e-04 0.0 
-8.334388727588e-04 -1.272649618703e-03 0.0 
0.0 0.0 -6.615734761625e-04 
2.373065583622e-03 -2.080956134851e-03 0.0 
-2.080956134851e-03 -1.010649277428e-03 0.0 
0.0 0.0 -5.838927026542e-04 
2.954183213689e-03 -8.930251278497e-04 0.0 
-8.930251278497e-04 -1.356411275311e-03 0.0 
0.0 0.0 -6.847594021618e-04 
-1.301232695251e-03 -2.116378151629e-03 0.0 
-2.116378151629e-03 4.314126103213e-03 0.0 
0.0 0.0 -1.020860678390e-03 
-1.603005468093e-03 2.550878726920e-03 0.0 
2.550878726920e-03 5.754736739264e-03 0.0 
0.0 0.0 -9.956198530692e-04 
-1.518941795168e-03 -1.499106977263e-03 0.0 
-1.499106977263e-03 4.706029179031e-03 0.0 
0.0 0.0 -1.043188517862e-03 
2.974270505683e-03 -1.234815007946e-05 0.0 
-1.234815007946e-05 -1.384428534307e-03 0.0 
0.0 0.0 -6.813608448753e-04 
-8.631645989931e-04 3.291242542591e-03 0.0 
3.291242542591e-03 4.149472146392e-03 0.0 
0.0 0.0 -9.699423737970e-04 
-1.666656418554e-03 8.515973861887e-04 0.0 
8.515973861887e-04 5.656067677278e-03 0.0 
0.0 0.0 -8.236220363599e-04 
2.293852952879e-04 2.317534078424e-03 0.0 
2.317534078424e-03 2.464619361077e-03 0.0 
0.0 0.0 -1.076197569190e-03 
-1.503911657480e-03 -1.536228813635e-03 0.0 
-1.536228813635e-03 4.713514709764e-03 0.0 
0.0 0.0 -1.079735805607e-03 
-1.269594224654e-03 -2.151916428327e-03 0.0 
-2.151916428327e-03 4.311241093571e-03 0.0 
0.0 0.0 -1.081849276551e-03 
-4.912617181252e-04 1.776659374520e-03 0.0 
1.776659374520e-03 2.250419150674e-03 0.0 
0.0 0.0 -7.539246139495e-04 
2.432965561316e-03 -1.404722775878e-03 0.0 
-1.404722775878e-03 -1.097996306609e-03 0.0 
0.0 0.0 -5.721296805886e-04 
-1.672927313923e-03 -1.115371020166e-03 0.0 
-1.115371020166e-03 5.017856732658e-03 0.0 
0.0 0.0 -1.052805964859e-03 
-1.580075754320e-03 2.157353104837e-04 0.0 
2.157353104837e-04 6.692661968395e-03 0.0 
0.0 0.0 -9.615701295831e-04 
-1.562907036777e-03 2.120583330649e-04 0.0 
2.120583330649e-04 6.337987109484e-03 0.0 
0.0 0.0 -8.972249362023e-04 
-6.223529423683e-04 1.809817658288e-03 0.0 
1.809817658288e-03 2.623397927817e-03 0.0 
0.0 0.0 -8.575907080495e-04 
-1.509705893005e-03 -1.747591078712e-03 0.0 
-1.747591078712e-03 4.715855182949e-03 0.0 
0.0 0.0 -1.032785096058e-03 
1.569414128809e-03 -2.550888608895e-03 0.0 
-2.550888608895e-03 -3.370499251341e-04 0.0 
0.0 0.0 -5.281560872893e-04 
8.209882341614e-04 2.381580320664e-03 0.0 
2.381580320664e-03 4.553315452112e-04 0.0 
0.0 0.0 -5.469941911596e-04 
-2.931643961127e-04 1.527189756473e-03 0.0 
1.527189756473e-03 3.869126548266e-03 0.0 
0.0 0.0 -1.202908440308e-03 
1.382596818972e-04 -2.070148021774e-03 0.0 
-2.070148021774e-03 1.091658495820e-03 0.0 
0.0 0.0 -5.271077904503e-04 
1.398235426833e-03 -2.548773596058e-03 0.0 
-2.548773596058e-03 -7.584749764510e-05 0.0 
0.0 0.0 -5.667376839375e-04 
1.254646909069e-03 2.484629242297e-03 0.0 
2.484629242297e-03 3.513264158718e-04 0.0 
0.0 0.0 -6.882742821176e-04 
-8.245697505670e-04 1.707333830662e-03 0.0 
1.707333830662e-03 2.953610139157e-03 0.0 
0.0 0.0 -7.843752346429e-04 
-1.666758732331e-03 -1.174236117568e-03 0.0 
-1.174236117568e-03 5.037001804565e-03 0.0 
0.0 0.0 -1.079856008588e-03 
-9.244628747481e-04 -1.936309255703e-04 0.0 
-1.936309255703e-04 2.822852214519e-03 0.0 
0.0 0.0 -6.624393034254e-04 
-1.781970376818e-03 1.286452196401e-03 0.0 
1.286452196401e-03 5.020731578576e-03 0.0 
0.0 0.0 -7.824198048057e-04 
-1.484587749919e-03 -1.812874826371e-03 0.0 
-1.812874826371e-03 4.718401123365e-03 0.0 
0.0 0.0 -1.081372135754e-03 
1.084769609676e-03 -2.051097269290e-03 0.0 
-2.051097269290e-03 1.328211131768e-04 0.0 
0.0 0.0 -5.218245955084e-04 
-7.383188819978e-04 -2.755351396555e-03 0.0 
-2.755351396555e-03 3.375108004806e-03 0.0 
0.0 0.0 -1.093992571453e-03 
0.0 0.0 0.0 
0.0 0.0 0.0 
0.0 0.0 0.0 
-1.585395185030e-03 -8.733622601649e-05 0.0 
-8.733622601649e-05 7.915806537563e-03 0.0 
0.0 0.0 -1.152567315725e-03 
1.675271907871e-03 -2.177617042757e-03 0.0 
-2.177617042757e-03 -5.173898653476e-04 0.0 
0.0 0.0 -4.962351610816e-04 
3.706447397786e-05 2.070351060898e-04 0.0 
2.070351060898e-04 3.044600736775e-03 0.0 
0.0 0.0 -1.154039482800e-03 
2.069033457779e-04 2.961881208612e-03 0.0 
2.961881208612e-03 2.494592241471e-03 0.0 
0.0 0.0 -9.821191134873e-04 
-1.685773855788e-03 -1.377399783606e-03 0.0 
-1.377399783606e-03 5.070521373149e-03 0.0 
0.0 0.0 -1.044398856648e-03 
-1.669266621470e-03 -1.454184032041e-03 0.0 
-1.454184032041e-03 5.079788696568e-03 0.0 
0.0 0.0 -1.081576243284e-03 
2.914990553637e-03 -7.685843879532e-04 0.0 
-7.685843879532e-04 -1.358389786941e-03 0.0 
0.0 0.0 -6.671146142982e-04 
1.578300081431e-04 -1.839580637340e-03 0.0 
-1.839580637340e-03 9.146826550122e-04 0.0 
0.0 0.0 -4.596482842094e-04 
5.655633450819e-04 1.634462446329e-03 0.0 
1.634462446329e-03 -4.353216112412e-04 0.0 
0.0 0.0 -5.581788593170e-05 
-1.838374468884e-03 -1.008357892208e-03 0.0 
-1.008357892208e-03 5.389548205880e-03 0.0 
0.0 0.0 -1.053342186814e-03 
-7.735429255109e-05 -5.938829985412e-04 0.0 
-5.938829985412e-04 3.207515001155e-03 0.0 
0.0 0.0 -1.148056181429e-03 
8.407270435530e-04 -2.401906140793e-03 0.0 
-2.401906140793e-03 4.680800088294e-04 0.0 
0.0 0.0 -5.609173081639e-04 
-8.059519139880e-04 3.569609752867e-03 0.0 
3.569609752867e-03 3.937575205409e-03 0.0 
0.0 0.0 -1.000702849114e-03 
-1.423128099077e-04 2.434671484328e-03 0.0 
2.434671484328e-03 1.829214520191e-03 0.0 
0.0 0.0 -7.229578758357e-04 
-1.050409536978e-03 3.126628093613e-03 0.0 
3.126628093613e-03 4.667808075339e-03 0.0 
0.0 0.0 -1.005614027492e-03 
-9.737300203529e-04 -1.654439195094e-03 0.0 
-1.654439195094e-03 5.294537233988e-03 0.0 
0.0 0.0 -1.266534580134e-03 
0.0 0.0 0.0 
0.0 0.0 0.0 
0.0 0.0 0.0 
-1.341620833825e-03 1.946460220436e-04 0.0 
1.946460220436e-04 8.726655578502e-03 0.0 
0.0 0.0 -1.341620833825e-03 
-1.340051318819e-03 -5.222823624513e-04 0.0 
-5.222823624513e-04 7.102242080382e-03 0.0 
0.0 0.0 -1.340051318819e-03 
-1.487218295656e-03 -1.877140319118e-04 0.0 
-1.877140319118e-04 5.546795712007e-03 0.0 
0.0 0.0 -7.955197795907e-04 
9.332368058577e-04 -2.323240235713e-03 0.0 
-2.323240235713e-03 3.557999178189e-04 0.0 
0.0 0.0 -5.524443101471e-04 
4.489255113100e-05 3.284657334475e-03 0.0 
3.284657334475e-03 2.631811467132e-03 0.0 
0.0 0.0 -9.543595451431e-04 
3.058132153657e-03 -1.043711929510e-04 0.0 
-1.043711929510e-04 -1.411540431284e-03 0.0 
0.0 0.0 -7.056821667315e-04 
-3.299569164523e-05 -1.162968038586e-03 0.0 
-1.162968038586e-03 1.091173189700e-03 0.0 
0.0 0.0 -3.090400745732e-04 
5.673843086381e-05 7.346133626421e-04 0.0 
7.346133626421e-04 3.741725256079e-04 0.0 
0.0 0.0 -1.846761242021e-04 
-1.574977123889e-03 5.363765110094e-04 0.0 
5.363765110094e-04 8.165141429638e-03 0.0 
0.0 0.0 -1.209499414335e-03 
-1.716498366635e-03 2.104119454666e-03 0.0 
2.104119454666e-03 5.843034081691e-03 0.0 
0.0 0.0 -9.648175333861e-04 
-1.733356707705e-03 1.154742806149e-03 0.0 
1.154742806149e-03 4.860119042041e-03 0.0 
0.0 0.0 -7.487175554447e-04 
-1.114495707937e-03 3.137897512820e-03 0.0 
3.137897512820e-03 5.995042437661e-03 0.0 
0.0 0.0 -1.323661129950e-03 
-8.127251142362e-04 -1.412537566310e-04 0.0 
-1.412537566310e-04 2.411308652960e-03 0.0 
0.0 0.0 -5.128881373376e-04 
-1.119968701545e-03 2.850061398458e-03 0.0 
2.850061398458e-03 5.775097260118e-03 0.0 
0.0 0.0 -1.324908485340e-03 
-1.665581242751e-03 2.319761122546e-03 0.0 
2.319761122546e-03 5.793099015745e-03 0.0 
0.0 0.0 -9.670422101491e-04 
5.568715715285e-04 -2.770077582360e-03 0.0 
-2.770077582360e-03 9.496266440003e-04 0.0 
0.0 0.0 -6.456420923695e-04 
2.161043505782e-04 3.547732125549e-03 0.0 
3.547732125549e-03 1.898015910390e-03 0.0 
0.0 0.0 -9.060515404150e-04 
9.950905598312e-04 -2.671652170698e-03 0.0 
-2.671652170698e-03 4.709180402517e-04 0.0 
0.0 0.0 -6.282894000355e-04 
6.980021611784e-04 2.329704923171e-03 0.0 
2.329704923171e-03 5.591408928334e-04 0.0 
0.0 0.0 -5.387755945765e-04 
7.505691487916e-04 -2.806175756815e-03 0.0 
-2.806175756815e-03 7.604579484207e-04 0.0 
0.0 0.0 -6.475830416624e-04 
-1.523404584578e-03 2.773030803061e-03 0.0 
2.773030803061e-03 5.696563371559e-03 0.0 
0.0 0.0 -1.023749757194e-03 
-1.948666597127e-03 -9.778535476886e-04 0.0 
-9.778535476886e-04 6.429483775968e-03 0.0 
0.0 0.0 -1.155390781228e-03 
1.789573321784e-03 -2.334741346390e-03 0.0 
-2.334741346390e-03 -4.865776105569e-04 0.0 
0.0 0.0 -5.584267333832e-04 
-9.825735489597e-04 3.435129640079e-03 0.0 
3.435129640079e-03 4.478995622056e-03 0.0 
0.0 0.0 -1.036271578259e-03 
0.0 0.0 0.0 
0.0 0.0 0.0 
0.0 0.0 0.0 
2.596759179503e-03 -1.389222099922e-03 0.0 
-1.389222099922e-03 -1.085257982110e-03 0.0 
0.0 0.0 -6.477862274541e-04 
-1.710970656604e-03 2.103685284721e-03 0.0 
2.103685284721e-03 6.525687664567e-03 0.0 
0.0 0.0 -1.066385360782e-03 
2.404574348015e-04 -2.949261258943e-03 0.0 
-2.949261258943e-03 1.482737397066e-03 0.0 
0.0 0.0 -7.385120708004e-04 
6.388802882870e-04 -2.505035958296e-03 0.0 
-2.505035958296e-03 7.105369687538e-04 0.0 
0.0 0.0 -5.783216815889e-04 
3.613031293431e-04 3.302322730047e-03 0.0 
3.302322730047e-03 1.977511413847e-03 0.0 
0.0 0.0 -9.187611816440e-04 
1.834377336541e-03 -2.869898485884e-03 0.0 
-2.869898485884e-03 -1.676988345135e-04 0.0 
0.0 0.0 -7.142907865831e-04 
-2.603602936992e-04 1.802957872284e-03 0.0 
1.802957872284e-03 1.690888390106e-03 0.0 
0.0 0.0 -6.130834698885e-04 
-3.766094290651e-04 1.893748037744e-03 0.0 
1.893748037744e-03 2.022328291586e-03 0.0 
0.0 0.0 -7.053080839374e-04 
2.569187355972e-04 -2.744654995445e-03 0.0 
-2.744654995445e-03 1.329889881086e-03 0.0 
0.0 0.0 -6.800608357214e-04 
9.113223760588e-04 -2.364957113740e-03 0.0 
-2.364957113740e-03 3.924099138829e-04 0.0 
0.0 0.0 -5.587424099750e-04 
1.417197887517e-03 2.585133621544e-03 0.0 
2.585133621544e-03 -7.607709962934e-05 0.0 
0.0 0.0 -5.747660519518e-04 
-8.949493316928e-04 3.143090586373e-03 0.0 
3.143090586373e-03 4.528621917534e-03 0.0 
0.0 0.0 -1.033897369924e-03 
-1.400349245868e-03 3.030732209316e-03 0.0 
3.030732209316e-03 6.703483299750e-03 0.0 
0.0 0.0 -1.224260864640e-03 
-5.253406665386e-04 1.775908047208e-03 0.0 
1.775908047208e-03 2.340968666104e-03 0.0 
0.0 0.0 -7.781262855279e-04 
-1.583002963210e-03 -1.557788336479e-04 0.0 
-1.557788336479e-04 7.086569384723e-03 0.0 
0.0 0.0 -1.028620860735e-03 
-1.145284533028e-03 3.268026662313e-03 0.0 
3.268026662313e-03 5.700409497196e-03 0.0 
0.0 0.0 -1.228414553209e-03 
3.124385303303e-03 -1.108728093105e-05 0.0 
-1.108728093105e-05 -1.500119221682e-03 0.0 
0.0 0.0 -6.961140349804e-04 
5.697530012785e-04 2.144073309248e-03 0.0 
2.144073309248e-03 5.848519704173e-04 0.0 
0.0 0.0 -4.948307021553e-04 
-2.816210062748e-04 2.601627525948e-03 0.0 
2.601627525948e-03 2.228068929511e-03 0.0 
0.0 0.0 -8.341919671012e-04 
8.341721467740e-04 -2.510433576068e-03 0.0 
-2.510433576068e-03 5.276394565767e-04 0.0 
0.0 0.0 -5.836335442932e-04 
-1.247042165843e-03 3.250100918931e-03 0.0 
3.250100918931e-03 5.099970820779e-03 0.0 
0.0 0.0 -1.043024347135e-03 
1.027519968218e-03 -2.380813166548e-03 0.0 
-2.380813166548e-03 3.112209895361e-04 0.0 
0.0 0.0 -5.737461247516e-04 
1.268606586028e-03 2.037384257040e-03 0.0 
2.037384257040e-03 -4.121339973903e-04 0.0 
0.0 0.0 -3.670596808449e-04 
5.930292221715e-04 -2.622911752925e-03 0.0 
-2.622911752925e-03 8.838728538733e-04 0.0 
0.0 0.0 -6.329580325907e-04 
5.486710723125e-04 2.332384511628e-03 0.0 
2.332384511628e-03 7.102378801027e-04 0.0 
0.0 0.0 -5.395324081779e-04 
1.682768200706e-03 2.516609952748e-03 0.0 
2.516609952748e-03 -2.542264434373e-04 0.0 
0.0 0.0 -6.122321816867e-04 
7.358023053180e-04 -2.505051408807e-03 0.0 
-2.505051408807e-03 7.718123993888e-04 0.0 
0.0 0.0 -6.461205877315e-04 
2.812366509539e-04 3.418056531118e-03 0.0 
3.418056531118e-03 1.761992896829e-03 0.0 
0.0 0.0 -8.756698061928e-04 
-1.585509504414e-03 6.854986193214e-05 0.0 
6.854986193214e-05 6.515313053331e-03 0.0 
0.0 0.0 -9.494079867578e-04 
1.950119496099e-04 -2.582141659643e-03 0.0 
-2.582141659643e-03 1.322040652856e-03 0.0 
0.0 0.0 -6.501654010570e-04 
9.460441418101e-04 2.468386529063e-03 0.0 
2.468386529063e-03 3.152412733386e-04 0.0 
0.0 0.0 -5.405508922066e-04 
5.243693270813e-04 -2.069869324487e-03 0.0 
-2.069869324487e-03 1.498209352589e-03 0.0 
0.0 0.0 -8.668194341442e-04 
3.838921855015e-04 2.277447822888e-03 0.0 
2.277447822888e-03 8.700555358996e-04 0.0 
0.0 0.0 -5.374061663147e-04 
0.0 0.0 0.0 
0.0 0.0 0.0 
0.0 0.0 0.0 
-1.483198277618e-03 2.721071498371e-04 0.0 
2.721071498371e-04 8.165740664983e-03 0.0 
0.0 0.0 -1.223389224544e-03 
-1.535254932215e-03 2.717190120097e-04 0.0 
2.717190120097e-04 7.854733745092e-03 0.0 
0.0 0.0 -1.157435638217e-03 
1.714590457334e-06 -7.115369139069e-04 0.0 
-7.115369139069e-04 4.515715516867e-04 0.0 
0.0 0.0 -1.942654894903e-04 
3.878432463794e-04 -2.223127307783e-03 0.0 
-2.223127307783e-03 1.630928175518e-03 0.0 
0.0 0.0 -8.651877522419e-04 
-2.798740380973e-05 -2.159694096595e-03 0.0 
-2.159694096595e-03 1.431561792510e-03 0.0 
0.0 0.0 -6.015318808715e-04 
-1.829025907462e-04 -2.119639284792e-03 0.0 
-2.119639284792e-03 1.714857895665e-03 0.0 
0.0 0.0 -6.565522735366e-04 
-1.017733219917e-03 3.364025437069e-03 0.0 
3.364025437069e-03 4.897256146699e-03 0.0 
0.0 0.0 -1.100737838324e-03 
5.257552207879e-04 2.875144563505e-03 0.0 
2.875144563505e-03 1.853285664374e-03 0.0 
0.0 0.0 -9.467522836136e-04 
-8.497134643687e-04 3.433349612216e-03 0.0 
3.433349612216e-03 4.357788075562e-03 0.0 
0.0 0.0 -1.064854740548e-03 
2.203223739880e-03 -1.975974349915e-03 0.0 
-1.975974349915e-03 -9.232686555068e-04 0.0 
0.0 0.0 -5.485521790173e-04 
-1.446388010227e-03 1.342323327112e-04 0.0 
1.342323327112e-04 5.217166277606e-03 0.0 
0.0 0.0 -7.105917616147e-04 
-1.197543499266e-03 -1.810608894436e-03 0.0 
-1.810608894436e-03 5.325302062837e-03 0.0 
0.0 0.0 -1.281538364137e-03 
-1.726353625323e-04 -1.807145954026e-03 0.0 
-1.807145954026e-03 1.497715714659e-03 0.0 
0.0 0.0 -5.678915794828e-04 
2.222123337372e-04 -1.923483587620e-05 0.0 
-1.923483587620e-05 2.651456288210e-03 0.0 
0.0 0.0 -1.121221582973e-03 
1.156875498320e-03 3.056207622502e-03 0.0 
3.056207622502e-03 4.647886417546e-04 0.0 
0.0 0.0 -6.949989171746e-04 
-5.424671300971e-04 -2.887281693977e-04 0.0 
-2.887281693977e-04 1.675559050033e-03 0.0 
0.0 0.0 -3.973267919445e-04 
-1.360155763593e-03 3.097514486866e-03 0.0 
3.097514486866e-03 5.194571229381e-03 0.0 
0.0 0.0 -1.015166614560e-03 
2.718308302872e-03 -7.221702226311e-04 0.0 
-7.221702226311e-04 -1.243788694723e-03 0.0 
0.0 0.0 -6.319369749211e-04 
2.871950510200e-04 -2.057705951039e-03 0.0 
-2.057705951039e-03 8.654869691646e-04 0.0 
0.0 0.0 -4.940065800791e-04 
2.698077562336e-03 -1.426914000199e-03 0.0 
-1.426914000199e-03 -1.126048004927e-03 0.0 
0.0 0.0 -6.737269531753e-04 
-2.035172389928e-03 5.681521720379e-05 0.0 
5.681521720379e-05 5.818689376235e-03 0.0 
0.0 0.0 -1.069816800183e-03 
-1.547603731344e-03 2.557965682965e-03 0.0 
2.557965682965e-03 5.760856088478e-03 0.0 
0.0 0.0 -1.020980360542e-03 
3.535477644423e-04 -2.409077986448e-03 0.0 
-2.409077986448e-03 9.968391477695e-04 0.0 
0.0 0.0 -5.787372480908e-04 
-1.638049386592e-03 -5.261620418510e-04 0.0 
-5.261620418510e-04 4.881654597217e-03 0.0 
0.0 0.0 -1.045407985144e-03 
-1.131069213092e-03 3.339054972024e-03 0.0 
3.339054972024e-03 5.004170711216e-03 0.0 
0.0 0.0 -1.071782534217e-03 
7.849170986352e-05 2.002784816892e-03 0.0 
2.002784816892e-03 3.087471277383e-03 0.0 
0.0 0.0 -1.109893377180e-03 
5.081300325286e-04 -2.843687144981e-03 0.0 
-2.843687144981e-03 1.050709009186e-03 0.0 
0.0 0.0 -6.680738750205e-04 
-8.485846460072e-04 -2.429092323345e-04 0.0 
-2.429092323345e-04 2.701937249489e-03 0.0 
0.0 0.0 -7.163733244607e-04 
1.054276666128e-03 2.747625866901e-03 0.0 
2.747625866901e-03 4.044819373952e-04 0.0 
0.0 0.0 -6.251822586527e-04 
-1.556582639800e-03 -2.026954580916e-04 0.0 
-2.026954580916e-04 6.435079901625e-03 0.0 
0.0 0.0 -9.278975173457e-04 
6.306613738133e-04 -2.843431008643e-03 0.0 
-2.843431008643e-03 9.087558385051e-04 0.0 
0.0 0.0 -6.597502338507e-04 
-1.151665732863e-03 3.368799827368e-03 0.0 
3.368799827368e-03 6.118948746046e-03 0.0 
0.0 0.0 -1.269179263065e-03 
-1.428509069589e-03 2.793670889960e-03 0.0 
2.793670889960e-03 7.317810969107e-03 0.0 
0.0 0.0 -1.281197857596e-03 
-1.509195270466e-03 -1.457985023921e-04 0.0 
-1.457985023921e-04 5.771603983327e-03 0.0 
0.0 0.0 -8.387747867703e-04 
-1.581495188537e-03 1.397540288099e-03 0.0 
1.397540288099e-03 8.227342162666e-03 0.0 
0.0 0.0 -1.255037608383e-03 
-1.367281596907e-03 3.139996712098e-03 0.0 
3.139996712098e-03 6.951432883282e-03 0.0 
0.0 0.0 -1.285499913836e-03 
2.109542503114e-03 -1.930775448323e-03 0.0 
-1.930775448323e-03 -7.849211290522e-04 0.0 
0.0 0.0 -5.676948745980e-04 
1.380801218232e-03 -2.351235301793e-03 0.0 
-2.351235301793e-03 -1.698746639676e-04 0.0 
0.0 0.0 -5.189685232560e-04 
-5.757297583633e-04 4.366962327414e-04 0.0 
4.366962327414e-04 4.537400147681e-03 0.0 
0.0 0.0 -1.265535665854e-03 
0.0 0.0 0.0 
0.0 0.0 0.0 
0.0 0.0 0.0 
-8.394320087675e-04 -3.205840844428e-05 0.0 
-3.205840844428e-05 2.565992005118e-03 0.0 
0.0 0.0 -6.072167217314e-04 
-1.628413269992e-03 -1.673586948164e-04 0.0 
-1.673586948164e-04 4.868895534125e-03 0.0 
0.0 0.0 -1.067827858613e-03 
4.161330338528e-04 -2.673128765629e-03 0.0 
-2.673128765629e-03 1.065048131365e-03 0.0 
0.0 0.0 -6.347919279505e-04 
1.927385449734e-03 -2.370761864729e-03 0.0 
-2.370761864729e-03 -5.075034197406e-04 0.0 
0.0 0.0 -6.085208699972e-04 
-3.171269370445e-05 1.814506539183e-03 0.0 
1.814506539183e-03 1.218095740662e-03 0.0 
0.0 0.0 -5.084498772674e-04 
-1.067456340534e-04 1.927365287384e-03 0.0 
1.927365287384e-03 1.436121596143e-03 0.0 
0.0 0.0 -5.697325551813e-04 
-1.696184299969e-03 4.188758800933e-04 0.0 
4.188758800933e-04 5.835163577314e-03 0.0 
0.0 0.0 -8.290026594306e-04 
2.687649412673e-03 -1.534651648036e-03 0.0 
-1.534651648036e-03 -1.236375441606e-03 0.0 
0.0 0.0 -6.219745590288e-04 
-8.374689021838e-04 -7.956683833314e-04 0.0 
-7.956683833314e-04 2.821114433129e-03 0.0 
0.0 0.0 -8.100060677168e-04 
-5.763887782379e-05 2.884104717794e-03 0.0 
2.884104717794e-03 2.960925031656e-03 0.0 
0.0 0.0 -1.077832113627e-03 
-1.357626258592e-03 -2.064052997114e-03 0.0 
-2.064052997114e-03 6.484172296954e-03 0.0 
0.0 0.0 -1.324978758543e-03 
-1.316853930481e-03 -2.171233133158e-03 0.0 
-2.171233133158e-03 6.262828385778e-03 0.0 
0.0 0.0 -1.320624918399e-03 
1.210545566472e-03 -2.440771907645e-03 0.0 
-2.440771907645e-03 2.098806390541e-04 0.0 
0.0 0.0 -6.087540880828e-04 
-1.669792706879e-03 7.585625911679e-04 0.0 
7.585625911679e-04 5.225921064138e-03 0.0 
0.0 0.0 -7.877541558771e-04 
0.0 0.0 0.0 
0.0 0.0 0.0 
0.0 0.0 0.0 
1.526705898496e-04 1.832423170921e-03 0.0 
1.832423170921e-03 9.162592996274e-04 0.0 
0.0 0.0 -4.581128097759e-04 
1.694782762505e-03 -3.278967534484e-03 0.0 
-3.278967534484e-03 -3.718783773796e-04 0.0 
0.0 0.0 -5.669590221966e-04 
7.211551457005e-05 1.826082030850e-03 0.0 
1.826082030850e-03 1.040988995356e-03 0.0 
0.0 0.0 -4.770447899684e-04 
8.520859723696e-04 2.702963814911e-03 0.0 
2.702963814911e-03 1.160586394610e-03 0.0 
0.0 0.0 -8.625738715628e-04 
1.049602008115e-03 -2.610080274348e-03 0.0 
-2.610080274348e-03 3.535904184599e-04 0.0 
0.0 0.0 -6.013681828177e-04 
1.924226435236e-03 -2.386188926630e-03 0.0 
-2.386188926630e-03 -7.021276801158e-04 0.0 
0.0 0.0 -5.237566093371e-04 
8.906199206854e-04 -2.335912402002e-03 0.0 
-2.335912402002e-03 -6.441539282859e-04 0.0 
0.0 0.0 -1.056282824569e-04 
-1.518150307999e-03 2.180517986998e-04 0.0 
2.180517986998e-04 7.814279060755e-03 0.0 
0.0 0.0 -1.176327079312e-03 
1.081599261770e-03 -2.356565631716e-03 0.0 
-2.356565631716e-03 1.958644745057e-04 0.0 
0.0 0.0 -5.474844584040e-04 
-1.503838573524e-03 8.537407365334e-04 0.0 
8.537407365334e-04 8.091641180223e-03 0.0 
0.0 0.0 -1.212957849656e-03 
-1.563004608103e-03 1.345074243690e-04 0.0 
1.345074243690e-04 7.574721874408e-03 0.0 
0.0 0.0 -1.117460450001e-03 
-1.452677521913e-03 3.546154927313e-04 0.0 
3.546154927313e-04 8.989483437301e-03 0.0 
0.0 0.0 -1.319418651152e-03 
-1.573682658163e-03 -6.434523803718e-04 0.0 
-6.434523803718e-04 7.311749488072e-03 0.0 
0.0 0.0 -1.324849633189e-03 
-1.522640732825e-03 1.776300828802e-04 0.0 
1.776300828802e-04 5.910709247101e-03 0.0 
0.0 0.0 -8.315138651140e-04 
8.069897163257e-04 -2.530526196753e-03 0.0 
-2.530526196753e-03 5.619735093356e-04 0.0 
0.0 0.0 -5.866985252834e-04 
-2.779641202251e-04 1.703949019227e-03 0.0 
1.703949019227e-03 1.672572981451e-03 0.0 
0.0 0.0 -5.976895119538e-04 
7.490285409449e-04 -3.064892262470e-03 0.0 
-3.064892262470e-03 9.033898181147e-04 0.0 
0.0 0.0 -7.081792967398e-04 
-1.343328350294e-03 -1.797161006887e-03 0.0 
-1.797161006887e-03 6.496235434020e-03 0.0 
0.0 0.0 -1.343328350294e-03 
1.770851489837e-04 1.574613937019e-03 0.0 
1.574613937019e-03 7.197174740553e-04 0.0 
0.0 0.0 -3.843439813024e-04 
1.884365055557e-04 1.730723292298e-03 0.0 
1.730723292298e-03 7.999529513160e-04 0.0 
0.0 0.0 -4.235954815164e-04 
5.120454739847e-05 4.425631252095e-04 0.0 
4.425631252095e-04 3.081010907522e-03 0.0 
0.0 0.0 -1.156027955174e-03 
-1.600063486753e-03 4.454182285367e-04 0.0 
4.454182285367e-04 5.553533901810e-03 0.0 
0.0 0.0 -7.715229432315e-04 
-1.496300168116e-03 6.368230222668e-04 0.0 
6.368230222668e-04 8.172597464420e-03 0.0 
0.0 0.0 -1.219279742240e-03 
-1.079188820050e-03 3.032068943539e-03 0.0 
3.032068943539e-03 5.044159493797e-03 0.0 
0.0 0.0 -1.069611963270e-03 
-3.125996649260e-04 2.376006221788e-03 0.0 
2.376006221788e-03 3.643123644996e-03 0.0 
0.0 0.0 -1.175036385391e-03 
-1.440706362563e-03 2.765679407787e-03 0.0 
2.765679407787e-03 6.040073424197e-03 0.0 
0.0 0.0 -1.113576918908e-03 
-1.533426048517e-03 3.483355765343e-04 0.0 
3.483355765343e-04 5.830518730214e-03 0.0 
0.0 0.0 -8.542750875040e-04 
4.145616627609e-04 -2.510686493370e-03 0.0 
-2.510686493370e-03 9.700386978898e-04 0.0 
0.0 0.0 -5.934001545646e-04 
5.188237827814e-04 -2.738227656747e-03 0.0 
-2.738227656747e-03 9.760172721955e-04 0.0 
0.0 0.0 -6.406461664186e-04 
-1.559322814184e-03 2.985337068608e-04 0.0 
2.985337068608e-04 6.828450389527e-03 0.0 
0.0 0.0 -9.963059934037e-04 
-1.981024320875e-04 2.157190390334e-03 0.0 
2.157190390334e-03 3.614846179737e-03 0.0 
0.0 0.0 -1.142506377625e-03 
-1.686833987170e-03 9.535938984725e-04 0.0 
9.535938984725e-04 4.721621554871e-03 0.0 
0.0 0.0 -7.386355146563e-04 
-1.463703012742e-03 6.266658719779e-05 0.0 
6.266658719779e-05 5.604963867248e-03 0.0 
0.0 0.0 -7.676068998053e-04 
-1.515549186513e-03 3.697674288865e-05 0.0 
3.697674288865e-05 5.930448629907e-03 0.0 
0.0 0.0 -8.242303029217e-04 
-1.592254304502e-03 -3.437592554212e-05 0.0 
-3.437592554212e-05 6.006274404460e-03 0.0 
0.0 0.0 -8.467401457521e-04 
1.475757754276e-03 -1.289294546505e-03 0.0 
-1.289294546505e-03 -9.417009757612e-04 0.0 
0.0 0.0 -2.288814765064e-04 
2.490964718879e-04 -2.584180670905e-03 0.0 
-2.584180670905e-03 1.241456993708e-03 0.0 
0.0 0.0 -6.388086281126e-04 
-1.524289002589e-03 1.055576054381e-03 0.0 
1.055576054381e-03 8.572679794113e-03 0.0 
0.0 0.0 -1.269310366786e-03 
-1.609154575879e-03 5.927002029432e-05 0.0 
5.927002029432e-05 6.380922986421e-03 0.0 
0.0 0.0 -9.150577043801e-04 
-9.099437829954e-04 1.617518349232e-03 0.0 
1.617518349232e-03 4.661075676102e-03 0.0 
0.0 0.0 -1.295322057178e-03 
-1.481137119135e-03 2.911611220647e-03 0.0 
2.911611220647e-03 6.859531798370e-03 0.0 
0.0 0.0 -1.215577547940e-03 
-1.339321083005e-03 2.882096422564e-03 0.0 
2.882096422564e-03 5.250850385045e-03 0.0 
0.0 0.0 -1.012565562176e-03 
-1.640900346179e-03 1.517631824607e-03 0.0 
1.517631824607e-03 7.910833663920e-03 0.0 
0.0 0.0 -1.214907066889e-03 
-1.059540956040e-03 -1.334979029727e-03 0.0 
-1.334979029727e-03 3.594823103032e-03 0.0 
0.0 0.0 -9.974489174931e-04 
-1.013156646554e-03 -1.368118382081e-03 0.0 
-1.368118382081e-03 3.447232281497e-03 0.0 
0.0 0.0 -9.464646038184e-04 
-1.053605941392e-03 -1.657375267239e-03 0.0 
-1.657375267239e-03 4.938505543447e-03 0.0 
0.0 0.0 -1.226851238141e-03 
0.0 0.0 0.0 
0.0 0.0 0.0 
0.0 0.0 0.0 
-9.591830860426e-04 -2.723797524876e-04 0.0 
-2.723797524876e-04 2.822378765221e-03 0.0 
0.0 0.0 -5.777536677209e-04 
-1.342405754833e-03 2.832331701177e-03 0.0 
2.832331701177e-03 5.623065616304e-03 0.0 
0.0 0.0 -1.342405754833e-03 
-1.232108481340e-04 -4.438827698639e-05 0.0 
-4.438827698639e-05 1.111663342237e-03 0.0 
0.0 0.0 -2.724401835525e-04 
-1.475085458698e-03 8.547838585484e-05 0.0 
8.547838585484e-05 5.344445388578e-03 0.0 
0.0 0.0 -7.870118106326e-04 
-3.041907190684e-04 -2.929338759418e-04 0.0 
-2.929338759418e-04 3.995006628254e-03 0.0 
0.0 0.0 -1.213461936786e-03 
-7.635875139995e-06 -1.081722019394e-03 0.0 
-1.081722019394e-03 7.060070926500e-04 0.0 
0.0 0.0 -2.993019503614e-04 
1.505773719545e-03 -8.263394782763e-04 0.0 
-8.263394782763e-04 -6.336254798977e-05 0.0 
0.0 0.0 -2.382422751898e-04 
-1.473393185853e-03 1.353598964677e-03 0.0 
1.353598964677e-03 8.746165970417e-03 0.0 
0.0 0.0 -1.324389858384e-03 
-1.521392000938e-03 2.912474066464e-04 0.0 
2.912474066464e-04 4.940937614450e-03 0.0 
0.0 0.0 -7.294542769151e-04 
-1.503978704987e-03 1.473877310897e-03 0.0 
1.473877310897e-03 8.344062810088e-03 0.0 
0.0 0.0 -1.261418349269e-03 
-5.327298325037e-04 3.575837178235e-04 0.0 
3.575837178235e-04 3.642687559217e-03 0.0 
0.0 0.0 -1.231858344535e-03 
-1.518533849991e-03 1.071472041001e-04 0.0 
1.071472041001e-04 4.942575461076e-03 0.0 
0.0 0.0 -7.289279708929e-04 
0.0 0.0 0.0 
0.0 0.0 0.0 
0.0 0.0 0.0 
-1.422405127371e-03 1.531540875437e-04 0.0 
1.531540875437e-04 8.427070743481e-03 0.0 
0.0 0.0 -1.284140717545e-03 
-3.551011727049e-04 -7.009671051649e-04 0.0 
-7.009671051649e-04 1.319322733909e-03 0.0 
0.0 0.0 -3.479328688591e-04 
-1.509662464093e-03 1.187111297047e-03 0.0 
1.187111297047e-03 8.089981201651e-03 0.0 
0.0 0.0 -1.232184317627e-03 
-1.343095105526e-03 -1.540983607491e-03 0.0 
-1.540983607491e-03 6.702452530061e-03 0.0 
0.0 0.0 -1.343095105526e-03 
-1.554707611052e-03 2.562602135152e-03 0.0 
2.562602135152e-03 7.111310188225e-03 0.0 
0.0 0.0 -1.225700354592e-03 
2.173759747286e-03 -1.419935824116e-03 0.0 
-1.419935824116e-03 -1.114841162711e-03 0.0 
0.0 0.0 -4.538222505322e-04 
-1.741082427331e-03 1.054953553281e-03 0.0 
1.054953553281e-03 5.737463170789e-03 0.0 
0.0 0.0 -8.279144014868e-04 
-1.224194647146e-03 -9.467109309958e-04 0.0 
-9.467109309958e-04 3.877522353974e-03 0.0 
0.0 0.0 -9.630043323905e-04 
6.517046530341e-05 2.327281681424e-03 0.0 
2.327281681424e-03 2.984838930141e-03 0.0 
0.0 0.0 -1.077599360682e-03 
-1.012701747737e-03 1.623436123670e-03 0.0 
1.623436123670e-03 5.329514602195e-03 0.0 
0.0 0.0 -1.326997735404e-03 
-1.585109039191e-03 2.780588406276e-04 0.0 
2.780588406276e-04 7.347999637207e-03 0.0 
0.0 0.0 -1.061614915164e-03 
-1.008710860855e-03 1.312542642731e-03 0.0 
1.312542642731e-03 5.209194240256e-03 0.0 
0.0 0.0 -1.325870641008e-03 
3.673422327950e-04 -3.776124720398e-04 0.0 
-3.776124720398e-04 -3.673422327950e-04 0.0 
0.0 0.0 0.0 
-1.430003464036e-03 -1.969193470792e-03 0.0 
-1.969193470792e-03 6.388366935774e-03 0.0 
0.0 0.0 -1.277656510522e-03 
2.370305391374e-03 -2.562363361486e-03 0.0 
-2.562363361486e-03 -6.166549384612e-04 0.0 
0.0 0.0 -7.515644798196e-04 
-3.100324176095e-04 -2.408320728402e-04 0.0 
-2.408320728402e-04 1.151728361162e-03 0.0 
0.0 0.0 -2.782378078114e-04 
-7.322007537650e-04 -9.555468943118e-04 0.0 
-9.555468943118e-04 4.734669521016e-03 0.0 
0.0 0.0 -1.270335377537e-03 
-1.575122942683e-03 2.171152972729e-03 0.0 
2.171152972729e-03 8.127111917130e-03 0.0 
0.0 0.0 -1.270603359501e-03 
-1.496692965649e-03 1.319095711312e-03 0.0 
1.319095711312e-03 8.369617950368e-03 0.0 
0.0 0.0 -1.289850838753e-03 
-1.498527200318e-03 3.689228571039e-04 0.0 
3.689228571039e-04 5.398355138859e-03 0.0 
0.0 0.0 -7.762633204683e-04 
-1.744558354744e-03 1.631310676350e-03 0.0 
1.631310676350e-03 5.391746306119e-03 0.0 
0.0 0.0 -8.489529362435e-04 
7.301121496963e-04 2.437654514774e-03 0.0 
2.437654514774e-03 5.848010967936e-04 0.0 
0.0 0.0 -5.635342484957e-04 
-1.427601509624e-03 3.175353375607e-03 0.0 
3.175353375607e-03 7.125136039489e-03 0.0 
0.0 0.0 -1.273041473476e-03 
-1.038080719471e-03 -6.334570087308e-04 0.0 
-6.334570087308e-04 3.329140480764e-03 0.0 
0.0 0.0 -8.764843149172e-04 
1.193441318594e-03 2.328942464463e-03 0.0 
2.328942464463e-03 3.040131158427e-05 0.0 
0.0 0.0 -5.245039843621e-04 
-2.118585962266e-05 2.523859735457e-03 0.0 
2.523859735457e-03 3.050030047244e-03 0.0 
0.0 0.0 -1.110141529071e-03 
-1.425138137322e-03 6.470798395339e-05 0.0 
6.470798395339e-05 5.179988142805e-03 0.0 
0.0 0.0 -7.096328662732e-04 
-1.517585115342e-03 2.260614719474e-03 0.0 
2.260614719474e-03 7.684999531697e-03 0.0 
0.0 0.0 -1.237729719596e-03 
-1.422593477448e-03 -1.670334611249e-04 0.0 
-1.670334611249e-04 8.888807101193e-03 0.0 
0.0 0.0 -1.321509982054e-03 
-1.343732204276e-03 1.010834953933e-04 0.0 
1.010834953933e-04 8.744729451207e-03 0.0 
0.0 0.0 -1.343732204276e-03 
3.369232126492e-03 1.693280559230e-04 0.0 
1.693280559230e-04 -1.155841201236e-03 0.0 
0.0 0.0 -6.603666768414e-05 
2.499766675984e-03 -2.952033461878e-04 0.0 
-2.952033461878e-04 -9.796559826583e-04 0.0 
0.0 0.0 -1.532902690118e-04 
-1.416942128620e-03 -1.624029676109e-04 0.0 
-1.624029676109e-04 5.054688992973e-03 0.0 
0.0 0.0 -7.318233512793e-04 
-1.419792893404e-03 3.183177604522e-05 0.0 
3.183177604522e-05 5.196638347434e-03 0.0 
0.0 0.0 -7.096011290571e-04 
-1.343732204276e-03 -2.406936037715e-04 0.0 
-2.406936037715e-04 7.113693032304e-03 0.0 
0.0 0.0 -1.343732204276e-03 
-1.562203585825e-03 1.305016391806e-04 0.0 
1.305016391806e-04 7.294302504235e-03 0.0 
0.0 0.0 -1.321509982054e-03 
2.262811037578e-03 -4.868403071367e-05 0.0 
-4.868403071367e-05 -4.447467837794e-04 0.0 
0.0 0.0 -2.434615908245e-04 
0.0 0.0 0.0 
0.0 0.0 0.0 
0.0 0.0 0.0 
-1.642313907969e-03 -1.143113511814e-03 0.0 
-1.143113511814e-03 6.403076283141e-03 0.0 
0.0 0.0 -1.230181737024e-03 
-7.148794360533e-04 3.164508669310e-03 0.0 
3.164508669310e-03 4.742447412984e-03 0.0 
0.0 0.0 -1.209364118140e-03 
-5.258157990741e-04 -7.879783393280e-04 0.0 
-7.879783393280e-04 1.688623542397e-03 0.0 
0.0 0.0 -3.144533898553e-04 
-1.351136438279e-03 -1.975186179308e-03 0.0 
-1.975186179308e-03 5.772523348463e-03 0.0 
0.0 0.0 -1.240191881334e-03 
-1.731554632553e-03 -2.342398403810e-04 0.0 
-2.342398403810e-04 5.123990276158e-03 0.0 
0.0 0.0 -1.081029080859e-03 
-1.535845139517e-03 -3.312382585291e-04 0.0 
-3.312382585291e-04 4.629162629476e-03 0.0 
0.0 0.0 -1.039595904837e-03 
-1.612928706957e-03 3.113730006726e-04 0.0 
3.113730006726e-04 6.721792739589e-03 0.0 
0.0 0.0 -9.400782610458e-04 
1.101421061084e-03 -2.909512193680e-03 0.0 
-2.909512193680e-03 4.457906368086e-04 0.0 
0.0 0.0 -6.630907276683e-04 
3.131506035800e-04 2.556520147165e-03 0.0 
2.556520147165e-03 2.414585707981e-03 0.0 
0.0 0.0 -1.011657465016e-03 
-1.177300482134e-05 -1.092061392265e-03 0.0 
-1.092061392265e-03 1.284900459222e-03 0.0 
0.0 0.0 -3.097963217911e-04 
-1.220126007134e-03 -1.262020264430e-03 0.0 
-1.262020264430e-03 3.977099482089e-03 0.0 
0.0 0.0 -1.029451436826e-03 
-1.346849968967e-03 3.153673073291e-03 0.0 
3.153673073291e-03 6.593026306646e-03 0.0 
0.0 0.0 -1.240519096027e-03 
-1.527894889398e-03 -1.936018657920e-04 0.0 
-1.936018657920e-04 8.104261702945e-03 0.0 
0.0 0.0 -1.191726112421e-03 
-1.479396360357e-03 -2.989971596189e-04 0.0 
-2.989971596189e-04 4.503238817139e-03 0.0 
0.0 0.0 -1.046336039097e-03 
-1.560842421660e-03 -8.540456832086e-05 0.0 
-8.540456832086e-05 6.232717148515e-03 0.0 
0.0 0.0 -8.745659502648e-04 
-9.955423334814e-04 3.339003162247e-03 0.0 
3.339003162247e-03 5.559555520798e-03 0.0 
0.0 0.0 -1.217119345309e-03 
-1.351529115626e-03 2.876362203055e-03 0.0 
2.876362203055e-03 5.976398005188e-03 0.0 
0.0 0.0 -1.140944809983e-03 
-1.341013158963e-03 2.862888668155e-03 0.0 
2.862888668155e-03 5.603065071307e-03 0.0 
0.0 0.0 -1.076426999079e-03 
-1.492882998354e-03 1.325735461083e-04 0.0 
1.325735461083e-04 4.933841446090e-03 0.0 
0.0 0.0 -7.312123441678e-04 
6.172998628868e-04 2.362607397547e-03 0.0 
2.362607397547e-03 1.812787626421e-03 0.0 
0.0 0.0 -9.763781674015e-04 
-1.502422605285e-03 2.514513612527e-03 0.0 
2.514513612527e-03 7.380594194812e-03 0.0 
0.0 0.0 -1.231404929774e-03 
-8.003792871297e-04 -5.108965880218e-04 0.0 
-5.108965880218e-04 2.603757424793e-03 0.0 
0.0 0.0 -7.107894383394e-04 
1.779720377328e-04 -1.298870854502e-03 0.0 
-1.298870854502e-03 4.337348693579e-04 0.0 
0.0 0.0 -1.164291272224e-04 
-9.970216092610e-04 3.010797291644e-03 0.0 
3.010797291644e-03 5.249606407737e-03 0.0 
0.0 0.0 -1.185975225609e-03 
2.191734593223e-04 5.610847358595e-04 0.0 
5.610847358595e-04 2.599656196276e-03 0.0 
0.0 0.0 -1.123538223191e-03 
1.172927684885e-03 -2.889497196016e-03 0.0 
-2.889497196016e-03 3.300442381492e-04 0.0 
0.0 0.0 -6.441308241577e-04 
-1.607945126080e-03 -1.740082688204e-05 0.0 
-1.740082688204e-05 7.004832338719e-03 0.0 
0.0 0.0 -9.893338170986e-04 
-1.512467681835e-03 -1.269144618606e-03 0.0 
-1.269144618606e-03 6.614649124568e-03 0.0 
0.0 0.0 -1.282739585886e-03 
-7.843923001707e-04 3.075094105696e-03 0.0 
3.075094105696e-03 4.595487038338e-03 0.0 
0.0 0.0 -1.182073443778e-03 
-8.715817867822e-04 3.121670101447e-03 0.0 
3.121670101447e-03 5.293578095492e-03 0.0 
0.0 0.0 -1.215129606110e-03 
-1.899421587696e-03 -4.002758172017e-04 0.0 
-4.002758172017e-04 5.518204821451e-03 0.0 
0.0 0.0 -1.079026350805e-03 
0.0 0.0 0.0 
0.0 0.0 0.0 
0.0 0.0 0.0 
-4.777114925537e-05 1.704067356774e-03 0.0 
1.704067356774e-03 1.178107469511e-03 0.0 
0.0 0.0 -4.844298515380e-04 
4.263341666864e-04 2.474607686413e-03 0.0 
2.474607686413e-03 9.338852604604e-04 0.0 
0.0 0.0 -5.829511830629e-04 
-1.721178049984e-03 1.085378291777e-03 0.0 
1.085378291777e-03 5.473315709064e-03 0.0 
0.0 0.0 -8.471429939415e-04 
4.228609678746e-04 3.021260051708e-03 0.0 
3.021260051708e-03 1.732467119469e-03 0.0 
0.0 0.0 -9.237120374330e-04 
-1.533799557255e-03 6.728038073689e-04 0.0 
6.728038073689e-04 8.237501439824e-03 0.0 
0.0 0.0 -1.236541257690e-03 
-8.719226860915e-04 7.267313533335e-04 0.0 
7.267313533335e-04 4.230245890387e-03 0.0 
0.0 0.0 -1.282325209426e-03 
2.964520960670e-04 -1.978928276592e-03 0.0 
-1.978928276592e-03 8.042557840210e-04 0.0 
0.0 0.0 -4.717319486092e-04 
1.319048487483e-04 -1.576566321261e-03 0.0 
-1.576566321261e-03 7.886992305850e-04 0.0 
0.0 0.0 -3.945446054286e-04 
1.817673251283e-04 1.876543985894e-03 0.0 
1.876543985894e-03 9.002005847285e-04 0.0 
0.0 0.0 -4.637005327958e-04 
-1.570049742763e-03 5.369425789645e-04 0.0 
5.369425789645e-04 6.963270594615e-03 0.0 
0.0 0.0 -1.019242131223e-03 
-9.308723645065e-04 -1.101236884891e-03 0.0 
-1.101236884891e-03 3.096386949501e-03 0.0 
0.0 0.0 -8.257845680531e-04 
-1.587305306336e-03 1.706805244546e-03 0.0 
1.706805244546e-03 7.938189703079e-03 0.0 
0.0 0.0 -1.241298427557e-03 
-4.566804084497e-04 -4.114264182866e-04 0.0 
-4.114264182866e-04 1.625098335496e-03 0.0 
0.0 0.0 -2.728146851408e-04 
-4.193612778590e-04 8.066391699243e-04 0.0 
8.066391699243e-04 3.619638834416e-03 0.0 
0.0 0.0 -1.221152601860e-03 
-1.613149922033e-03 6.729604599103e-04 0.0 
6.729604599103e-04 5.730913827298e-03 0.0 
0.0 0.0 -8.343732341398e-04 
-9.805029045403e-04 2.320290812643e-03 0.0 
2.320290812643e-03 4.821535310315e-03 0.0 
0.0 0.0 -1.286815605725e-03 
-1.972178768770e-04 2.471490219589e-03 0.0 
2.471490219589e-03 3.599121568157e-03 0.0 
0.0 0.0 -1.111121968474e-03 
-1.760642934702e-03 1.153303269584e-03 0.0 
1.153303269584e-03 5.427908306702e-03 0.0 
0.0 0.0 -8.465141837044e-04 
-8.764965121591e-04 -1.556039561585e-03 0.0 
-1.556039561585e-03 5.086777567782e-03 0.0 
0.0 0.0 -1.269142588751e-03 
-1.551933899349e-03 2.142615053803e-03 0.0 
2.142615053803e-03 8.208999000424e-03 0.0 
0.0 0.0 -1.272727265576e-03 
-1.482418812719e-03 2.636741981307e-04 0.0 
2.636741981307e-04 8.672320582664e-03 0.0 
0.0 0.0 -1.271339345674e-03 
2.794840770511e-04 1.877110949586e-03 0.0 
1.877110949586e-03 7.644572491491e-04 0.0 
0.0 0.0 -4.474034255144e-04 
-1.548384254494e-03 1.778472603870e-03 0.0 
1.778472603870e-03 7.853183226647e-03 0.0 
0.0 0.0 -1.218309553141e-03 
-1.238984078820e-03 3.237221125149e-03 0.0 
3.237221125149e-03 5.979697278194e-03 0.0 
0.0 0.0 -1.286645293131e-03 
-2.338452424878e-04 4.838955254747e-04 0.0 
4.838955254747e-04 3.810277403162e-03 0.0 
0.0 0.0 -1.211735819529e-03 
-2.641749654371e-04 2.730651329854e-03 0.0 
2.730651329854e-03 3.539043083142e-03 0.0 
0.0 0.0 -1.143254064081e-03 
-1.342665167303e-03 -1.913201158816e-03 0.0 
-1.913201158816e-03 6.140194887135e-03 0.0 
0.0 0.0 -1.342665167303e-03 
-1.336562494305e-03 3.148621666370e-03 0.0 
3.148621666370e-03 5.546558025077e-03 0.0 
0.0 0.0 -1.079065255302e-03 
0.0 0.0 0.0 
0.0 0.0 0.0 
0.0 0.0 0.0 
1.128782554056e-03 2.722430850094e-03 0.0 
2.722430850094e-03 3.671628183846e-04 0.0 
0.0 0.0 -6.411194453319e-04 
-1.438782275937e-03 2.878593628370e-03 0.0 
2.878593628370e-03 6.406037302073e-03 0.0 
0.0 0.0 -1.176936364471e-03 
-1.717609899646e-03 1.241798828460e-03 0.0 
1.241798828460e-03 5.908300544731e-03 0.0 
0.0 0.0 -8.884613587993e-04 
-1.780913372705e-03 -9.535977727778e-04 0.0 
-9.535977727778e-04 6.697114639858e-03 0.0 
0.0 0.0 -1.221994126432e-03 
-4.533386727007e-04 2.366129578243e-03 0.0 
2.366129578243e-03 4.141621556580e-03 0.0 
0.0 0.0 -1.177009544428e-03 
-1.321487320261e-03 -1.869174225829e-03 0.0 
-1.869174225829e-03 5.949052928407e-03 0.0 
0.0 0.0 -1.292249833993e-03 
-1.557982079132e-03 5.560473992337e-04 0.0 
5.560473992337e-04 7.430714466144e-03 0.0 
0.0 0.0 -1.085521458831e-03 
-9.906508321286e-04 2.010874064209e-03 0.0 
2.010874064209e-03 4.656220140669e-03 0.0 
0.0 0.0 -1.288973456333e-03 
-8.669493969727e-04 -1.781456295850e-03 0.0 
-1.781456295850e-03 4.656567585957e-03 0.0 
0.0 0.0 -1.233322439334e-03 
-8.389834207113e-04 -1.353105162080e-03 0.0 
-1.353105162080e-03 4.612963758963e-03 0.0 
0.0 0.0 -1.235043566395e-03 
-1.060688043098e-03 -7.830630523890e-04 0.0 
-7.830630523890e-04 3.332470677800e-03 0.0 
0.0 0.0 -8.113697483009e-04 
-1.399514092732e-03 -1.981208132211e-03 0.0 
-1.981208132211e-03 6.677395424695e-03 0.0 
0.0 0.0 -1.325641941534e-03 
-1.659266455691e-03 6.538953700681e-04 0.0 
6.538953700681e-04 5.459969626810e-03 0.0 
0.0 0.0 -7.662153309038e-04 
-1.522339522893e-03 2.785636433653e-04 0.0 
2.785636433653e-04 8.220976080768e-03 0.0 
0.0 0.0 -1.217406395242e-03 
2.069000998586e-04 -1.834555044401e-03 0.0 
-1.834555044401e-03 8.418202147660e-04 0.0 
0.0 0.0 -4.494515634106e-04 
-1.554320641115e-03 9.540049576088e-05 0.0 
9.540049576088e-05 8.023345832809e-03 0.0 
0.0 0.0 -1.163202487293e-03 
-1.605625159736e-03 1.859754007895e-04 0.0 
1.859754007895e-04 7.063048343461e-03 0.0 
0.0 0.0 -9.926133712568e-04 
1.071864880333e-03 1.610051896133e-04 0.0 
1.610051896133e-04 5.200375252643e-04 0.0 
0.0 0.0 -3.474471837849e-04 
1.832184275694e-03 -1.682280732148e-03 0.0 
-1.682280732148e-03 -1.155510517394e-03 0.0 
0.0 0.0 -2.900030392716e-04 
-1.244256880666e-03 3.271621003319e-03 0.0 
3.271621003319e-03 5.486132487448e-03 0.0 
0.0 0.0 -1.107581195644e-03 
-1.451044372397e-03 1.126612148562e-03 0.0 
1.126612148562e-03 8.289352558878e-03 0.0 
0.0 0.0 -1.285368862661e-03 
-1.527299749628e-03 6.691441746447e-05 0.0 
6.691441746447e-05 8.328526928916e-03 0.0 
0.0 0.0 -1.223917301752e-03 
-6.542601835067e-04 2.123935983624e-03 0.0 
2.123935983624e-03 4.536265029875e-03 0.0 
0.0 0.0 -1.264779455601e-03 
-1.569067467187e-03 4.931081965661e-04 0.0 
4.931081965661e-04 6.107235089411e-03 0.0 
0.0 0.0 -8.807565902733e-04 
9.036251718301e-04 -7.928332989266e-04 0.0 
-7.928332989266e-04 8.196583140466e-05 0.0 
0.0 0.0 -1.521090440113e-04 
0.0 0.0 0.0 
0.0 0.0 0.0 
0.0 0.0 0.0 
1.535104090838e-04 -8.781412906566e-04 0.0 
-8.781412906566e-04 3.080308650687e-04 0.0 
0.0 0.0 -1.564070233212e-04 
2.353484151011e-04 -2.169776398881e-03 0.0 
-2.169776398881e-03 1.011611602068e-03 0.0 
0.0 0.0 -5.344114359296e-04 
1.417015655870e-05 6.710970029504e-04 0.0 
6.710970029504e-04 -1.417015655870e-05 0.0 
0.0 0.0 0.0 
-1.313634282752e-03 -1.068658817985e-03 0.0 
-1.068658817985e-03 4.125079470398e-03 0.0 
0.0 0.0 -9.906016899089e-04 
-1.765538454854e-03 -6.603659762189e-04 0.0 
-6.603659762189e-04 6.689629757519e-03 0.0 
0.0 0.0 -1.222305993939e-03 
-1.487013992754e-03 2.874720261212e-03 0.0 
2.874720261212e-03 7.173251573241e-03 0.0 
0.0 0.0 -1.222833113937e-03 
-1.810465878115e-03 1.368618358307e-03 0.0 
1.368618358307e-03 5.754603684206e-03 0.0 
0.0 0.0 -8.826313165011e-04 
-9.427899726930e-04 -1.641697169279e-03 0.0 
-1.641697169279e-03 3.388954329502e-03 0.0 
0.0 0.0 -9.886704355714e-04 
-1.052300381815e-03 -2.069501750766e-03 0.0 
-2.069501750766e-03 5.090082794775e-03 0.0 
0.0 0.0 -1.221067908166e-03 
-3.450149565899e-04 -4.408348736528e-04 0.0 
-4.408348736528e-04 3.924699322023e-03 0.0 
0.0 0.0 -1.208702654310e-03 
-8.170914780341e-04 2.664423274710e-03 0.0 
2.664423274710e-03 5.146096323449e-03 0.0 
0.0 0.0 -1.272252409145e-03 
-1.123992376730e-03 3.068252591852e-03 0.0 
3.068252591852e-03 5.507273388894e-03 0.0 
0.0 0.0 -1.237422270938e-03 
-1.253834785736e-03 3.291285599942e-03 0.0 
3.291285599942e-03 5.877546624236e-03 0.0 
0.0 0.0 -1.171232062679e-03 
5.704301253037e-05 -1.249012332624e-03 0.0 
-1.249012332624e-03 7.024151054082e-04 0.0 
0.0 0.0 -3.254820505451e-04 
0.0 0.0 0.0 
0.0 0.0 0.0 
0.0 0.0 0.0 
-1.712539485778e-03 -1.411450056388e-03 0.0 
-1.411450056388e-03 6.539673002672e-03 0.0 
0.0 0.0 -1.223662873675e-03 
4.574946163465e-04 -1.248756071680e-04 0.0 
-1.248756071680e-04 4.764925333501e-04 0.0 
0.0 0.0 -3.004112795925e-04 
4.253951230566e-04 3.287859358848e-05 0.0 
3.287859358848e-05 7.852927410903e-04 0.0 
0.0 0.0 -3.059539021820e-04 
3.569372191111e-04 1.397839525162e-03 0.0 
1.397839525162e-03 1.545362028711e-04 0.0 
0.0 0.0 -2.192028951352e-04 
1.631271963867e-04 -1.346040378322e-03 0.0 
-1.346040378322e-03 7.094587977712e-04 0.0 
0.0 0.0 -2.452105594499e-04 
-1.114394941751e-03 -1.506329218264e-03 0.0 
-1.506329218264e-03 4.944157592562e-03 0.0 
0.0 0.0 -1.288571152055e-03 
-1.352715823829e-03 3.152231925611e-03 0.0 
3.152231925611e-03 6.563761337094e-03 0.0 
0.0 0.0 -1.290113636706e-03 
-1.510579169811e-03 9.854603377599e-04 0.0 
9.854603377599e-04 8.241359475843e-03 0.0 
0.0 0.0 -1.236907757659e-03 
-1.086519748050e-03 2.592005204986e-03 0.0 
2.592005204986e-03 5.044458595201e-03 0.0 
0.0 0.0 -1.292605224168e-03 
-2.276922230483e-04 -7.087333384445e-04 0.0 
-7.087333384445e-04 3.411401019740e-03 0.0 
0.0 0.0 -1.176879138244e-03 
-1.566246162816e-03 5.074519573883e-04 0.0 
5.074519573883e-04 6.374166084480e-03 0.0 
0.0 0.0 -9.170130443517e-04 
-1.345069444888e-03 1.513726926191e-03 0.0 
1.513726926191e-03 8.492915807412e-03 0.0 
0.0 0.0 -1.345069444888e-03 
1.877003485193e-03 -3.080309129991e-03 0.0 
-3.080309129991e-03 -5.962554255729e-04 0.0 
0.0 0.0 -5.488920255517e-04 
-1.475350828104e-03 1.976985984706e-04 0.0 
1.976985984706e-04 5.152730599786e-03 0.0 
0.0 0.0 -7.083073883397e-04 
7.042658253586e-04 -2.920094682842e-03 0.0 
-2.920094682842e-03 7.774626018425e-04 0.0 
0.0 0.0 -6.350264688005e-04 
7.675081391674e-04 -5.290525383807e-04 0.0 
-5.290525383807e-04 -3.861513785839e-05 0.0 
0.0 0.0 -2.518608130650e-04 
-1.493015975364e-03 -1.542117778823e-03 0.0 
-1.542117778823e-03 7.001843856807e-03 0.0 
0.0 0.0 -1.323850096553e-03 
-1.762927026530e-03 1.105745086140e-03 0.0 
1.105745086140e-03 5.347670343178e-03 0.0 
0.0 0.0 -7.731261162940e-04 
3.059071642176e-04 -4.769524246547e-04 0.0 
-4.769524246547e-04 1.116375202047e-03 0.0 
0.0 0.0 -3.136165521777e-04 
-1.289952526759e-03 -6.554530809443e-04 0.0 
-6.554530809443e-04 4.022238421528e-03 0.0 
0.0 0.0 -9.854929843998e-04 
-1.353447502636e-03 3.372255620603e-03 0.0 
3.372255620603e-03 6.903608554072e-03 0.0 
0.0 0.0 -1.276804206569e-03 
-1.580153705301e-03 9.463034913401e-04 0.0 
9.463034913401e-04 8.179177676168e-03 0.0 
0.0 0.0 -1.228616961883e-03 
-1.459295938370e-03 2.235750315535e-03 0.0 
2.235750315535e-03 7.840317348904e-03 0.0 
0.0 0.0 -1.289666537713e-03 
-1.042366719392e-03 -4.130279661277e-04 0.0 
-4.130279661277e-04 3.166645294064e-03 0.0 
0.0 0.0 -7.209785830746e-04 
0.0 0.0 0.0 
0.0 0.0 0.0 
0.0 0.0 0.0 
-1.330660736049e-03 -2.112854558462e-03 0.0 
-2.112854558462e-03 6.026587435622e-03 0.0 
0.0 0.0 -1.273144391159e-03 
-1.420679226607e-03 1.845062484055e-04 0.0 
1.845062484055e-04 8.984274218415e-03 0.0 
0.0 0.0 -1.325353038101e-03 
-1.599270300318e-03 -4.031472723049e-04 0.0 
-4.031472723049e-04 7.370420628954e-03 0.0 
0.0 0.0 -1.323783523096e-03 
-1.454892267765e-03 1.410388417337e-04 0.0 
1.410388417337e-04 5.404570969644e-03 0.0 
0.0 0.0 -7.673431308700e-04 
-5.798667066363e-04 -4.017993081382e-04 0.0 
-4.017993081382e-04 3.786051546347e-03 0.0 
0.0 0.0 -1.231867668451e-03 
-2.703199839151e-04 -3.327091265360e-04 0.0 
-3.327091265360e-04 1.134795808800e-03 0.0 
0.0 0.0 -2.923189298614e-04 
-1.540435464510e-03 1.974801601423e-03 0.0 
1.974801601423e-03 7.945053936292e-03 0.0 
0.0 0.0 -1.241575510934e-03 
7.093719106213e-04 -6.473525039570e-04 0.0 
-6.473525039570e-04 -6.146240833120e-06 0.0 
0.0 0.0 -2.201278046225e-04 
-1.035309467580e-03 -9.652751717972e-04 0.0 
-9.652751717972e-04 4.607784315543e-03 0.0 
0.0 0.0 -1.290713494763e-03 
-1.546892534215e-03 2.536580836788e-03 0.0 
2.536580836788e-03 7.963102419275e-03 0.0 
0.0 0.0 -1.268585396830e-03 
0.0 0.0 0.0 
0.0 0.0 0.0 
0.0 0.0 0.0 
-7.125328406643e-04 2.854381537959e-03 0.0 
2.854381537959e-03 4.690081759982e-03 0.0 
0.0 0.0 -1.178018281593e-03 
-1.581615712652e-03 6.406846432010e-05 0.0 
6.406846432010e-05 7.204958832163e-03 0.0 
0.0 0.0 -1.053859681778e-03 
-1.422126824857e-03 8.354035890497e-04 0.0 
8.354035890497e-04 8.383690559568e-03 0.0 
0.0 0.0 -1.289687241943e-03 
-1.346242744377e-03 1.394088556631e-03 0.0 
1.394088556631e-03 5.074174046536e-03 0.0 
0.0 0.0 -1.346242744377e-03 
-1.579226085277e-03 -2.236352472968e-04 0.0 
-2.236352472968e-04 6.673772320033e-03 0.0 
0.0 0.0 -9.627310317561e-04 
-1.352695242601e-03 3.190608641684e-03 0.0 
3.190608641684e-03 6.804006829943e-03 0.0 
0.0 0.0 -1.292510612804e-03 
-1.606507542629e-03 2.038310361331e-03 0.0 
2.038310361331e-03 7.743565210436e-03 0.0 
0.0 0.0 -1.236507170568e-03 
-1.568883613753e-03 1.757297800362e-04 0.0 
1.757297800362e-04 6.816128580048e-03 0.0 
0.0 0.0 -1.009625451247e-03 
-1.338198193755e-03 3.094920805743e-03 0.0 
3.094920805743e-03 6.452958212167e-03 0.0 
0.0 0.0 -1.247605899893e-03 
-1.069270980668e-03 -8.397930297141e-04 0.0 
-8.397930297141e-04 3.454365731416e-03 0.0 
0.0 0.0 -9.078723690805e-04 
-1.462959848022e-03 3.355807606363e-05 0.0 
3.355807606363e-05 4.925884328863e-03 0.0 
0.0 0.0 -7.287847301676e-04 
-7.853622933110e-04 2.799478897718e-03 0.0 
2.799478897718e-03 4.730479437110e-03 0.0 
0.0 0.0 -1.239219007812e-03 
-1.427801408329e-03 2.279610176079e-04 0.0 
2.279610176079e-04 8.599854493521e-03 0.0 
0.0 0.0 -1.286506427510e-03 
2.364174244584e-03 -3.920966346370e-05 0.0 
-3.920966346370e-05 -9.416422440926e-04 0.0 
0.0 0.0 -1.658991634594e-04 
-1.429614866782e-03 7.018012440351e-05 0.0 
7.018012440351e-05 4.945453144079e-03 0.0 
0.0 0.0 -7.284590636140e-04 
-1.619941162379e-03 -3.710140945832e-04 0.0 
-3.710140945832e-04 7.072586371596e-03 0.0 
0.0 0.0 -1.288082484959e-03 
-4.257310582937e-04 -7.375837559217e-04 0.0 
-7.375837559217e-04 1.550072552707e-03 0.0 
0.0 0.0 -4.679105978332e-04 
-2.651775118790e-04 1.741696615315e-04 0.0 
1.741696615315e-04 3.934086569527e-03 0.0 
0.0 0.0 -1.213252366005e-03 
-1.592381110183e-03 2.367463417435e-03 0.0 
2.367463417435e-03 7.496929060090e-03 0.0 
0.0 0.0 -1.225943235494e-03 
-1.523630465134e-03 6.434168762766e-04 0.0 
6.434168762766e-04 8.597347826225e-03 0.0 
0.0 0.0 -1.269037835114e-03 
-5.242932188711e-04 -5.062352980044e-04 0.0 
-5.062352980044e-04 1.580681758625e-03 0.0 
0.0 0.0 -3.173190315717e-04 
9.435665947915e-04 2.759812172338e-03 0.0 
2.759812172338e-03 -2.448701844830e-04 0.0 
0.0 0.0 -2.994413187036e-04 
-1.588603004087e-03 1.309858719882e-04 0.0 
1.309858719882e-04 4.764403352260e-03 0.0 
0.0 0.0 -1.056762885644e-03 
-1.577119311605e-03 2.587547752196e-04 0.0 
2.587547752196e-04 7.701946830658e-03 0.0 
0.0 0.0 -1.120841203304e-03 
0.0 0.0 0.0 
0.0 0.0 0.0 
0.0 0.0 0.0 
-1.448426484907e-03 1.878765382125e-03 0.0 
1.878765382125e-03 8.065670326291e-03 0.0 
0.0 0.0 -1.292233508669e-03 
-1.560868544091e-03 1.573692905966e-04 0.0 
1.573692905966e-04 6.444251121821e-03 0.0 
0.0 0.0 -9.501928138396e-04 
9.548640501235e-04 -2.932790788742e-03 0.0 
-2.932790788742e-03 4.477362362625e-04 0.0 
0.0 0.0 -6.011144084512e-04 
-1.577095330701e-03 2.356135282763e-04 0.0 
2.356135282763e-04 6.152695530289e-03 0.0 
0.0 0.0 -9.030544305944e-04 
-9.123359041244e-04 2.767752077309e-03 0.0 
2.767752077309e-03 5.381455446983e-03 0.0 
0.0 0.0 -1.271643562581e-03 
-1.672772992247e-03 -3.658378199310e-04 0.0 
-3.658378199310e-04 4.968645958279e-03 0.0 
0.0 0.0 -1.058796759180e-03 
-2.091723899578e-04 1.770200511743e-03 0.0 
1.770200511743e-03 2.091723899578e-04 0.0 
0.0 0.0 0.0 
-9.352736057356e-04 -8.421943932676e-04 0.0 
-8.421943932676e-04 3.140704490616e-03 0.0 
0.0 0.0 -9.009998304000e-04 
-1.402484368002e-03 -1.042823096176e-03 0.0 
-1.042823096176e-03 4.352884265014e-03 0.0 
0.0 0.0 -1.017945853013e-03 
-1.735012846972e-03 1.716303062956e-04 0.0 
1.716303062956e-04 5.112807218002e-03 0.0 
0.0 0.0 -1.063010248388e-03 
-5.677318458841e-04 1.906245464939e-03 0.0 
1.906245464939e-03 4.337997414081e-03 0.0 
0.0 0.0 -1.232780192057e-03 
-1.357670205510e-03 -6.381368347671e-04 0.0 
-6.381368347671e-04 4.227863364473e-03 0.0 
0.0 0.0 -1.035743023508e-03 
-1.479273144233e-03 -6.656278634480e-04 0.0 
-6.656278634480e-04 4.508927527854e-03 0.0 
0.0 0.0 -1.032702936181e-03 
1.040523643933e-04 -1.090937755128e-03 0.0 
-1.090937755128e-03 5.650850241542e-04 0.0 
0.0 0.0 -2.287174616664e-04 
-1.350567245042e-03 -1.731169106789e-03 0.0 
-1.731169106789e-03 5.793216621325e-03 0.0 
0.0 0.0 -1.240629869904e-03 
-1.027503594671e-03 3.327843857872e-03 0.0 
3.327843857872e-03 5.261023074075e-03 0.0 
0.0 0.0 -1.186362110037e-03 
1.189612951575e-03 2.308398015229e-03 0.0 
2.308398015229e-03 -4.894900924091e-04 0.0 
0.0 0.0 -3.000526539282e-04 
-1.387676757457e-03 4.952672058335e-05 0.0 
4.952672058335e-05 8.504316401028e-03 0.0 
0.0 0.0 -1.290349483557e-03 
-1.582576424774e-03 -1.560547969950e-04 0.0 
-1.560547969950e-04 7.007946096611e-03 0.0 
0.0 0.0 -1.290356026000e-03 
-1.460183445125e-03 -1.247594329356e-04 0.0 
-1.247594329356e-04 5.521441348557e-03 0.0 
0.0 0.0 -7.639788432047e-04 
-1.578918019610e-03 1.294379469898e-04 0.0 
1.294379469898e-04 6.639288700401e-03 0.0 
0.0 0.0 -9.358343396975e-04 
-1.420511664925e-03 -7.103380260756e-04 0.0 
-7.103380260756e-04 4.349288440906e-03 0.0 
0.0 0.0 -1.005720210571e-03 
-1.359175063422e-03 -8.855188390870e-04 0.0 
-8.855188390870e-04 4.258136974865e-03 0.0 
0.0 0.0 -1.040482674164e-03 
-1.527056262754e-03 -5.709073839489e-04 0.0 
-5.709073839489e-04 4.609671028000e-03 0.0 
0.0 0.0 -1.028873814706e-03 
-1.501496450629e-04 5.539703397871e-04 0.0 
5.539703397871e-04 3.298271412421e-03 0.0 
0.0 0.0 -1.180929064624e-03 
7.927858436439e-04 -3.045537929079e-03 0.0 
-3.045537929079e-03 8.494276970912e-04 0.0 
0.0 0.0 -7.038058031722e-04 
-1.116381248406e-03 3.165697137737e-03 0.0 
3.165697137737e-03 5.872062490069e-03 0.0 
0.0 0.0 -1.217816617926e-03 
-1.516247589342e-03 1.508277039824e-04 0.0 
1.508277039824e-04 5.685216966324e-03 0.0 
0.0 0.0 -8.376728236383e-04 
-1.571303365585e-03 1.703335586913e-03 0.0 
1.703335586913e-03 8.300700874157e-03 0.0 
0.0 0.0 -1.272153791098e-03 
-1.928595014899e-04 9.704790717136e-05 0.0 
9.704790717136e-05 3.265405422004e-03 0.0 
0.0 0.0 -1.181257232468e-03 
-1.580055462922e-03 1.466056733213e-04 0.0 
1.466056733213e-04 6.354105997974e-03 0.0 
0.0 0.0 -8.902468719968e-04 
-1.338698042931e-03 3.178297097849e-03 0.0 
3.178297097849e-03 6.247787653213e-03 0.0 
0.0 0.0 -1.201032862555e-03 
-6.620052052400e-04 2.218466919512e-03 0.0 
2.218466919512e-03 4.229615591751e-03 0.0 
0.0 0.0 -1.236767197193e-03 
-7.541183664370e-04 2.280565164163e-03 0.0 
2.280565164163e-03 4.995952357256e-03 0.0 
0.0 0.0 -1.270271405117e-03 
1.293451072768e-04 1.010666469426e-03 0.0 
1.010666469426e-03 -1.293451072768e-04 0.0 
0.0 0.0 0.0 
-1.368734881355e-03 2.988428396573e-03 0.0 
2.988428396573e-03 6.291274088760e-03 0.0 
0.0 0.0 -1.198686027802e-03 
-1.300476394130e-03 3.433743793017e-03 0.0 
3.433743793017e-03 6.406654162985e-03 0.0 
0.0 0.0 -1.227078865044e-03 
7.248957313196e-04 -1.043101674158e-03 0.0 
-1.043101674158e-03 5.245352296454e-04 0.0 
0.0 0.0 -2.668574800815e-04 
-1.256459332456e-03 -8.842282026345e-04 0.0 
-8.842282026345e-04 4.000740750754e-03 0.0 
0.0 0.0 -1.019774149770e-03 
0.0 0.0 0.0 
0.0 0.0 0.0 
0.0 0.0 0.0 
-1.414281382184e-03 3.115423266543e-03 0.0 
3.115423266543e-03 6.751118296047e-03 0.0 
0.0 0.0 -1.230789928679e-03 
-3.716573485794e-04 -7.308086580746e-05 0.0 
-7.308086580746e-05 1.123679557872e-03 0.0 
0.0 0.0 -2.552892395041e-04 
-4.429898056613e-04 -1.499507040160e-06 0.0 
-1.499507040160e-06 1.336256189452e-03 0.0 
0.0 0.0 -1.822222222222e-04 
-2.878359977638e-04 -5.194463884500e-05 0.0 
-5.194463884500e-05 9.498596563893e-04 0.0 
0.0 0.0 -2.775159627411e-04 
-4.398393734989e-04 -1.185043080846e-04 0.0 
-1.185043080846e-04 1.322659454202e-03 0.0 
0.0 0.0 -1.822222222222e-04 
-2.829789325043e-04 -8.297130250857e-05 0.0 
-8.297130250857e-05 9.397706721473e-04 0.0 
0.0 0.0 -2.776119422606e-04 
-4.336702980756e-04 -1.653384621676e-04 0.0 
-1.653384621676e-04 1.319734396262e-03 0.0 
0.0 0.0 -1.822222222222e-04 
-2.827096919224e-04 -1.126011952365e-04 0.0 
-1.126011952365e-04 9.395392681461e-04 0.0 
0.0 0.0 -2.764327848408e-04 
-4.248996497787e-04 -2.024827324758e-04 0.0 
-2.024827324758e-04 1.316172738590e-03 0.0 
0.0 0.0 -1.822222222222e-04 
-2.823386530371e-04 -1.392454963216e-04 0.0 
-1.392454963216e-04 9.389737264907e-04 0.0 
0.0 0.0 -2.749086900475e-04 
-4.136924531575e-04 -2.350675990601e-04 0.0 
-2.350675990601e-04 1.310878321230e-03 0.0 
0.0 0.0 -1.822222222222e-04 
-2.816129401536e-04 -1.632497413587e-04 0.0 
-1.632497413587e-04 9.372929803555e-04 0.0 
0.0 0.0 -2.729404255995e-04 
-3.976857652183e-04 -2.652621478120e-04 0.0 
-2.652621478120e-04 1.303334294056e-03 0.0 
0.0 0.0 -1.822222222222e-04 
-2.803206707951e-04 -1.855581458460e-04 0.0 
-1.855581458460e-04 9.340637628811e-04 0.0 
0.0 0.0 -2.705856234763e-04 
-3.762923916513e-04 -2.955575148066e-04 0.0 
-2.955575148066e-04 1.294066213469e-03 0.0 
0.0 0.0 -1.822222222222e-04 
-2.787344111822e-04 -2.063226971631e-04 0.0 
-2.063226971631e-04 9.300647707320e-04 0.0 
0.0 0.0 -2.680300884472e-04 
-3.524733423667e-04 -3.242857553213e-04 0.0 
-3.242857553213e-04 1.284036341755e-03 0.0 
0.0 0.0 -1.822222222222e-04 
-2.773174491727e-04 -2.243826698792e-04 0.0 
-2.243826698792e-04 9.262601929332e-04 0.0 
0.0 0.0 -2.653613746712e-04 
-3.262227673129e-04 -3.491155030409e-04 0.0 
-3.491155030409e-04 1.273115495828e-03 0.0 
0.0 0.0 -1.822222222222e-04 
-2.758375031311e-04 -2.392217572740e-04 0.0 
-2.392217572740e-04 9.221568306150e-04 0.0 
0.0 0.0 -2.627686153381e-04 
-2.969957875683e-04 -3.713968991802e-04 0.0 
-3.713968991802e-04 1.261966627062e-03 0.0 
0.0 0.0 -1.822222222222e-04 
2.933981114106e-05 1.393003147103e-03 0.0 
1.393003147103e-03 8.379533607805e-04 0.0 
0.0 0.0 -3.716970736807e-04 
-2.749117239138e-04 -2.489613962881e-04 0.0 
-2.489613962881e-04 9.190565160033e-04 0.0 
0.0 0.0 -2.604757979997e-04 
-2.648221619599e-04 -3.867730635248e-04 0.0 
-3.867730635248e-04 1.249703151108e-03 0.0 
0.0 0.0 -1.822222222222e-04 
-2.733889901072e-04 -2.535979642310e-04 0.0 
-2.535979642310e-04 9.147766555041e-04 0.0 
0.0 0.0 -2.590275839856e-04 
9.160656140805e-05 1.470178607007e-03 0.0 
1.470178607007e-03 7.832578397036e-04 0.0 
0.0 0.0 -3.749418861907e-04 
-2.325789174517e-04 -3.968354129455e-04 0.0 
-3.968354129455e-04 1.236931628151e-03 0.0 
0.0 0.0 -1.822222222222e-04 
-2.714122958939e-04 -2.519241070870e-04 0.0 
-2.519241070870e-04 9.100053589880e-04 0.0 
0.0 0.0 -2.590023925297e-04 
9.401615303878e-06 1.240385540384e-03 0.0 
1.240385540384e-03 7.756669790078e-04 0.0 
0.0 0.0 -3.364579689907e-04 
-2.023805840735e-04 -3.997271712360e-04 0.0 
-3.997271712360e-04 1.224327816568e-03 0.0 
0.0 0.0 -1.822222222222e-04 
-2.689523676428e-04 -2.417328123169e-04 0.0 
-2.417328123169e-04 9.050420061807e-04 0.0 
0.0 0.0 -2.610672734790e-04 
-1.762691459807e-04 -3.925161595645e-04 0.0 
-3.925161595645e-04 1.212378122502e-03 0.0 
0.0 0.0 -1.822222222222e-04 
-2.656731751211e-04 -2.206447802709e-04 0.0 
-2.206447802709e-04 8.997416020046e-04 0.0 
0.0 0.0 -2.660354310065e-04 
-1.564230899666e-04 -3.711663474107e-04 0.0 
-3.711663474107e-04 1.200954737103e-03 0.0 
0.0 0.0 -1.822222222222e-04 
-2.624162379129e-04 -1.855229952353e-04 0.0 
-1.855229952353e-04 8.920019103165e-04 0.0 
0.0 0.0 -2.698224310301e-04 
-1.455060295773e-04 -3.296913227801e-04 0.0 
-3.296913227801e-04 1.189930993869e-03 0.0 
0.0 0.0 -1.822222222222e-04 
-2.603675667777e-04 -1.350322600225e-04 0.0 
-1.350322600225e-04 8.772091740842e-04 0.0 
0.0 0.0 -2.643606888456e-04 
-1.451367585993e-04 -2.615914081533e-04 0.0 
-2.615914081533e-04 1.177081675284e-03 0.0 
0.0 0.0 -1.822222222222e-04 
7.043851789786e-05 1.625172750656e-03 0.0 
1.625172750656e-03 9.160182528122e-04 0.0 
0.0 0.0 -4.227671874472e-04 
-2.560186998521e-04 -6.566548430138e-05 0.0 
-6.566548430138e-05 8.556563244280e-04 0.0 
0.0 0.0 -2.569875533897e-04 
-1.577668891472e-04 -1.552455279631e-04 0.0 
-1.552455279631e-04 1.161923498218e-03 0.0 
0.0 0.0 -1.822222222222e-04 
-2.471040623352e-04 2.064717459865e-05 0.0 
2.064717459865e-05 8.239123753631e-04 0.0 
0.0 0.0 -2.472035627263e-04 
-1.853864837844e-04 7.084315346313e-06 0.0 
7.084315346313e-06 1.137588691235e-03 0.0 
0.0 0.0 -1.822222222222e-04 
-2.387365719232e-04 2.476984905401e-04 0.0 
2.476984905401e-04 1.117185819906e-03 0.0 
0.0 0.0 -1.822222222222e-04 
-2.323408653968e-04 1.332118441331e-04 0.0 
1.332118441331e-04 7.846052433356e-04 0.0 
0.0 0.0 -2.366847334023e-04 
-3.272887979754e-04 6.009042180535e-04 0.0 
6.009042180535e-04 1.089995068188e-03 0.0 
0.0 0.0 -1.822222222222e-04 
-2.147044617955e-04 2.636578327482e-04 0.0 
2.636578327482e-04 7.566848100157e-04 0.0 
0.0 0.0 -2.322772920944e-04 
-2.669313197925e-04 9.244131512745e-04 0.0 
9.244131512745e-04 1.055799401835e-03 0.0 
0.0 0.0 -2.389535839710e-04 
-1.883019042449e-04 4.379640795527e-04 0.0 
4.379640795527e-04 7.419390141611e-04 0.0 
0.0 0.0 -2.372730471069e-04 
-1.187866008610e-04 1.168945846741e-03 0.0 
1.168945846741e-03 9.670606938968e-04 0.0 
0.0 0.0 -3.501488746467e-04 
-6.299237760594e-06 1.454924271255e-03 0.0 
1.454924271255e-03 9.412033522910e-04 0.0 
0.0 0.0 -4.006731919416e-04 
-1.550083340667e-04 6.440599534177e-04 0.0 
6.440599534177e-04 7.555733494499e-04 0.0 
0.0 0.0 -2.573850065928e-04 
-7.262692769530e-05 9.780976549805e-04 0.0 
9.780976549805e-04 7.665848896840e-04 0.0 
0.0 0.0 -2.974105551380e-04 
5.206284437628e-05 1.469376719814e-03 0.0 
1.469376719814e-03 8.476794300700e-04 0.0 
0.0 0.0 -3.856038319056e-04 
-3.749642251641e-04 -3.419370540272e-04 0.0 
-3.419370540272e-04 1.118298090113e-03 0.0 
0.0 0.0 -2.176153442492e-04 
-4.546435435873e-04 3.151638368803e-04 0.0 
3.151638368803e-04 1.306036372355e-03 0.0 
0.0 0.0 -2.265448025267e-04 
-4.168022673484e-04 -4.655041972502e-05 0.0 
-4.655041972502e-05 1.158707576547e-03 0.0 
0.0 0.0 -1.857105891838e-04 
-4.317989125620e-04 3.119621108129e-05 0.0 
3.119621108129e-05 1.260196578601e-03 0.0 
0.0 0.0 -2.524740719286e-04 
1.276697686569e-04 1.570117374708e-03 0.0 
1.570117374708e-03 7.899006591661e-04 0.0 
0.0 0.0 -3.932444690670e-04 
-5.854531141948e-04 -1.028240178105e-04 0.0 
-1.028240178105e-04 1.705811180048e-03 0.0 
0.0 0.0 -2.488888888889e-04 
-4.899837963276e-04 -2.679117115997e-05 0.0 
-2.679117115997e-05 1.468713173503e-03 0.0 
0.0 0.0 -3.252955040521e-04 
-5.757129213041e-04 -7.207485732686e-05 0.0 
-7.207485732686e-05 1.835508392071e-03 0.0 
0.0 0.0 -2.488888888889e-04 
-4.930773068220e-04 -1.194599082518e-04 0.0 
-1.194599082518e-04 1.476488390705e-03 0.0 
0.0 0.0 -3.235616945828e-04 
-5.709513186301e-04 -1.124006903092e-04 0.0 
-1.124006903092e-04 1.838392435074e-03 0.0 
0.0 0.0 -2.488888888889e-04 
-4.916375155464e-04 -1.612728365077e-04 0.0 
-1.612728365077e-04 1.475178069701e-03 0.0 
0.0 0.0 -3.236232921091e-04 
-5.664575569402e-04 -1.523840206518e-04 0.0 
-1.523840206518e-04 1.835847282095e-03 0.0 
0.0 0.0 -2.488888888889e-04 
-4.895942987583e-04 -1.980084726191e-04 0.0 
-1.980084726191e-04 1.473115941516e-03 0.0 
0.0 0.0 -3.240873914873e-04 
-5.606811941233e-04 -1.881420242139e-04 0.0 
-1.881420242139e-04 1.832694706595e-03 0.0 
0.0 0.0 -2.488888888889e-04 
-4.869588456447e-04 -2.318471853064e-04 0.0 
-2.318471853064e-04 1.470150714002e-03 0.0 
0.0 0.0 -3.247901165394e-04 
-5.530639228246e-04 -2.205718007095e-04 0.0 
-2.205718007095e-04 1.828479285499e-03 0.0 
0.0 0.0 -2.488888888889e-04 
-4.838657069898e-04 -2.632753223399e-04 0.0 
-2.632753223399e-04 1.466491058738e-03 0.0 
0.0 0.0 -3.256781934875e-04 
-5.435915030907e-04 -2.500168512017e-04 0.0 
-2.500168512017e-04 1.823271796012e-03 0.0 
0.0 0.0 -2.488888888889e-04 
-4.806215376242e-04 -2.921053431457e-04 0.0 
-2.921053431457e-04 1.462775766317e-03 0.0 
0.0 0.0 -3.267721350539e-04 
-5.331669997488e-04 -2.754290158070e-04 0.0 
-2.754290158070e-04 1.817537112737e-03 0.0 
0.0 0.0 -2.488888888889e-04 
-4.772990145405e-04 -3.170646085282e-04 0.0 
-3.170646085282e-04 1.459102966964e-03 0.0 
0.0 0.0 -3.282144425317e-04 
-5.225827684125e-04 -2.957735628658e-04 0.0 
-2.957735628658e-04 1.811455119852e-03 0.0 
0.0 0.0 -2.488888888889e-04 
-4.739266601893e-04 -3.367870423434e-04 0.0 
-3.367870423434e-04 1.455491126401e-03 0.0 
0.0 0.0 -3.302134774139e-04 
-5.122493452654e-04 -3.102279468335e-04 0.0 
-3.102279468335e-04 1.805244477979e-03 0.0 
0.0 0.0 -2.488888888889e-04 
-8.714988205991e-05 1.501320370054e-03 0.0 
1.501320370054e-03 1.126743170179e-03 0.0 
0.0 0.0 -4.455399806226e-04 
-4.708318830785e-04 -3.498644805087e-04 0.0 
-3.498644805087e-04 1.452665043960e-03 0.0 
0.0 0.0 -3.330176586107e-04 
-5.035712085099e-04 -3.156736909137e-04 0.0 
-3.156736909137e-04 1.799451876288e-03 0.0 
0.0 0.0 -2.488888888889e-04 
-4.677694379717e-04 -3.536528442975e-04 0.0 
-3.536528442975e-04 1.449984777290e-03 0.0 
0.0 0.0 -3.369654704346e-04 
-1.302990859497e-04 1.259599994593e-03 0.0 
1.259599994593e-03 1.065511692301e-03 0.0 
0.0 0.0 -4.008054027219e-04 
-4.971721533030e-04 -3.101151166350e-04 0.0 
-3.101151166350e-04 1.793779429412e-03 0.0 
0.0 0.0 -2.488888888889e-04 
-4.645399214775e-04 -3.460100851926e-04 0.0 
-3.460100851926e-04 1.447106865552e-03 0.0 
0.0 0.0 -3.424725560515e-04 
-4.951173540351e-04 -2.920204627786e-04 0.0 
-2.920204627786e-04 1.788428250083e-03 0.0 
0.0 0.0 -2.488888888889e-04 
-4.608145759185e-04 -3.248925793250e-04 0.0 
-3.248925793250e-04 1.443848954921e-03 0.0 
0.0 0.0 -3.502742887869e-04 
-4.996187403003e-04 -2.584245976988e-04 0.0 
-2.584245976988e-04 1.783729472052e-03 0.0 
0.0 0.0 -2.488888888889e-04 
-2.196325475023e-05 1.571194493179e-03 0.0 
1.571194493179e-03 1.044460798840e-03 0.0 
0.0 0.0 -4.382132331813e-04 
-4.561351195322e-04 -2.876892743448e-04 0.0 
-2.876892743448e-04 1.439869203326e-03 0.0 
0.0 0.0 -3.610859296079e-04 
-5.130916496060e-04 -2.050490687592e-04 0.0 
-2.050490687592e-04 1.779854259130e-03 0.0 
0.0 0.0 -2.488888888889e-04 
-4.492332174386e-04 -2.320910845934e-04 0.0 
-2.320910845934e-04 1.433890260924e-03 0.0 
0.0 0.0 -3.761804409589e-04 
-5.378802534838e-04 -1.258210070292e-04 0.0 
-1.258210070292e-04 1.776026591200e-03 0.0 
0.0 0.0 -2.488888888889e-04 
-4.389026762269e-04 -1.548007160911e-04 0.0 
-1.548007160911e-04 1.424629334549e-03 0.0 
0.0 0.0 -3.962441071082e-04 
-5.768132903928e-04 -1.377844552508e-05 0.0 
-1.377844552508e-05 1.771798335942e-03 0.0 
0.0 0.0 -2.488888888889e-04 
-4.220148160061e-04 -5.690016960840e-05 0.0 
-5.690016960840e-05 1.407747968935e-03 0.0 
0.0 0.0 -4.224570655411e-04 
-6.317639780045e-04 1.424555330642e-04 0.0 
1.424555330642e-04 1.762888806825e-03 0.0 
0.0 0.0 -2.488888888889e-04 
-4.102581462551e-04 6.647705641044e-05 0.0 
6.647705641044e-05 1.368975512052e-03 0.0 
0.0 0.0 -4.108788710558e-04 
-6.109218713376e-04 3.404053986489e-04 0.0 
3.404053986489e-04 1.719826840337e-03 0.0 
0.0 0.0 -2.778578689002e-04 
-3.877290163741e-04 2.051534791676e-04 0.0 
2.051534791676e-04 1.306865366921e-03 0.0 
0.0 0.0 -3.939155788059e-04 
-3.958277924855e-05 1.694030195389e-03 0.0 
1.694030195389e-03 1.156073774095e-03 0.0 
0.0 0.0 -4.784961406483e-04 
-3.562744250199e-04 3.989157177770e-04 0.0 
3.989157177770e-04 1.244690862262e-03 0.0 
0.0 0.0 -3.807499016752e-04 
-5.392028409591e-04 5.770659547124e-04 0.0 
5.770659547124e-04 1.636675704485e-03 0.0 
0.0 0.0 -3.283879058836e-04 
-3.082167471355e-04 5.954141438158e-04 0.0 
5.954141438158e-04 1.162656135356e-03 0.0 
0.0 0.0 -3.661883092374e-04 
-4.494772525837e-04 8.547826148384e-04 0.0 
8.547826148384e-04 1.548375175436e-03 0.0 
0.0 0.0 -3.828086040851e-04 
-2.325523962378e-04 9.433725567651e-04 0.0 
9.433725567651e-04 1.120895142144e-03 0.0 
0.0 0.0 -3.807183196739e-04 
-3.130412835871e-04 1.126625542557e-03 0.0 
1.126625542557e-03 1.419750706176e-03 0.0 
0.0 0.0 -4.666182411194e-04 
-1.863486912845e-04 1.460770853074e-03 0.0 
1.460770853074e-03 1.313829183170e-03 0.0 
0.0 0.0 -4.832059250939e-04 
-3.851626832153e-05 1.480952293108e-03 0.0 
1.480952293108e-03 1.018115290736e-03 0.0 
0.0 0.0 -4.198281524634e-04 
-6.088964229271e-04 -3.587486861913e-04 0.0 
-3.587486861913e-04 1.723284064356e-03 0.0 
0.0 0.0 -2.842384003790e-04 
-5.314980546204e-04 3.143317236518e-04 0.0 
3.143317236518e-04 1.529219314835e-03 0.0 
0.0 0.0 -2.731668790454e-04 
-5.897477499297e-04 -6.010425002954e-05 0.0 
-6.010425002954e-05 1.687514974829e-03 0.0 
0.0 0.0 -3.109082025560e-04 
-5.756824612893e-04 2.261106284316e-05 0.0 
2.261106284316e-05 1.581531907516e-03 0.0 
0.0 0.0 -2.381938332887e-04 
8.676028730539e-05 1.735937948459e-03 0.0 
1.735937948459e-03 9.594439154052e-04 0.0 
0.0 0.0 -4.483732297331e-04 
-7.812528022569e-04 -1.099017891405e-04 0.0 
-1.099017891405e-04 2.168689563076e-03 0.0 
0.0 0.0 -3.444020130729e-04 
-7.150319033539e-04 -3.121384854287e-05 0.0 
-3.121384854287e-05 2.349676786299e-03 0.0 
0.0 0.0 -3.155555555556e-04 
-7.017205842140e-04 -7.653557446682e-05 0.0 
-7.653557446682e-05 2.006215318206e-03 0.0 
0.0 0.0 -3.681463795304e-04 
-7.121485710088e-04 -1.328299566585e-04 0.0 
-1.328299566585e-04 2.336914160142e-03 0.0 
0.0 0.0 -3.155555555556e-04 
-6.954051672081e-04 -1.106721293081e-04 0.0 
-1.106721293081e-04 1.994566268542e-03 0.0 
0.0 0.0 -3.704370777208e-04 
-7.107419937415e-04 -1.772848363033e-04 0.0 
-1.772848363033e-04 2.334391666324e-03 0.0 
0.0 0.0 -3.155555555556e-04 
-6.928827801307e-04 -1.461650245261e-04 0.0 
-1.461650245261e-04 1.991555205390e-03 0.0 
0.0 0.0 -3.721778341564e-04 
-7.100466502334e-04 -2.164461730152e-04 0.0 
-2.164461730152e-04 2.332657187103e-03 0.0 
0.0 0.0 -3.155555555556e-04 
-6.902040069466e-04 -1.788167519200e-04 0.0 
-1.788167519200e-04 1.988917707943e-03 0.0 
0.0 0.0 -3.744677652069e-04 
-7.095257050295e-04 -2.527303290778e-04 0.0 
-2.527303290778e-04 2.330678190538e-03 0.0 
0.0 0.0 -3.155555555556e-04 
-6.870058437527e-04 -2.081039351838e-04 0.0 
-2.081039351838e-04 1.985786893802e-03 0.0 
0.0 0.0 -3.773804207472e-04 
-7.091377551114e-04 -2.861387702296e-04 0.0 
-2.861387702296e-04 2.328286632896e-03 0.0 
0.0 0.0 -3.155555555556e-04 
-6.832965265146e-04 -2.331316096487e-04 0.0 
-2.331316096487e-04 1.982124751540e-03 0.0 
0.0 0.0 -3.809821719086e-04 
-7.092630965154e-04 -3.155169689002e-04 0.0 
-3.155169689002e-04 2.325515363616e-03 0.0 
0.0 0.0 -3.155555555556e-04 
-6.791922861579e-04 -2.523146359644e-04 0.0 
-2.523146359644e-04 1.978098432982e-03 0.0 
0.0 0.0 -3.853484384570e-04 
-7.104619708388e-04 -3.388430522053e-04 0.0 
-3.388430522053e-04 2.322560743132e-03 0.0 
0.0 0.0 -3.155555555556e-04 
-6.746892318115e-04 -2.641363648019e-04 0.0 
-2.641363648019e-04 1.973751708825e-03 0.0 
0.0 0.0 -3.907175444907e-04 
-7.134716144215e-04 -3.542939816601e-04 0.0 
-3.542939816601e-04 2.319606865757e-03 0.0 
0.0 0.0 -3.155555555556e-04 
-2.948862268374e-04 1.425073130439e-03 0.0 
1.425073130439e-03 1.550246462717e-03 0.0 
0.0 0.0 -5.380115296628e-04 
-6.698127621974e-04 -2.667648384482e-04 0.0 
-2.667648384482e-04 1.969206946882e-03 0.0 
0.0 0.0 -3.973447215126e-04 
-7.194662793108e-04 -3.592340066351e-04 0.0 
-3.592340066351e-04 2.316875881201e-03 0.0 
0.0 0.0 -3.155555555556e-04 
-6.645376930034e-04 -2.580390662495e-04 0.0 
-2.580390662495e-04 1.964528322448e-03 0.0 
0.0 0.0 -4.055185506436e-04 
-2.384968950829e-04 1.467328751257e-03 0.0 
1.467328751257e-03 1.438259482937e-03 0.0 
0.0 0.0 -5.141839662233e-04 
-7.293624542203e-04 -3.502161551000e-04 0.0 
-3.502161551000e-04 2.314195425162e-03 0.0 
0.0 0.0 -3.155555555556e-04 
-3.197653810432e-04 1.193855222990e-03 0.0 
1.193855222990e-03 1.484896437785e-03 0.0 
0.0 0.0 -4.993418814610e-04 
-6.585397002155e-04 -2.357313641208e-04 0.0 
-2.357313641208e-04 1.959221082084e-03 0.0 
0.0 0.0 -4.155668053223e-04 
-7.443837045228e-04 -3.234883264296e-04 0.0 
-3.234883264296e-04 2.311228263619e-03 0.0 
0.0 0.0 -3.155555555556e-04 
-6.513804998095e-04 -1.967997917224e-04 0.0 
-1.967997917224e-04 1.952762412484e-03 0.0 
0.0 0.0 -4.279241322075e-04 
-7.666941138057e-04 -2.747555434067e-04 0.0 
-2.747555434067e-04 2.308627769116e-03 0.0 
0.0 0.0 -3.155555555556e-04 
-6.421728617253e-04 -1.400127384089e-04 0.0 
-1.400127384089e-04 1.944537570229e-03 0.0 
0.0 0.0 -4.436098837037e-04 
-7.982894982450e-04 -1.992556961930e-04 0.0 
-1.992556961930e-04 2.305297045070e-03 0.0 
0.0 0.0 -3.155555555556e-04 
-6.299853966539e-04 -6.145013816298e-05 0.0 
-6.145013816298e-05 1.933693850967e-03 0.0 
0.0 0.0 -4.632370193522e-04 
-8.421992035785e-04 -9.014150615938e-05 0.0 
-9.014150615938e-05 2.302275547257e-03 0.0 
0.0 0.0 -3.155555555556e-04 
-2.461574377786e-04 1.624144604727e-03 0.0 
1.624144604727e-03 1.550137584529e-03 0.0 
0.0 0.0 -5.588486343218e-04 
-6.126548316156e-04 3.654657999790e-05 0.0 
3.654657999790e-05 1.918163968956e-03 0.0 
0.0 0.0 -4.884601193253e-04 
-8.297370267805e-04 5.900833697116e-05 0.0 
5.900833697116e-05 2.272921973566e-03 0.0 
0.0 0.0 -3.364948589054e-04 
-5.887696182011e-04 1.643484722283e-04 0.0 
1.643484722283e-04 1.896631305277e-03 0.0 
0.0 0.0 -5.192169371186e-04 
-7.953164073812e-04 2.464578371630e-04 0.0 
2.464578371630e-04 2.232304461113e-03 0.0 
0.0 0.0 -3.698897388832e-04 
-7.365411047928e-04 4.685855720639e-04 0.0 
4.685855720639e-04 2.159694424858e-03 0.0 
0.0 0.0 -4.159907446451e-04 
-5.527872709303e-04 3.038795148593e-04 0.0 
3.038795148593e-04 1.863166271294e-03 0.0 
0.0 0.0 -5.606386107870e-04 
-6.584523321126e-04 7.236437627609e-04 0.0 
7.236437627609e-04 2.077339623358e-03 0.0 
0.0 0.0 -4.782258264602e-04 
-5.219852183216e-04 4.858276467253e-04 0.0 
4.858276467253e-04 1.798644652234e-03 0.0 
0.0 0.0 -5.471397573912e-04 
-5.290479376496e-04 9.986619340008e-04 0.0 
9.986619340008e-04 1.913578928546e-03 0.0 
0.0 0.0 -5.482902324912e-04 
-4.113616513683e-04 1.317081858533e-03 0.0 
1.317081858533e-03 1.794964894860e-03 0.0 
0.0 0.0 -5.929728186394e-04 
-4.745890538018e-04 6.435746553500e-04 0.0 
6.435746553500e-04 1.691163142403e-03 0.0 
0.0 0.0 -5.213888951147e-04 
-4.062586621164e-04 9.333507089429e-04 0.0 
9.333507089429e-04 1.595573055787e-03 0.0 
0.0 0.0 -5.097061687162e-04 
-2.283265547836e-04 1.373477192078e-03 0.0 
1.373477192078e-03 1.358306137847e-03 0.0 
0.0 0.0 -4.842769641699e-04 
-7.033473164944e-04 -3.760136049461e-04 0.0 
-3.760136049461e-04 2.136708279662e-03 0.0 
0.0 0.0 -3.266666666667e-04 
-8.166934876578e-04 3.224396756561e-04 0.0 
3.224396756561e-04 2.340292932936e-03 0.0 
0.0 0.0 -3.266666666667e-04 
-7.075682699953e-04 -6.297319518701e-05 0.0 
-6.297319518701e-05 2.166890176519e-03 0.0 
0.0 0.0 -3.044444444444e-04 
-8.144037118333e-04 2.182635171307e-05 0.0 
2.182635171307e-05 2.299802230387e-03 0.0 
0.0 0.0 -3.488888888889e-04 
-9.458669161434e-05 1.682224031544e-03 0.0 
1.682224031544e-03 1.256319996994e-03 0.0 
0.0 0.0 -4.978857023056e-04 
-8.477680808939e-04 -1.104727016907e-04 0.0 
-1.104727016907e-04 2.712288170416e-03 0.0 
0.0 0.0 -3.822222222222e-04 
-9.055925510058e-04 -3.092032376263e-05 0.0 
-3.092032376263e-05 2.525233824261e-03 0.0 
0.0 0.0 -4.120916506577e-04 
-8.473674362076e-04 -7.481330322279e-05 0.0 
-7.481330322279e-05 2.845770630963e-03 0.0 
0.0 0.0 -3.822222222222e-04 
-9.089090308611e-04 -1.259977891390e-04 0.0 
-1.259977891390e-04 2.534087815895e-03 0.0 
0.0 0.0 -4.117636123367e-04 
-8.486541312913e-04 -1.060356270188e-04 0.0 
-1.060356270188e-04 2.850864472627e-03 0.0 
0.0 0.0 -3.822222222222e-04 
-9.067527636706e-04 -1.634553189751e-04 0.0 
-1.634553189751e-04 2.532180853737e-03 0.0 
0.0 0.0 -4.138361446519e-04 
-8.518838397089e-04 -1.391673231664e-04 0.0 
-1.391673231664e-04 2.849897303172e-03 0.0 
0.0 0.0 -3.822222222222e-04 
-9.038033703738e-04 -1.960391794180e-04 0.0 
-1.960391794180e-04 2.529549366092e-03 0.0 
0.0 0.0 -4.169466925021e-04 
-8.567719304589e-04 -1.693969290221e-04 0.0 
-1.693969290221e-04 2.849102124234e-03 0.0 
0.0 0.0 -3.822222222222e-04 
-9.001783977425e-04 -2.254727016246e-04 0.0 
-2.254727016246e-04 2.526405000261e-03 0.0 
0.0 0.0 -4.210486354725e-04 
-8.632001890766e-04 -1.956147496017e-04 0.0 
-1.956147496017e-04 2.848340584109e-03 0.0 
0.0 0.0 -3.822222222222e-04 
-8.958258707308e-04 -2.506885608621e-04 0.0 
-2.506885608621e-04 2.522614663946e-03 0.0 
0.0 0.0 -4.262345017756e-04 
-8.713995955112e-04 -2.166532315458e-04 0.0 
-2.166532315458e-04 2.847429121701e-03 0.0 
0.0 0.0 -3.822222222222e-04 
-8.907881229033e-04 -2.700951512637e-04 0.0 
-2.700951512637e-04 2.518049837640e-03 0.0 
0.0 0.0 -4.324218244576e-04 
-8.817440870532e-04 -2.301760048267e-04 0.0 
-2.301760048267e-04 2.845924759909e-03 0.0 
0.0 0.0 -3.822222222222e-04 
-8.851922506948e-04 -2.806029007086e-04 0.0 
-2.806029007086e-04 2.512873500627e-03 0.0 
0.0 0.0 -4.397142335037e-04 
-8.950333328024e-04 -2.339954622603e-04 0.0 
-2.339954622603e-04 2.844152330925e-03 0.0 
0.0 0.0 -3.822222222222e-04 
-5.153963270574e-04 1.386957263231e-03 0.0 
1.386957263231e-03 2.118048286245e-03 0.0 
0.0 0.0 -6.868508396518e-04 
-8.789409301159e-04 -2.802453109947e-04 0.0 
-2.802453109947e-04 2.507031228923e-03 0.0 
0.0 0.0 -4.484506065581e-04 
-9.121593109776e-04 -2.255242270632e-04 0.0 
-2.255242270632e-04 2.842211436296e-03 0.0 
0.0 0.0 -3.822222222222e-04 
-5.250635173879e-04 1.212370847594e-03 0.0 
1.212370847594e-03 2.064879973941e-03 0.0 
0.0 0.0 -6.599213385227e-04 
-8.718884062418e-04 -2.665655449899e-04 0.0 
-2.665655449899e-04 2.500353226196e-03 0.0 
0.0 0.0 -4.589341481330e-04 
-9.340828443643e-04 -2.017720311588e-04 0.0 
-2.017720311588e-04 2.840105257953e-03 0.0 
0.0 0.0 -3.822222222222e-04 
-8.637232966567e-04 -2.371299809629e-04 0.0 
-2.371299809629e-04 2.492260010494e-03 0.0 
0.0 0.0 -4.713274934483e-04 
-9.616016624064e-04 -1.586137009988e-04 0.0 
-1.586137009988e-04 2.837108011281e-03 0.0 
0.0 0.0 -3.822222222222e-04 
-8.538485000622e-04 -1.885493409314e-04 0.0 
-1.885493409314e-04 2.481749201505e-03 0.0 
0.0 0.0 -4.858861960434e-04 
-4.559297430570e-04 1.444187656161e-03 0.0 
1.444187656161e-03 1.981448427249e-03 0.0 
0.0 0.0 -6.537937217965e-04 
-9.957574324210e-04 -9.024577915214e-05 0.0 
-9.024577915214e-05 2.832059975401e-03 0.0 
0.0 0.0 -3.822222222222e-04 
-8.420411067301e-04 -1.147262326721e-04 0.0 
-1.147262326721e-04 2.468867339442e-03 0.0 
0.0 0.0 -5.027800290162e-04 
-1.039055821930e-03 8.224520741657e-06 0.0 
8.224520741657e-06 2.826232556126e-03 0.0 
0.0 0.0 -3.822222222222e-04 
-8.257325877732e-04 -1.684371319750e-05 0.0 
-1.684371319750e-05 2.451050949731e-03 0.0 
0.0 0.0 -5.243127177637e-04 
-1.025570190768e-03 1.403256994831e-04 0.0 
1.403256994831e-04 2.797038362784e-03 0.0 
0.0 0.0 -4.023247379336e-04 
-8.050294719308e-04 1.124410670381e-04 0.0 
1.124410670381e-04 2.428661755662e-03 0.0 
0.0 0.0 -5.489567910448e-04 
-9.923239288201e-04 3.047136110578e-04 0.0 
3.047136110578e-04 2.756100007675e-03 0.0 
0.0 0.0 -4.324342652679e-04 
-7.731797138455e-04 2.625302848105e-04 0.0 
2.625302848105e-04 2.393418728170e-03 0.0 
0.0 0.0 -5.820900338912e-04 
-9.418682114520e-04 5.073920785542e-04 0.0 
5.073920785542e-04 2.692555105023e-03 0.0 
0.0 0.0 -4.713646722125e-04 
-7.342469081316e-04 4.657530843841e-04 0.0 
4.657530843841e-04 2.352483617576e-03 0.0 
0.0 0.0 -6.159470284615e-04 
-4.680647983613e-04 1.597006220995e-03 0.0 
1.597006220995e-03 2.093451131542e-03 0.0 
0.0 0.0 -6.965941427916e-04 
-6.693040365848e-04 6.579016910303e-04 0.0 
6.579016910303e-04 2.279268426426e-03 0.0 
0.0 0.0 -6.692217709364e-04 
-8.781023439948e-04 7.411318868586e-04 0.0 
7.411318868586e-04 2.622293177478e-03 0.0 
0.0 0.0 -5.216549963272e-04 
-6.008061203709e-04 9.652302155092e-04 0.0 
9.652302155092e-04 2.191809086520e-03 0.0 
0.0 0.0 -6.818584140638e-04 
-7.708778420605e-04 1.010625125185e-03 0.0 
1.010625125185e-03 2.489715384094e-03 0.0 
0.0 0.0 -5.889796576362e-04 
-6.578980111303e-04 1.296813025753e-03 0.0 
1.296813025753e-03 2.378601915831e-03 0.0 
0.0 0.0 -6.666224173880e-04 
-4.259182236764e-04 1.351986027582e-03 0.0 
1.351986027582e-03 1.852483873207e-03 0.0 
0.0 0.0 -6.113852783704e-04 
-9.474349750393e-04 -3.758791366539e-04 0.0 
-3.758791366539e-04 2.750895276144e-03 0.0 
0.0 0.0 -3.933333333333e-04 
-8.340817167273e-04 3.227874807035e-04 0.0 
3.227874807035e-04 2.547302196216e-03 0.0 
0.0 0.0 -3.933333333333e-04 
-9.429649573043e-04 -6.274108253705e-05 0.0 
-6.274108253705e-05 2.720570547882e-03 0.0 
0.0 0.0 -4.155555555556e-04 
-8.366259340555e-04 2.206832879955e-05 0.0 
2.206832879955e-05 2.587932870487e-03 0.0 
0.0 0.0 -3.711111111111e-04 
-3.311872650881e-04 1.664414027805e-03 0.0 
1.664414027805e-03 1.777880150707e-03 0.0 
0.0 0.0 -6.200112366940e-04 
-1.054441290555e-03 -1.060399512644e-04 0.0 
-1.060399512644e-04 3.174442276916e-03 0.0 
0.0 0.0 -4.711111111111e-04 
-9.755270099610e-04 -1.952460710779e-05 0.0 
-1.952460710779e-05 3.352199228394e-03 0.0 
0.0 0.0 -4.488888888889e-04 
-1.057199720646e-03 -6.628466702925e-05 0.0 
-6.628466702925e-05 3.038898740510e-03 0.0 
0.0 0.0 -4.711111111111e-04 
-9.777400934430e-04 -1.091555938379e-04 0.0 
-1.091555938379e-04 3.340691704280e-03 0.0 
0.0 0.0 -4.488888888889e-04 
-1.063155427674e-03 -8.985841896749e-05 0.0 
-8.985841896749e-05 3.031383342538e-03 0.0 
0.0 0.0 -4.711111111111e-04 
-9.824799286931e-04 -1.393428267415e-04 0.0 
-1.393428267415e-04 3.339683266468e-03 0.0 
0.0 0.0 -4.488888888889e-04 
-1.073307870603e-03 -1.145055690525e-04 0.0 
-1.145055690525e-04 3.031741938321e-03 0.0 
0.0 0.0 -4.711111111111e-04 
-9.898779257340e-04 -1.643666591562e-04 0.0 
-1.643666591562e-04 3.339619340617e-03 0.0 
0.0 0.0 -4.488888888889e-04 
-1.086323477342e-03 -1.363877390947e-04 0.0 
-1.363877390947e-04 3.033165334032e-03 0.0 
0.0 0.0 -4.711111111111e-04 
-9.998925141734e-04 -1.855881002644e-04 0.0 
-1.855881002644e-04 3.339705936799e-03 0.0 
0.0 0.0 -4.488888888889e-04 
-1.096406818734e-03 -1.532318205826e-04 0.0 
-1.532318205826e-04 3.033255551597e-03 0.0 
0.0 0.0 -4.730783955673e-04 
-1.012777399154e-03 -2.017536892965e-04 0.0 
-2.017536892965e-04 3.339844219624e-03 0.0 
0.0 0.0 -4.488888888889e-04 
-1.090664367884e-03 -1.644430523049e-04 0.0 
-1.644430523049e-04 3.027933117942e-03 0.0 
0.0 0.0 -4.808618943584e-04 
-1.028301113362e-03 -2.114471527184e-04 0.0 
-2.114471527184e-04 3.338551741007e-03 0.0 
0.0 0.0 -4.488888888889e-04 
-1.083736580133e-03 -1.666451993329e-04 0.0 
-1.666451993329e-04 3.020843768517e-03 0.0 
0.0 0.0 -4.898707554272e-04 
-1.046943436856e-03 -2.106797342195e-04 0.0 
-2.106797342195e-04 3.335962166517e-03 0.0 
0.0 0.0 -4.488888888889e-04 
-7.831296468648e-04 1.319072651067e-03 0.0 
1.319072651067e-03 2.747172324488e-03 0.0 
0.0 0.0 -7.609479695289e-04 
-1.075855056023e-03 -1.563532757849e-04 0.0 
-1.563532757849e-04 3.012345218943e-03 0.0 
0.0 0.0 -5.000242388326e-04 
-1.069747672987e-03 -1.955783713019e-04 0.0 
-1.955783713019e-04 3.333029570668e-03 0.0 
0.0 0.0 -4.488888888889e-04 
-7.248550649329e-04 1.406358254198e-03 0.0 
1.406358254198e-03 2.595476185353e-03 0.0 
0.0 0.0 -7.137751583000e-04 
-1.066434352541e-03 -1.316180070833e-04 0.0 
-1.316180070833e-04 3.002197182527e-03 0.0 
0.0 0.0 -5.124314741735e-04 
-1.097598068092e-03 -1.637972448482e-04 0.0 
-1.637972448482e-04 3.329403421166e-03 0.0 
0.0 0.0 -4.488888888889e-04 
-7.533669482919e-04 1.204166970056e-03 0.0 
1.204166970056e-03 2.642836543444e-03 0.0 
0.0 0.0 -7.468747930895e-04 
-1.055416203304e-03 -9.203251338284e-05 0.0 
-9.203251338284e-05 2.990073804986e-03 0.0 
0.0 0.0 -5.267381924031e-04 
-1.130750834273e-03 -1.116921931994e-04 0.0 
-1.116921931994e-04 3.323665525655e-03 0.0 
0.0 0.0 -4.488888888889e-04 
-1.042171778077e-03 -3.455033738422e-05 0.0 
-3.455033738422e-05 2.974699293394e-03 0.0 
0.0 0.0 -5.428660870381e-04 
-1.169484212689e-03 -3.358102239734e-05 0.0 
-3.358102239734e-05 3.314256616847e-03 0.0 
0.0 0.0 -4.488888888889e-04 
-1.025316934061e-03 4.498860631349e-05 0.0 
4.498860631349e-05 2.954024136839e-03 0.0 
0.0 0.0 -5.614484225926e-04 
-1.214143038317e-03 7.887627576123e-05 0.0 
7.887627576123e-05 3.298257734444e-03 0.0 
0.0 0.0 -4.488888888889e-04 
-7.199346667002e-04 1.548959497082e-03 0.0 
1.548959497082e-03 2.702620874801e-03 0.0 
0.0 0.0 -7.999777769487e-04 
-1.005056088549e-03 1.605680175197e-04 0.0 
1.605680175197e-04 2.928996212084e-03 0.0 
0.0 0.0 -5.816817243943e-04 
-1.194628629214e-03 2.284813269436e-04 0.0 
2.284813269436e-04 3.262807979926e-03 0.0 
0.0 0.0 -4.714398725188e-04 
-9.770701467258e-04 2.900797214075e-04 0.0 
2.900797214075e-04 2.895539247012e-03 0.0 
0.0 0.0 -6.084761808760e-04 
-1.150691492803e-03 4.112920914748e-04 0.0 
4.112920914748e-04 3.201011145854e-03 0.0 
0.0 0.0 -5.031356658855e-04 
-1.102080003132e-03 6.314047135334e-04 0.0 
6.314047135334e-04 3.144102696047e-03 0.0 
0.0 0.0 -5.414573098104e-04 
-9.427914102034e-04 4.734021578769e-04 0.0 
4.734021578769e-04 2.854814901825e-03 0.0 
0.0 0.0 -6.353729821390e-04 
-1.011724826405e-03 8.872743635075e-04 0.0 
8.872743635075e-04 3.016176770478e-03 0.0 
0.0 0.0 -5.911070349773e-04 
-8.910802690226e-04 6.354474711150e-04 0.0 
6.354474711150e-04 2.790560843145e-03 0.0 
0.0 0.0 -6.750826519681e-04 
-9.261251575016e-04 1.192686017243e-03 0.0 
1.192686017243e-03 2.932735209306e-03 0.0 
0.0 0.0 -6.517013890130e-04 
-8.336613140921e-04 9.428984709957e-04 0.0 
9.428984709957e-04 2.722476745029e-03 0.0 
0.0 0.0 -6.953468723645e-04 
-6.543021565792e-04 1.370902121002e-03 0.0 
1.370902121002e-03 2.495211230633e-03 0.0 
0.0 0.0 -7.782223337189e-04 
-9.573633010252e-04 -3.758595971567e-04 0.0 
-3.758595971567e-04 3.138492562280e-03 0.0 
0.0 0.0 -4.600000000000e-04 
-1.070084496450e-03 3.260967853827e-04 0.0 
3.260967853827e-04 3.340817972329e-03 0.0 
0.0 0.0 -4.600000000000e-04 
-9.651871795266e-04 -5.955810820259e-05 0.0 
-5.955810820259e-05 3.169772296161e-03 0.0 
0.0 0.0 -4.377777777778e-04 
-1.064380492171e-03 2.392363188093e-05 0.0 
2.392363188093e-05 3.297778316814e-03 0.0 
0.0 0.0 -4.822222222222e-04 
-5.704666912088e-04 1.617849901649e-03 0.0 
1.617849901649e-03 2.384447177274e-03 0.0 
0.0 0.0 -7.774202083136e-04 
-1.098885735000e-03 -9.932841691003e-05 0.0 
-9.932841691003e-05 3.711008544298e-03 0.0 
0.0 0.0 -5.155555555556e-04 
-1.168462067443e-03 -8.558937578339e-06 0.0 
-8.558937578339e-06 3.528865523027e-03 0.0 
0.0 0.0 -5.377777777778e-04 
-1.101644165090e-03 -4.995934151532e-05 0.0 
-4.995934151532e-05 3.841935165134e-03 0.0 
0.0 0.0 -5.155555555556e-04 
-1.170694924485e-03 -8.717992149991e-05 0.0 
-8.717992149991e-05 3.536462684656e-03 0.0 
0.0 0.0 -5.377777777778e-04 
-1.107599872119e-03 -6.223086959302e-05 0.0 
-6.223086959302e-05 3.845472707205e-03 0.0 
0.0 0.0 -5.155555555556e-04 
-1.181271355677e-03 -1.042178337503e-04 0.0 
-1.042178337503e-04 3.538247230035e-03 0.0 
0.0 0.0 -5.377777777778e-04 
-1.117752315047e-03 -7.784351567095e-05 0.0 
-7.784351567095e-05 3.846307941154e-03 0.0 
0.0 0.0 -5.155555555556e-04 
-1.192658306015e-03 -1.193867036393e-04 0.0 
-1.193867036393e-04 3.539182551016e-03 0.0 
0.0 0.0 -5.377777777778e-04 
-1.130767921787e-03 -8.794783012842e-05 0.0 
-8.794783012842e-05 3.845743987908e-03 0.0 
0.0 0.0 -5.155555555556e-04 
-1.210173940783e-03 -1.287275247693e-04 0.0 
-1.287275247693e-04 3.541285429521e-03 0.0 
0.0 0.0 -5.377777777778e-04 
-1.147405946802e-03 -9.309166024428e-05 0.0 
-9.309166024428e-05 3.846138881089e-03 0.0 
0.0 0.0 -5.155555555556e-04 
-1.230284092040e-03 -1.329076598989e-04 0.0 
-1.329076598989e-04 3.543463507866e-03 0.0 
0.0 0.0 -5.377777777778e-04 
-1.167594603574e-03 -9.130051004344e-05 0.0 
-9.130051004344e-05 3.846054057724e-03 0.0 
0.0 0.0 -5.155555555556e-04 
-1.257222365411e-03 -1.323215631345e-04 0.0 
-1.323215631345e-04 3.545265649495e-03 0.0 
0.0 0.0 -5.377777777778e-04 
-1.190679714427e-03 -8.065933747456e-05 0.0 
-8.065933747456e-05 3.844271498324e-03 0.0 
0.0 0.0 -5.155555555556e-04 
-1.072061725773e-03 1.181075520675e-03 0.0 
1.181075520675e-03 3.333527226650e-03 0.0 
0.0 0.0 -7.283378183804e-04 
-1.281962566836e-03 -1.205561474005e-04 0.0 
-1.205561474005e-04 3.543719900527e-03 0.0 
0.0 0.0 -5.377777777778e-04 
-1.019291723586e-03 1.089044048788e-03 0.0 
1.089044048788e-03 3.195052180348e-03 0.0 
0.0 0.0 -7.244127351333e-04 
-1.216630828162e-03 -5.217094280109e-05 0.0 
-5.217094280109e-05 3.837261921334e-03 0.0 
0.0 0.0 -5.155555555556e-04 
-1.278612193971e-03 -8.527996152039e-05 0.0 
-8.527996152039e-05 3.532526708308e-03 0.0 
0.0 0.0 -5.485944179258e-04 
-1.248566532597e-03 -8.063337581444e-06 0.0 
-8.063337581444e-06 3.832196745573e-03 0.0 
0.0 0.0 -5.155555555556e-04 
-1.265136211354e-03 -3.710354583219e-05 0.0 
-3.710354583219e-05 3.516310959499e-03 0.0 
0.0 0.0 -5.642304945314e-04 
-1.285253076073e-03 5.378705676948e-05 0.0 
5.378705676948e-05 3.825167274507e-03 0.0 
0.0 0.0 -5.155555555556e-04 
-1.249016317751e-03 2.783290865771e-05 0.0 
2.783290865771e-05 3.495315634217e-03 0.0 
0.0 0.0 -5.808897987891e-04 
-1.009506465037e-03 1.312718317251e-03 0.0 
1.312718317251e-03 3.173615454217e-03 0.0 
0.0 0.0 -6.840081157839e-04 
-1.325793724936e-03 1.409910150458e-04 0.0 
1.409910150458e-04 3.811895021444e-03 0.0 
0.0 0.0 -5.155555555556e-04 
-1.228491986619e-03 1.177167741922e-04 0.0 
1.177167741922e-04 3.467495695501e-03 0.0 
0.0 0.0 -6.000309252581e-04 
-1.370873242614e-03 2.586300978522e-04 0.0 
2.586300978522e-04 3.792690245387e-03 0.0 
0.0 0.0 -5.155555555556e-04 
-1.200813378474e-03 2.299684609271e-04 0.0 
2.299684609271e-04 3.428363493249e-03 0.0 
0.0 0.0 -6.226598288582e-04 
-1.373356089150e-03 4.171425679384e-04 0.0 
4.171425679384e-04 3.744750078480e-03 0.0 
0.0 0.0 -5.289384626357e-04 
-1.172212083606e-03 4.058181090915e-04 0.0 
4.058181090915e-04 3.389456744915e-03 0.0 
0.0 0.0 -6.422847164987e-04 
-1.331867317601e-03 6.009358889080e-04 0.0 
6.009358889080e-04 3.691337826045e-03 0.0 
0.0 0.0 -5.597688379707e-04 
-1.124375463142e-03 5.598543092856e-04 0.0 
5.598543092856e-04 3.325139889709e-03 0.0 
0.0 0.0 -6.782083763712e-04 
-1.081971884868e-03 8.414092324740e-04 0.0 
8.414092324740e-04 3.267902520726e-03 0.0 
0.0 0.0 -6.895475544463e-04 
-1.262668952542e-03 8.256947026051e-04 0.0 
8.256947026051e-04 3.589844959231e-03 0.0 
0.0 0.0 -5.971186907353e-04 
-1.015537556123e-03 1.423057567146e-03 0.0 
1.423057567146e-03 3.272421342693e-03 0.0 
0.0 0.0 -7.495201701545e-04 
-1.195815340391e-03 1.081747061634e-03 0.0 
1.081747061634e-03 3.513584158614e-03 0.0 
0.0 0.0 -6.415873553655e-04 
-9.227522449622e-04 1.272927656652e-03 0.0 
1.272927656652e-03 3.024546989958e-03 0.0 
0.0 0.0 -7.380105449967e-04 
-1.189132313752e-03 -3.719683768529e-04 0.0 
-3.719683768529e-04 3.742930454027e-03 0.0 
0.0 0.0 -5.266666666667e-04 
-1.078621173226e-03 3.329266509439e-04 0.0 
3.329266509439e-04 3.544627002251e-03 0.0 
0.0 0.0 -5.266666666667e-04 
-1.179143088157e-03 -5.341908987877e-05 0.0 
-5.341908987877e-05 3.711783890135e-03 0.0 
0.0 0.0 -5.488888888889e-04 
-1.086602714393e-03 2.829903387263e-05 0.0 
2.829903387263e-05 3.587438639290e-03 0.0 
0.0 0.0 -5.044444444444e-04 
-8.701615349701e-04 1.534050088586e-03 0.0 
1.534050088586e-03 2.982960737759e-03 0.0 
0.0 0.0 -7.564843357160e-04 
-1.281957485101e-03 -9.385206070326e-05 0.0 
-9.385206070326e-05 4.159171467776e-03 0.0 
0.0 0.0 -6.044444444444e-04 
-1.212906511887e-03 8.437755052735e-06 0.0 
8.437755052735e-06 4.332528287739e-03 0.0 
0.0 0.0 -5.822222222222e-04 
-1.270813931325e-03 -4.040562334661e-05 0.0 
-4.040562334661e-05 4.018667514915e-03 0.0 
0.0 0.0 -6.044444444444e-04 
-1.215139368930e-03 -5.723684032478e-05 0.0 
-5.723684032478e-05 4.317315307501e-03 0.0 
0.0 0.0 -5.822222222222e-04 
-1.281549970565e-03 -2.783058806924e-05 0.0 
-2.783058806924e-05 4.009142892880e-03 0.0 
0.0 0.0 -6.044444444444e-04 
-1.225715800122e-03 -5.846153113734e-05 0.0 
-5.846153113734e-05 4.321112834897e-03 0.0 
0.0 0.0 -5.822222222222e-04 
-1.299500121220e-03 -3.892246035712e-05 0.0 
-3.892246035712e-05 4.013014100261e-03 0.0 
0.0 0.0 -6.044444444444e-04 
-1.237102750459e-03 -6.373558927260e-05 0.0 
-6.373558927260e-05 4.316061582639e-03 0.0 
0.0 0.0 -5.822222222222e-04 
-1.310225087603e-03 -3.096991785550e-05 0.0 
-3.096991785550e-05 4.010869733645e-03 0.0 
0.0 0.0 -6.044444444444e-04 
-1.254618385227e-03 -5.449007521454e-05 0.0 
-5.449007521454e-05 4.318709008563e-03 0.0 
0.0 0.0 -5.822222222222e-04 
-1.336238080201e-03 -2.665442879324e-05 0.0 
-2.665442879324e-05 4.014359818630e-03 0.0 
0.0 0.0 -6.044444444444e-04 
-1.274728536484e-03 -4.422787035067e-05 0.0 
-4.422787035067e-05 4.314650827642e-03 0.0 
0.0 0.0 -5.822222222222e-04 
-1.357159993559e-03 -4.580559540248e-06 0.0 
-4.580559540248e-06 4.014254519705e-03 0.0 
0.0 0.0 -6.044444444444e-04 
-1.347537318405e-03 1.010824294751e-03 0.0 
1.010824294751e-03 3.920037731601e-03 0.0 
0.0 0.0 -7.117109445114e-04 
-1.301666809856e-03 -2.047408919469e-05 0.0 
-2.047408919469e-05 4.318063477050e-03 0.0 
0.0 0.0 -5.822222222222e-04 
-1.391706891411e-03 2.751450344882e-06 0.0 
2.751450344882e-06 4.016171820733e-03 0.0 
0.0 0.0 -6.044444444444e-04 
-1.286495538148e-03 1.141604132091e-03 0.0 
1.141604132091e-03 3.755942445139e-03 0.0 
0.0 0.0 -6.690433100420e-04 
-1.326407011280e-03 6.045508856538e-06 0.0 
6.045508856538e-06 4.301570573764e-03 0.0 
0.0 0.0 -5.822222222222e-04 
-1.418163902024e-03 5.346625199558e-05 0.0 
5.346625199558e-05 4.007884251177e-03 0.0 
0.0 0.0 -6.044444444444e-04 
-1.269919325548e-03 9.693842664938e-04 0.0 
9.693842664938e-04 3.741904716454e-03 0.0 
0.0 0.0 -7.168342214570e-04 
-1.359108424707e-03 6.264265058965e-05 0.0 
6.264265058965e-05 4.294165002255e-03 0.0 
0.0 0.0 -5.822222222222e-04 
-1.457002779349e-03 1.155195072583e-04 0.0 
1.155195072583e-04 4.005151940014e-03 0.0 
0.0 0.0 -6.044444444444e-04 
-1.397754652771e-03 1.342537055091e-04 0.0 
1.342537055091e-04 4.286646401950e-03 0.0 
0.0 0.0 -5.822222222222e-04 
-1.439433466702e-03 1.791245333921e-04 0.0 
1.791245333921e-04 3.981926727275e-03 0.0 
0.0 0.0 -6.212763874705e-04 
-1.437165891528e-03 2.256325768342e-04 0.0 
2.256325768342e-04 4.266187057435e-03 0.0 
0.0 0.0 -5.822222222222e-04 
-1.294521127295e-03 1.255121558487e-03 0.0 
1.255121558487e-03 3.846810996671e-03 0.0 
0.0 0.0 -7.256046805931e-04 
-1.416692839753e-03 2.731618170809e-04 0.0 
2.731618170809e-04 3.949147984694e-03 0.0 
0.0 0.0 -6.388990248527e-04 
-1.480404564063e-03 3.507234002411e-04 0.0 
3.507234002411e-04 4.240406141116e-03 0.0 
0.0 0.0 -5.822222222222e-04 
-1.527971474499e-03 5.064010242542e-04 0.0 
5.064010242542e-04 4.210902708310e-03 0.0 
0.0 0.0 -5.822222222222e-04 
-1.387518079071e-03 3.943188623073e-04 0.0 
3.943188623073e-04 3.907645916582e-03 0.0 
0.0 0.0 -6.603292536270e-04 
-1.489199031895e-03 7.040012771420e-04 0.0 
7.040012771420e-04 4.109006438777e-03 0.0 
0.0 0.0 -6.048139398938e-04 
-1.345551405801e-03 5.089205632429e-04 0.0 
5.089205632429e-04 3.844893580165e-03 0.0 
0.0 0.0 -6.886802823100e-04 
-1.449968692027e-03 9.453817318756e-04 0.0 
9.453817318756e-04 4.074908376766e-03 0.0 
0.0 0.0 -6.381145674715e-04 
-1.311416027678e-03 7.842300283395e-04 0.0 
7.842300283395e-04 3.792994805538e-03 0.0 
0.0 0.0 -6.930958846255e-04 
-1.191921020040e-03 1.114101255005e-03 0.0 
1.114101255005e-03 3.585331380848e-03 0.0 
0.0 0.0 -7.187225406772e-04 
-1.177806506474e-03 -3.598193330075e-04 0.0 
-3.598193330075e-04 4.111442480075e-03 0.0 
0.0 0.0 -5.933333333333e-04 
-1.298614317116e-03 3.518912234694e-04 0.0 
3.518912234694e-04 4.327861140627e-03 0.0 
0.0 0.0 -5.933333333333e-04 
-1.201365310379e-03 -4.039072614176e-05 0.0 
-4.039072614176e-05 4.155647570895e-03 0.0 
0.0 0.0 -5.711111111111e-04 
-1.277329052135e-03 4.889702624734e-05 0.0 
4.889702624734e-05 4.269846773222e-03 0.0 
0.0 0.0 -6.155555555556e-04 
-1.165172176686e-03 1.355369621706e-03 0.0 
1.355369621706e-03 3.569481016305e-03 0.0 
0.0 0.0 -7.239602392282e-04 
-1.326401929546e-03 -1.098251756258e-04 0.0 
-1.098251756258e-04 4.716210200324e-03 0.0 
0.0 0.0 -6.488888888889e-04 
-1.341042556431e-03 -1.497445551792e-05 0.0 
-1.497445551792e-05 4.487654478362e-03 0.0 
0.0 0.0 -6.711111111111e-04 
-1.315258375770e-03 -3.279398266088e-06 0.0 
-3.279398266088e-06 4.798065319814e-03 0.0 
0.0 0.0 -6.488888888889e-04 
-1.368317620788e-03 -1.903812859008e-05 0.0 
-1.903812859008e-05 4.498221230458e-03 0.0 
0.0 0.0 -6.711111111111e-04 
-1.325994415009e-03 1.380554954630e-05 0.0 
1.380554954630e-05 4.806277874424e-03 0.0 
0.0 0.0 -6.488888888889e-04 
-1.380848091197e-03 -1.506252807686e-07 0.0 
-1.506252807686e-07 4.508257602630e-03 0.0 
0.0 0.0 -6.711111111111e-04 
-1.343944565664e-03 7.917736370567e-06 0.0 
7.917736370567e-06 4.818216293294e-03 0.0 
0.0 0.0 -6.488888888889e-04 
-1.386616382160e-03 -2.067760603014e-05 0.0 
-2.067760603014e-05 4.497592293928e-03 0.0 
0.0 0.0 -6.711111111111e-04 
-1.354669532048e-03 3.875023501283e-05 0.0 
3.875023501283e-05 4.799753708961e-03 0.0 
0.0 0.0 -6.488888888889e-04 
-1.406907359723e-03 3.160898061574e-05 0.0 
3.160898061574e-05 4.503118169212e-03 0.0 
0.0 0.0 -6.711111111111e-04 
-1.380682524645e-03 5.561565498039e-05 0.0 
5.561565498039e-05 4.809868159536e-03 0.0 
0.0 0.0 -6.488888888889e-04 
-1.435189363615e-03 3.130270196416e-05 0.0 
3.130270196416e-05 4.499809120004e-03 0.0 
0.0 0.0 -6.711111111111e-04 
-1.611535782568e-03 8.671279044143e-04 0.0 
8.671279044143e-04 4.506015908724e-03 0.0 
0.0 0.0 -7.049993574243e-04 
-1.401604438003e-03 9.330713447470e-05 0.0 
9.330713447470e-05 4.797672975585e-03 0.0 
0.0 0.0 -6.488888888889e-04 
-1.512351284449e-03 8.656230693377e-04 0.0 
8.656230693377e-04 4.297202840087e-03 0.0 
0.0 0.0 -7.256265952625e-04 
-1.438154550875e-03 9.647646109404e-05 0.0 
9.647646109404e-05 4.497364060681e-03 0.0 
0.0 0.0 -6.711111111111e-04 
-1.436151335856e-03 1.358395788754e-04 0.0 
1.358395788754e-04 4.800332653133e-03 0.0 
0.0 0.0 -6.488888888889e-04 
-1.499230372271e-03 1.062721523167e-04 0.0 
1.062721523167e-04 4.489570327750e-03 0.0 
0.0 0.0 -6.711111111111e-04 
-1.462608346469e-03 2.027818769099e-04 0.0 
2.027818769099e-04 4.774125764298e-03 0.0 
0.0 0.0 -6.488888888889e-04 
-1.532724437083e-03 1.968943510655e-04 0.0 
1.968943510655e-04 4.482722825432e-03 0.0 
0.0 0.0 -6.711111111111e-04 
-1.501447223794e-03 2.766209172912e-04 0.0 
2.766209172912e-04 4.769601642763e-03 0.0 
0.0 0.0 -6.488888888889e-04 
-1.557872225570e-03 2.720774980370e-04 0.0 
2.720774980370e-04 4.471068660141e-03 0.0 
0.0 0.0 -6.711111111111e-04 
-1.549932705829e-03 1.034482702559e-03 0.0 
1.034482702559e-03 4.338594692453e-03 0.0 
0.0 0.0 -6.619668726724e-04 
-1.539964497909e-03 3.703806189017e-04 0.0 
3.703806189017e-04 4.750827424066e-03 0.0 
0.0 0.0 -6.488888888889e-04 
-1.593531228853e-03 3.628458802930e-04 0.0 
3.628458802930e-04 4.447964373288e-03 0.0 
0.0 0.0 -6.711111111111e-04 
-1.575889340432e-03 4.997462669703e-04 0.0 
4.997462669703e-04 4.711328261492e-03 0.0 
0.0 0.0 -6.488888888889e-04 
-1.590906187641e-03 5.071802277050e-04 0.0 
5.071802277050e-04 4.406658573059e-03 0.0 
0.0 0.0 -6.802731460288e-04 
-1.553155722451e-03 6.861757538348e-04 0.0 
6.861757538348e-04 4.351637703117e-03 0.0 
0.0 0.0 -7.011174395038e-04 
-1.617910879156e-03 6.689844391721e-04 0.0 
6.689844391721e-04 4.669016158580e-03 0.0 
0.0 0.0 -6.488888888889e-04 
-1.669910948397e-03 8.547088690357e-04 0.0 
8.547088690357e-04 4.635783510319e-03 0.0 
0.0 0.0 -6.488888888889e-04 
-1.565389776433e-03 1.113185015486e-03 0.0 
1.113185015486e-03 4.431052665958e-03 0.0 
0.0 0.0 -7.101757656324e-04 
-1.445746577220e-03 9.960480725557e-04 0.0 
9.960480725557e-04 4.140494100543e-03 0.0 
0.0 0.0 -7.083488828164e-04 
-1.382040473179e-03 -3.190058038896e-04 0.0 
-3.190058038896e-04 4.672355147485e-03 0.0 
0.0 0.0 -6.600000000000e-04 
-1.311697345882e-03 3.879464369525e-04 0.0 
3.879464369525e-04 4.545991971317e-03 0.0 
0.0 0.0 -6.600000000000e-04 
-1.392413986569e-03 1.825900643476e-05 0.0 
1.825900643476e-05 4.677427317752e-03 0.0 
0.0 0.0 -6.822222222222e-04 
-1.299551274357e-03 6.542939229750e-05 0.0 
6.542939229750e-05 4.553563985542e-03 0.0 
0.0 0.0 -6.377777777778e-04 
-1.453247710607e-03 1.192137069286e-03 0.0 
1.192137069286e-03 4.178885573169e-03 0.0 
0.0 0.0 -7.047837856643e-04 

SCALARS element_materi_plasti_kappa_shear float
LOOKUP_TABLE default
2.638449368411e-03
2.307880314974e-03
5.668059790692e-03
5.685840565928e-03
3.968724762264e-03
2.227775623383e-03
3.926609063437e-03
2.603981897009e-03
3.959861142706e-03
5.676159459017e-03
3.789460879762e-03
2.166184027025e-03
4.891618303360e-03
4.239593676265e-03
4.915486508882e-03
5.763080812267e-03
3.957109970888e-03
9.864085158710e-05
1.385502992053e-03
1.310811347843e-03
5.684919687706e-03
2.668003560693e-03
2.830444855211e-03
2.887992383095e-03
4.492952651090e-03
3.999825579596e-03
3.772973464484e-03
4.950933107395e-03
4.446798420902e-03
3.154878546998e-03
2.756846244609e-03
9.905717093618e-04
5.968283596401e-03
4.581378283715e-03
4.439297578914e-03
4.887177070447e-03
5.091662130986e-03
3.236750732307e-03
3.615750744496e-03
3.662711387174e-03
3.132788783305e-03
4.003574433579e-03
2.231218125306e-03
3.619781891395e-03
5.614862315127e-03
2.308537538977e-03
2.567928975721e-03
5.479464518158e-03
8.195853011297e-04
4.082692105509e-03
3.028705324844e-03
1.800022130003e-03
3.293726347817e-03
2.963783223813e-03
5.752538416863e-03
2.317662380795e-03
1.680471960424e-03
4.591779384906e-03
1.282089538117e-03
5.743217870912e-03
0.0
3.970806248155e-03
2.953445704213e-03
3.287038662097e-03
4.914099357777e-03
2.824966036789e-03
0.0
5.862902570517e-03
2.620748184046e-03
5.405750626230e-03
4.123083578977e-03
5.868967824668e-03
4.513723255217e-03
9.779064778028e-04
2.287061364591e-03
5.715984257660e-03
5.955190373470e-03
2.225229681788e-03
8.958780141002e-04
2.309523210765e-03
2.623606725785e-03
3.807044789785e-03
2.701030844542e-03
2.283651859930e-03
4.111166650998e-03
4.102179279090e-03
4.228241446566e-03
4.546798255785e-03
5.028716670228e-03
3.901152697752e-03
6.549433232100e-04
3.920650833441e-03
4.955587413478e-03
5.010029682247e-03
6.082587846612e-03
3.583046306489e-03
3.812238424463e-03
4.309414704673e-03
4.319293153851e-03
3.152072117772e-03
3.806820599516e-03
4.894923453038e-03
2.752080048091e-03
3.649256563451e-03
2.864912835823e-03
2.832888651383e-03
4.791522079347e-03
5.257296183678e-03
6.216847982975e-04
4.789762209254e-03
4.946970942302e-03
1.455853485302e-03
3.116660414769e-03
3.646713869330e-03
2.740266031466e-03
2.565730635348e-03
3.111248311779e-03
4.481696809263e-03
4.267994674223e-03
2.744319843462e-03
2.256121814009e-03
4.028535080126e-03
5.125478964429e-03
2.884095006377e-03
1.634010763882e-03
3.343960081378e-03
2.825136596843e-03
3.200895695618e-03
5.840634446843e-03
3.049581698772e-03
3.964814282569e-03
5.700506446746e-03
3.554006587530e-03
3.223480759992e-03
4.236959910874e-03
4.935732901856e-03
4.220142662913e-03
3.782725374417e-03
3.633905000164e-03
3.434454553281e-03
5.667308756995e-03
5.731127569311e-03
4.159105326719e-03
4.705255006089e-03
3.527054415499e-03
3.060528253236e-03
3.807578355912e-03
3.078773552032e-03
3.873095872756e-03
3.370616847933e-03
7.627933793163e-04
4.106841682748e-03
9.591787070335e-04
3.491582586837e-03
3.620903548599e-03
2.658320563693e-03
4.383820681644e-03
2.313821533156e-03
3.280595579104e-03
3.781797064791e-03
3.239934934191e-03
4.666843953081e-03
1.844128017672e-03
4.751176865938e-03
3.949884846235e-03
4.988018486650e-03
3.771577015596e-03
2.896598297230e-03
3.483459645253e-03
3.893786270809e-03
2.298745108616e-03
3.272701774280e-03
4.841674106423e-03
3.900979634001e-03
3.037833255544e-03
3.320787467051e-03
5.050201609921e-03
3.079663805871e-03
4.649906474496e-03
5.561012058297e-03
2.890227526471e-03
2.943961554453e-03
2.210045688094e-03
3.349611072642e-03
2.235768342795e-03
3.804052174663e-03
3.255583921612e-03
5.686869579948e-03
5.039238049397e-03
4.717478710770e-03
2.309621426061e-03
3.143595662693e-03
5.111000880600e-03
0.0
3.256985193650e-03
2.315875762829e-03
1.186781807755e-03
5.879212306885e-03
4.749545806609e-03
3.205712272384e-03
1.923895110586e-03
4.248611553850e-03
4.390119912627e-03
3.260852054243e-03
2.726046229142e-03
3.866905638561e-03
4.085059299403e-03
4.849847065370e-03
4.084848891733e-03
3.788784052669e-03
2.384045379571e-03
4.854751456170e-03
0.0
2.534886222220e-03
2.875294506275e-03
3.926615174907e-03
5.120800106263e-03
2.883704576323e-03
2.560806566150e-03
3.780927287153e-03
3.250336732161e-03
2.904934106925e-03
9.744138873205e-04
5.002746784696e-03
1.187677453753e-03
9.712234474307e-04
2.285555067131e-03
2.450408811608e-03
5.091607850684e-03
2.428262004319e-03
2.774880105580e-03
3.779138720656e-03
1.803156298713e-03
1.957999132830e-03
3.924614645831e-03
4.859013116494e-03
0.0
3.040676180201e-03
3.206874618957e-03
3.130650380996e-03
2.062644621155e-03
4.885442700903e-03
4.892149880117e-03
3.059373875750e-03
2.149562808967e-03
4.104130610049e-03
4.011618650566e-03
4.856263363195e-03
4.079661242982e-03
3.170623979729e-03
2.775910294640e-03
4.348640566437e-03
6.080884502444e-03
4.012120085899e-03
2.651654117440e-03
4.174160396721e-03
2.772644652466e-03
4.114504492513e-03
3.290795862291e-03
2.811701725688e-03
3.471873507376e-03
5.142731837040e-03
4.219310466071e-03
2.711805464269e-03
5.231202940207e-03
4.958047196859e-03
4.103438709337e-03
4.637764333399e-03
2.438306330947e-03
4.211956383520e-03
3.365372856234e-03
2.450675261700e-03
2.887962119562e-03
3.878533253387e-03
2.940597055344e-03
2.728683675051e-03
4.958207544710e-03
0.0
4.231308200600e-03
3.120397780434e-03
3.113605546756e-03
2.278736831083e-03
4.503373325418e-03
1.884659263120e-03
3.120901491325e-03
2.297614029118e-03
4.243041167150e-03
4.240307436026e-03
1.373936041198e-03
2.435310679187e-03
3.155120820171e-03
3.003223930663e-03
4.798301013803e-03
3.306297059748e-03
2.985321424422e-03
3.188763902837e-03
1.370686704752e-03
3.117506418936e-03
2.564683140303e-03
6.161779301333e-03
6.171298087031e-03
3.871585823704e-03
3.224089549692e-03
3.155590452933e-03
4.317766949050e-03
3.003359536048e-03
2.608662778043e-03
3.938150114373e-03
5.859163444552e-03
3.214653691530e-03
2.969191311487e-03
2.861811173678e-03
3.768586856653e-03
3.337633072254e-03
4.030230270756e-03
2.035757012657e-03
1.094219009940e-03
3.031075150381e-03
2.930652641428e-03
4.078338297131e-03
6.100030670434e-03
3.051206385844e-03
1.821620188347e-03
2.861790791984e-03
4.656042724998e-03
2.349687270255e-03
2.816498775574e-03
4.525435709533e-03
5.833892866330e-03
2.486522419677e-03
6.151276113808e-03
4.485990906698e-03
4.856089461195e-03
2.611916462935e-03
3.799226166888e-03
4.210806094155e-03
4.343507042611e-03
3.883342781648e-03
5.453648402860e-03
4.408884898377e-03
3.954238356753e-03
2.946932738359e-03
2.126147916000e-03
3.626304909236e-03
2.828752624356e-03
3.908082809323e-03
3.189022324685e-03
2.979438473071e-03
5.107150669262e-03
3.057133034874e-03
3.948493172095e-03
1.767047002602e-03
3.219295742043e-03
4.649421512783e-03
3.423567528206e-03
2.373751734207e-03
2.784414744251e-03
2.725624955031e-03
2.452240531365e-03
5.184269692729e-03
4.210892199139e-03
3.195156139090e-03
3.675464466287e-03
3.719198240263e-03
3.156300643646e-03
5.270722120896e-03
4.951030620452e-03
2.791959147438e-03
3.435291521076e-03
2.714045320190e-03
2.771808396209e-03
4.119259232477e-03
1.360400106286e-03
3.400766620885e-03
5.356429761657e-03
2.456112603846e-03
3.687823897699e-03
4.067889866897e-03
3.485977458347e-03
6.171877983723e-03
6.194847258957e-03
5.749913356992e-03
3.020677987419e-03
5.279204517925e-03
2.613300540084e-03
2.741755212613e-03
2.004260055719e-03
3.406978849626e-03
3.842950909138e-03
4.513278632072e-03
3.244307823644e-03
5.163355495152e-03
4.386423237292e-03
4.476099206042e-03
2.391474383936e-03
1.955161698588e-03
3.217570021580e-03
3.872368428503e-03
3.338770506916e-03
1.812371568338e-03
4.015486225801e-03
2.355558185554e-03
3.278219706871e-03
3.673414290175e-03
1.915648292058e-03
3.981389866811e-03
1.053059668761e-03
3.652003582868e-03
3.330842304649e-03
4.441446771420e-03
6.067281547840e-03
3.807583682193e-03
4.322942112553e-03
3.526145110671e-03
5.255189385440e-03
3.347041718801e-03
5.955073764805e-03
5.938883086238e-03
5.933478345373e-03
5.925413924026e-03
4.598269985990e-03
5.190485547386e-03
5.356291838170e-03
3.172127365247e-03
3.189545386338e-03
3.291257441844e-03
5.278332870253e-03
5.650465782490e-03
5.386391458906e-03
2.086314033400e-03
5.331196890249e-03
3.953887606243e-03
3.284431480345e-03
3.285128967487e-03
3.301125392640e-03
5.759722545495e-03
2.921518703947e-03
4.716770599090e-03
3.382244159206e-03
3.419989620685e-03
3.235774226863e-03
3.108654577361e-03
5.912838273886e-03
5.757913193712e-03
4.236288878953e-03
1.032336198831e-03
5.784372647958e-03
3.094301216638e-03
3.133163714027e-03
1.473651489525e-03
4.377992282328e-03
0.0
3.076087156915e-03
4.393331777553e-03
4.078214650418e-03
4.173061940919e-03
3.172673925433e-03
5.528089032988e-03
2.695300704482e-03
6.061028079687e-04
4.784301089445e-03
1.109397696731e-03
3.558631343330e-03
2.671343080510e-03
3.641731318210e-03
3.626491229388e-03
5.164773912347e-03
4.369311817321e-03
2.723039152115e-03
3.202065681838e-04
3.393270163090e-03
4.000013488580e-03
3.998607249003e-03
4.091967694103e-03
4.682585152391e-03
3.977798602140e-03
6.148717226547e-03
4.046693637694e-03
4.375476627736e-03
2.475463655856e-03
2.038113747758e-03
2.665603733635e-03
4.155084444682e-03
5.944456476497e-03
5.933805245862e-03
3.347496143322e-03
3.141954240646e-03
3.636565096111e-03
3.524861024850e-03
3.764870203374e-03
3.214228737877e-03
2.609429685079e-03
2.752166065871e-03
4.525635562498e-03
3.964553113648e-03
2.737089484301e-03
3.599211839311e-03
2.982464518279e-03
5.872767812274e-03
5.256518196814e-03
6.948896764315e-04
2.926992632798e-03
5.363068251323e-03
5.678180438031e-03
4.516604651069e-03
3.800290162266e-03
2.959233318371e-03
2.645089123398e-03
2.991327947613e-03
2.961565605678e-03
1.984606166548e-03
5.360282778703e-03
2.617597906633e-03
2.719354908298e-03
4.219904639673e-03
2.558238552366e-03
2.945805251787e-03
4.447306010212e-03
4.403301426083e-03
3.203880338452e-03
3.270240138624e-03
3.822758874253e-03
2.320351021533e-03
2.695647363228e-03
3.241179321446e-03
4.055854335950e-03
4.302137120783e-03
2.006945487216e-03
3.504931263533e-03
3.493889225164e-03
3.226663955409e-03
3.195012242961e-03
3.705694372684e-03
2.015330950654e-03
3.674094389629e-03
5.465741692551e-03
2.782005441388e-03
3.605540778520e-03
3.144508273297e-03
3.122849437202e-03
2.256333325417e-03
4.140151503650e-03
5.431033007288e-03
3.225301536712e-03
3.778146397866e-03
3.509424093333e-03
3.382045560242e-03
4.257156002915e-03
2.174643724136e-03
3.150567633663e-03
1.746587665763e-03
4.710220312248e-03
3.696882214136e-03
2.499260062840e-03
4.393497597306e-03
3.304371545067e-03
1.515148851358e-03
2.794723090240e-03
3.870525163770e-03
5.202539231559e-04
3.198860063348e-03
3.122843769625e-03
3.536839909767e-03
3.054969112373e-03
3.133169061378e-03
4.394974799046e-03
3.171453652514e-03
3.954441890249e-03
4.408365611267e-03
3.531054572272e-03
4.293331672903e-03
3.469160005882e-03
0.0
4.342827187450e-03
2.815733446127e-03
1.169868182888e-03
3.377528405656e-03
3.017950135559e-03
5.309388747160e-03
1.836141118027e-03
1.645439494872e-03
3.818624685672e-03
3.581263554169e-03
5.741565943865e-03
4.177684629919e-03
1.850928756814e-03
2.067405024286e-03
1.416744999512e-03
2.579714406710e-03
4.842819569639e-03
5.316030625827e-03
3.796388360631e-03
2.739477237490e-03
3.923275296672e-03
2.756654641122e-03
1.368956117904e-03
2.826459377296e-03
2.346887089609e-03
4.356557030682e-03
4.139689611657e-03
3.039564492647e-03
3.507425817395e-03
3.484969287982e-03
2.724837710706e-03
1.738579034053e-03
2.880004918018e-03
1.059860394561e-03
3.342988300000e-03
3.564932177344e-03
9.012381607526e-04
2.910014888118e-03
5.510045432400e-03
1.959702749170e-03
3.585704259986e-03
3.723526099815e-03
1.268716263999e-03
2.392889037010e-03
3.063515298583e-03
2.813209111348e-03
4.210048530920e-03
5.103573185464e-03
5.177892081959e-03
2.829945348819e-03
1.363451425510e-03
3.691969532227e-03
3.550626997966e-03
3.676511325993e-03
1.285478420515e-03
8.537344141222e-04
7.845181071081e-04
2.162938812804e-03
1.377340432524e-03
3.170219899797e-03
0.0
2.524870915773e-03
4.491269867148e-03
3.700282617022e-03
5.066161758073e-03
3.327949804502e-03
4.251884330892e-03
2.509212341416e-03
1.018037242248e-03
5.829475890603e-03
6.039028528119e-03
4.216434674855e-03
3.565489033798e-03
2.587498848121e-03
5.999263223227e-03
2.442752516004e-03
3.696609549568e-03
3.563907472710e-03
3.514699694935e-03
5.927065042664e-03
6.015277257663e-03
1.330400211541e-03
1.449907591737e-03
1.344592241943e-03
3.643608196866e-03
4.850396606121e-03
0.0
5.101358492196e-03
1.409139728971e-04
1.499124232117e-03
3.824208957472e-04
0.0
2.029814193675e-03
4.688865864911e-03
4.611649624508e-03
3.864254668426e-03
9.306078872588e-04
4.020589784949e-03
5.797624803762e-03
5.973591106953e-03
3.688007304244e-03
1.196237126604e-03
5.834612071299e-03
3.414725027011e-03
9.671159728271e-04
1.409744689688e-03
9.368666534769e-04
2.773625038877e-03
5.128733981852e-03
5.686078140094e-03
1.614169892137e-03
3.141780048589e-03
4.903795419048e-03
5.124707089311e-03
4.540751789241e-03
4.863760003676e-03
5.230664655895e-03
4.885659315087e-03
4.900079095049e-03
5.104618843216e-03
2.371313285604e-03
3.639130252575e-03
3.700407251155e-03
1.543007074285e-03
4.822691056273e-03
4.723797952646e-03
4.594502443142e-03
2.187658065542e-03
2.078158679153e-03
4.298928970353e-03
4.465695048772e-03
4.739825188448e-03
3.625004239622e-03
4.980074041723e-03
4.182381661481e-03
3.612530889479e-03
1.648586597975e-03
1.078919747717e-03
9.715320649564e-04
8.189522588763e-04
3.276017880373e-03
3.023112973762e-03
3.897742298982e-04
4.028126407989e-03
2.904706458492e-04
5.885086834910e-03
5.811364703112e-03
5.844706076157e-03
1.127270833140e-03
2.214903500655e-03
5.806505327903e-03
4.688671280238e-03
5.826774921974e-03
4.813055851057e-03
4.917144813202e-03
2.903322035183e-03
6.008349193016e-03
6.003877113261e-03
4.727827648335e-03
4.864305038441e-03
4.249335747199e-03
0.0
3.175859147544e-03
1.259325279811e-03
4.420798695160e-03
3.384638883793e-03
4.409067033902e-03
2.131043982543e-03
1.108023222196e-03
4.695482135487e-03
3.365831542969e-03
2.646631452456e-03
4.556588175848e-03
5.414895944389e-03
2.656831201839e-03
3.200576911771e-03
3.816886599349e-03
4.190899904542e-03
4.331300515814e-03
2.822232598008e-03
3.605666078604e-03
3.473782743791e-03
3.959311659394e-03
4.657481856823e-03
4.474738788930e-03
2.497721918515e-03
5.428170056435e-03
5.196932708230e-03
3.994972095663e-03
4.018877418988e-03
4.067532001752e-03
5.468828346424e-03
5.334434594670e-03
3.777218885507e-03
4.785229386991e-03
5.183640898652e-03
4.486085823949e-03
4.626918442455e-03
5.440760853048e-03
4.828731435924e-03
3.492214324912e-03
1.813629337524e-03
2.595415623828e-03
1.751915947168e-03
1.311389193297e-03
5.325791288567e-03
4.638904880307e-03
1.232072997821e-03
5.349220756651e-03
4.109200150890e-03
4.453473742339e-03
4.501290464753e-03
2.822661026846e-03
4.600361826760e-03
3.989940508894e-03
1.568365711787e-03
4.607579259789e-03
1.682217231393e-03
4.433060704539e-03
4.965853579252e-03
1.931234771425e-03
2.536905363929e-03
3.506959235330e-03
4.546823231474e-03
2.929878446617e-03
5.094658413771e-03
4.689487714453e-03
3.549548679273e-03
4.373859018118e-03
4.508144441649e-03
4.950601638813e-03
1.602271484754e-03
3.405781233643e-03
3.108775469077e-03
5.079843116042e-03
3.194307102305e-03
3.880531337843e-03
4.194530845224e-03
4.813687637528e-03
2.696113206384e-04
1.541456333067e-03
1.874707634932e-03
4.535680067079e-03
4.684102630711e-03
3.785681380179e-03
4.265606377495e-03
3.105476038775e-03
3.587079011170e-03
4.392674845493e-03
1.860767443432e-03
4.452816754116e-03
3.543702289538e-03
1.992785431315e-03
3.392397121739e-03
2.975423009005e-03
2.515877789845e-03
3.725661475431e-03
9.890849693237e-04
7.121019429699e-04
4.132428392348e-03
1.740140079302e-03
4.103577769620e-03
3.987009557526e-03
3.370047699069e-03
3.248806400505e-03
5.300420175180e-03
2.104285098992e-03
2.995450123017e-03
2.940527097191e-03
1.410651741479e-03
4.429529881649e-03
4.136718757980e-03
1.859816294009e-03
3.894261520894e-03
4.933477745413e-03
1.699722713993e-03
5.408694418047e-03
5.411197824938e-03
2.017061567542e-03
2.915404601559e-03
2.179306637539e-03
4.367605250964e-03
3.647788208579e-03
5.489535749250e-03
5.304729192866e-03
4.231498250214e-03
4.146491013704e-03
1.780674243216e-03
4.280532226645e-03
4.934868325194e-03
3.669316609231e-03
4.695546322833e-03
5.063717161736e-03
2.645489529404e-03
5.190164349716e-03
3.272404207533e-03
3.596661715040e-03
2.751844944681e-03
3.019000093276e-03
4.810385432176e-03
3.246422704326e-03
2.264566458407e-03
1.689403800147e-03
4.815225778648e-03
2.226110953632e-03
4.194754128453e-03
4.940895878954e-03
4.276223362944e-03
3.112253213804e-03
3.202020562987e-03
1.919623832173e-03
1.352217145348e-03
4.164633130640e-03
4.560658305418e-03
1.177128837243e-03
2.915068821861e-03
1.620327168500e-03
4.555465457416e-03
2.973416926449e-03
3.909810264466e-03
2.724408296497e-03
5.208767427969e-03
2.593619795372e-03
4.035142549939e-03
2.532928249258e-03
4.024142569854e-03
3.450900747862e-03
4.136123601672e-03
2.485244761370e-03
1.564757219021e-03
4.294495704809e-03
2.163488820880e-03
3.387401299419e-03
4.565662359773e-03
2.738581822716e-03
4.665942928302e-03
1.465348703278e-03
4.246327033609e-03
1.699623542301e-03
2.032350589391e-03
5.536974569683e-03
3.426908671018e-03
1.540384123315e-03
3.758577465195e-03
3.927524684088e-03
2.715033437352e-03
4.314845763778e-03
4.948351979472e-03
3.360890771607e-03
3.891846381777e-03
4.252820554628e-03
2.212724349773e-03
2.843833598180e-03
4.035789724436e-03
3.996131275531e-03
3.575096828484e-03
3.792627721388e-03
4.802343365754e-03
4.415034608388e-03
4.389129640424e-03
3.467263775260e-03
3.595494986515e-03
3.583279255749e-03
4.289394557029e-03
5.421975200704e-03
2.486182053314e-03
3.861488826342e-03
5.063142224082e-03
3.131891392016e-03
3.028041098227e-03
1.823938140991e-03
3.705908196928e-03
3.091369410019e-03
4.675935954995e-03
4.534875968551e-03
2.056161555857e-03
2.786655864968e-03
2.873165513745e-03
2.868546210609e-03
3.110365765296e-03
1.843618803568e-03
3.272992134604e-03
3.412916071715e-03
5.192089283469e-03
3.281566540745e-03
3.626240938450e-03
3.586985508785e-03
3.409305181201e-03
1.897398460282e-03
3.604818096321e-03
3.888630237913e-03
4.421922450971e-03
3.317485446496e-03
3.647674555787e-03
4.673336337086e-03
3.224252799485e-03
3.496064654626e-03
2.622358304585e-03
3.055333394029e-03
3.164663825952e-03
2.311141121049e-03
2.125313783725e-03
3.477924834306e-03
3.736945563828e-03
4.738585916755e-03
1.315321289851e-03
2.446620192041e-03
2.982448329977e-03
3.433203482513e-03
4.531582693643e-03
3.499304588405e-03
2.673974497719e-03
3.139905464341e-03
5.072747806473e-03
2.707809154280e-03
1.166214898562e-03
1.463299212712e-03
2.914504388254e-03
3.018723201689e-03
2.686713935682e-03
3.062407380188e-03
2.712109552951e-03
1.499659389839e-03
4.359635542217e-03
2.393958649680e-03
3.066798902882e-03
4.495652146628e-03
4.450791082476e-03
5.300178894970e-03
4.977951589195e-03
2.397146190700e-03
4.416844529747e-03
3.119400395624e-03
3.332129797491e-03
3.122426360325e-03
2.988793531740e-03
2.855846187293e-03
3.177000482072e-03
2.756193394154e-03
2.592075865469e-03
2.421633066575e-03
3.387402253471e-03
2.293172573691e-03
2.277057048855e-03
2.911114260278e-03
1.155684839829e-03
4.799837983891e-03
2.295247612437e-03
3.251041652364e-03
3.393599796704e-03
3.145369302234e-03
3.078086569887e-03
5.318104494318e-03
4.480500477960e-03
2.985180505105e-03
4.544225245269e-03
5.407567982517e-03
2.819844426375e-03
3.291868619470e-03
4.617460502529e-03
3.604719748764e-03
2.828319211558e-03
5.770682299556e-03
2.324148480044e-03
2.632797394299e-03
5.423157329672e-03
1.479799231385e-03
4.397525855562e-03
5.165585481732e-03
2.315901153844e-03
1.693562376470e-03
5.527898528543e-03
3.711930513200e-03
4.919552001560e-03
1.951673982838e-03
3.287761322063e-03
5.034502267977e-03
5.186304779390e-03
3.552693579741e-03
3.534005249318e-03
4.400555289825e-03
4.253543167516e-03
2.943285220908e-03
3.519756308427e-03
3.287722794547e-03
1.604761110599e-03
2.916005013921e-03
2.089170602373e-03
2.495795305071e-03
3.131259226377e-03
5.609482615871e-03
5.438909998859e-03
5.417054799902e-03
3.703317504642e-03
5.161557093516e-03
3.868518273720e-03
5.545650970965e-03
4.897334775276e-03
3.311771604762e-03
2.197730088428e-03
5.053606803532e-03
5.398699092692e-03
5.059342313408e-03
4.930251969398e-03
3.686756924755e-03
2.638215958256e-03
3.385656639266e-03
3.735595459470e-03
3.380928897864e-03
1.515738106098e-03
4.891642251277e-03
2.057605305164e-03
2.303129579541e-03
1.798145096306e-03
1.202338881616e-03
2.291547627481e-03
2.255519192117e-03
1.119365171026e-03
3.821601090175e-03
3.628201443265e-03
4.633003595104e-03
3.816334825167e-03
1.776186669795e-03
3.629386261877e-03
1.548469868943e-03
5.595449219484e-03
1.931840670526e-03
3.698695061029e-03
4.663243438870e-03
2.011134684472e-03
1.247841792706e-03
1.362382450494e-03
3.956724378172e-03
3.694573121702e-03
3.378959753737e-03
3.476784983087e-03
3.160808567775e-03
1.209468731440e-03
5.051259765074e-03
3.748618971867e-03
3.477272273897e-03
1.950538792296e-03
4.782003339930e-03
3.210604208947e-03
5.183136400848e-03
1.092245890419e-03
2.105066893939e-03
3.669072015162e-03
1.206486766565e-03
5.304264296023e-03
2.175618363556e-03
1.951041802013e-03
3.970362899570e-03
5.544534571255e-03
3.589900622387e-03
4.195224401096e-03
4.919263556773e-03
3.618574329088e-03
2.771490720799e-03
3.147261186436e-03
2.962169357453e-03
3.142630492045e-03
3.544072557654e-03
1.522290315328e-03
6.123405621243e-03
2.263220382989e-03
3.970342460405e-03
2.658927723359e-03
4.758938700212e-03
1.696532885482e-03
3.388847263524e-03
3.457624531915e-03
2.514428578240e-03
1.677345446119e-03
2.396212171814e-03
2.754267880200e-03
3.227262210638e-03
4.988779509347e-03
2.815825285194e-03
4.795644255112e-03
5.516289922385e-03
5.146103467286e-03
5.257081820144e-03
3.182071023712e-03
4.029201795451e-03
5.042361025696e-03
2.756595180964e-03
2.647290714061e-03
3.056301189697e-03
2.572569436643e-03
2.462008023465e-03
2.644345930535e-03
1.440401882729e-03
3.630426804566e-03
1.569273956402e-03
5.480811851792e-03
5.602378623592e-03
1.419199509514e-03
5.275547562051e-03
2.804242796236e-03
4.372719245337e-03
2.891727352859e-03
5.381895938701e-03
3.185020396507e-03
3.346610583280e-03
2.289654001474e-03
3.542499471540e-03
3.433320806315e-03
3.266208049096e-03
2.035076047681e-03
2.493404353718e-03
2.201070291381e-03
5.424319885087e-03
5.590129291020e-03
3.903582702292e-03
2.909258766392e-03
2.335058945798e-03
5.293513921389e-03
1.953817967391e-03
4.234737884749e-03
5.172652995614e-03
5.124227989435e-03
9.277188622566e-04
2.506898590902e-03
4.525242961084e-03
4.563239763712e-03
3.241690536946e-03
2.241320889606e-03
2.833288907621e-03
4.078547169666e-03
4.419169055791e-03
5.013620306272e-03
2.282293485652e-03
4.307804809555e-03
1.686847443505e-03
5.290274890223e-03
4.851002717086e-03
4.643175649224e-03
2.345179317856e-03
1.807172178817e-03
1.801948734361e-03
3.359707236442e-03
5.507142592636e-03
5.108003363980e-03
1.046447068849e-03
2.179901417413e-03
3.852336584430e-03
3.800392508022e-03
2.586138136504e-03
9.771895354137e-04
2.930181311238e-03
2.283701537404e-03
1.568412579387e-03
4.696631355627e-03
4.607881037575e-03
4.766072203043e-03
4.081754060291e-03
4.603369163212e-03
4.379957173958e-03
4.618906992019e-03
2.458376662123e-03
4.098638148539e-03
4.907202475208e-03
5.648784616651e-03
4.495095601971e-03
2.548434779706e-03
3.912793135380e-03
5.512760513766e-03
3.001262042829e-03
3.180884923332e-03
2.468543689254e-03
5.028337068141e-03
3.427253910037e-03
3.290153938343e-03
3.675470650321e-03
2.182285102727e-03
4.189801390205e-03
2.291578316535e-03
1.349449754861e-03
5.636015473331e-03
3.625895958899e-03
2.103450277768e-03
4.046287823861e-03
4.878000002137e-03
3.895798009600e-03
3.114017949884e-03
8.889497729122e-04
4.793301523209e-03
4.034143798685e-03
2.338495865229e-03
4.679004096828e-03
0.0
3.545292720195e-03
3.183419108901e-03
4.620052298239e-03
3.760015126243e-03
2.393922234819e-03
4.445933361572e-03
3.448409215898e-03
2.584776922099e-03
4.250432662385e-03
1.906468634271e-03
4.153126910283e-03
1.818802017300e-03
5.293743423829e-03
4.239353654533e-03
2.394815569185e-03
4.179465517636e-03
5.639919064862e-03
3.534684727708e-03
2.288195308190e-03
2.779857412875e-03
4.157293753941e-03
4.559059439739e-03
3.534808419225e-03
4.252606570727e-03
4.782120039690e-03
4.278791894662e-03
3.738223600894e-03
3.499074933205e-03
3.494139593801e-03
4.747419654542e-03
4.255099070675e-03
3.839964885527e-03
4.569340265878e-03
3.056246348132e-03
2.393304954355e-03
2.930480403413e-03
6.086851266750e-03
4.117844399000e-03
3.455995573439e-03
3.753400023371e-03
2.472071372363e-03
3.491628202087e-03
4.204348122106e-03
4.268597776756e-03
4.772004198945e-03
4.710233733702e-03
4.692963440339e-03
1.106720622824e-03
3.608330547153e-03
3.820362875112e-03
4.664326353529e-03
4.680096484355e-03
2.352584026882e-03
1.558884795758e-03
2.654480659437e-03
3.731003145245e-03
3.466490700851e-03
3.315280051285e-03
3.510786059953e-03
4.741445271794e-03
3.000739119005e-03
3.725942709322e-03
1.882186228005e-03
1.989209782105e-03
4.859365221654e-03
5.378791863780e-03
3.622412790060e-03
4.086298431898e-03
8.788451117360e-04
2.150327118180e-03
4.157073371539e-03
8.318441689136e-04
5.408814910997e-03
1.796994317519e-03
4.563827465076e-03
4.326693611244e-03
2.179157756358e-03
2.902957421488e-03
5.531946144864e-03
2.724274636976e-03
3.597238446451e-03
3.949741788311e-03
1.387126890400e-03
1.483538630366e-03
4.094562523505e-03
4.462003929120e-03
4.216899447097e-03
3.250175486718e-03
5.197689124532e-03
4.432557972304e-03
3.662154238880e-03
4.324815174578e-03
4.318493610634e-03
4.118093824424e-03
3.698739609380e-03
3.642170033284e-03
5.589231027012e-03
3.013506558343e-03
4.255186571382e-03
2.631728022376e-03
2.719221655027e-03
3.230635052549e-03
2.472264286779e-03
1.402294089302e-03
2.643957478186e-03
4.711133417206e-03
2.471516709082e-03
4.468472658716e-03
2.193648896864e-03
1.986292001410e-03
2.990854761195e-03
4.632153164590e-03
4.258818863725e-03
4.455822626565e-03
2.409857783535e-03
4.599243387348e-03
4.586353591898e-03
3.003262797050e-03
3.764237663719e-03
1.259809435264e-03
4.417137978971e-03
2.598861938414e-03
3.559924899756e-03
2.891071441809e-03
4.599295072822e-03
4.492928374407e-03
3.946747793921e-03
3.008453656814e-03
3.177730900320e-03
4.583213391973e-03
3.022048143241e-03
1.998492614778e-03
1.639620437187e-03
1.813972294795e-03
2.527763030566e-03
3.023198208948e-03
4.233192300425e-03
3.640278608643e-03
1.787168974819e-03
3.020737013717e-03
3.250114505745e-03
4.609207531696e-03
1.720484110792e-03
4.768807741004e-03
2.542365269620e-03
3.372604860332e-03
3.955992186008e-03
3.843149938690e-03
2.565660421796e-03
3.009689123218e-03
4.457896627465e-03
1.960918397589e-03
4.405903501378e-03
3.240600366134e-03
3.564971743916e-03
2.068612722327e-03
3.806478467456e-03
4.436879848710e-03
1.816133218611e-03
2.713220334332e-03
2.003794310319e-03
1.222241799405e-03
3.754040591865e-03
4.602132618812e-03
4.606753680845e-03
2.762317310720e-03
5.921576080326e-03
7.633909116171e-04
2.912859680010e-03
2.189495913324e-03
3.665001844436e-03
3.520328983887e-03
2.638881836419e-03
2.895778659108e-03
4.043104173156e-03
2.482129023893e-03
5.209900433282e-03
3.214049017557e-03
3.647482495706e-03
3.710983494359e-03
2.656638786889e-03
3.855170451250e-03
4.566671673770e-03
4.366198307929e-03
1.028648459849e-03
0.0
2.165054714133e-03
3.723014921691e-03
2.395137752120e-03
2.817631679997e-03
2.513976997857e-03
3.806732758052e-03
4.815158278389e-03
3.775227130307e-03
2.362468453277e-03
4.403407743042e-03
4.096150277746e-03
2.928708125507e-03
3.798202669823e-03
3.830814983830e-03
2.434166470534e-03
2.429201062824e-03
3.861528244714e-03
4.613156150105e-03
4.387204249011e-03
2.657070979426e-03
3.880643775732e-03
2.837716406776e-03
2.485420115051e-03
3.105685387870e-03
2.225639351650e-03
2.780093807568e-03
2.725707991279e-03
2.761000011738e-03
3.893879650775e-03
2.100922071665e-03
3.891918480221e-03
3.915697350990e-03
2.204461836540e-03
3.709703770702e-03
0.0
5.365652246451e-03
2.578069340872e-03
2.173697461019e-03
3.448943280228e-03
3.975644968851e-03
4.011347503912e-03
2.443864926480e-03
1.964861984032e-03
1.711666579155e-03
4.092079591951e-03
2.346058795579e-03
2.509223878502e-03
4.534649018568e-03
2.777991002642e-03
4.537667482143e-03
4.058891197805e-03
0.0
5.816180050420e-03
4.902062641942e-03
3.881412651745e-03
2.440978645024e-03
3.770170632493e-03
2.426839343308e-03
1.518214254580e-03
7.862673379893e-04
5.546974744787e-03
4.665874526858e-03
3.739497969649e-03
5.215858982210e-03
1.786753972791e-03
4.945218504881e-03
4.727704294311e-03
2.892091425302e-03
3.818142524302e-03
2.797163094051e-03
2.426438530921e-03
2.920765910813e-03
4.893505897122e-03
4.727405870860e-03
2.743689612102e-03
4.673515583297e-03
0.0
2.485522009972e-03
5.040677103797e-03
3.152365298128e-03
2.607652291814e-03
3.607194230213e-03
3.172614263735e-03
2.188759691854e-03
2.409032827129e-03
2.923122928886e-03
2.479690312005e-03
2.876821812237e-03
4.465612370866e-03
5.532694685970e-03
2.480976938953e-03
4.855765288150e-03
5.147151796070e-03
2.491148219769e-03
2.231684133508e-03
3.071159247528e-03
2.618928641937e-03
4.855263855775e-03
2.512300808846e-03
2.262013899534e-03
2.743671721339e-03
2.429414246353e-03
2.905151765398e-03
2.632275217683e-03
3.664855587076e-03
4.505149016415e-03
2.765225984553e-03
2.582205512883e-03
2.386883807025e-03
2.387003191431e-03
0.0
5.504082384171e-03
5.322543550804e-03
7.848135277644e-04
2.549500333694e-03
2.400638059405e-03
2.463285382783e-03
4.810923744731e-03
3.198165242386e-03
4.606096513073e-03
2.664651155853e-03
3.655834997024e-03
4.200689173686e-03
2.113752298900e-03
1.912300493824e-03
3.255578082472e-03
1.273953511854e-03
4.816843425833e-03
2.290848895150e-03
2.168710725122e-03
2.559244781557e-03
4.283416494899e-03
4.812195502839e-03
2.539570789041e-03
3.643462494389e-03
4.855540140174e-03
2.948190669232e-03
2.976334480875e-03
2.027418807040e-03
2.926129920543e-03
4.448255544290e-03
2.964508539853e-03
5.409142776678e-03
5.734258886474e-03
4.026664295728e-03
5.743896818908e-03
5.718569705540e-03
2.582070465025e-03
2.595631204153e-03
3.199953522585e-03
0.0
1.902903777885e-03
3.604210869195e-03
2.807391870645e-03
2.804874001204e-03
2.021751019950e-03
2.194943763957e-03
4.142001498770e-03
2.644769460266e-03
2.249798190126e-03
3.567736017229e-03
4.967219196927e-03
4.886134841971e-03
2.605300666506e-03
3.828525680062e-03
0.0
1.957535475967e-03
3.521502279004e-03
1.981252673420e-03
2.924275991023e-03
2.745952613107e-03
2.849229022871e-03
2.462891224688e-03
5.296655538006e-03
2.503533226713e-03
5.524289484905e-03
5.153625615526e-03
6.001172921191e-03
5.100455085510e-03
4.110540018138e-03
2.637651237191e-03
2.100855566225e-03
3.191285649529e-03
4.869911819268e-03
1.668585154639e-03
1.835666317314e-03
2.227285640186e-03
3.938213713365e-03
5.540832376998e-03
4.655361428653e-03
3.499491474384e-03
5.052024159388e-03
4.084593475503e-03
2.632811007746e-03
2.862235179152e-03
4.698107313135e-03
3.316215251475e-03
3.587892556505e-03
3.896233695222e-03
4.114095616366e-03
4.188562373750e-03
1.799506149793e-03
2.750045215379e-03
5.853261315327e-03
4.426727944562e-03
3.704988570506e-03
5.563415471233e-03
4.701176930839e-03
5.605287308872e-03
2.984653430048e-03
2.899269361477e-03
3.882189993689e-03
0.0
2.099672330588e-03
4.918810832529e-03
9.297763855901e-04
3.755397294441e-03
2.797405890751e-03
1.199320246670e-03
1.287155906031e-03
6.012085979982e-03
3.536739645719e-03
5.807206894268e-03
2.659927490576e-03
3.526193540084e-03
0.0
5.649183673557e-03
1.226889212049e-03
5.591486415216e-03
4.894034742833e-03
5.539486036353e-03
2.262943268428e-03
4.213950339262e-03
3.025007021002e-03
3.131326445098e-03
4.091554630855e-03
5.020955983920e-03
3.911662398283e-03
5.268125805587e-04
4.885085777727e-03
3.118765135349e-03
9.712620635747e-04
3.457233058136e-03
5.927711436663e-03
5.789822867449e-03
3.808569037443e-03
4.215889140078e-03
2.538577934307e-03
5.833806765854e-03
2.555830622428e-03
2.490656388983e-03
3.320251670345e-03
3.625198829927e-03
5.701509361268e-03
5.926679449314e-03
5.825453120953e-03
2.375146025770e-03
1.855020722498e-03
3.558870854792e-03
3.632521599668e-03
4.888825416704e-03
5.046946971520e-03
1.549964253441e-03
0.0
4.672705056340e-03
4.574124372469e-03
1.492817307624e-03
4.534041151919e-03
3.791507055834e-03
3.441092852532e-03
4.640515334488e-03
3.044493888229e-03
3.085586377938e-03
1.541679909506e-03
3.205964040354e-03
5.539122948349e-03
5.470096428524e-03
3.349468659420e-03
4.316012489498e-03
5.096328403816e-03
5.066889044332e-03
4.866255092984e-03
3.513811278074e-03
2.745903881908e-03
5.643353601341e-03
2.006177374357e-03
1.336548591570e-03
4.740994586223e-03
1.967258917603e-03
3.030928276529e-03
4.804010908766e-03
4.798192704978e-03
4.457553134226e-03
4.812474116929e-03
4.086135366692e-03
0.0
1.909648872290e-03
2.592269180864e-03
4.073105943506e-03
3.300295154597e-03
5.598216389854e-03
3.155889343856e-03
2.080876808324e-03
1.684831239890e-03
1.996726710914e-03
4.805748266782e-03
2.545899529970e-03
5.665640345273e-03
1.260613380941e-03
2.717034335032e-03
4.089865816188e-03
4.150741350700e-03
3.513862819322e-03
4.079622705219e-03
3.886731369533e-03
5.955413447924e-03
5.808855366257e-03
1.973720843828e-03
5.623880488313e-03
5.288178170346e-03
2.706065533822e-03
3.694588255657e-03
4.724906017287e-03
5.013738577708e-03
0.0
2.864341795003e-03
5.304542939534e-03
4.364446428508e-03
4.836626331640e-03
3.730875922936e-03
4.587318565965e-03
5.089225402943e-03
3.906899070662e-03
3.750017617315e-03
3.537069004234e-03
2.588839608145e-03
5.047138554196e-03
3.933020823055e-03
5.546377694027e-03
1.946527573604e-03
5.421130664064e-03
4.841192871563e-03
9.322091538505e-04
2.293274876912e-03
5.049998438284e-03
5.689077263393e-03
5.605137768792e-03
3.830427027326e-03
4.275713481985e-03
1.034452648196e-03
0.0
9.165803274728e-04
2.306330849804e-03
6.712484971918e-04
3.232809435929e-03
4.778427176324e-03
5.703044928894e-03
4.347082166528e-03
3.002796748421e-03
4.148995897399e-03
2.783709893463e-03
4.463871432644e-03
4.932249577077e-03
5.252682971647e-03
1.354054557860e-03
0.0
4.840119537013e-03
7.233031137748e-04
8.681517225348e-04
1.435436843906e-03
1.472272678795e-03
3.855676984439e-03
5.537407312308e-03
5.639733232519e-03
4.436603250530e-03
2.523558595448e-03
4.438054910322e-03
5.878210086007e-03
3.406643456978e-03
3.631025882734e-03
3.027978513677e-03
7.658097359086e-04
5.095377053932e-03
4.007087122991e-03
1.117452099742e-03
3.054154399225e-03
5.821463871987e-03
5.616162225123e-03
5.771476761292e-03
2.378943900085e-03
0.0
4.729401298327e-03
5.982820025955e-03
5.116893597155e-03
3.780141864939e-03
2.757852932878e-03
1.016540728646e-03
5.742488357776e-03
8.130160899770e-04
3.471132188594e-03
5.976997195660e-03
0.0
4.334445045259e-03
4.928068088589e-03
5.685262055675e-03
3.960311455775e-03
4.602685966077e-03
5.674047741207e-03
5.673486810091e-03
4.691284669015e-03
5.438753250395e-03
2.700307817537e-03
3.496149835990e-03
4.345309502369e-03
5.753633298066e-03
1.736380299792e-03
3.496568385412e-03
4.939582600280e-03
1.368820282863e-03
2.744988563961e-03
5.663738979535e-03
5.807014388648e-03
1.265820552801e-03
2.857699370651e-03
3.526860356291e-03
5.236929301907e-03
0.0
5.763265201970e-03
4.458722862593e-03
3.044071100787e-03
4.287981028573e-03
4.654162068594e-03
3.688235848984e-03
1.782575127324e-03
2.490177180056e-03
3.382376733098e-03
3.778484931935e-03
3.590372836895e-03
3.200278276933e-03
3.401617339723e-03
1.200485253478e-03
4.444142389629e-03
4.959617724818e-03
2.494216693804e-03
5.683473093287e-03
4.880068419397e-03
3.847676400356e-03
4.572298701193e-03
3.295609289569e-03
3.277091984412e-03
3.455826167072e-03
2.410347476307e-03
3.171270214627e-03
5.151777217512e-03
3.979240728433e-03
5.867901631608e-03
2.336872728529e-03
4.397657744471e-03
5.380026001316e-03
3.734283041451e-03
4.159349955921e-03
1.018917914231e-03
5.297615537063e-03
5.603907969465e-03
1.200386500765e-03
3.098141903975e-03
0.0
5.607338238193e-03
8.349824172224e-04
9.608595302771e-04
7.135168088298e-04
9.593137478188e-04
7.092802986552e-04
9.624230430895e-04
7.128106490750e-04
9.644867716114e-04
7.166479265062e-04
9.651090364397e-04
7.199970625834e-04
9.634102609860e-04
7.225643478717e-04
9.601487830081e-04
7.248167203394e-04
9.563847790158e-04
7.269559298801e-04
9.511323705013e-04
7.283282029075e-04
9.448837807064e-04
1.523192220102e-03
7.290354009140e-04
9.352878669841e-04
7.275108027621e-04
1.581456415713e-03
9.238384383672e-04
7.237950145432e-04
1.364730809377e-03
9.104007451099e-04
7.174891789999e-04
8.942129136848e-04
7.082057774208e-04
8.739665712671e-04
6.939121706395e-04
8.485009114828e-04
6.716498102687e-04
8.173049607505e-04
1.760573875558e-03
6.454546759328e-04
7.845928395579e-04
6.187249533601e-04
7.629411618528e-04
8.060508583654e-04
6.032832179478e-04
9.844448501867e-04
6.243723085069e-04
1.194014423098e-03
7.044475151864e-04
1.364199414334e-03
1.610111406310e-03
8.519197886821e-04
1.127455882083e-03
1.596869497048e-03
8.888927016387e-04
1.008034169737e-03
8.520657726702e-04
9.299657573510e-04
1.678359576692e-03
1.241467986912e-03
1.086768128404e-03
1.310005273874e-03
1.098007961969e-03
1.312834614401e-03
1.102144291194e-03
1.313860002669e-03
1.106406192376e-03
1.314714001623e-03
1.110623534650e-03
1.314764906232e-03
1.114799593633e-03
1.313886852486e-03
1.119143839422e-03
1.312244079523e-03
1.123206879264e-03
1.309742381847e-03
1.126395466191e-03
1.306206244155e-03
1.712592149956e-03
1.128563011930e-03
1.301433669595e-03
1.128310248528e-03
1.481709361190e-03
1.294837564183e-03
1.124738951981e-03
1.286955439009e-03
1.117450346623e-03
1.278591774483e-03
1.747415205584e-03
1.106337564751e-03
1.271185373539e-03
1.091714577932e-03
1.267079920595e-03
1.075014028548e-03
1.271994950096e-03
1.058072799069e-03
1.294215738336e-03
1.029568648787e-03
1.305713112747e-03
1.001405006552e-03
1.893519129201e-03
1.013290767454e-03
1.331565248789e-03
1.051292941268e-03
1.420636578844e-03
1.254878948603e-03
1.538411109220e-03
1.749814369381e-03
1.657752922744e-03
1.313190695872e-03
1.165812567833e-03
1.243586703310e-03
1.160599108200e-03
1.875756606251e-03
1.595885243391e-03
1.666399810320e-03
1.478565083579e-03
1.663105926442e-03
1.472428907928e-03
1.665323346302e-03
1.473345293829e-03
1.668721779825e-03
1.475060790659e-03
1.672515119995e-03
1.476713251565e-03
1.676405268876e-03
1.477962616502e-03
1.680151147762e-03
1.478478685457e-03
1.683435136354e-03
1.477847663574e-03
1.685977886182e-03
1.826172981962e-03
1.475703873381e-03
1.687528137387e-03
1.471717033979e-03
1.808216096976e-03
1.687502052684e-03
1.621624466811e-03
1.465420332610e-03
1.685651184651e-03
1.456682442406e-03
1.683271242531e-03
1.446338352429e-03
1.681882221415e-03
1.435745486961e-03
1.686558014631e-03
1.983235935084e-03
1.427137084354e-03
1.668318955175e-03
1.424806453412e-03
1.657474958136e-03
1.655421471966e-03
1.429789018552e-03
1.692626940467e-03
1.432063270095e-03
1.732606417606e-03
1.871333468443e-03
1.418519729700e-03
1.509806472248e-03
1.697874356569e-03
1.587678473644e-03
1.729314272462e-03
1.557578715406e-03
1.679950678048e-03
1.916772580957e-03
1.938210228367e-03
1.855070982470e-03
2.012839987660e-03
1.865237882432e-03
2.017602022539e-03
1.866750885935e-03
2.020171921487e-03
1.868036742157e-03
2.023706536869e-03
1.869204362041e-03
2.027847855192e-03
1.869894456575e-03
2.032291853640e-03
1.869637544109e-03
2.036494374470e-03
1.867953593694e-03
2.040526920442e-03
2.096576136937e-03
1.864413530055e-03
2.044434416743e-03
1.956595450656e-03
1.858595784876e-03
2.048442989312e-03
1.850082569554e-03
2.052677629743e-03
1.838558006539e-03
2.059066600854e-03
2.057874607925e-03
1.825142622328e-03
2.068271119575e-03
1.811199211737e-03
2.055676819201e-03
1.801129383856e-03
2.044831352514e-03
1.794948757603e-03
2.040648389966e-03
1.809928005653e-03
2.224878849609e-03
1.825042548851e-03
2.063972402928e-03
1.899703936827e-03
2.092490428407e-03
2.182664400219e-03
1.926281506436e-03
2.029719175036e-03
1.866391534843e-03
1.981521245243e-03
1.857559797512e-03
2.117510806444e-03
2.294241220172e-03
2.361395076424e-03
2.216154836749e-03
2.357998710852e-03
2.214786627200e-03
2.360635211121e-03
2.219711824722e-03
2.364744831697e-03
2.226366150586e-03
2.369804074944e-03
2.231513212677e-03
2.375640653335e-03
2.228923351831e-03
2.381109275559e-03
2.224559756434e-03
2.386033807545e-03
2.422469400763e-03
2.218422108439e-03
2.391036236924e-03
2.374971160047e-03
2.210476424915e-03
2.396373502810e-03
2.299438040081e-03
2.200919367465e-03
2.401866583409e-03
2.189558096147e-03
2.408015076602e-03
2.176427520762e-03
2.416119866827e-03
2.529299764460e-03
2.165470136003e-03
2.403108141081e-03
2.157002805424e-03
2.383705627598e-03
2.391643415084e-03
2.161881467416e-03
2.385265248373e-03
2.161580518042e-03
2.461344384578e-03
2.224151981452e-03
2.306743514097e-03
2.266428057819e-03
2.412209071277e-03
2.251360739942e-03
2.368514859645e-03
2.397094801283e-03
2.626734283379e-03
2.549531866633e-03
2.701394005823e-03
2.556134915907e-03
2.705711491278e-03
2.561480290484e-03
2.710065989537e-03
2.566655120162e-03
2.714513451666e-03
2.574446997273e-03
2.720634103997e-03
2.582981102361e-03
2.727498271816e-03
2.593510788275e-03
2.734155989720e-03
2.720163723611e-03
2.600860379507e-03
2.592487705640e-03
2.738512044037e-03
2.594197665573e-03
2.746355183321e-03
2.582395027498e-03
2.755844196279e-03
2.568241209878e-03
2.671612935326e-03
2.765816059205e-03
2.551965904305e-03
2.779576565079e-03
2.532839083947e-03
2.775383251297e-03
2.527604753952e-03
2.770901703469e-03
2.513452816674e-03
2.549007397530e-03
2.757146576703e-03
2.792368389522e-03
2.792016082909e-03
2.565612625474e-03
2.702582909373e-03
2.546878826374e-03
2.661103818204e-03
2.547347738664e-03
2.675904247711e-03
2.966754512287e-03
3.036028368872e-03
2.881134676313e-03
3.028579513069e-03
2.879228433618e-03
3.034375088800e-03
2.887788164751e-03
3.035458784700e-03
2.890186158662e-03
3.042779342889e-03
2.901207661542e-03
3.047179815419e-03
2.908355221936e-03
3.047821965847e-03
3.058166228224e-03
2.921616972915e-03
2.977904379741e-03
3.057220798405e-03
2.926740671622e-03
2.913842577925e-03
3.065010864165e-03
2.940817269049e-03
3.076565577618e-03
2.928097216781e-03
3.084144842026e-03
3.085339738652e-03
2.912475768239e-03
3.096508582135e-03
3.118274552756e-03
2.897323094266e-03
3.090734832649e-03
2.871686253460e-03
3.129388617912e-03
2.894029482055e-03
2.858270663078e-03
2.922028373713e-03
3.085335394846e-03
2.928220263468e-03
3.030143154684e-03
2.945827770339e-03
3.312321515307e-03
3.189480759148e-03
3.353757832105e-03
3.204854301679e-03
3.362122923095e-03
3.214839365167e-03
3.375029482880e-03
3.210761067781e-03
3.368277685235e-03
3.220984354806e-03
3.383169786334e-03
3.228836678226e-03
3.413512167486e-03
3.384151656869e-03
3.268396400584e-03
3.229750214111e-03
3.398976425987e-03
3.246842334506e-03
3.396439375541e-03
3.258900424221e-03
3.412527509879e-03
3.266513004898e-03
3.338906532064e-03
3.424132635284e-03
3.274787641877e-03
3.430715204795e-03
3.271602579017e-03
3.264657004864e-03
3.450357719823e-03
3.490825941533e-03
3.429189117639e-03
3.194103659451e-03
3.322189248393e-03
3.233743975656e-03
3.318513455877e-03
3.206052030725e-03
3.282745160465e-03

SCALARS element_materi_plasti_phimob float
LOOKUP_TABLE default
1.037500405593e+01
9.732015139900e+00
2.005201349931e+01
1.980857960918e+01
1.638645889270e+01
2.504201277875e+01
1.642339182841e+01
1.036636336421e+01
1.642274204351e+01
1.978753380666e+01
1.909400112783e+01
6.884213321509e+00
2.050031713125e+01
1.698582855432e+01
2.053435430145e+01
1.995790216936e+01
1.616153426383e+01
2.782629108917e+01
1.374535443616e+01
9.589242061898e+00
1.977205068152e+01
1.166245844994e+01
1.308421968179e+01
2.111776175036e+01
1.758535933370e+01
1.933112524372e+01
1.536411791626e+01
2.060197948275e+01
1.758189212686e+01
2.109838468951e+01
1.853363667602e+01
-2.305094806255e+01
2.002944733661e+01
2.013667585299e+01
2.076920406237e+01
2.069822830289e+01
2.066025600491e+01
2.085761270002e+01
1.559024563967e+01
1.565487727875e+01
1.432564881408e+01
2.073227065674e+01
6.681064139570e+00
1.539722814932e+01
1.962204210816e+01
8.754707647220e+00
2.094886631570e+01
1.968087863905e+01
1.812835120881e+01
1.660732856144e+01
1.425754633141e+01
1.264686888667e+01
1.963810844632e+01
1.358506252599e+01
1.999486360790e+01
1.495975754943e+01
1.231049491268e+01
2.019314916739e+01
6.631935449540e+00
1.994575646275e+01
1.188170037922e+01
2.071036404095e+01
1.471667444889e+01
1.955719501700e+01
2.052569955750e+01
1.290923384427e+01
1.736323106872e+01
2.003341606844e+01
9.101323206823e+00
2.024679272913e+01
1.950910889481e+01
2.023518014653e+01
2.042520121257e+01
-1.334827057294e+01
1.521888042696e+01
1.983235372268e+01
1.996763489770e+01
1.363184176503e+01
5.393758397969e+00
9.278893835138e+00
1.004904691074e+01
1.614774880167e+01
1.206010272064e+01
9.610183457989e+00
1.680949060977e+01
1.683682370863e+01
1.961584093203e+01
2.004264401989e+01
1.918836883938e+01
1.632073190853e+01
-1.953886657135e+01
1.621218722377e+01
1.878964134585e+01
1.867278122566e+01
2.014159366749e+01
2.074016676852e+01
1.609373284848e+01
2.099862242039e+01
1.753209870758e+01
1.428724503412e+01
1.595197197949e+01
2.056896210011e+01
2.104930772586e+01
2.072282323766e+01
1.550040665302e+01
1.617656270356e+01
2.037713129992e+01
1.906910332244e+01
2.332272036793e+01
2.051063716961e+01
1.900710187962e+01
-2.671820989894e+01
1.729158102727e+01
1.550970916706e+01
1.684347347439e+01
1.288729528253e+01
1.510581642729e+01
2.074114484022e+01
1.730809333281e+01
1.463083837217e+01
6.335406838833e+00
1.616836971166e+01
1.911539735359e+01
1.496542713722e+01
2.301066465550e+01
1.487569226796e+01
1.679669549590e+01
1.432776168674e+01
1.999108709963e+01
2.087258328851e+01
1.932447352005e+01
1.982350189528e+01
1.636913668320e+01
1.458602317829e+01
2.086997155116e+01
2.049794103596e+01
1.963291860198e+01
1.665930851328e+01
2.107020577166e+01
1.585800527802e+01
1.990813853589e+01
2.019571852321e+01
1.695185577221e+01
1.818455941500e+01
1.600245508536e+01
1.399210810321e+01
1.725785517336e+01
1.643355275750e+01
1.613064780952e+01
1.814272780593e+01
-2.077529980504e+01
1.679852630695e+01
8.428098363074e+00
1.521158197923e+01
2.077040887280e+01
1.478073403108e+01
1.974924013786e+01
8.451121334932e+00
2.088543025207e+01
1.628150440139e+01
1.805844764946e+01
2.025195620450e+01
5.901336590593e+00
2.038550960841e+01
1.648795993886e+01
2.065186399115e+01
1.624673303700e+01
1.577742469329e+01
1.506073029283e+01
1.914056258289e+01
7.305867816793e+00
1.881430223981e+01
1.844688928973e+01
1.621342318825e+01
1.650365289488e+01
1.470280331063e+01
1.966181630171e+01
1.749677950439e+01
2.051860255824e+01
2.026545781220e+01
1.252430127281e+01
1.736303569024e+01
2.128354786448e+01
1.519433195663e+01
1.035655225644e+01
1.599787083019e+01
1.715052514403e+01
1.991829770950e+01
1.894068088899e+01
2.031818146551e+01
1.004352270617e+01
1.956058157720e+01
1.916988264418e+01
1.113943656173e+01
1.499403625112e+01
2.147801826972e+01
-3.340926130528e+00
1.992757199132e+01
1.818682892341e+01
1.748727388011e+01
2.162589342843e+01
1.678760670272e+01
1.729694288417e+01
2.097800607615e+01
1.547628777076e+01
1.770770095715e+01
1.695294043935e+01
1.842789793436e+01
1.675850675414e+01
1.602075791801e+01
2.180676310815e+01
1.948326274342e+01
1.256428651911e+01
1.172815495925e+01
1.363741083894e+01
1.723758860760e+01
1.912853762303e+01
2.368929846727e+01
2.150286607954e+01
1.612181358980e+01
1.898912958401e+01
2.144123378360e+01
-1.683950033454e+01
1.867410259115e+01
-2.332844512401e+01
-2.057764986532e+00
7.485250853998e+00
1.393022802918e+01
1.887856202171e+01
1.325414355601e+01
1.551855606149e+01
1.640013187002e+01
7.657802991407e+00
2.147207784879e+01
1.651399295911e+01
2.055987518123e+01
1.057492555025e+01
1.630320902412e+01
1.935762035447e+01
1.455119933686e+01
2.171497721051e+01
2.067177227336e+01
1.870961420092e+01
2.010443584390e+01
2.139166796027e+01
1.946677625706e+01
1.722171236359e+01
1.844268201804e+01
2.059392351268e+01
1.978404353969e+01
1.513314675403e+01
1.740862385699e+01
2.014987460807e+01
1.773813363887e+01
2.119980545112e+01
1.692049979126e+01
1.027332314721e+01
1.673515275769e+01
1.986756073018e+01
2.275327267718e+01
2.086468393036e+01
1.889067269650e+01
1.717658031470e+01
1.564627082696e+01
1.907955011949e+01
1.894983800665e+01
1.729629745449e+01
2.057111223274e+01
2.178726622784e+01
1.741751848517e+01
1.763427207671e+01
2.151122497503e+01
2.203744384001e+01
1.616546437623e+01
2.056000854177e+01
2.073203890303e+01
1.870234868481e+01
7.525472212564e+00
1.702254108550e+01
2.081445975039e+01
1.741885977449e+01
2.185676560450e+01
1.773766835410e+01
-3.707509522764e+00
1.437588977829e+01
2.197878176252e+01
1.715089658082e+01
1.683064032550e+01
2.612431481691e+01
2.150131506989e+01
1.971209206316e+01
1.326287638973e+01
1.845076770497e+01
1.489981653269e+01
2.082545749455e+01
2.001366422701e+01
2.386041640970e+01
1.802529372781e+01
1.683422761564e+01
2.018827939677e+01
2.023886463849e+01
1.799478645238e+01
2.091096863725e+01
1.894337431058e+01
1.781565766354e+01
2.025579667148e+01
2.085814027909e+01
1.721226214488e+01
1.989028506952e+01
1.992754429358e+01
2.130845488585e+01
1.778088014206e+01
2.090405672645e+01
1.983881391295e+01
1.774089401562e+01
2.405406099667e+01
2.237148115968e+01
2.036331466149e+01
1.982946707559e+01
1.698693274545e+01
2.033505435667e+01
2.073556436316e+01
2.211659101883e+01
1.877103279713e+01
1.795827782385e+01
2.171236913150e+01
1.424740479073e+01
1.768675104491e+01
2.051603984277e+01
2.153121298112e+01
2.029039538105e+01
1.762057424819e+01
1.903293370484e+01
1.244811250558e+01
1.631190690081e+01
1.739681878494e+01
1.756660334935e+01
1.761954118063e+01
2.063633258487e+01
1.732565901467e+01
1.632242236909e+01
2.044560114507e+01
1.155950311906e+01
1.575750049202e+01
1.499985388074e+01
1.624775698867e+01
1.896206338597e+01
2.025248046487e+01
1.890579015482e+01
1.601622910509e+01
1.678528488495e+01
2.216536831901e+01
1.996505339695e+01
2.073226089103e+01
1.534187368551e+01
2.202201638579e+01
1.699196234865e+01
1.173859821284e+01
1.339032056770e+01
1.934113853842e+01
1.772266812953e+01
1.482197370619e+01
1.605742019793e+01
2.088097101045e+01
2.095345376891e+01
1.933217008349e+01
1.866981011174e+01
1.974184766001e+01
1.564940939558e+01
2.113377816303e+01
2.088516822472e+01
1.768513934659e+01
2.243482096142e+01
1.808828291834e+01
1.930766809952e+01
2.127463536913e+01
1.720606536893e+01
1.727310326080e+01
1.633265699597e+01
2.024530316919e+01
2.022126784960e+01
1.992354298080e+01
2.015360645231e+01
1.909478965251e+01
1.400128161607e+01
2.092682731359e+01
2.243650130462e+01
1.553276475507e+01
1.612072372104e+01
1.764792819688e+01
2.109133606982e+01
1.938431502443e+01
1.737440054304e+01
1.792322367371e+01
2.287415742653e+01
1.444526175092e+00
1.857926666207e+01
1.795457228729e+01
1.886829230972e+01
1.921921827247e+01
1.692172333292e+01
1.076556957582e+01
1.836604466947e+01
2.060590247741e+01
2.181108124735e+01
1.631695045040e+01
7.529970151893e+00
1.718228379981e+01
1.929948500610e+01
1.778011222864e+01
2.040668874643e+01
1.626266166421e+01
1.781745702296e+01
1.845438803851e+01
1.910183888439e+01
2.089563387683e+01
2.042422874831e+01
2.042851372701e+01
2.032185377649e+01
2.036027212042e+01
1.808360887523e+01
1.909316144067e+01
1.953966650841e+01
1.588235899648e+01
1.515342361290e+01
1.786226863505e+01
1.930097516059e+01
2.057976080449e+01
1.928661984307e+01
2.202081102153e+01
1.927561809006e+01
2.004582428907e+01
1.723842532272e+01
1.515071623883e+01
2.011324301783e+01
1.996341084928e+01
1.573928126791e+01
2.026941730896e+01
1.815366944915e+01
1.735751608350e+01
2.079472061765e+01
1.706589825513e+01
2.045939811653e+01
2.002581778042e+01
1.817092322067e+01
-1.488404682739e+01
2.050846677354e+01
2.076227746505e+01
1.845596816957e+01
2.228633799171e+01
2.080196233211e+01
-5.135061153342e+01
1.654157408523e+01
1.820943661785e+01
1.821688534046e+01
1.774553913398e+01
1.815397679884e+01
2.055242645953e+01
2.101230853520e+01
2.590879854960e+01
2.077983516922e+01
-1.929336556383e+01
1.590490394847e+01
1.791131676344e+01
1.568873622423e+01
2.088574223800e+01
2.058430532227e+01
1.755110206760e+01
1.409582520970e+01
2.790471611652e+01
1.513035145393e+01
2.089255212998e+01
1.610397305303e+01
1.661413477256e+01
2.060327978954e+01
1.613245254316e+01
2.019604540600e+01
2.014540836444e+01
1.736825243889e+01
1.298555636351e+01
2.202538837464e+01
2.204753496698e+01
2.060815158598e+01
2.039243984187e+01
2.034545957135e+01
1.988905199290e+01
1.761214955593e+01
1.761302094517e+01
2.094020633961e+01
2.060708731539e+01
1.898244910045e+01
2.086012875236e+01
2.027989373330e+01
1.770768524837e+01
2.091232442128e+01
1.264429665792e+01
2.060460818737e+01
1.919407508824e+01
2.048992974698e+01
1.954471201405e+01
-5.277411606192e+01
1.723080443448e+01
1.927382345902e+01
2.053488591068e+01
1.813761958770e+01
2.046422207363e+01
2.008557688978e+01
2.092927478535e+01
1.862821005471e+01
1.959489235340e+01
1.442231457893e+01
2.056933760950e+01
2.147893791515e+01
2.136989150520e+01
1.700124803587e+01
1.567138689485e+01
2.012105778230e+01
1.794112005698e+01
2.060879882884e+01
1.796642606119e+01
2.128376397945e+01
1.825554755520e+01
2.193005655192e+01
2.083752273442e+01
2.082497678221e+01
1.817071364616e+01
1.938906490219e+01
2.156598284853e+01
1.787512662596e+01
1.809784791525e+01
1.782273289086e+01
1.779022259760e+01
2.041634454813e+01
2.223190831734e+01
2.090213291857e+01
1.944575361204e+01
1.496502585739e+01
2.060479496899e+01
2.104574453387e+01
1.915338310246e+01
3.202518177433e+00
2.088483630498e+01
1.946115947271e+01
1.762087768220e+01
2.060289689627e+01
2.072170451661e+01
1.570307233817e+01
1.699906951671e+01
2.177207840989e+01
1.921726174154e+01
2.201207002608e+01
1.818314325062e+01
1.660001285302e+01
2.124054384937e+01
1.744985806239e+01
1.766547259561e+01
2.199975880105e+01
1.789156226648e+01
1.948984532113e+01
-4.734587720032e+01
1.685786209729e+01
1.838163128667e+01
1.869090284128e+01
1.896615528738e+01
2.136615369702e+01
1.740929200678e+01
1.668004634192e+01
2.060150687820e+01
1.818785595836e+01
1.866760955131e+01
1.811499355437e+01
1.854817235399e+01
-3.940870701858e+01
1.733785064473e+01
1.694378703014e+01
-5.779037880891e+01
1.834309514651e+01
2.139884333690e+01
1.924719304681e+01
2.239294823823e+01
2.223855955545e+01
1.584706416913e+01
1.529080367691e+01
1.997325577686e+01
1.809433797368e+01
-4.691348667378e+01
8.214909737468e+00
-7.682663169826e+00
1.480176933286e+01
1.968934438965e+01
1.923441291947e+01
2.091944726158e+01
1.577179417553e+01
1.948103697888e+01
2.133768815516e+01
2.358183124625e+01
1.688132370466e+01
1.541806382768e+01
2.089067272655e+01
2.059824539462e+01
1.754125300604e+01
1.866147561382e+01
1.990009039198e+01
2.127422429793e+01
9.279265842749e+00
2.136880245590e+01
-2.411599167746e+00
1.833846532552e+01
1.874871502983e+01
-1.926555385444e+01
1.717847310653e+01
1.946874081122e+01
-4.740165057400e+01
1.527607595445e+01
1.529586934979e+01
2.200216525646e+01
1.538161429308e+01
1.707506646652e+01
1.703997034650e+01
2.078641458440e+01
2.041581374701e+01
1.896883340771e+01
1.367200297461e+01
3.355327409931e-02
1.613328724237e+01
1.535691569170e+01
1.538125443883e+01
-5.682536269135e+01
-1.944311557078e+01
-1.677920572909e+00
1.349993550584e+01
-1.952691051964e+01
1.785642987745e+01
3.452004069790e+00
1.521293852156e+01
1.795399152601e+01
1.527060489886e+01
1.975889713551e+01
2.119071788537e+01
1.745762730889e+01
1.588708470391e+01
-1.925861021198e+00
2.020006617691e+01
2.012703998457e+01
1.702276313039e+01
1.533391395781e+01
1.606778412088e+01
2.011680211330e+01
1.453517096366e+01
1.525807622997e+01
1.525984940605e+01
1.541325221019e+01
2.030573668731e+01
2.009902920332e+01
-1.986567964079e+01
-5.655547221556e+01
3.698789105635e+00
1.895642124377e+01
2.044641729517e+01
1.087800679774e+01
1.894422204803e+01
1.106043736320e+00
2.211822329621e+01
-2.239571010067e+01
1.838813335423e+01
2.204739446234e+01
2.046754084566e+01
1.789649424328e+01
1.669838912496e+01
-1.943849645561e+01
1.954083092268e+01
2.015999468552e+01
2.011176135741e+01
1.529665069805e+01
2.200813911533e+01
2.019213016330e+01
2.067419234480e+01
-2.535873754793e+00
-1.984743956509e+01
-2.059339616401e+01
1.677222929662e+01
2.065239189077e+01
1.981410714235e+01
-5.668117036499e+01
1.781742002118e+01
2.058157251747e+01
2.068382874269e+01
2.085130021261e+01
1.853151406490e+01
1.913665625189e+01
2.056812846360e+01
2.057620604365e+01
1.894140542726e+01
-4.601438626725e+01
1.538538107270e+01
1.534967528067e+01
-5.671761127640e+01
2.058720034044e+01
2.086189443256e+01
2.058044398930e+01
-4.675245106704e+01
-4.728876049973e+01
2.059192155352e+01
2.058817368592e+01
1.830970452106e+01
1.543507497242e+01
1.873695649993e+01
1.718794685939e+01
1.544451159658e+01
-4.645848659973e+01
-4.705692292340e+01
-4.876503640103e+01
-5.130370238352e+01
1.810596083071e+01
1.749621338994e+01
-5.645791700398e+01
1.932712332857e+01
-5.615767023378e+01
2.025621144195e+01
2.017849692476e+01
2.020927314063e+01
1.190486643601e+01
1.472803014574e+01
2.016725554626e+01
2.024454002810e+01
2.018395730379e+01
2.039316969446e+01
2.050435215826e+01
1.715826835111e+01
2.010841933438e+01
2.012122637676e+01
2.030980927359e+01
2.044532188496e+01
1.968375260199e+01
-2.352145523870e+01
1.790889228885e+01
-2.072361379525e+01
2.070317527354e+01
1.836248322672e+01
2.039285904325e+01
1.275420458387e+01
-3.694297566059e+00
2.043667598234e+01
1.830461325942e+01
1.643385311343e+01
2.032494384227e+01
1.946736277094e+01
1.637225003306e+01
2.128273161698e+01
2.005425082349e+01
1.970500333441e+01
1.982835186796e+01
2.124446538961e+01
1.601758014547e+01
1.825363643614e+01
1.956049782928e+01
2.033121643506e+01
2.011436941816e+01
1.342619546531e+01
1.943408175951e+01
1.908102646923e+01
1.661333555453e+01
2.011462732781e+01
1.963271158773e+01
1.947469716798e+01
1.927927297606e+01
1.962029145669e+01
2.042838236800e+01
1.898918343449e+01
1.993389027855e+01
2.064784741634e+01
1.943909930125e+01
1.839629707856e+01
2.112407890199e+01
1.309783499210e+01
1.310022823629e+01
4.528639368065e-01
8.427460295595e-01
1.927062349251e+01
2.036810316459e+01
-1.199080775261e+01
1.948148279228e+01
1.691507503969e+01
2.030926405422e+01
2.026595652571e+01
1.677664670861e+01
2.019250365770e+01
1.658300333040e+01
2.172791176173e+01
2.062494817605e+01
1.208585393629e+01
2.079988317389e+01
1.865347524428e+01
1.358805833593e+01
1.454409407749e+01
1.861928290066e+01
1.784461297526e+01
1.688839705884e+01
1.889036201885e+01
1.817003284725e+01
1.870766990310e+01
1.977680496055e+01
2.011493870943e+01
1.867159973655e+01
1.110702569349e+01
1.839726655044e+01
2.091312820751e+01
1.884015941105e+01
1.795270311478e+01
1.963137365125e+01
2.086414184874e+01
1.840503646163e+01
2.690082926041e+01
-1.090356193900e+00
2.232752383423e+01
2.038177106229e+01
1.814102699537e+01
1.898279471817e+01
1.724079803559e+01
2.123886428315e+01
1.878753390212e+01
2.027270330465e+01
1.286840056806e+01
2.072561067249e+01
1.869271845299e+01
1.347768135433e+01
1.837210919649e+01
1.735052574139e+01
1.525698517754e+01
1.900363663377e+01
-5.594737160064e+01
-5.477345725710e+01
1.961135851841e+01
1.214561258501e+01
1.972045041827e+01
1.966863172324e+01
1.778270750875e+01
1.664110142618e+01
1.918809612984e+01
2.436630581348e+01
1.748815499483e+01
2.119160717461e+01
1.007860952185e+01
1.757488623990e+01
1.690680129098e+01
9.885450400974e+00
2.097084796412e+01
1.854019432963e+01
1.210029509011e+01
1.934583002803e+01
1.936948826266e+01
1.393845842089e+01
1.371331564548e+01
1.378315340031e+01
1.985103693654e+01
1.889288573327e+01
1.947610098518e+01
1.920727962435e+01
1.978230728175e+01
2.017161264221e+01
1.092318664587e+01
2.024710509560e+01
1.856145535215e+01
1.887089316926e+01
1.812229241405e+01
1.878678140425e+01
2.140468812374e+01
1.903622472613e+01
1.807732672670e+01
1.877002042728e+01
1.688020521521e+01
1.671721579629e+01
1.835676663703e+01
1.836238784882e+01
1.469667524527e+01
4.655361824244e+00
1.833491629528e+01
1.431529080767e+01
2.081198652413e+01
1.861329526561e+01
2.045671349955e+01
2.078792419594e+01
1.791079129825e+01
1.318420799805e+01
6.288694022701e+00
2.007137965795e+01
1.791054145298e+01
-8.423908454594e-01
1.685698585120e+01
1.140089921880e+01
1.781904771781e+01
1.734766502363e+01
2.007919892159e+01
1.668264119715e+01
1.906917786407e+01
1.577874881185e+01
2.064835942725e+01
1.285500387503e+01
1.994084181049e+01
1.848192668372e+01
2.053651365419e+01
2.137242155667e+01
1.129795953014e+01
1.729553426141e+01
2.180703524514e+01
1.677568979919e+01
1.788919481140e+01
1.447266854571e+01
1.801620210201e+01
1.104527988153e+01
2.079652389857e+01
2.182903159600e+01
2.140253599096e+01
1.955575990242e+01
1.893247526982e+01
1.052950532890e+01
1.978985637621e+01
2.094998972019e+01
1.648899775851e+01
2.021873604673e+01
1.859685164384e+01
1.726870609721e+01
1.984318323035e+01
1.712507339805e+01
1.465463274376e+01
1.633641692740e+01
1.853384616292e+01
2.060694483994e+01
1.616777392862e+01
1.822594528859e+01
1.829853646532e+01
1.759340535497e+01
1.744158674540e+01
1.850584302196e+01
2.108784192475e+01
1.979170802607e+01
1.722658987317e+01
1.968481805932e+01
2.112442302820e+01
2.067515308904e+01
1.880655934612e+01
1.700688969466e+01
1.669372905266e+01
1.158154214854e+01
2.067778742251e+01
1.713360256204e+01
1.804998510014e+01
1.774313325710e+01
2.198927711098e+01
1.593937660693e+01
2.134907572642e+01
1.642640308737e+01
1.696007550416e+01
1.220269085211e+01
2.122067092385e+01
1.806394966378e+01
1.901807894197e+01
1.844703653768e+01
2.087319940244e+01
1.902393687614e+01
1.925860627990e+01
1.294406782613e+01
2.108787168969e+01
2.102995818278e+01
1.924954294202e+01
1.743109022586e+01
1.995480622418e+01
1.807410170982e+01
1.740943556738e+01
1.698450501921e+01
1.594044516781e+01
1.568687270272e+01
1.732030385741e+01
1.501142417151e+01
1.432960260871e+01
1.869994341355e+01
2.077738201827e+01
1.982616198413e+01
-4.778965183465e+01
2.060249103069e+01
1.885018205876e+01
1.780500839374e+01
1.776766502356e+01
1.851413624936e+01
1.634271487257e+01
1.762593267096e+01
1.886018300917e+01
1.654522914851e+01
3.035789307130e+00
8.892211049861e+00
1.610760303105e+01
1.659058227613e+01
1.981822564731e+01
1.789700293757e+01
1.273534796356e+01
9.640340782995e+00
1.733913335533e+01
1.552619113841e+01
2.132970077126e+01
1.987900912856e+01
1.767774608396e+01
1.913389816993e+01
1.983584507369e+01
2.158325127767e+01
1.959619565302e+01
1.497084979779e+01
1.791440715419e+01
1.971236135510e+01
1.957967241639e+01
1.334117408847e+01
1.738100101053e+01
1.841528091918e+01
1.948799686340e+01
1.568291304904e+01
1.908024343906e+01
2.036613655781e+01
2.123752465581e+01
1.626112586841e+01
2.186326080470e+01
1.827697222794e+01
2.148143323203e+01
2.121874419863e+01
1.636871044946e+01
2.117787018324e+01
1.938833770444e+01
1.993126137464e+01
1.831821305392e+01
1.528861146078e+01
1.800532018619e+01
1.929156506473e+01
2.027359865219e+01
1.757187919303e+01
1.831897497315e+01
1.754230437389e+01
1.323253267473e+01
1.983184537309e+01
1.012694667229e+01
2.101772734510e+01
1.940969359663e+01
2.173688127263e+01
1.750758632946e+01
1.893020590317e+01
2.081252720784e+01
2.221159494348e+01
1.949199812092e+01
2.089036651211e+01
1.849109791652e+01
2.191009410505e+01
1.598548575768e+01
1.869483439956e+01
2.044063873760e+01
2.107798930711e+01
1.833406385257e+01
1.748070459381e+01
1.715530343656e+01
1.876140474430e+01
2.103270015032e+01
2.121027757364e+01
7.396709049735e+00
2.162192799303e+01
2.190589238720e+01
2.105787716775e+01
1.786988054077e+01
1.964768326608e+01
1.949705162845e+01
1.938967295207e+01
1.674713064610e+01
1.889337011517e+01
2.065171772138e+01
1.953193350329e+01
1.844514981530e+01
1.814922103482e+01
2.186132859397e+01
1.871917889976e+01
1.931790914168e+01
1.875967372148e+01
1.851437487628e+01
2.102832567699e+01
2.098738596101e+01
2.116601230334e+01
2.001647504385e+01
1.514938765226e+01
2.157455237557e+01
1.843734745106e+01
1.415547881421e+01
2.157949568078e+01
2.182459691294e+01
2.245412107714e+01
2.183376248584e+01
2.167055923729e+01
2.204054630404e+01
1.665405809245e+01
1.887083725116e+01
1.792918816073e+01
1.599761121121e+01
1.799084312633e+01
1.929930496392e+01
2.170819688187e+01
1.964124131369e+01
2.224045263222e+01
1.935329999392e+01
1.799327339273e+01
-1.660955341118e+00
2.180415213039e+01
2.244300227972e+01
1.682181287835e+01
2.098558033035e+01
1.824437491543e+01
2.113285887558e+01
2.122151858906e+01
2.190172774374e+01
1.873950676924e+01
2.046625115675e+01
2.110915765947e+01
-4.100006403615e-01
1.822197072927e+01
2.081779994368e+01
1.895196543410e+01
2.240187863740e+01
2.191954616901e+01
1.897757041905e+01
2.559391785044e+01
1.916730656779e+01
1.490835845333e+01
4.507128501011e+00
2.019366813769e+01
1.956682584406e+01
1.685313606811e+01
1.845456457469e+01
1.846874048270e+01
1.892966687106e+01
2.063991466536e+01
1.765482179653e+01
1.381234153223e+01
1.765648643338e+01
1.700401356189e+01
2.239807708788e+01
2.015853579238e+01
8.950742457888e+00
2.089821276335e+01
2.142616149443e+01
1.818363998814e+01
2.372974363557e+01
2.110052301041e+01
1.568706751793e+01
1.608741930216e+01
2.158367774428e+01
2.044190829264e+01
2.096424808407e+01
1.616303968028e+01
1.865827146355e+01
2.096530141189e+01
1.824851036217e+01
1.964368521279e+01
1.889196511771e+01
1.908626058898e+01
2.126873654669e+01
2.079908324329e+01
1.868428000138e+01
2.113890115765e+01
1.205342448814e+01
2.084351573578e+01
2.220861738395e+01
1.572520934034e+01
2.107583872052e+01
1.205223756602e+01
1.890928469217e+01
2.156713390370e+01
1.945424656111e+01
1.963032632248e+01
2.164698411685e+01
1.911326408594e+01
2.106869185832e+01
1.968829021601e+01
1.309623218632e+01
1.971814613750e+01
1.408009320597e+01
1.446978324982e+01
2.197573039382e+01
1.496649628242e+01
2.071079484578e+01
1.979278860043e+01
2.211057442229e+01
2.110916317630e+01
2.197666611497e+01
1.933950752869e+01
1.969562503533e+01
2.076192569782e+01
2.095665673336e+01
2.089341537354e+01
1.910396835405e+01
2.215608164133e+01
2.069363659460e+01
1.891442892436e+01
1.887683631635e+01
2.219253377345e+01
2.158931989072e+01
1.993559584155e+01
1.827042629155e+01
1.961779887171e+01
2.168511530449e+01
1.640895979966e+01
1.863242941139e+01
2.062388072113e+01
1.866600867830e+01
2.165259515673e+01
1.896294236528e+01
2.152913552288e+01
1.914807264712e+01
1.990381096318e+01
1.792757454170e+01
2.147740284044e+01
2.230440504268e+01
2.150211071733e+01
1.852570257125e+01
1.948004768657e+01
1.994309143018e+01
2.242225185370e+01
2.253205483060e+01
2.053777843252e+01
1.981996417975e+01
2.119865353007e+01
2.231552875281e+01
2.136116201380e+01
2.151568659015e+01
2.230553864535e+01
1.828718647526e+01
2.055399067002e+01
1.857833184927e+01
2.030043390317e+01
1.798264212435e+01
1.734558878668e+01
1.858825103041e+01
2.112160440619e+01
2.076464295215e+01
1.844422085561e+01
1.964071749223e+01
1.766614474797e+01
2.127506225821e+01
2.051465204884e+01
1.950893119600e+01
1.988528148060e+01
1.963892328120e+01
2.132920346962e+01
1.867116851007e+01
1.627122473913e+01
2.086755946283e+01
1.673211939450e+01
2.130211540841e+01
2.053099982142e+01
2.158117661353e+01
2.397178730116e+01
1.964292965352e+01
1.677230873210e+01
2.139531108744e+01
2.056449299540e+01
1.842780117160e+01
2.086648839816e+01
2.024695472455e+01
2.653553891790e+01
2.058087372225e+01
1.894841078257e+01
2.136794335762e+01
2.012387498404e+01
2.219259345793e+01
2.105283829698e+01
1.924010697944e+01
1.790349349223e+01
1.943754047638e+01
2.172513528390e+01
2.060353384893e+01
2.015076061166e+01
2.151068764405e+01
1.905922177513e+01
2.340290214544e+01
1.983236566353e+01
2.140278939723e+01
2.000477942681e+01
2.003838867051e+01
2.146649785254e+01
2.059904018926e+01
1.966926833071e+01
2.075236732238e+01
2.116974335961e+01
2.099696420367e+01
1.958194596834e+01
2.050217243728e+01
1.861085392045e+01
1.998396333926e+01
1.820408972904e+01
2.067434019956e+01
2.100348726944e+01
1.546759593107e+01
1.547200668813e+01
1.851278174451e+01
1.973916987940e+01
1.944215497208e+01
1.877679352990e+01
2.048274661059e+01
2.123684400129e+01
2.063614223237e+01
2.016609398626e+01
1.660967011818e+01
1.989975892493e+01
1.937481992520e+01
2.144844892482e+01
1.850267479725e+01
1.918069962609e+01
1.856076657500e+01
1.818897045281e+01
1.900327967450e+01
1.915866578582e+01
7.244002466209e+00
1.868607924348e+01
1.721866760476e+01
1.841090664534e+01
1.862205277979e+01
2.113104120842e+01
1.102562100134e+01
2.087987985852e+01
1.849521051620e+01
1.829864618190e+01
1.458369534936e+01
1.498390962522e+01
1.817445756369e+01
2.033412181862e+01
1.917252701639e+01
2.161725760746e+01
2.260267187789e+01
2.048563244663e+01
1.928371120194e+01
1.896526039426e+01
2.065744533145e+01
-1.741481687355e+00
2.166654158744e+01
1.899877419162e+01
-2.218707287910e+00
1.930352458063e+01
2.247353365302e+01
1.847141545077e+01
1.846631802570e+01
2.154850065950e+01
2.150521505073e+01
1.947477771106e+01
2.160877462213e+01
1.928092484922e+01
1.884282662569e+01
2.343878464079e+01
2.405843797789e+01
2.031683312546e+01
1.763384203492e+01
2.044629080316e+01
1.873754647795e+01
1.912867310148e+01
2.021701924013e+01
1.544373619192e+01
2.018175069442e+01
2.053935832754e+01
1.993140469205e+01
1.917251224460e+01
1.911499798286e+01
1.963695854051e+01
2.081842829874e+01
1.889184148523e+01
2.150820177562e+01
2.150895744738e+01
2.010773423152e+01
2.171526833954e+01
2.223403578780e+01
2.155596888886e+01
1.871727120944e+01
2.134858130743e+01
1.867079774706e+01
2.119163310951e+01
2.133113408612e+01
2.025121502611e+01
1.791787112037e+01
2.057651944053e+01
2.048417152817e+01
2.049614075383e+01
1.890220108492e+01
2.057129326425e+01
1.365611919049e+01
1.922543167243e+01
2.982908286143e+01
2.051747415616e+01
2.187781078198e+01
1.871756212503e+01
2.112748738930e+01
1.790708258989e+01
1.761660870403e+01
1.915552630297e+01
1.373136186688e+01
1.414933770303e+01
2.045600405157e+01
2.146738604039e+01
2.208770952142e+01
2.185572038353e+01
2.200477426741e+01
2.130558750333e+01
1.351695058849e+01
1.698529582296e+01
1.547412868207e+01
2.138899591278e+01
2.056012685185e+01
2.085228410054e+01
2.027038455851e+01
2.242807818462e+01
2.060576869591e+01
2.118440266928e+01
2.086106821121e+01
1.987086642370e+01
2.036124058358e+01
2.130365966950e+01
1.710487937305e+01
1.886329981562e+01
2.215977853745e+01
1.855263052949e+01
1.836483061557e+01
2.067677671893e+01
2.165432759707e+01
1.942680472396e+01
1.855803674829e+01
2.788019893403e+01
2.162899411473e+01
1.701183116966e+01
6.632238722106e+00
1.921326069811e+01
1.961664601374e+01
1.791903256826e+01
1.295232474723e+01
2.028181874920e+01
3.499586537224e+01
1.331037996912e+01
2.160802133644e+01
1.897741165671e+01
1.553277919774e+01
2.065833534399e+01
2.105983637255e+01
1.972960491474e+01
2.150358869627e+01
1.958800698357e+01
2.173917146414e+01
1.893997629078e+01
1.904876029554e+01
1.524214690713e+01
1.581120209993e+01
1.792980868048e+01
1.973855581638e+01
-2.236654627596e+00
1.538074460816e+01
1.167966897494e+01
1.903506178647e+01
2.143333024973e+01
2.045380313030e+01
2.123963622481e+01
1.927953696934e+01
1.849027326862e+01
1.913862788470e+01
2.164302598805e+01
1.898793916276e+01
1.665166909204e+01
2.098811588384e+01
1.911995834333e+01
1.927071558843e+01
1.075346368040e+01
2.137699434982e+01
1.923468723103e+01
1.805627992822e+01
1.754488775785e+01
1.236258105934e+01
1.935867486757e+01
1.917337317112e+01
1.543305188558e+01
2.084717173658e+01
1.072419474792e+01
1.927595713016e+01
2.143540092010e+01
1.247502202166e+01
1.922124857911e+01
1.410019486464e+01
1.608142973212e+01
1.934193607334e+01
2.131141681567e+01
1.922228860941e+01
2.685159905729e+01
1.931933956961e+01
2.047907606609e+01
2.133805610404e+01
2.068870010183e+01
1.944291612524e+01
1.942418922465e+01
2.143117611583e+01
5.230684773542e+00
2.741308225301e+01
1.952760400367e+01
2.141506225230e+01
1.759136928464e+01
1.918520749777e+01
1.250763532030e+01
1.906682342721e+01
2.102530659855e+01
8.262289526519e+00
2.017179725164e+01
2.057577574680e+01
1.644334065682e+01
1.930149307890e+01
2.031205352262e+01
2.139855456143e+01
3.132075622461e+00
3.422113934544e+01
1.958820613090e+01
1.823088794832e+01
1.547043059799e+01
2.065363521932e+01
1.236375224863e+01
2.074340852918e+01
1.821351845698e+01
1.744376712948e+01
1.998669877371e+01
1.852821212073e+01
1.251802398632e+01
1.732801631850e+01
1.875378912963e+01
2.033831553017e+01
2.007267854981e+01
1.926429369545e+01
8.611176237812e+00
2.114284395444e+01
1.890637152198e+01
1.708572482789e+01
1.637924180018e+01
2.050877690452e+01
1.715627211390e+01
7.284597599758e+00
9.626425691768e+00
1.626346727233e+01
2.143966302704e+01
2.077732832083e+01
1.932277744847e+01
1.986590564443e+01
1.083137512546e+01
1.852927498505e+01
2.013492841240e+01
2.155418613654e+01
1.419463707693e+01
1.397725658098e+01
2.064971869584e+01
1.911612117299e+01
2.104053750627e+01
2.304305653562e+01
2.166632802949e+01
1.142436297791e+01
2.086701541773e+01
2.152379377367e+01
2.063190901953e+01
1.788526116735e+01
1.587759042805e+01
1.808733696871e+01
2.182788178072e+01
1.070756146968e+01
1.769169367722e+01
1.963434055255e+01
1.930970063634e+01
-1.854870750718e+01
2.161205219051e+01
1.381822816268e+01
1.456026294431e+01
1.957676660885e+01
2.101386210459e+01
1.951066349133e+01
2.078171137690e+01
1.540675748926e+01
2.073715236171e+01
1.252350343788e+01
2.133464579894e+01
2.067341944313e+01
9.057119030301e+00
1.885270477921e+01
2.158390340439e+01
2.834091995645e+00
2.102552865955e+01
1.962787025086e+01
1.878457778039e+01
1.001302215039e+01
1.869041900616e+01
1.935820041317e+01
2.090158512667e+01
1.684344206657e+01
1.413090597277e+01
2.116153855183e+01
1.775928690656e+01
8.368065016178e+00
2.038577853838e+01
2.006749015404e+01
1.688081434231e+01
1.981200409451e+01
2.012828527098e+01
2.081496687195e+01
1.970698409348e+01
2.103830828335e+01
8.808589458304e+00
1.321146730493e+01
1.883399426871e+01
1.646856341291e+01
1.980563643950e+01
3.483136460240e+00
6.410702860214e+00
1.674473481926e+01
2.096371438571e+01
1.510284556794e+01
2.069616249970e+01
2.073527136737e+01
2.081784435740e+01
1.979687611693e+01
1.608948434171e+01
7.975645636563e+00
4.605495127742e+00
1.692289894255e+01
3.543966194798e+00
2.134638761926e+01
1.828871922127e+01
2.000419402910e+01
2.123816944785e+01
1.939898135273e+01
1.892038279873e+01
1.959304037899e+01
1.906305512943e+01
2.011005528531e+01
2.062888887162e+01
1.691062593828e+01
1.799605244455e+01
6.667418190582e+00
1.784134159496e+01
2.058730879722e+01
1.894455820080e+01
7.521134878470e+00
2.120330408191e+01
1.614238454978e+01
1.962931836096e+01
1.939909307303e+01
2.079300195725e+01
1.940178892537e+01
1.700302217460e+01
1.564302604324e+01
1.604906572183e+01
1.827204375340e+01
2.073946808775e+01
1.531994373426e+01
1.623003933476e+01
1.683428408126e+01
1.703693105318e+01
2.297763853849e+01
1.516874178830e+01
1.989565836115e+01
1.762874557746e+01
2.077910016283e+01
1.985747011172e+01
1.889881042351e+01
1.962887025086e+01
1.747892270768e+01
1.708200785098e+01
2.092164081664e+01
2.276610483225e+01
1.384913883549e+01
2.059718411185e+01
7.969200809679e+00
1.623578837206e+01
2.124634444216e+01
-5.723213148682e+00
-2.285578147780e+01
2.013167977460e+01
1.534130958228e+01
1.983975143789e+01
2.094530566012e+01
1.533815798324e+01
8.657550435505e+00
1.991917455452e+01
7.344685071635e+00
1.970442687054e+01
2.058264647304e+01
1.981241349235e+01
2.189936381096e+01
1.678995165762e+01
1.741795277430e+01
2.079348725987e+01
2.078010206333e+01
1.877067753195e+01
2.085069093575e+01
2.679883848021e+01
2.066717434182e+01
1.912977940983e+01
7.762181374948e+00
2.105772758583e+01
1.994018254239e+01
1.997638516131e+01
1.614828363800e+01
1.696031072070e+01
1.385568299476e+01
2.010611270930e+01
1.613722006560e+01
2.151871381594e+01
2.082932146463e+01
1.538255418291e+01
1.978626345113e+01
2.009237351519e+01
2.017568816859e+01
-4.474390271145e+01
-5.206139052527e+01
1.556609600613e+01
1.546842155609e+01
2.057843968740e+01
2.058226728950e+01
-2.356039033822e+01
9.176665680889e+00
2.053188846110e+01
2.053076445351e+01
1.157932012810e+01
2.068456960868e+01
1.910836121664e+01
1.840986443222e+01
1.793509146431e+01
1.483343879214e+01
2.091973021873e+01
6.103934173274e+00
1.800435086181e+01
1.996602324886e+01
1.949642240281e+01
1.833229973046e+01
1.733917185880e+01
2.032025053476e+01
1.959013735075e+01
1.926994658316e+01
1.539871954997e+01
2.128637572458e+01
1.979393326693e+01
1.391219024439e+01
-2.417591385273e+01
2.012329684216e+01
2.133167418523e+01
1.445563917354e+01
1.829263308482e+01
2.055175921416e+01
2.034716527432e+01
2.045115214346e+01
1.945209216880e+01
2.606993905318e+01
1.371185352014e+00
1.167048345672e+01
1.679722457894e+01
2.092915334697e+01
1.971696840023e+01
2.077262744802e+01
6.684826767308e+00
-2.937784341889e+00
-2.823694522557e+00
1.843586193381e+01
1.595391685747e+01
1.976780267256e+01
1.240770954608e+01
2.094981769926e+01
1.675954070477e+01
2.058720670573e+01
2.064857287623e+01
1.680750011936e+01
2.102755691632e+01
1.995071959464e+01
1.987805259476e+01
9.149736455232e-01
1.964778830821e+01
2.035167804176e+01
2.110936632755e+01
2.067704083296e+01
2.058708460871e+01
1.924368980039e+01
8.984425851198e+00
1.935437463834e+01
1.972152755481e+01
1.732345939742e+01
2.043051814306e+01
2.061733977109e+01
2.062892039188e+01
1.887916843916e+01
2.064447839936e+01
2.095685715569e+01
2.101558953892e+01
1.599020510614e+01
2.068362544826e+01
1.602897046689e+01
1.960990028877e+01
-5.616007217386e-01
1.933810571264e+01
1.831926964502e+01
-2.311351473122e+00
2.178726569990e+01
1.946333440792e+01
1.994133336362e+01
1.966798421764e+01
2.081785196498e+01
1.731413888820e+01
-2.523557609799e+01
2.597189865587e+01
-1.700806432025e+01
4.608325736157e+00
3.499586537224e+01
1.784782927891e+01
2.045009907322e+01
1.980907831586e+01
1.730724665742e+01
1.739503292118e+01
2.089046342625e+01
2.123063496614e+01
2.075473294901e+01
2.023592637343e+01
1.976033035533e+01
-2.825775806369e+00
2.366169243692e+01
2.053354472990e+01
-2.084674177388e+00
3.172625113646e+00
2.481613952780e+01
-6.756671038776e+00
2.078177544864e+01
2.022508467804e+01
1.973753433264e+01
2.061634601840e+01
2.122733801461e+01
1.764877825179e+01
2.023965216580e+01
1.770755172709e+01
1.528107383532e+01
1.332785168491e+01
-2.109721481908e+01
2.063755238729e+01
1.615523987199e+01
5.814594218084e+00
1.757819809848e+01
2.016819009376e+01
1.968409158375e+01
2.002459471123e+01
1.511812920630e+01
2.173802229481e+01
2.080591241779e+01
2.010378642757e+01
2.063872280349e+01
1.611637265285e+01
2.096844656533e+01
7.125226277564e+00
1.979267292730e+01
-2.315220857677e+01
2.081246549589e+01
1.996756279027e+01
1.906367967792e+01
2.044209538003e+01
1.865910980445e+01
1.995323596162e+01
2.062304913309e+01
1.805068168546e+01
2.018915782129e+01
1.978166403526e+01
1.835796313009e+01
2.002068987742e+01
1.657962195958e+01
1.542197176698e+01
2.065477092767e+01
1.994267584980e+01
-5.826737721098e+01
1.546767506393e+01
2.052309608882e+01
9.086294251122e+00
2.124024898235e+01
1.975681121208e+01
1.988748488882e+01
1.049306487384e+01
2.450310606900e+01
1.862867519764e+01
1.913644608637e+01
9.775634792536e+00
2.001165606120e+01
1.790550897316e+01
1.405638849022e+01
1.750572572344e+01
2.066611031658e+01
1.883065099630e+01
3.499586537224e+01
1.605489046216e+01
1.823328253043e+01
1.897824235259e+01
2.077506707082e+01
1.804162690441e+01
1.833878330230e+01
-7.459130366473e+00
2.077712484246e+01
2.011630496710e+01
2.252168378895e+01
1.993596928168e+01
2.052556169725e+01
1.616006548833e+01
1.788429571741e+01
1.803449648783e+01
1.819797808058e+01
1.838631669650e+01
2.115419496898e+01
1.150024751338e+01
2.017143581276e+01
1.683641804736e+01
1.992746632348e+01
2.110825147992e+01
1.746550884494e+01
1.985016545091e+01
2.076423568181e+01
2.083388979123e+01
3.108611293616e+01
1.985204556583e+01
2.000675740765e+01
-7.217869793537e+00
1.777949146753e+01
2.888211162211e+01
1.997353235654e+01
-4.371265552725e+01
-5.331854220235e+01
-4.389354328571e+01
-5.465229496436e+01
-4.425728280690e+01
-5.534867496448e+01
-4.486369526223e+01
-5.569567651630e+01
-4.569167838208e+01
-5.577773784801e+01
-4.674300514167e+01
-5.581674253562e+01
-4.800482159544e+01
-5.584402376665e+01
-4.944804832976e+01
-5.586841727822e+01
-5.102148414571e+01
-5.589090195712e+01
-5.256275805283e+01
-5.590968539910e+01
-2.042806572821e+01
-5.367813104961e+01
-5.591238927472e+01
-5.410404057586e+01
-4.593666921398e+01
-5.588930745869e+01
-5.416501800760e+01
-1.978874510153e+01
-5.568310334068e+01
-5.410340110288e+01
-5.543019713901e+01
-5.399903375373e+01
-5.511629924979e+01
-5.395172607660e+01
8.999999999681e+01
-5.404435434439e+01
8.791936778573e+01
-1.161170043777e+00
-5.421831856999e+01
8.681226406825e+01
-5.459686040426e+01
8.711334595758e+01
8.890244044214e+01
-5.454964201998e+01
-5.531890346620e+01
-5.171309140517e+01
-5.572484226781e+01
-4.587815252447e+01
-5.825947393267e+01
-4.919834585082e+01
-3.919378483519e+01
-3.258072906071e+01
-8.258795227739e+00
-4.594408073688e+01
-4.563847991690e+01
-5.643670396968e+01
-4.072568163395e+01
6.681220718842e+00
-2.011500107822e+01
-1.779230848628e+01
-1.794320281600e+01
-1.759444145437e+01
-1.777972165762e+01
-1.751924716097e+01
-1.773901768241e+01
-1.743942178991e+01
-1.770733115697e+01
-1.734469508654e+01
-1.766774944886e+01
-1.723476292001e+01
-1.761727083413e+01
-1.710822431123e+01
-1.755169045803e+01
-1.696620714885e+01
-1.746822507304e+01
-1.681138774824e+01
-1.736597229569e+01
-6.999307077886e+00
-1.664433458409e+01
-1.723863876350e+01
-1.646662022376e+01
-8.878540406024e+00
-1.707608466253e+01
-1.628211487014e+01
-1.686683895970e+01
-1.610969443609e+01
-1.662150051684e+01
-1.336109796301e+01
-1.599266593243e+01
-1.641938988160e+01
-1.586676442270e+01
-1.609814406939e+01
-1.575098349551e+01
-1.525213428304e+01
-1.566142721886e+01
-1.440363662512e+01
-1.587803623336e+01
-1.449992157981e+01
-1.591236414558e+01
-3.404658998627e+00
-1.529608263025e+01
-1.439988504103e+01
-1.401091055507e+01
-1.371628731448e+01
-1.221206783024e+01
-1.291773654380e+01
-1.140543082430e+01
-9.953995813201e+00
-1.705296000722e+01
-1.932892316731e+01
-1.324278325645e+01
-2.513952058947e+01
-4.968334581642e+00
-2.151795732848e+00
-2.896651652822e+00
-2.908681703794e+00
-2.933214677170e+00
-2.919436075032e+00
-2.919856960936e+00
-2.903496959281e+00
-2.900010552433e+00
-2.885037477384e+00
-2.872195629677e+00
-2.861446557161e+00
-2.837278547207e+00
-2.832738279130e+00
-2.791452005728e+00
-2.796564658572e+00
-2.732371830403e+00
-2.752506812955e+00
-2.662058406908e+00
1.925567576677e+00
-2.701772182662e+00
-2.576402678085e+00
-2.641234094778e+00
-1.010277340372e+00
-2.468444531975e+00
4.875468138201e-01
-2.566822730140e+00
-2.330526526206e+00
-2.474536791095e+00
-2.155256037151e+00
-2.370044003721e+00
-1.971845446264e+00
-2.224055821872e+00
-1.718695724982e+00
2.729250983590e+00
-1.999584634883e+00
-1.388663283629e+00
-1.626951248567e+00
-9.002106552567e-01
-4.087119264306e-01
-1.038060747948e+00
3.600257302362e-01
-9.582502244988e-01
8.742612863726e-01
1.774869680982e+00
-9.012860452098e-01
-3.231862225446e-01
-1.326501145839e+00
-3.293533850120e+00
-2.032631107926e+00
-5.522320393981e+00
-4.706979707372e-01
2.242239461026e-01
3.790773043345e+00
4.264952220888e+00
4.301577913157e+00
4.301709072641e+00
4.329794575831e+00
4.303596176895e+00
4.332554925586e+00
4.301129892404e+00
4.335613316256e+00
4.297223596225e+00
4.340742361315e+00
4.293000244514e+00
4.347539037309e+00
4.291340446664e+00
4.360393991838e+00
4.293253736996e+00
4.381064447379e+00
7.804698055332e+00
4.297224521281e+00
4.406918232757e+00
6.689143195399e+00
4.306769874505e+00
4.444249661351e+00
4.324973085499e+00
4.498864514478e+00
4.354940261537e+00
6.265232536205e+00
4.577530430940e+00
4.400911503521e+00
4.692958759296e+00
4.539405010484e+00
4.895485534551e+00
4.765303278643e+00
5.199227155692e+00
5.081339714020e+00
5.557084502505e+00
5.507266248064e+00
7.849552077502e+00
6.136231354809e+00
6.093967431066e+00
6.583287715878e+00
6.670028660871e+00
7.607229143833e+00
5.205271044841e+00
4.512309728231e+00
3.760516254889e+00
5.424834146098e+00
2.622794785303e+00
6.094498427793e+00
8.742966383732e+00
8.469010078378e+00
8.434987405006e+00
8.441238008200e+00
8.408765940969e+00
8.435302471954e+00
8.394840453868e+00
8.425139009879e+00
8.372560586195e+00
8.412279949341e+00
8.346374860881e+00
8.403141248530e+00
8.326290159898e+00
8.393907161891e+00
8.301481090177e+00
8.388723553570e+00
1.095147040852e+01
8.277002715078e+00
8.388886344782e+00
9.852604642656e+00
8.260646506553e+00
8.395547834170e+00
1.005498020096e+01
8.248608094483e+00
8.412770437846e+00
8.244575663787e+00
8.443929627835e+00
8.256406392080e+00
8.500501710249e+00
1.103827409702e+01
8.337343920154e+00
8.671778424053e+00
8.526696588307e+00
8.873213371807e+00
9.208149325806e+00
8.767075684115e+00
9.507552852386e+00
9.129263272627e+00
1.010875383816e+01
9.499871584836e+00
9.791392366241e+00
8.323159148729e+00
8.833283124121e+00
7.658915330873e+00
9.344356917290e+00
1.026973848226e+01
1.098279846504e+01
1.114969796244e+01
1.116274876091e+01
1.114215453292e+01
1.115529208115e+01
1.112873976042e+01
1.114249740396e+01
1.110435172333e+01
1.111967814810e+01
1.107565609113e+01
1.109405732100e+01
1.104380431162e+01
1.107476351559e+01
1.100778748438e+01
1.104944419864e+01
1.233558091440e+01
1.095482413477e+01
1.173074878609e+01
1.101956038085e+01
1.092891532997e+01
1.101248200462e+01
1.091382534942e+01
1.101000555503e+01
1.089963575901e+01
1.156647632668e+01
1.101574589921e+01
1.089893442011e+01
1.103900143763e+01
1.093032838884e+01
1.110823425615e+01
1.102665353092e+01
1.130625887688e+01
1.125572757743e+01
1.145142115684e+01
1.150816831979e+01
1.228614735623e+01
1.186757799836e+01
1.139804615029e+01
1.132272813912e+01
1.092749000905e+01
1.167396006326e+01
1.051744301082e+01
1.189407607645e+01
1.322578230875e+01
1.306653736920e+01
1.304184994676e+01
1.303322911691e+01
1.301215716917e+01
1.302590317139e+01
1.300004573840e+01
1.300134702263e+01
1.296565734445e+01
1.297947707969e+01
1.294001931486e+01
1.294972922374e+01
1.290022934434e+01
1.350063536429e+01
1.292526159732e+01
1.286467596378e+01
1.291152660953e+01
1.286762663661e+01
1.280793622045e+01
1.306509309053e+01
1.284726690855e+01
1.277055371790e+01
1.284527422580e+01
1.276242674773e+01
1.283815893638e+01
1.340189212284e+01
1.274887333399e+01
1.284589232306e+01
1.288364037287e+01
1.276766651300e+01
1.293391222867e+01
1.282821329059e+01
1.320950345372e+01
1.290609008647e+01
1.272395137325e+01
1.295807829822e+01
1.329504969621e+01
1.269160457328e+01
1.350151975869e+01
1.304708663174e+01
1.440504871603e+01
1.444492718318e+01
1.444708458279e+01
1.445709422915e+01
1.443875332022e+01
1.444910097199e+01
1.443801603224e+01
1.440669151804e+01
1.439623570523e+01
1.439436429136e+01
1.438446297609e+01
1.436650499546e+01
1.452808386479e+01
1.434822237119e+01
1.429778193607e+01
1.430919373159e+01
1.432511305560e+01
1.430518084758e+01
1.427343528627e+01
1.426865647969e+01
1.425178580995e+01
1.423367677343e+01
1.405855615973e+01
1.425075680990e+01
1.420309822218e+01
1.423192640467e+01
1.419185399600e+01
1.422565276569e+01
1.425242721793e+01
1.432531494895e+01
1.441156837588e+01
1.387447822520e+01
1.453719393169e+01
1.437109482486e+01
1.477910593689e+01
1.410457638865e+01
1.409421778571e+01


